 <VTKFile type="UnstructuredGrid"  version="0.1"   >
 <UnstructuredGrid>
 <Piece  NumberOfPoints="          1600 "  NumberOfCells="         1024 ">
 <Points>
 <DataArray  type="Float64" NumberOfComponents="3"  format="ascii" >
   0.0000000000000000        0.0000000000000000        0.0000000000000000     
   3.1250000000000000E-002   0.0000000000000000        0.0000000000000000     
   6.2500000000000000E-002   0.0000000000000000        0.0000000000000000     
   9.3750000000000000E-002   0.0000000000000000        0.0000000000000000     
  0.12500000000000000        0.0000000000000000        0.0000000000000000     
   0.0000000000000000        3.1250000000000000E-002   0.0000000000000000     
   3.1250000000000000E-002   3.1250000000000000E-002   0.0000000000000000     
   6.2500000000000000E-002   3.1250000000000000E-002   0.0000000000000000     
   9.3750000000000000E-002   3.1250000000000000E-002   0.0000000000000000     
  0.12500000000000000        3.1250000000000000E-002   0.0000000000000000     
   0.0000000000000000        6.2500000000000000E-002   0.0000000000000000     
   3.1250000000000000E-002   6.2500000000000000E-002   0.0000000000000000     
   6.2500000000000000E-002   6.2500000000000000E-002   0.0000000000000000     
   9.3750000000000000E-002   6.2500000000000000E-002   0.0000000000000000     
  0.12500000000000000        6.2500000000000000E-002   0.0000000000000000     
   0.0000000000000000        9.3750000000000000E-002   0.0000000000000000     
   3.1250000000000000E-002   9.3750000000000000E-002   0.0000000000000000     
   6.2500000000000000E-002   9.3750000000000000E-002   0.0000000000000000     
   9.3750000000000000E-002   9.3750000000000000E-002   0.0000000000000000     
  0.12500000000000000        9.3750000000000000E-002   0.0000000000000000     
   0.0000000000000000       0.12500000000000000        0.0000000000000000     
   3.1250000000000000E-002  0.12500000000000000        0.0000000000000000     
   6.2500000000000000E-002  0.12500000000000000        0.0000000000000000     
   9.3750000000000000E-002  0.12500000000000000        0.0000000000000000     
  0.12500000000000000       0.12500000000000000        0.0000000000000000     
  0.12500000000000000        0.0000000000000000        0.0000000000000000     
  0.15625000000000000        0.0000000000000000        0.0000000000000000     
  0.18750000000000000        0.0000000000000000        0.0000000000000000     
  0.21875000000000000        0.0000000000000000        0.0000000000000000     
  0.25000000000000000        0.0000000000000000        0.0000000000000000     
  0.12500000000000000        3.1250000000000000E-002   0.0000000000000000     
  0.15625000000000000        3.1250000000000000E-002   0.0000000000000000     
  0.18750000000000000        3.1250000000000000E-002   0.0000000000000000     
  0.21875000000000000        3.1250000000000000E-002   0.0000000000000000     
  0.25000000000000000        3.1250000000000000E-002   0.0000000000000000     
  0.12500000000000000        6.2500000000000000E-002   0.0000000000000000     
  0.15625000000000000        6.2500000000000000E-002   0.0000000000000000     
  0.18750000000000000        6.2500000000000000E-002   0.0000000000000000     
  0.21875000000000000        6.2500000000000000E-002   0.0000000000000000     
  0.25000000000000000        6.2500000000000000E-002   0.0000000000000000     
  0.12500000000000000        9.3750000000000000E-002   0.0000000000000000     
  0.15625000000000000        9.3750000000000000E-002   0.0000000000000000     
  0.18750000000000000        9.3750000000000000E-002   0.0000000000000000     
  0.21875000000000000        9.3750000000000000E-002   0.0000000000000000     
  0.25000000000000000        9.3750000000000000E-002   0.0000000000000000     
  0.12500000000000000       0.12500000000000000        0.0000000000000000     
  0.15625000000000000       0.12500000000000000        0.0000000000000000     
  0.18750000000000000       0.12500000000000000        0.0000000000000000     
  0.21875000000000000       0.12500000000000000        0.0000000000000000     
  0.25000000000000000       0.12500000000000000        0.0000000000000000     
  0.25000000000000000        0.0000000000000000        0.0000000000000000     
  0.28125000000000000        0.0000000000000000        0.0000000000000000     
  0.31250000000000000        0.0000000000000000        0.0000000000000000     
  0.34375000000000000        0.0000000000000000        0.0000000000000000     
  0.37500000000000000        0.0000000000000000        0.0000000000000000     
  0.25000000000000000        3.1250000000000000E-002   0.0000000000000000     
  0.28125000000000000        3.1250000000000000E-002   0.0000000000000000     
  0.31250000000000000        3.1250000000000000E-002   0.0000000000000000     
  0.34375000000000000        3.1250000000000000E-002   0.0000000000000000     
  0.37500000000000000        3.1250000000000000E-002   0.0000000000000000     
  0.25000000000000000        6.2500000000000000E-002   0.0000000000000000     
  0.28125000000000000        6.2500000000000000E-002   0.0000000000000000     
  0.31250000000000000        6.2500000000000000E-002   0.0000000000000000     
  0.34375000000000000        6.2500000000000000E-002   0.0000000000000000     
  0.37500000000000000        6.2500000000000000E-002   0.0000000000000000     
  0.25000000000000000        9.3750000000000000E-002   0.0000000000000000     
  0.28125000000000000        9.3750000000000000E-002   0.0000000000000000     
  0.31250000000000000        9.3750000000000000E-002   0.0000000000000000     
  0.34375000000000000        9.3750000000000000E-002   0.0000000000000000     
  0.37500000000000000        9.3750000000000000E-002   0.0000000000000000     
  0.25000000000000000       0.12500000000000000        0.0000000000000000     
  0.28125000000000000       0.12500000000000000        0.0000000000000000     
  0.31250000000000000       0.12500000000000000        0.0000000000000000     
  0.34375000000000000       0.12500000000000000        0.0000000000000000     
  0.37500000000000000       0.12500000000000000        0.0000000000000000     
  0.37500000000000000        0.0000000000000000        0.0000000000000000     
  0.40625000000000000        0.0000000000000000        0.0000000000000000     
  0.43750000000000000        0.0000000000000000        0.0000000000000000     
  0.46875000000000000        0.0000000000000000        0.0000000000000000     
  0.50000000000000000        0.0000000000000000        0.0000000000000000     
  0.37500000000000000        3.1250000000000000E-002   0.0000000000000000     
  0.40625000000000000        3.1250000000000000E-002   0.0000000000000000     
  0.43750000000000000        3.1250000000000000E-002   0.0000000000000000     
  0.46875000000000000        3.1250000000000000E-002   0.0000000000000000     
  0.50000000000000000        3.1250000000000000E-002   0.0000000000000000     
  0.37500000000000000        6.2500000000000000E-002   0.0000000000000000     
  0.40625000000000000        6.2500000000000000E-002   0.0000000000000000     
  0.43750000000000000        6.2500000000000000E-002   0.0000000000000000     
  0.46875000000000000        6.2500000000000000E-002   0.0000000000000000     
  0.50000000000000000        6.2500000000000000E-002   0.0000000000000000     
  0.37500000000000000        9.3750000000000000E-002   0.0000000000000000     
  0.40625000000000000        9.3750000000000000E-002   0.0000000000000000     
  0.43750000000000000        9.3750000000000000E-002   0.0000000000000000     
  0.46875000000000000        9.3750000000000000E-002   0.0000000000000000     
  0.50000000000000000        9.3750000000000000E-002   0.0000000000000000     
  0.37500000000000000       0.12500000000000000        0.0000000000000000     
  0.40625000000000000       0.12500000000000000        0.0000000000000000     
  0.43750000000000000       0.12500000000000000        0.0000000000000000     
  0.46875000000000000       0.12500000000000000        0.0000000000000000     
  0.50000000000000000       0.12500000000000000        0.0000000000000000     
  0.50000000000000000        0.0000000000000000        0.0000000000000000     
  0.53125000000000000        0.0000000000000000        0.0000000000000000     
  0.56250000000000000        0.0000000000000000        0.0000000000000000     
  0.59375000000000000        0.0000000000000000        0.0000000000000000     
  0.62500000000000000        0.0000000000000000        0.0000000000000000     
  0.50000000000000000        3.1250000000000000E-002   0.0000000000000000     
  0.53125000000000000        3.1250000000000000E-002   0.0000000000000000     
  0.56250000000000000        3.1250000000000000E-002   0.0000000000000000     
  0.59375000000000000        3.1250000000000000E-002   0.0000000000000000     
  0.62500000000000000        3.1250000000000000E-002   0.0000000000000000     
  0.50000000000000000        6.2500000000000000E-002   0.0000000000000000     
  0.53125000000000000        6.2500000000000000E-002   0.0000000000000000     
  0.56250000000000000        6.2500000000000000E-002   0.0000000000000000     
  0.59375000000000000        6.2500000000000000E-002   0.0000000000000000     
  0.62500000000000000        6.2500000000000000E-002   0.0000000000000000     
  0.50000000000000000        9.3750000000000000E-002   0.0000000000000000     
  0.53125000000000000        9.3750000000000000E-002   0.0000000000000000     
  0.56250000000000000        9.3750000000000000E-002   0.0000000000000000     
  0.59375000000000000        9.3750000000000000E-002   0.0000000000000000     
  0.62500000000000000        9.3750000000000000E-002   0.0000000000000000     
  0.50000000000000000       0.12500000000000000        0.0000000000000000     
  0.53125000000000000       0.12500000000000000        0.0000000000000000     
  0.56250000000000000       0.12500000000000000        0.0000000000000000     
  0.59375000000000000       0.12500000000000000        0.0000000000000000     
  0.62500000000000000       0.12500000000000000        0.0000000000000000     
  0.62500000000000000        0.0000000000000000        0.0000000000000000     
  0.65625000000000000        0.0000000000000000        0.0000000000000000     
  0.68750000000000000        0.0000000000000000        0.0000000000000000     
  0.71875000000000000        0.0000000000000000        0.0000000000000000     
  0.75000000000000000        0.0000000000000000        0.0000000000000000     
  0.62500000000000000        3.1250000000000000E-002   0.0000000000000000     
  0.65625000000000000        3.1250000000000000E-002   0.0000000000000000     
  0.68750000000000000        3.1250000000000000E-002   0.0000000000000000     
  0.71875000000000000        3.1250000000000000E-002   0.0000000000000000     
  0.75000000000000000        3.1250000000000000E-002   0.0000000000000000     
  0.62500000000000000        6.2500000000000000E-002   0.0000000000000000     
  0.65625000000000000        6.2500000000000000E-002   0.0000000000000000     
  0.68750000000000000        6.2500000000000000E-002   0.0000000000000000     
  0.71875000000000000        6.2500000000000000E-002   0.0000000000000000     
  0.75000000000000000        6.2500000000000000E-002   0.0000000000000000     
  0.62500000000000000        9.3750000000000000E-002   0.0000000000000000     
  0.65625000000000000        9.3750000000000000E-002   0.0000000000000000     
  0.68750000000000000        9.3750000000000000E-002   0.0000000000000000     
  0.71875000000000000        9.3750000000000000E-002   0.0000000000000000     
  0.75000000000000000        9.3750000000000000E-002   0.0000000000000000     
  0.62500000000000000       0.12500000000000000        0.0000000000000000     
  0.65625000000000000       0.12500000000000000        0.0000000000000000     
  0.68750000000000000       0.12500000000000000        0.0000000000000000     
  0.71875000000000000       0.12500000000000000        0.0000000000000000     
  0.75000000000000000       0.12500000000000000        0.0000000000000000     
  0.75000000000000000        0.0000000000000000        0.0000000000000000     
  0.78125000000000000        0.0000000000000000        0.0000000000000000     
  0.81250000000000000        0.0000000000000000        0.0000000000000000     
  0.84375000000000000        0.0000000000000000        0.0000000000000000     
  0.87500000000000000        0.0000000000000000        0.0000000000000000     
  0.75000000000000000        3.1250000000000000E-002   0.0000000000000000     
  0.78125000000000000        3.1250000000000000E-002   0.0000000000000000     
  0.81250000000000000        3.1250000000000000E-002   0.0000000000000000     
  0.84375000000000000        3.1250000000000000E-002   0.0000000000000000     
  0.87500000000000000        3.1250000000000000E-002   0.0000000000000000     
  0.75000000000000000        6.2500000000000000E-002   0.0000000000000000     
  0.78125000000000000        6.2500000000000000E-002   0.0000000000000000     
  0.81250000000000000        6.2500000000000000E-002   0.0000000000000000     
  0.84375000000000000        6.2500000000000000E-002   0.0000000000000000     
  0.87500000000000000        6.2500000000000000E-002   0.0000000000000000     
  0.75000000000000000        9.3750000000000000E-002   0.0000000000000000     
  0.78125000000000000        9.3750000000000000E-002   0.0000000000000000     
  0.81250000000000000        9.3750000000000000E-002   0.0000000000000000     
  0.84375000000000000        9.3750000000000000E-002   0.0000000000000000     
  0.87500000000000000        9.3750000000000000E-002   0.0000000000000000     
  0.75000000000000000       0.12500000000000000        0.0000000000000000     
  0.78125000000000000       0.12500000000000000        0.0000000000000000     
  0.81250000000000000       0.12500000000000000        0.0000000000000000     
  0.84375000000000000       0.12500000000000000        0.0000000000000000     
  0.87500000000000000       0.12500000000000000        0.0000000000000000     
  0.87500000000000000        0.0000000000000000        0.0000000000000000     
  0.90625000000000000        0.0000000000000000        0.0000000000000000     
  0.93750000000000000        0.0000000000000000        0.0000000000000000     
  0.96875000000000000        0.0000000000000000        0.0000000000000000     
   1.0000000000000000        0.0000000000000000        0.0000000000000000     
  0.87500000000000000        3.1250000000000000E-002   0.0000000000000000     
  0.90625000000000000        3.1250000000000000E-002   0.0000000000000000     
  0.93750000000000000        3.1250000000000000E-002   0.0000000000000000     
  0.96875000000000000        3.1250000000000000E-002   0.0000000000000000     
   1.0000000000000000        3.1250000000000000E-002   0.0000000000000000     
  0.87500000000000000        6.2500000000000000E-002   0.0000000000000000     
  0.90625000000000000        6.2500000000000000E-002   0.0000000000000000     
  0.93750000000000000        6.2500000000000000E-002   0.0000000000000000     
  0.96875000000000000        6.2500000000000000E-002   0.0000000000000000     
   1.0000000000000000        6.2500000000000000E-002   0.0000000000000000     
  0.87500000000000000        9.3750000000000000E-002   0.0000000000000000     
  0.90625000000000000        9.3750000000000000E-002   0.0000000000000000     
  0.93750000000000000        9.3750000000000000E-002   0.0000000000000000     
  0.96875000000000000        9.3750000000000000E-002   0.0000000000000000     
   1.0000000000000000        9.3750000000000000E-002   0.0000000000000000     
  0.87500000000000000       0.12500000000000000        0.0000000000000000     
  0.90625000000000000       0.12500000000000000        0.0000000000000000     
  0.93750000000000000       0.12500000000000000        0.0000000000000000     
  0.96875000000000000       0.12500000000000000        0.0000000000000000     
   1.0000000000000000       0.12500000000000000        0.0000000000000000     
   0.0000000000000000       0.12500000000000000        0.0000000000000000     
   3.1250000000000000E-002  0.12500000000000000        0.0000000000000000     
   6.2500000000000000E-002  0.12500000000000000        0.0000000000000000     
   9.3750000000000000E-002  0.12500000000000000        0.0000000000000000     
  0.12500000000000000       0.12500000000000000        0.0000000000000000     
   0.0000000000000000       0.15625000000000000        0.0000000000000000     
   3.1250000000000000E-002  0.15625000000000000        0.0000000000000000     
   6.2500000000000000E-002  0.15625000000000000        0.0000000000000000     
   9.3750000000000000E-002  0.15625000000000000        0.0000000000000000     
  0.12500000000000000       0.15625000000000000        0.0000000000000000     
   0.0000000000000000       0.18750000000000000        0.0000000000000000     
   3.1250000000000000E-002  0.18750000000000000        0.0000000000000000     
   6.2500000000000000E-002  0.18750000000000000        0.0000000000000000     
   9.3750000000000000E-002  0.18750000000000000        0.0000000000000000     
  0.12500000000000000       0.18750000000000000        0.0000000000000000     
   0.0000000000000000       0.21875000000000000        0.0000000000000000     
   3.1250000000000000E-002  0.21875000000000000        0.0000000000000000     
   6.2500000000000000E-002  0.21875000000000000        0.0000000000000000     
   9.3750000000000000E-002  0.21875000000000000        0.0000000000000000     
  0.12500000000000000       0.21875000000000000        0.0000000000000000     
   0.0000000000000000       0.25000000000000000        0.0000000000000000     
   3.1250000000000000E-002  0.25000000000000000        0.0000000000000000     
   6.2500000000000000E-002  0.25000000000000000        0.0000000000000000     
   9.3750000000000000E-002  0.25000000000000000        0.0000000000000000     
  0.12500000000000000       0.25000000000000000        0.0000000000000000     
  0.12500000000000000       0.12500000000000000        0.0000000000000000     
  0.15625000000000000       0.12500000000000000        0.0000000000000000     
  0.18750000000000000       0.12500000000000000        0.0000000000000000     
  0.21875000000000000       0.12500000000000000        0.0000000000000000     
  0.25000000000000000       0.12500000000000000        0.0000000000000000     
  0.12500000000000000       0.15625000000000000        0.0000000000000000     
  0.15625000000000000       0.15625000000000000        0.0000000000000000     
  0.18750000000000000       0.15625000000000000        0.0000000000000000     
  0.21875000000000000       0.15625000000000000        0.0000000000000000     
  0.25000000000000000       0.15625000000000000        0.0000000000000000     
  0.12500000000000000       0.18750000000000000        0.0000000000000000     
  0.15625000000000000       0.18750000000000000        0.0000000000000000     
  0.18750000000000000       0.18750000000000000        0.0000000000000000     
  0.21875000000000000       0.18750000000000000        0.0000000000000000     
  0.25000000000000000       0.18750000000000000        0.0000000000000000     
  0.12500000000000000       0.21875000000000000        0.0000000000000000     
  0.15625000000000000       0.21875000000000000        0.0000000000000000     
  0.18750000000000000       0.21875000000000000        0.0000000000000000     
  0.21875000000000000       0.21875000000000000        0.0000000000000000     
  0.25000000000000000       0.21875000000000000        0.0000000000000000     
  0.12500000000000000       0.25000000000000000        0.0000000000000000     
  0.15625000000000000       0.25000000000000000        0.0000000000000000     
  0.18750000000000000       0.25000000000000000        0.0000000000000000     
  0.21875000000000000       0.25000000000000000        0.0000000000000000     
  0.25000000000000000       0.25000000000000000        0.0000000000000000     
  0.25000000000000000       0.12500000000000000        0.0000000000000000     
  0.28125000000000000       0.12500000000000000        0.0000000000000000     
  0.31250000000000000       0.12500000000000000        0.0000000000000000     
  0.34375000000000000       0.12500000000000000        0.0000000000000000     
  0.37500000000000000       0.12500000000000000        0.0000000000000000     
  0.25000000000000000       0.15625000000000000        0.0000000000000000     
  0.28125000000000000       0.15625000000000000        0.0000000000000000     
  0.31250000000000000       0.15625000000000000        0.0000000000000000     
  0.34375000000000000       0.15625000000000000        0.0000000000000000     
  0.37500000000000000       0.15625000000000000        0.0000000000000000     
  0.25000000000000000       0.18750000000000000        0.0000000000000000     
  0.28125000000000000       0.18750000000000000        0.0000000000000000     
  0.31250000000000000       0.18750000000000000        0.0000000000000000     
  0.34375000000000000       0.18750000000000000        0.0000000000000000     
  0.37500000000000000       0.18750000000000000        0.0000000000000000     
  0.25000000000000000       0.21875000000000000        0.0000000000000000     
  0.28125000000000000       0.21875000000000000        0.0000000000000000     
  0.31250000000000000       0.21875000000000000        0.0000000000000000     
  0.34375000000000000       0.21875000000000000        0.0000000000000000     
  0.37500000000000000       0.21875000000000000        0.0000000000000000     
  0.25000000000000000       0.25000000000000000        0.0000000000000000     
  0.28125000000000000       0.25000000000000000        0.0000000000000000     
  0.31250000000000000       0.25000000000000000        0.0000000000000000     
  0.34375000000000000       0.25000000000000000        0.0000000000000000     
  0.37500000000000000       0.25000000000000000        0.0000000000000000     
  0.37500000000000000       0.12500000000000000        0.0000000000000000     
  0.40625000000000000       0.12500000000000000        0.0000000000000000     
  0.43750000000000000       0.12500000000000000        0.0000000000000000     
  0.46875000000000000       0.12500000000000000        0.0000000000000000     
  0.50000000000000000       0.12500000000000000        0.0000000000000000     
  0.37500000000000000       0.15625000000000000        0.0000000000000000     
  0.40625000000000000       0.15625000000000000        0.0000000000000000     
  0.43750000000000000       0.15625000000000000        0.0000000000000000     
  0.46875000000000000       0.15625000000000000        0.0000000000000000     
  0.50000000000000000       0.15625000000000000        0.0000000000000000     
  0.37500000000000000       0.18750000000000000        0.0000000000000000     
  0.40625000000000000       0.18750000000000000        0.0000000000000000     
  0.43750000000000000       0.18750000000000000        0.0000000000000000     
  0.46875000000000000       0.18750000000000000        0.0000000000000000     
  0.50000000000000000       0.18750000000000000        0.0000000000000000     
  0.37500000000000000       0.21875000000000000        0.0000000000000000     
  0.40625000000000000       0.21875000000000000        0.0000000000000000     
  0.43750000000000000       0.21875000000000000        0.0000000000000000     
  0.46875000000000000       0.21875000000000000        0.0000000000000000     
  0.50000000000000000       0.21875000000000000        0.0000000000000000     
  0.37500000000000000       0.25000000000000000        0.0000000000000000     
  0.40625000000000000       0.25000000000000000        0.0000000000000000     
  0.43750000000000000       0.25000000000000000        0.0000000000000000     
  0.46875000000000000       0.25000000000000000        0.0000000000000000     
  0.50000000000000000       0.25000000000000000        0.0000000000000000     
  0.50000000000000000       0.12500000000000000        0.0000000000000000     
  0.53125000000000000       0.12500000000000000        0.0000000000000000     
  0.56250000000000000       0.12500000000000000        0.0000000000000000     
  0.59375000000000000       0.12500000000000000        0.0000000000000000     
  0.62500000000000000       0.12500000000000000        0.0000000000000000     
  0.50000000000000000       0.15625000000000000        0.0000000000000000     
  0.53125000000000000       0.15625000000000000        0.0000000000000000     
  0.56250000000000000       0.15625000000000000        0.0000000000000000     
  0.59375000000000000       0.15625000000000000        0.0000000000000000     
  0.62500000000000000       0.15625000000000000        0.0000000000000000     
  0.50000000000000000       0.18750000000000000        0.0000000000000000     
  0.53125000000000000       0.18750000000000000        0.0000000000000000     
  0.56250000000000000       0.18750000000000000        0.0000000000000000     
  0.59375000000000000       0.18750000000000000        0.0000000000000000     
  0.62500000000000000       0.18750000000000000        0.0000000000000000     
  0.50000000000000000       0.21875000000000000        0.0000000000000000     
  0.53125000000000000       0.21875000000000000        0.0000000000000000     
  0.56250000000000000       0.21875000000000000        0.0000000000000000     
  0.59375000000000000       0.21875000000000000        0.0000000000000000     
  0.62500000000000000       0.21875000000000000        0.0000000000000000     
  0.50000000000000000       0.25000000000000000        0.0000000000000000     
  0.53125000000000000       0.25000000000000000        0.0000000000000000     
  0.56250000000000000       0.25000000000000000        0.0000000000000000     
  0.59375000000000000       0.25000000000000000        0.0000000000000000     
  0.62500000000000000       0.25000000000000000        0.0000000000000000     
  0.62500000000000000       0.12500000000000000        0.0000000000000000     
  0.65625000000000000       0.12500000000000000        0.0000000000000000     
  0.68750000000000000       0.12500000000000000        0.0000000000000000     
  0.71875000000000000       0.12500000000000000        0.0000000000000000     
  0.75000000000000000       0.12500000000000000        0.0000000000000000     
  0.62500000000000000       0.15625000000000000        0.0000000000000000     
  0.65625000000000000       0.15625000000000000        0.0000000000000000     
  0.68750000000000000       0.15625000000000000        0.0000000000000000     
  0.71875000000000000       0.15625000000000000        0.0000000000000000     
  0.75000000000000000       0.15625000000000000        0.0000000000000000     
  0.62500000000000000       0.18750000000000000        0.0000000000000000     
  0.65625000000000000       0.18750000000000000        0.0000000000000000     
  0.68750000000000000       0.18750000000000000        0.0000000000000000     
  0.71875000000000000       0.18750000000000000        0.0000000000000000     
  0.75000000000000000       0.18750000000000000        0.0000000000000000     
  0.62500000000000000       0.21875000000000000        0.0000000000000000     
  0.65625000000000000       0.21875000000000000        0.0000000000000000     
  0.68750000000000000       0.21875000000000000        0.0000000000000000     
  0.71875000000000000       0.21875000000000000        0.0000000000000000     
  0.75000000000000000       0.21875000000000000        0.0000000000000000     
  0.62500000000000000       0.25000000000000000        0.0000000000000000     
  0.65625000000000000       0.25000000000000000        0.0000000000000000     
  0.68750000000000000       0.25000000000000000        0.0000000000000000     
  0.71875000000000000       0.25000000000000000        0.0000000000000000     
  0.75000000000000000       0.25000000000000000        0.0000000000000000     
  0.75000000000000000       0.12500000000000000        0.0000000000000000     
  0.78125000000000000       0.12500000000000000        0.0000000000000000     
  0.81250000000000000       0.12500000000000000        0.0000000000000000     
  0.84375000000000000       0.12500000000000000        0.0000000000000000     
  0.87500000000000000       0.12500000000000000        0.0000000000000000     
  0.75000000000000000       0.15625000000000000        0.0000000000000000     
  0.78125000000000000       0.15625000000000000        0.0000000000000000     
  0.81250000000000000       0.15625000000000000        0.0000000000000000     
  0.84375000000000000       0.15625000000000000        0.0000000000000000     
  0.87500000000000000       0.15625000000000000        0.0000000000000000     
  0.75000000000000000       0.18750000000000000        0.0000000000000000     
  0.78125000000000000       0.18750000000000000        0.0000000000000000     
  0.81250000000000000       0.18750000000000000        0.0000000000000000     
  0.84375000000000000       0.18750000000000000        0.0000000000000000     
  0.87500000000000000       0.18750000000000000        0.0000000000000000     
  0.75000000000000000       0.21875000000000000        0.0000000000000000     
  0.78125000000000000       0.21875000000000000        0.0000000000000000     
  0.81250000000000000       0.21875000000000000        0.0000000000000000     
  0.84375000000000000       0.21875000000000000        0.0000000000000000     
  0.87500000000000000       0.21875000000000000        0.0000000000000000     
  0.75000000000000000       0.25000000000000000        0.0000000000000000     
  0.78125000000000000       0.25000000000000000        0.0000000000000000     
  0.81250000000000000       0.25000000000000000        0.0000000000000000     
  0.84375000000000000       0.25000000000000000        0.0000000000000000     
  0.87500000000000000       0.25000000000000000        0.0000000000000000     
  0.87500000000000000       0.12500000000000000        0.0000000000000000     
  0.90625000000000000       0.12500000000000000        0.0000000000000000     
  0.93750000000000000       0.12500000000000000        0.0000000000000000     
  0.96875000000000000       0.12500000000000000        0.0000000000000000     
   1.0000000000000000       0.12500000000000000        0.0000000000000000     
  0.87500000000000000       0.15625000000000000        0.0000000000000000     
  0.90625000000000000       0.15625000000000000        0.0000000000000000     
  0.93750000000000000       0.15625000000000000        0.0000000000000000     
  0.96875000000000000       0.15625000000000000        0.0000000000000000     
   1.0000000000000000       0.15625000000000000        0.0000000000000000     
  0.87500000000000000       0.18750000000000000        0.0000000000000000     
  0.90625000000000000       0.18750000000000000        0.0000000000000000     
  0.93750000000000000       0.18750000000000000        0.0000000000000000     
  0.96875000000000000       0.18750000000000000        0.0000000000000000     
   1.0000000000000000       0.18750000000000000        0.0000000000000000     
  0.87500000000000000       0.21875000000000000        0.0000000000000000     
  0.90625000000000000       0.21875000000000000        0.0000000000000000     
  0.93750000000000000       0.21875000000000000        0.0000000000000000     
  0.96875000000000000       0.21875000000000000        0.0000000000000000     
   1.0000000000000000       0.21875000000000000        0.0000000000000000     
  0.87500000000000000       0.25000000000000000        0.0000000000000000     
  0.90625000000000000       0.25000000000000000        0.0000000000000000     
  0.93750000000000000       0.25000000000000000        0.0000000000000000     
  0.96875000000000000       0.25000000000000000        0.0000000000000000     
   1.0000000000000000       0.25000000000000000        0.0000000000000000     
   0.0000000000000000       0.25000000000000000        0.0000000000000000     
   3.1250000000000000E-002  0.25000000000000000        0.0000000000000000     
   6.2500000000000000E-002  0.25000000000000000        0.0000000000000000     
   9.3750000000000000E-002  0.25000000000000000        0.0000000000000000     
  0.12500000000000000       0.25000000000000000        0.0000000000000000     
   0.0000000000000000       0.28125000000000000        0.0000000000000000     
   3.1250000000000000E-002  0.28125000000000000        0.0000000000000000     
   6.2500000000000000E-002  0.28125000000000000        0.0000000000000000     
   9.3750000000000000E-002  0.28125000000000000        0.0000000000000000     
  0.12500000000000000       0.28125000000000000        0.0000000000000000     
   0.0000000000000000       0.31250000000000000        0.0000000000000000     
   3.1250000000000000E-002  0.31250000000000000        0.0000000000000000     
   6.2500000000000000E-002  0.31250000000000000        0.0000000000000000     
   9.3750000000000000E-002  0.31250000000000000        0.0000000000000000     
  0.12500000000000000       0.31250000000000000        0.0000000000000000     
   0.0000000000000000       0.34375000000000000        0.0000000000000000     
   3.1250000000000000E-002  0.34375000000000000        0.0000000000000000     
   6.2500000000000000E-002  0.34375000000000000        0.0000000000000000     
   9.3750000000000000E-002  0.34375000000000000        0.0000000000000000     
  0.12500000000000000       0.34375000000000000        0.0000000000000000     
   0.0000000000000000       0.37500000000000000        0.0000000000000000     
   3.1250000000000000E-002  0.37500000000000000        0.0000000000000000     
   6.2500000000000000E-002  0.37500000000000000        0.0000000000000000     
   9.3750000000000000E-002  0.37500000000000000        0.0000000000000000     
  0.12500000000000000       0.37500000000000000        0.0000000000000000     
  0.12500000000000000       0.25000000000000000        0.0000000000000000     
  0.15625000000000000       0.25000000000000000        0.0000000000000000     
  0.18750000000000000       0.25000000000000000        0.0000000000000000     
  0.21875000000000000       0.25000000000000000        0.0000000000000000     
  0.25000000000000000       0.25000000000000000        0.0000000000000000     
  0.12500000000000000       0.28125000000000000        0.0000000000000000     
  0.15625000000000000       0.28125000000000000        0.0000000000000000     
  0.18750000000000000       0.28125000000000000        0.0000000000000000     
  0.21875000000000000       0.28125000000000000        0.0000000000000000     
  0.25000000000000000       0.28125000000000000        0.0000000000000000     
  0.12500000000000000       0.31250000000000000        0.0000000000000000     
  0.15625000000000000       0.31250000000000000        0.0000000000000000     
  0.18750000000000000       0.31250000000000000        0.0000000000000000     
  0.21875000000000000       0.31250000000000000        0.0000000000000000     
  0.25000000000000000       0.31250000000000000        0.0000000000000000     
  0.12500000000000000       0.34375000000000000        0.0000000000000000     
  0.15625000000000000       0.34375000000000000        0.0000000000000000     
  0.18750000000000000       0.34375000000000000        0.0000000000000000     
  0.21875000000000000       0.34375000000000000        0.0000000000000000     
  0.25000000000000000       0.34375000000000000        0.0000000000000000     
  0.12500000000000000       0.37500000000000000        0.0000000000000000     
  0.15625000000000000       0.37500000000000000        0.0000000000000000     
  0.18750000000000000       0.37500000000000000        0.0000000000000000     
  0.21875000000000000       0.37500000000000000        0.0000000000000000     
  0.25000000000000000       0.37500000000000000        0.0000000000000000     
  0.25000000000000000       0.25000000000000000        0.0000000000000000     
  0.28125000000000000       0.25000000000000000        0.0000000000000000     
  0.31250000000000000       0.25000000000000000        0.0000000000000000     
  0.34375000000000000       0.25000000000000000        0.0000000000000000     
  0.37500000000000000       0.25000000000000000        0.0000000000000000     
  0.25000000000000000       0.28125000000000000        0.0000000000000000     
  0.28125000000000000       0.28125000000000000        0.0000000000000000     
  0.31250000000000000       0.28125000000000000        0.0000000000000000     
  0.34375000000000000       0.28125000000000000        0.0000000000000000     
  0.37500000000000000       0.28125000000000000        0.0000000000000000     
  0.25000000000000000       0.31250000000000000        0.0000000000000000     
  0.28125000000000000       0.31250000000000000        0.0000000000000000     
  0.31250000000000000       0.31250000000000000        0.0000000000000000     
  0.34375000000000000       0.31250000000000000        0.0000000000000000     
  0.37500000000000000       0.31250000000000000        0.0000000000000000     
  0.25000000000000000       0.34375000000000000        0.0000000000000000     
  0.28125000000000000       0.34375000000000000        0.0000000000000000     
  0.31250000000000000       0.34375000000000000        0.0000000000000000     
  0.34375000000000000       0.34375000000000000        0.0000000000000000     
  0.37500000000000000       0.34375000000000000        0.0000000000000000     
  0.25000000000000000       0.37500000000000000        0.0000000000000000     
  0.28125000000000000       0.37500000000000000        0.0000000000000000     
  0.31250000000000000       0.37500000000000000        0.0000000000000000     
  0.34375000000000000       0.37500000000000000        0.0000000000000000     
  0.37500000000000000       0.37500000000000000        0.0000000000000000     
  0.37500000000000000       0.25000000000000000        0.0000000000000000     
  0.40625000000000000       0.25000000000000000        0.0000000000000000     
  0.43750000000000000       0.25000000000000000        0.0000000000000000     
  0.46875000000000000       0.25000000000000000        0.0000000000000000     
  0.50000000000000000       0.25000000000000000        0.0000000000000000     
  0.37500000000000000       0.28125000000000000        0.0000000000000000     
  0.40625000000000000       0.28125000000000000        0.0000000000000000     
  0.43750000000000000       0.28125000000000000        0.0000000000000000     
  0.46875000000000000       0.28125000000000000        0.0000000000000000     
  0.50000000000000000       0.28125000000000000        0.0000000000000000     
  0.37500000000000000       0.31250000000000000        0.0000000000000000     
  0.40625000000000000       0.31250000000000000        0.0000000000000000     
  0.43750000000000000       0.31250000000000000        0.0000000000000000     
  0.46875000000000000       0.31250000000000000        0.0000000000000000     
  0.50000000000000000       0.31250000000000000        0.0000000000000000     
  0.37500000000000000       0.34375000000000000        0.0000000000000000     
  0.40625000000000000       0.34375000000000000        0.0000000000000000     
  0.43750000000000000       0.34375000000000000        0.0000000000000000     
  0.46875000000000000       0.34375000000000000        0.0000000000000000     
  0.50000000000000000       0.34375000000000000        0.0000000000000000     
  0.37500000000000000       0.37500000000000000        0.0000000000000000     
  0.40625000000000000       0.37500000000000000        0.0000000000000000     
  0.43750000000000000       0.37500000000000000        0.0000000000000000     
  0.46875000000000000       0.37500000000000000        0.0000000000000000     
  0.50000000000000000       0.37500000000000000        0.0000000000000000     
  0.50000000000000000       0.25000000000000000        0.0000000000000000     
  0.53125000000000000       0.25000000000000000        0.0000000000000000     
  0.56250000000000000       0.25000000000000000        0.0000000000000000     
  0.59375000000000000       0.25000000000000000        0.0000000000000000     
  0.62500000000000000       0.25000000000000000        0.0000000000000000     
  0.50000000000000000       0.28125000000000000        0.0000000000000000     
  0.53125000000000000       0.28125000000000000        0.0000000000000000     
  0.56250000000000000       0.28125000000000000        0.0000000000000000     
  0.59375000000000000       0.28125000000000000        0.0000000000000000     
  0.62500000000000000       0.28125000000000000        0.0000000000000000     
  0.50000000000000000       0.31250000000000000        0.0000000000000000     
  0.53125000000000000       0.31250000000000000        0.0000000000000000     
  0.56250000000000000       0.31250000000000000        0.0000000000000000     
  0.59375000000000000       0.31250000000000000        0.0000000000000000     
  0.62500000000000000       0.31250000000000000        0.0000000000000000     
  0.50000000000000000       0.34375000000000000        0.0000000000000000     
  0.53125000000000000       0.34375000000000000        0.0000000000000000     
  0.56250000000000000       0.34375000000000000        0.0000000000000000     
  0.59375000000000000       0.34375000000000000        0.0000000000000000     
  0.62500000000000000       0.34375000000000000        0.0000000000000000     
  0.50000000000000000       0.37500000000000000        0.0000000000000000     
  0.53125000000000000       0.37500000000000000        0.0000000000000000     
  0.56250000000000000       0.37500000000000000        0.0000000000000000     
  0.59375000000000000       0.37500000000000000        0.0000000000000000     
  0.62500000000000000       0.37500000000000000        0.0000000000000000     
  0.62500000000000000       0.25000000000000000        0.0000000000000000     
  0.65625000000000000       0.25000000000000000        0.0000000000000000     
  0.68750000000000000       0.25000000000000000        0.0000000000000000     
  0.71875000000000000       0.25000000000000000        0.0000000000000000     
  0.75000000000000000       0.25000000000000000        0.0000000000000000     
  0.62500000000000000       0.28125000000000000        0.0000000000000000     
  0.65625000000000000       0.28125000000000000        0.0000000000000000     
  0.68750000000000000       0.28125000000000000        0.0000000000000000     
  0.71875000000000000       0.28125000000000000        0.0000000000000000     
  0.75000000000000000       0.28125000000000000        0.0000000000000000     
  0.62500000000000000       0.31250000000000000        0.0000000000000000     
  0.65625000000000000       0.31250000000000000        0.0000000000000000     
  0.68750000000000000       0.31250000000000000        0.0000000000000000     
  0.71875000000000000       0.31250000000000000        0.0000000000000000     
  0.75000000000000000       0.31250000000000000        0.0000000000000000     
  0.62500000000000000       0.34375000000000000        0.0000000000000000     
  0.65625000000000000       0.34375000000000000        0.0000000000000000     
  0.68750000000000000       0.34375000000000000        0.0000000000000000     
  0.71875000000000000       0.34375000000000000        0.0000000000000000     
  0.75000000000000000       0.34375000000000000        0.0000000000000000     
  0.62500000000000000       0.37500000000000000        0.0000000000000000     
  0.65625000000000000       0.37500000000000000        0.0000000000000000     
  0.68750000000000000       0.37500000000000000        0.0000000000000000     
  0.71875000000000000       0.37500000000000000        0.0000000000000000     
  0.75000000000000000       0.37500000000000000        0.0000000000000000     
  0.75000000000000000       0.25000000000000000        0.0000000000000000     
  0.78125000000000000       0.25000000000000000        0.0000000000000000     
  0.81250000000000000       0.25000000000000000        0.0000000000000000     
  0.84375000000000000       0.25000000000000000        0.0000000000000000     
  0.87500000000000000       0.25000000000000000        0.0000000000000000     
  0.75000000000000000       0.28125000000000000        0.0000000000000000     
  0.78125000000000000       0.28125000000000000        0.0000000000000000     
  0.81250000000000000       0.28125000000000000        0.0000000000000000     
  0.84375000000000000       0.28125000000000000        0.0000000000000000     
  0.87500000000000000       0.28125000000000000        0.0000000000000000     
  0.75000000000000000       0.31250000000000000        0.0000000000000000     
  0.78125000000000000       0.31250000000000000        0.0000000000000000     
  0.81250000000000000       0.31250000000000000        0.0000000000000000     
  0.84375000000000000       0.31250000000000000        0.0000000000000000     
  0.87500000000000000       0.31250000000000000        0.0000000000000000     
  0.75000000000000000       0.34375000000000000        0.0000000000000000     
  0.78125000000000000       0.34375000000000000        0.0000000000000000     
  0.81250000000000000       0.34375000000000000        0.0000000000000000     
  0.84375000000000000       0.34375000000000000        0.0000000000000000     
  0.87500000000000000       0.34375000000000000        0.0000000000000000     
  0.75000000000000000       0.37500000000000000        0.0000000000000000     
  0.78125000000000000       0.37500000000000000        0.0000000000000000     
  0.81250000000000000       0.37500000000000000        0.0000000000000000     
  0.84375000000000000       0.37500000000000000        0.0000000000000000     
  0.87500000000000000       0.37500000000000000        0.0000000000000000     
  0.87500000000000000       0.25000000000000000        0.0000000000000000     
  0.90625000000000000       0.25000000000000000        0.0000000000000000     
  0.93750000000000000       0.25000000000000000        0.0000000000000000     
  0.96875000000000000       0.25000000000000000        0.0000000000000000     
   1.0000000000000000       0.25000000000000000        0.0000000000000000     
  0.87500000000000000       0.28125000000000000        0.0000000000000000     
  0.90625000000000000       0.28125000000000000        0.0000000000000000     
  0.93750000000000000       0.28125000000000000        0.0000000000000000     
  0.96875000000000000       0.28125000000000000        0.0000000000000000     
   1.0000000000000000       0.28125000000000000        0.0000000000000000     
  0.87500000000000000       0.31250000000000000        0.0000000000000000     
  0.90625000000000000       0.31250000000000000        0.0000000000000000     
  0.93750000000000000       0.31250000000000000        0.0000000000000000     
  0.96875000000000000       0.31250000000000000        0.0000000000000000     
   1.0000000000000000       0.31250000000000000        0.0000000000000000     
  0.87500000000000000       0.34375000000000000        0.0000000000000000     
  0.90625000000000000       0.34375000000000000        0.0000000000000000     
  0.93750000000000000       0.34375000000000000        0.0000000000000000     
  0.96875000000000000       0.34375000000000000        0.0000000000000000     
   1.0000000000000000       0.34375000000000000        0.0000000000000000     
  0.87500000000000000       0.37500000000000000        0.0000000000000000     
  0.90625000000000000       0.37500000000000000        0.0000000000000000     
  0.93750000000000000       0.37500000000000000        0.0000000000000000     
  0.96875000000000000       0.37500000000000000        0.0000000000000000     
   1.0000000000000000       0.37500000000000000        0.0000000000000000     
   0.0000000000000000       0.37500000000000000        0.0000000000000000     
   3.1250000000000000E-002  0.37500000000000000        0.0000000000000000     
   6.2500000000000000E-002  0.37500000000000000        0.0000000000000000     
   9.3750000000000000E-002  0.37500000000000000        0.0000000000000000     
  0.12500000000000000       0.37500000000000000        0.0000000000000000     
   0.0000000000000000       0.40625000000000000        0.0000000000000000     
   3.1250000000000000E-002  0.40625000000000000        0.0000000000000000     
   6.2500000000000000E-002  0.40625000000000000        0.0000000000000000     
   9.3750000000000000E-002  0.40625000000000000        0.0000000000000000     
  0.12500000000000000       0.40625000000000000        0.0000000000000000     
   0.0000000000000000       0.43750000000000000        0.0000000000000000     
   3.1250000000000000E-002  0.43750000000000000        0.0000000000000000     
   6.2500000000000000E-002  0.43750000000000000        0.0000000000000000     
   9.3750000000000000E-002  0.43750000000000000        0.0000000000000000     
  0.12500000000000000       0.43750000000000000        0.0000000000000000     
   0.0000000000000000       0.46875000000000000        0.0000000000000000     
   3.1250000000000000E-002  0.46875000000000000        0.0000000000000000     
   6.2500000000000000E-002  0.46875000000000000        0.0000000000000000     
   9.3750000000000000E-002  0.46875000000000000        0.0000000000000000     
  0.12500000000000000       0.46875000000000000        0.0000000000000000     
   0.0000000000000000       0.50000000000000000        0.0000000000000000     
   3.1250000000000000E-002  0.50000000000000000        0.0000000000000000     
   6.2500000000000000E-002  0.50000000000000000        0.0000000000000000     
   9.3750000000000000E-002  0.50000000000000000        0.0000000000000000     
  0.12500000000000000       0.50000000000000000        0.0000000000000000     
  0.12500000000000000       0.37500000000000000        0.0000000000000000     
  0.15625000000000000       0.37500000000000000        0.0000000000000000     
  0.18750000000000000       0.37500000000000000        0.0000000000000000     
  0.21875000000000000       0.37500000000000000        0.0000000000000000     
  0.25000000000000000       0.37500000000000000        0.0000000000000000     
  0.12500000000000000       0.40625000000000000        0.0000000000000000     
  0.15625000000000000       0.40625000000000000        0.0000000000000000     
  0.18750000000000000       0.40625000000000000        0.0000000000000000     
  0.21875000000000000       0.40625000000000000        0.0000000000000000     
  0.25000000000000000       0.40625000000000000        0.0000000000000000     
  0.12500000000000000       0.43750000000000000        0.0000000000000000     
  0.15625000000000000       0.43750000000000000        0.0000000000000000     
  0.18750000000000000       0.43750000000000000        0.0000000000000000     
  0.21875000000000000       0.43750000000000000        0.0000000000000000     
  0.25000000000000000       0.43750000000000000        0.0000000000000000     
  0.12500000000000000       0.46875000000000000        0.0000000000000000     
  0.15625000000000000       0.46875000000000000        0.0000000000000000     
  0.18750000000000000       0.46875000000000000        0.0000000000000000     
  0.21875000000000000       0.46875000000000000        0.0000000000000000     
  0.25000000000000000       0.46875000000000000        0.0000000000000000     
  0.12500000000000000       0.50000000000000000        0.0000000000000000     
  0.15625000000000000       0.50000000000000000        0.0000000000000000     
  0.18750000000000000       0.50000000000000000        0.0000000000000000     
  0.21875000000000000       0.50000000000000000        0.0000000000000000     
  0.25000000000000000       0.50000000000000000        0.0000000000000000     
  0.25000000000000000       0.37500000000000000        0.0000000000000000     
  0.28125000000000000       0.37500000000000000        0.0000000000000000     
  0.31250000000000000       0.37500000000000000        0.0000000000000000     
  0.34375000000000000       0.37500000000000000        0.0000000000000000     
  0.37500000000000000       0.37500000000000000        0.0000000000000000     
  0.25000000000000000       0.40625000000000000        0.0000000000000000     
  0.28125000000000000       0.40625000000000000        0.0000000000000000     
  0.31250000000000000       0.40625000000000000        0.0000000000000000     
  0.34375000000000000       0.40625000000000000        0.0000000000000000     
  0.37500000000000000       0.40625000000000000        0.0000000000000000     
  0.25000000000000000       0.43750000000000000        0.0000000000000000     
  0.28125000000000000       0.43750000000000000        0.0000000000000000     
  0.31250000000000000       0.43750000000000000        0.0000000000000000     
  0.34375000000000000       0.43750000000000000        0.0000000000000000     
  0.37500000000000000       0.43750000000000000        0.0000000000000000     
  0.25000000000000000       0.46875000000000000        0.0000000000000000     
  0.28125000000000000       0.46875000000000000        0.0000000000000000     
  0.31250000000000000       0.46875000000000000        0.0000000000000000     
  0.34375000000000000       0.46875000000000000        0.0000000000000000     
  0.37500000000000000       0.46875000000000000        0.0000000000000000     
  0.25000000000000000       0.50000000000000000        0.0000000000000000     
  0.28125000000000000       0.50000000000000000        0.0000000000000000     
  0.31250000000000000       0.50000000000000000        0.0000000000000000     
  0.34375000000000000       0.50000000000000000        0.0000000000000000     
  0.37500000000000000       0.50000000000000000        0.0000000000000000     
  0.37500000000000000       0.37500000000000000        0.0000000000000000     
  0.40625000000000000       0.37500000000000000        0.0000000000000000     
  0.43750000000000000       0.37500000000000000        0.0000000000000000     
  0.46875000000000000       0.37500000000000000        0.0000000000000000     
  0.50000000000000000       0.37500000000000000        0.0000000000000000     
  0.37500000000000000       0.40625000000000000        0.0000000000000000     
  0.40625000000000000       0.40625000000000000        0.0000000000000000     
  0.43750000000000000       0.40625000000000000        0.0000000000000000     
  0.46875000000000000       0.40625000000000000        0.0000000000000000     
  0.50000000000000000       0.40625000000000000        0.0000000000000000     
  0.37500000000000000       0.43750000000000000        0.0000000000000000     
  0.40625000000000000       0.43750000000000000        0.0000000000000000     
  0.43750000000000000       0.43750000000000000        0.0000000000000000     
  0.46875000000000000       0.43750000000000000        0.0000000000000000     
  0.50000000000000000       0.43750000000000000        0.0000000000000000     
  0.37500000000000000       0.46875000000000000        0.0000000000000000     
  0.40625000000000000       0.46875000000000000        0.0000000000000000     
  0.43750000000000000       0.46875000000000000        0.0000000000000000     
  0.46875000000000000       0.46875000000000000        0.0000000000000000     
  0.50000000000000000       0.46875000000000000        0.0000000000000000     
  0.37500000000000000       0.50000000000000000        0.0000000000000000     
  0.40625000000000000       0.50000000000000000        0.0000000000000000     
  0.43750000000000000       0.50000000000000000        0.0000000000000000     
  0.46875000000000000       0.50000000000000000        0.0000000000000000     
  0.50000000000000000       0.50000000000000000        0.0000000000000000     
  0.50000000000000000       0.37500000000000000        0.0000000000000000     
  0.53125000000000000       0.37500000000000000        0.0000000000000000     
  0.56250000000000000       0.37500000000000000        0.0000000000000000     
  0.59375000000000000       0.37500000000000000        0.0000000000000000     
  0.62500000000000000       0.37500000000000000        0.0000000000000000     
  0.50000000000000000       0.40625000000000000        0.0000000000000000     
  0.53125000000000000       0.40625000000000000        0.0000000000000000     
  0.56250000000000000       0.40625000000000000        0.0000000000000000     
  0.59375000000000000       0.40625000000000000        0.0000000000000000     
  0.62500000000000000       0.40625000000000000        0.0000000000000000     
  0.50000000000000000       0.43750000000000000        0.0000000000000000     
  0.53125000000000000       0.43750000000000000        0.0000000000000000     
  0.56250000000000000       0.43750000000000000        0.0000000000000000     
  0.59375000000000000       0.43750000000000000        0.0000000000000000     
  0.62500000000000000       0.43750000000000000        0.0000000000000000     
  0.50000000000000000       0.46875000000000000        0.0000000000000000     
  0.53125000000000000       0.46875000000000000        0.0000000000000000     
  0.56250000000000000       0.46875000000000000        0.0000000000000000     
  0.59375000000000000       0.46875000000000000        0.0000000000000000     
  0.62500000000000000       0.46875000000000000        0.0000000000000000     
  0.50000000000000000       0.50000000000000000        0.0000000000000000     
  0.53125000000000000       0.50000000000000000        0.0000000000000000     
  0.56250000000000000       0.50000000000000000        0.0000000000000000     
  0.59375000000000000       0.50000000000000000        0.0000000000000000     
  0.62500000000000000       0.50000000000000000        0.0000000000000000     
  0.62500000000000000       0.37500000000000000        0.0000000000000000     
  0.65625000000000000       0.37500000000000000        0.0000000000000000     
  0.68750000000000000       0.37500000000000000        0.0000000000000000     
  0.71875000000000000       0.37500000000000000        0.0000000000000000     
  0.75000000000000000       0.37500000000000000        0.0000000000000000     
  0.62500000000000000       0.40625000000000000        0.0000000000000000     
  0.65625000000000000       0.40625000000000000        0.0000000000000000     
  0.68750000000000000       0.40625000000000000        0.0000000000000000     
  0.71875000000000000       0.40625000000000000        0.0000000000000000     
  0.75000000000000000       0.40625000000000000        0.0000000000000000     
  0.62500000000000000       0.43750000000000000        0.0000000000000000     
  0.65625000000000000       0.43750000000000000        0.0000000000000000     
  0.68750000000000000       0.43750000000000000        0.0000000000000000     
  0.71875000000000000       0.43750000000000000        0.0000000000000000     
  0.75000000000000000       0.43750000000000000        0.0000000000000000     
  0.62500000000000000       0.46875000000000000        0.0000000000000000     
  0.65625000000000000       0.46875000000000000        0.0000000000000000     
  0.68750000000000000       0.46875000000000000        0.0000000000000000     
  0.71875000000000000       0.46875000000000000        0.0000000000000000     
  0.75000000000000000       0.46875000000000000        0.0000000000000000     
  0.62500000000000000       0.50000000000000000        0.0000000000000000     
  0.65625000000000000       0.50000000000000000        0.0000000000000000     
  0.68750000000000000       0.50000000000000000        0.0000000000000000     
  0.71875000000000000       0.50000000000000000        0.0000000000000000     
  0.75000000000000000       0.50000000000000000        0.0000000000000000     
  0.75000000000000000       0.37500000000000000        0.0000000000000000     
  0.78125000000000000       0.37500000000000000        0.0000000000000000     
  0.81250000000000000       0.37500000000000000        0.0000000000000000     
  0.84375000000000000       0.37500000000000000        0.0000000000000000     
  0.87500000000000000       0.37500000000000000        0.0000000000000000     
  0.75000000000000000       0.40625000000000000        0.0000000000000000     
  0.78125000000000000       0.40625000000000000        0.0000000000000000     
  0.81250000000000000       0.40625000000000000        0.0000000000000000     
  0.84375000000000000       0.40625000000000000        0.0000000000000000     
  0.87500000000000000       0.40625000000000000        0.0000000000000000     
  0.75000000000000000       0.43750000000000000        0.0000000000000000     
  0.78125000000000000       0.43750000000000000        0.0000000000000000     
  0.81250000000000000       0.43750000000000000        0.0000000000000000     
  0.84375000000000000       0.43750000000000000        0.0000000000000000     
  0.87500000000000000       0.43750000000000000        0.0000000000000000     
  0.75000000000000000       0.46875000000000000        0.0000000000000000     
  0.78125000000000000       0.46875000000000000        0.0000000000000000     
  0.81250000000000000       0.46875000000000000        0.0000000000000000     
  0.84375000000000000       0.46875000000000000        0.0000000000000000     
  0.87500000000000000       0.46875000000000000        0.0000000000000000     
  0.75000000000000000       0.50000000000000000        0.0000000000000000     
  0.78125000000000000       0.50000000000000000        0.0000000000000000     
  0.81250000000000000       0.50000000000000000        0.0000000000000000     
  0.84375000000000000       0.50000000000000000        0.0000000000000000     
  0.87500000000000000       0.50000000000000000        0.0000000000000000     
  0.87500000000000000       0.37500000000000000        0.0000000000000000     
  0.90625000000000000       0.37500000000000000        0.0000000000000000     
  0.93750000000000000       0.37500000000000000        0.0000000000000000     
  0.96875000000000000       0.37500000000000000        0.0000000000000000     
   1.0000000000000000       0.37500000000000000        0.0000000000000000     
  0.87500000000000000       0.40625000000000000        0.0000000000000000     
  0.90625000000000000       0.40625000000000000        0.0000000000000000     
  0.93750000000000000       0.40625000000000000        0.0000000000000000     
  0.96875000000000000       0.40625000000000000        0.0000000000000000     
   1.0000000000000000       0.40625000000000000        0.0000000000000000     
  0.87500000000000000       0.43750000000000000        0.0000000000000000     
  0.90625000000000000       0.43750000000000000        0.0000000000000000     
  0.93750000000000000       0.43750000000000000        0.0000000000000000     
  0.96875000000000000       0.43750000000000000        0.0000000000000000     
   1.0000000000000000       0.43750000000000000        0.0000000000000000     
  0.87500000000000000       0.46875000000000000        0.0000000000000000     
  0.90625000000000000       0.46875000000000000        0.0000000000000000     
  0.93750000000000000       0.46875000000000000        0.0000000000000000     
  0.96875000000000000       0.46875000000000000        0.0000000000000000     
   1.0000000000000000       0.46875000000000000        0.0000000000000000     
  0.87500000000000000       0.50000000000000000        0.0000000000000000     
  0.90625000000000000       0.50000000000000000        0.0000000000000000     
  0.93750000000000000       0.50000000000000000        0.0000000000000000     
  0.96875000000000000       0.50000000000000000        0.0000000000000000     
   1.0000000000000000       0.50000000000000000        0.0000000000000000     
   0.0000000000000000       0.50000000000000000        0.0000000000000000     
   3.1250000000000000E-002  0.50000000000000000        0.0000000000000000     
   6.2500000000000000E-002  0.50000000000000000        0.0000000000000000     
   9.3750000000000000E-002  0.50000000000000000        0.0000000000000000     
  0.12500000000000000       0.50000000000000000        0.0000000000000000     
   0.0000000000000000       0.53125000000000000        0.0000000000000000     
   3.1250000000000000E-002  0.53125000000000000        0.0000000000000000     
   6.2500000000000000E-002  0.53125000000000000        0.0000000000000000     
   9.3750000000000000E-002  0.53125000000000000        0.0000000000000000     
  0.12500000000000000       0.53125000000000000        0.0000000000000000     
   0.0000000000000000       0.56250000000000000        0.0000000000000000     
   3.1250000000000000E-002  0.56250000000000000        0.0000000000000000     
   6.2500000000000000E-002  0.56250000000000000        0.0000000000000000     
   9.3750000000000000E-002  0.56250000000000000        0.0000000000000000     
  0.12500000000000000       0.56250000000000000        0.0000000000000000     
   0.0000000000000000       0.59375000000000000        0.0000000000000000     
   3.1250000000000000E-002  0.59375000000000000        0.0000000000000000     
   6.2500000000000000E-002  0.59375000000000000        0.0000000000000000     
   9.3750000000000000E-002  0.59375000000000000        0.0000000000000000     
  0.12500000000000000       0.59375000000000000        0.0000000000000000     
   0.0000000000000000       0.62500000000000000        0.0000000000000000     
   3.1250000000000000E-002  0.62500000000000000        0.0000000000000000     
   6.2500000000000000E-002  0.62500000000000000        0.0000000000000000     
   9.3750000000000000E-002  0.62500000000000000        0.0000000000000000     
  0.12500000000000000       0.62500000000000000        0.0000000000000000     
  0.12500000000000000       0.50000000000000000        0.0000000000000000     
  0.15625000000000000       0.50000000000000000        0.0000000000000000     
  0.18750000000000000       0.50000000000000000        0.0000000000000000     
  0.21875000000000000       0.50000000000000000        0.0000000000000000     
  0.25000000000000000       0.50000000000000000        0.0000000000000000     
  0.12500000000000000       0.53125000000000000        0.0000000000000000     
  0.15625000000000000       0.53125000000000000        0.0000000000000000     
  0.18750000000000000       0.53125000000000000        0.0000000000000000     
  0.21875000000000000       0.53125000000000000        0.0000000000000000     
  0.25000000000000000       0.53125000000000000        0.0000000000000000     
  0.12500000000000000       0.56250000000000000        0.0000000000000000     
  0.15625000000000000       0.56250000000000000        0.0000000000000000     
  0.18750000000000000       0.56250000000000000        0.0000000000000000     
  0.21875000000000000       0.56250000000000000        0.0000000000000000     
  0.25000000000000000       0.56250000000000000        0.0000000000000000     
  0.12500000000000000       0.59375000000000000        0.0000000000000000     
  0.15625000000000000       0.59375000000000000        0.0000000000000000     
  0.18750000000000000       0.59375000000000000        0.0000000000000000     
  0.21875000000000000       0.59375000000000000        0.0000000000000000     
  0.25000000000000000       0.59375000000000000        0.0000000000000000     
  0.12500000000000000       0.62500000000000000        0.0000000000000000     
  0.15625000000000000       0.62500000000000000        0.0000000000000000     
  0.18750000000000000       0.62500000000000000        0.0000000000000000     
  0.21875000000000000       0.62500000000000000        0.0000000000000000     
  0.25000000000000000       0.62500000000000000        0.0000000000000000     
  0.25000000000000000       0.50000000000000000        0.0000000000000000     
  0.28125000000000000       0.50000000000000000        0.0000000000000000     
  0.31250000000000000       0.50000000000000000        0.0000000000000000     
  0.34375000000000000       0.50000000000000000        0.0000000000000000     
  0.37500000000000000       0.50000000000000000        0.0000000000000000     
  0.25000000000000000       0.53125000000000000        0.0000000000000000     
  0.28125000000000000       0.53125000000000000        0.0000000000000000     
  0.31250000000000000       0.53125000000000000        0.0000000000000000     
  0.34375000000000000       0.53125000000000000        0.0000000000000000     
  0.37500000000000000       0.53125000000000000        0.0000000000000000     
  0.25000000000000000       0.56250000000000000        0.0000000000000000     
  0.28125000000000000       0.56250000000000000        0.0000000000000000     
  0.31250000000000000       0.56250000000000000        0.0000000000000000     
  0.34375000000000000       0.56250000000000000        0.0000000000000000     
  0.37500000000000000       0.56250000000000000        0.0000000000000000     
  0.25000000000000000       0.59375000000000000        0.0000000000000000     
  0.28125000000000000       0.59375000000000000        0.0000000000000000     
  0.31250000000000000       0.59375000000000000        0.0000000000000000     
  0.34375000000000000       0.59375000000000000        0.0000000000000000     
  0.37500000000000000       0.59375000000000000        0.0000000000000000     
  0.25000000000000000       0.62500000000000000        0.0000000000000000     
  0.28125000000000000       0.62500000000000000        0.0000000000000000     
  0.31250000000000000       0.62500000000000000        0.0000000000000000     
  0.34375000000000000       0.62500000000000000        0.0000000000000000     
  0.37500000000000000       0.62500000000000000        0.0000000000000000     
  0.37500000000000000       0.50000000000000000        0.0000000000000000     
  0.40625000000000000       0.50000000000000000        0.0000000000000000     
  0.43750000000000000       0.50000000000000000        0.0000000000000000     
  0.46875000000000000       0.50000000000000000        0.0000000000000000     
  0.50000000000000000       0.50000000000000000        0.0000000000000000     
  0.37500000000000000       0.53125000000000000        0.0000000000000000     
  0.40625000000000000       0.53125000000000000        0.0000000000000000     
  0.43750000000000000       0.53125000000000000        0.0000000000000000     
  0.46875000000000000       0.53125000000000000        0.0000000000000000     
  0.50000000000000000       0.53125000000000000        0.0000000000000000     
  0.37500000000000000       0.56250000000000000        0.0000000000000000     
  0.40625000000000000       0.56250000000000000        0.0000000000000000     
  0.43750000000000000       0.56250000000000000        0.0000000000000000     
  0.46875000000000000       0.56250000000000000        0.0000000000000000     
  0.50000000000000000       0.56250000000000000        0.0000000000000000     
  0.37500000000000000       0.59375000000000000        0.0000000000000000     
  0.40625000000000000       0.59375000000000000        0.0000000000000000     
  0.43750000000000000       0.59375000000000000        0.0000000000000000     
  0.46875000000000000       0.59375000000000000        0.0000000000000000     
  0.50000000000000000       0.59375000000000000        0.0000000000000000     
  0.37500000000000000       0.62500000000000000        0.0000000000000000     
  0.40625000000000000       0.62500000000000000        0.0000000000000000     
  0.43750000000000000       0.62500000000000000        0.0000000000000000     
  0.46875000000000000       0.62500000000000000        0.0000000000000000     
  0.50000000000000000       0.62500000000000000        0.0000000000000000     
  0.50000000000000000       0.50000000000000000        0.0000000000000000     
  0.53125000000000000       0.50000000000000000        0.0000000000000000     
  0.56250000000000000       0.50000000000000000        0.0000000000000000     
  0.59375000000000000       0.50000000000000000        0.0000000000000000     
  0.62500000000000000       0.50000000000000000        0.0000000000000000     
  0.50000000000000000       0.53125000000000000        0.0000000000000000     
  0.53125000000000000       0.53125000000000000        0.0000000000000000     
  0.56250000000000000       0.53125000000000000        0.0000000000000000     
  0.59375000000000000       0.53125000000000000        0.0000000000000000     
  0.62500000000000000       0.53125000000000000        0.0000000000000000     
  0.50000000000000000       0.56250000000000000        0.0000000000000000     
  0.53125000000000000       0.56250000000000000        0.0000000000000000     
  0.56250000000000000       0.56250000000000000        0.0000000000000000     
  0.59375000000000000       0.56250000000000000        0.0000000000000000     
  0.62500000000000000       0.56250000000000000        0.0000000000000000     
  0.50000000000000000       0.59375000000000000        0.0000000000000000     
  0.53125000000000000       0.59375000000000000        0.0000000000000000     
  0.56250000000000000       0.59375000000000000        0.0000000000000000     
  0.59375000000000000       0.59375000000000000        0.0000000000000000     
  0.62500000000000000       0.59375000000000000        0.0000000000000000     
  0.50000000000000000       0.62500000000000000        0.0000000000000000     
  0.53125000000000000       0.62500000000000000        0.0000000000000000     
  0.56250000000000000       0.62500000000000000        0.0000000000000000     
  0.59375000000000000       0.62500000000000000        0.0000000000000000     
  0.62500000000000000       0.62500000000000000        0.0000000000000000     
  0.62500000000000000       0.50000000000000000        0.0000000000000000     
  0.65625000000000000       0.50000000000000000        0.0000000000000000     
  0.68750000000000000       0.50000000000000000        0.0000000000000000     
  0.71875000000000000       0.50000000000000000        0.0000000000000000     
  0.75000000000000000       0.50000000000000000        0.0000000000000000     
  0.62500000000000000       0.53125000000000000        0.0000000000000000     
  0.65625000000000000       0.53125000000000000        0.0000000000000000     
  0.68750000000000000       0.53125000000000000        0.0000000000000000     
  0.71875000000000000       0.53125000000000000        0.0000000000000000     
  0.75000000000000000       0.53125000000000000        0.0000000000000000     
  0.62500000000000000       0.56250000000000000        0.0000000000000000     
  0.65625000000000000       0.56250000000000000        0.0000000000000000     
  0.68750000000000000       0.56250000000000000        0.0000000000000000     
  0.71875000000000000       0.56250000000000000        0.0000000000000000     
  0.75000000000000000       0.56250000000000000        0.0000000000000000     
  0.62500000000000000       0.59375000000000000        0.0000000000000000     
  0.65625000000000000       0.59375000000000000        0.0000000000000000     
  0.68750000000000000       0.59375000000000000        0.0000000000000000     
  0.71875000000000000       0.59375000000000000        0.0000000000000000     
  0.75000000000000000       0.59375000000000000        0.0000000000000000     
  0.62500000000000000       0.62500000000000000        0.0000000000000000     
  0.65625000000000000       0.62500000000000000        0.0000000000000000     
  0.68750000000000000       0.62500000000000000        0.0000000000000000     
  0.71875000000000000       0.62500000000000000        0.0000000000000000     
  0.75000000000000000       0.62500000000000000        0.0000000000000000     
  0.75000000000000000       0.50000000000000000        0.0000000000000000     
  0.78125000000000000       0.50000000000000000        0.0000000000000000     
  0.81250000000000000       0.50000000000000000        0.0000000000000000     
  0.84375000000000000       0.50000000000000000        0.0000000000000000     
  0.87500000000000000       0.50000000000000000        0.0000000000000000     
  0.75000000000000000       0.53125000000000000        0.0000000000000000     
  0.78125000000000000       0.53125000000000000        0.0000000000000000     
  0.81250000000000000       0.53125000000000000        0.0000000000000000     
  0.84375000000000000       0.53125000000000000        0.0000000000000000     
  0.87500000000000000       0.53125000000000000        0.0000000000000000     
  0.75000000000000000       0.56250000000000000        0.0000000000000000     
  0.78125000000000000       0.56250000000000000        0.0000000000000000     
  0.81250000000000000       0.56250000000000000        0.0000000000000000     
  0.84375000000000000       0.56250000000000000        0.0000000000000000     
  0.87500000000000000       0.56250000000000000        0.0000000000000000     
  0.75000000000000000       0.59375000000000000        0.0000000000000000     
  0.78125000000000000       0.59375000000000000        0.0000000000000000     
  0.81250000000000000       0.59375000000000000        0.0000000000000000     
  0.84375000000000000       0.59375000000000000        0.0000000000000000     
  0.87500000000000000       0.59375000000000000        0.0000000000000000     
  0.75000000000000000       0.62500000000000000        0.0000000000000000     
  0.78125000000000000       0.62500000000000000        0.0000000000000000     
  0.81250000000000000       0.62500000000000000        0.0000000000000000     
  0.84375000000000000       0.62500000000000000        0.0000000000000000     
  0.87500000000000000       0.62500000000000000        0.0000000000000000     
  0.87500000000000000       0.50000000000000000        0.0000000000000000     
  0.90625000000000000       0.50000000000000000        0.0000000000000000     
  0.93750000000000000       0.50000000000000000        0.0000000000000000     
  0.96875000000000000       0.50000000000000000        0.0000000000000000     
   1.0000000000000000       0.50000000000000000        0.0000000000000000     
  0.87500000000000000       0.53125000000000000        0.0000000000000000     
  0.90625000000000000       0.53125000000000000        0.0000000000000000     
  0.93750000000000000       0.53125000000000000        0.0000000000000000     
  0.96875000000000000       0.53125000000000000        0.0000000000000000     
   1.0000000000000000       0.53125000000000000        0.0000000000000000     
  0.87500000000000000       0.56250000000000000        0.0000000000000000     
  0.90625000000000000       0.56250000000000000        0.0000000000000000     
  0.93750000000000000       0.56250000000000000        0.0000000000000000     
  0.96875000000000000       0.56250000000000000        0.0000000000000000     
   1.0000000000000000       0.56250000000000000        0.0000000000000000     
  0.87500000000000000       0.59375000000000000        0.0000000000000000     
  0.90625000000000000       0.59375000000000000        0.0000000000000000     
  0.93750000000000000       0.59375000000000000        0.0000000000000000     
  0.96875000000000000       0.59375000000000000        0.0000000000000000     
   1.0000000000000000       0.59375000000000000        0.0000000000000000     
  0.87500000000000000       0.62500000000000000        0.0000000000000000     
  0.90625000000000000       0.62500000000000000        0.0000000000000000     
  0.93750000000000000       0.62500000000000000        0.0000000000000000     
  0.96875000000000000       0.62500000000000000        0.0000000000000000     
   1.0000000000000000       0.62500000000000000        0.0000000000000000     
   0.0000000000000000       0.62500000000000000        0.0000000000000000     
   3.1250000000000000E-002  0.62500000000000000        0.0000000000000000     
   6.2500000000000000E-002  0.62500000000000000        0.0000000000000000     
   9.3750000000000000E-002  0.62500000000000000        0.0000000000000000     
  0.12500000000000000       0.62500000000000000        0.0000000000000000     
   0.0000000000000000       0.65625000000000000        0.0000000000000000     
   3.1250000000000000E-002  0.65625000000000000        0.0000000000000000     
   6.2500000000000000E-002  0.65625000000000000        0.0000000000000000     
   9.3750000000000000E-002  0.65625000000000000        0.0000000000000000     
  0.12500000000000000       0.65625000000000000        0.0000000000000000     
   0.0000000000000000       0.68750000000000000        0.0000000000000000     
   3.1250000000000000E-002  0.68750000000000000        0.0000000000000000     
   6.2500000000000000E-002  0.68750000000000000        0.0000000000000000     
   9.3750000000000000E-002  0.68750000000000000        0.0000000000000000     
  0.12500000000000000       0.68750000000000000        0.0000000000000000     
   0.0000000000000000       0.71875000000000000        0.0000000000000000     
   3.1250000000000000E-002  0.71875000000000000        0.0000000000000000     
   6.2500000000000000E-002  0.71875000000000000        0.0000000000000000     
   9.3750000000000000E-002  0.71875000000000000        0.0000000000000000     
  0.12500000000000000       0.71875000000000000        0.0000000000000000     
   0.0000000000000000       0.75000000000000000        0.0000000000000000     
   3.1250000000000000E-002  0.75000000000000000        0.0000000000000000     
   6.2500000000000000E-002  0.75000000000000000        0.0000000000000000     
   9.3750000000000000E-002  0.75000000000000000        0.0000000000000000     
  0.12500000000000000       0.75000000000000000        0.0000000000000000     
  0.12500000000000000       0.62500000000000000        0.0000000000000000     
  0.15625000000000000       0.62500000000000000        0.0000000000000000     
  0.18750000000000000       0.62500000000000000        0.0000000000000000     
  0.21875000000000000       0.62500000000000000        0.0000000000000000     
  0.25000000000000000       0.62500000000000000        0.0000000000000000     
  0.12500000000000000       0.65625000000000000        0.0000000000000000     
  0.15625000000000000       0.65625000000000000        0.0000000000000000     
  0.18750000000000000       0.65625000000000000        0.0000000000000000     
  0.21875000000000000       0.65625000000000000        0.0000000000000000     
  0.25000000000000000       0.65625000000000000        0.0000000000000000     
  0.12500000000000000       0.68750000000000000        0.0000000000000000     
  0.15625000000000000       0.68750000000000000        0.0000000000000000     
  0.18750000000000000       0.68750000000000000        0.0000000000000000     
  0.21875000000000000       0.68750000000000000        0.0000000000000000     
  0.25000000000000000       0.68750000000000000        0.0000000000000000     
  0.12500000000000000       0.71875000000000000        0.0000000000000000     
  0.15625000000000000       0.71875000000000000        0.0000000000000000     
  0.18750000000000000       0.71875000000000000        0.0000000000000000     
  0.21875000000000000       0.71875000000000000        0.0000000000000000     
  0.25000000000000000       0.71875000000000000        0.0000000000000000     
  0.12500000000000000       0.75000000000000000        0.0000000000000000     
  0.15625000000000000       0.75000000000000000        0.0000000000000000     
  0.18750000000000000       0.75000000000000000        0.0000000000000000     
  0.21875000000000000       0.75000000000000000        0.0000000000000000     
  0.25000000000000000       0.75000000000000000        0.0000000000000000     
  0.25000000000000000       0.62500000000000000        0.0000000000000000     
  0.28125000000000000       0.62500000000000000        0.0000000000000000     
  0.31250000000000000       0.62500000000000000        0.0000000000000000     
  0.34375000000000000       0.62500000000000000        0.0000000000000000     
  0.37500000000000000       0.62500000000000000        0.0000000000000000     
  0.25000000000000000       0.65625000000000000        0.0000000000000000     
  0.28125000000000000       0.65625000000000000        0.0000000000000000     
  0.31250000000000000       0.65625000000000000        0.0000000000000000     
  0.34375000000000000       0.65625000000000000        0.0000000000000000     
  0.37500000000000000       0.65625000000000000        0.0000000000000000     
  0.25000000000000000       0.68750000000000000        0.0000000000000000     
  0.28125000000000000       0.68750000000000000        0.0000000000000000     
  0.31250000000000000       0.68750000000000000        0.0000000000000000     
  0.34375000000000000       0.68750000000000000        0.0000000000000000     
  0.37500000000000000       0.68750000000000000        0.0000000000000000     
  0.25000000000000000       0.71875000000000000        0.0000000000000000     
  0.28125000000000000       0.71875000000000000        0.0000000000000000     
  0.31250000000000000       0.71875000000000000        0.0000000000000000     
  0.34375000000000000       0.71875000000000000        0.0000000000000000     
  0.37500000000000000       0.71875000000000000        0.0000000000000000     
  0.25000000000000000       0.75000000000000000        0.0000000000000000     
  0.28125000000000000       0.75000000000000000        0.0000000000000000     
  0.31250000000000000       0.75000000000000000        0.0000000000000000     
  0.34375000000000000       0.75000000000000000        0.0000000000000000     
  0.37500000000000000       0.75000000000000000        0.0000000000000000     
  0.37500000000000000       0.62500000000000000        0.0000000000000000     
  0.40625000000000000       0.62500000000000000        0.0000000000000000     
  0.43750000000000000       0.62500000000000000        0.0000000000000000     
  0.46875000000000000       0.62500000000000000        0.0000000000000000     
  0.50000000000000000       0.62500000000000000        0.0000000000000000     
  0.37500000000000000       0.65625000000000000        0.0000000000000000     
  0.40625000000000000       0.65625000000000000        0.0000000000000000     
  0.43750000000000000       0.65625000000000000        0.0000000000000000     
  0.46875000000000000       0.65625000000000000        0.0000000000000000     
  0.50000000000000000       0.65625000000000000        0.0000000000000000     
  0.37500000000000000       0.68750000000000000        0.0000000000000000     
  0.40625000000000000       0.68750000000000000        0.0000000000000000     
  0.43750000000000000       0.68750000000000000        0.0000000000000000     
  0.46875000000000000       0.68750000000000000        0.0000000000000000     
  0.50000000000000000       0.68750000000000000        0.0000000000000000     
  0.37500000000000000       0.71875000000000000        0.0000000000000000     
  0.40625000000000000       0.71875000000000000        0.0000000000000000     
  0.43750000000000000       0.71875000000000000        0.0000000000000000     
  0.46875000000000000       0.71875000000000000        0.0000000000000000     
  0.50000000000000000       0.71875000000000000        0.0000000000000000     
  0.37500000000000000       0.75000000000000000        0.0000000000000000     
  0.40625000000000000       0.75000000000000000        0.0000000000000000     
  0.43750000000000000       0.75000000000000000        0.0000000000000000     
  0.46875000000000000       0.75000000000000000        0.0000000000000000     
  0.50000000000000000       0.75000000000000000        0.0000000000000000     
  0.50000000000000000       0.62500000000000000        0.0000000000000000     
  0.53125000000000000       0.62500000000000000        0.0000000000000000     
  0.56250000000000000       0.62500000000000000        0.0000000000000000     
  0.59375000000000000       0.62500000000000000        0.0000000000000000     
  0.62500000000000000       0.62500000000000000        0.0000000000000000     
  0.50000000000000000       0.65625000000000000        0.0000000000000000     
  0.53125000000000000       0.65625000000000000        0.0000000000000000     
  0.56250000000000000       0.65625000000000000        0.0000000000000000     
  0.59375000000000000       0.65625000000000000        0.0000000000000000     
  0.62500000000000000       0.65625000000000000        0.0000000000000000     
  0.50000000000000000       0.68750000000000000        0.0000000000000000     
  0.53125000000000000       0.68750000000000000        0.0000000000000000     
  0.56250000000000000       0.68750000000000000        0.0000000000000000     
  0.59375000000000000       0.68750000000000000        0.0000000000000000     
  0.62500000000000000       0.68750000000000000        0.0000000000000000     
  0.50000000000000000       0.71875000000000000        0.0000000000000000     
  0.53125000000000000       0.71875000000000000        0.0000000000000000     
  0.56250000000000000       0.71875000000000000        0.0000000000000000     
  0.59375000000000000       0.71875000000000000        0.0000000000000000     
  0.62500000000000000       0.71875000000000000        0.0000000000000000     
  0.50000000000000000       0.75000000000000000        0.0000000000000000     
  0.53125000000000000       0.75000000000000000        0.0000000000000000     
  0.56250000000000000       0.75000000000000000        0.0000000000000000     
  0.59375000000000000       0.75000000000000000        0.0000000000000000     
  0.62500000000000000       0.75000000000000000        0.0000000000000000     
  0.62500000000000000       0.62500000000000000        0.0000000000000000     
  0.65625000000000000       0.62500000000000000        0.0000000000000000     
  0.68750000000000000       0.62500000000000000        0.0000000000000000     
  0.71875000000000000       0.62500000000000000        0.0000000000000000     
  0.75000000000000000       0.62500000000000000        0.0000000000000000     
  0.62500000000000000       0.65625000000000000        0.0000000000000000     
  0.65625000000000000       0.65625000000000000        0.0000000000000000     
  0.68750000000000000       0.65625000000000000        0.0000000000000000     
  0.71875000000000000       0.65625000000000000        0.0000000000000000     
  0.75000000000000000       0.65625000000000000        0.0000000000000000     
  0.62500000000000000       0.68750000000000000        0.0000000000000000     
  0.65625000000000000       0.68750000000000000        0.0000000000000000     
  0.68750000000000000       0.68750000000000000        0.0000000000000000     
  0.71875000000000000       0.68750000000000000        0.0000000000000000     
  0.75000000000000000       0.68750000000000000        0.0000000000000000     
  0.62500000000000000       0.71875000000000000        0.0000000000000000     
  0.65625000000000000       0.71875000000000000        0.0000000000000000     
  0.68750000000000000       0.71875000000000000        0.0000000000000000     
  0.71875000000000000       0.71875000000000000        0.0000000000000000     
  0.75000000000000000       0.71875000000000000        0.0000000000000000     
  0.62500000000000000       0.75000000000000000        0.0000000000000000     
  0.65625000000000000       0.75000000000000000        0.0000000000000000     
  0.68750000000000000       0.75000000000000000        0.0000000000000000     
  0.71875000000000000       0.75000000000000000        0.0000000000000000     
  0.75000000000000000       0.75000000000000000        0.0000000000000000     
  0.75000000000000000       0.62500000000000000        0.0000000000000000     
  0.78125000000000000       0.62500000000000000        0.0000000000000000     
  0.81250000000000000       0.62500000000000000        0.0000000000000000     
  0.84375000000000000       0.62500000000000000        0.0000000000000000     
  0.87500000000000000       0.62500000000000000        0.0000000000000000     
  0.75000000000000000       0.65625000000000000        0.0000000000000000     
  0.78125000000000000       0.65625000000000000        0.0000000000000000     
  0.81250000000000000       0.65625000000000000        0.0000000000000000     
  0.84375000000000000       0.65625000000000000        0.0000000000000000     
  0.87500000000000000       0.65625000000000000        0.0000000000000000     
  0.75000000000000000       0.68750000000000000        0.0000000000000000     
  0.78125000000000000       0.68750000000000000        0.0000000000000000     
  0.81250000000000000       0.68750000000000000        0.0000000000000000     
  0.84375000000000000       0.68750000000000000        0.0000000000000000     
  0.87500000000000000       0.68750000000000000        0.0000000000000000     
  0.75000000000000000       0.71875000000000000        0.0000000000000000     
  0.78125000000000000       0.71875000000000000        0.0000000000000000     
  0.81250000000000000       0.71875000000000000        0.0000000000000000     
  0.84375000000000000       0.71875000000000000        0.0000000000000000     
  0.87500000000000000       0.71875000000000000        0.0000000000000000     
  0.75000000000000000       0.75000000000000000        0.0000000000000000     
  0.78125000000000000       0.75000000000000000        0.0000000000000000     
  0.81250000000000000       0.75000000000000000        0.0000000000000000     
  0.84375000000000000       0.75000000000000000        0.0000000000000000     
  0.87500000000000000       0.75000000000000000        0.0000000000000000     
  0.87500000000000000       0.62500000000000000        0.0000000000000000     
  0.90625000000000000       0.62500000000000000        0.0000000000000000     
  0.93750000000000000       0.62500000000000000        0.0000000000000000     
  0.96875000000000000       0.62500000000000000        0.0000000000000000     
   1.0000000000000000       0.62500000000000000        0.0000000000000000     
  0.87500000000000000       0.65625000000000000        0.0000000000000000     
  0.90625000000000000       0.65625000000000000        0.0000000000000000     
  0.93750000000000000       0.65625000000000000        0.0000000000000000     
  0.96875000000000000       0.65625000000000000        0.0000000000000000     
   1.0000000000000000       0.65625000000000000        0.0000000000000000     
  0.87500000000000000       0.68750000000000000        0.0000000000000000     
  0.90625000000000000       0.68750000000000000        0.0000000000000000     
  0.93750000000000000       0.68750000000000000        0.0000000000000000     
  0.96875000000000000       0.68750000000000000        0.0000000000000000     
   1.0000000000000000       0.68750000000000000        0.0000000000000000     
  0.87500000000000000       0.71875000000000000        0.0000000000000000     
  0.90625000000000000       0.71875000000000000        0.0000000000000000     
  0.93750000000000000       0.71875000000000000        0.0000000000000000     
  0.96875000000000000       0.71875000000000000        0.0000000000000000     
   1.0000000000000000       0.71875000000000000        0.0000000000000000     
  0.87500000000000000       0.75000000000000000        0.0000000000000000     
  0.90625000000000000       0.75000000000000000        0.0000000000000000     
  0.93750000000000000       0.75000000000000000        0.0000000000000000     
  0.96875000000000000       0.75000000000000000        0.0000000000000000     
   1.0000000000000000       0.75000000000000000        0.0000000000000000     
   0.0000000000000000       0.75000000000000000        0.0000000000000000     
   3.1250000000000000E-002  0.75000000000000000        0.0000000000000000     
   6.2500000000000000E-002  0.75000000000000000        0.0000000000000000     
   9.3750000000000000E-002  0.75000000000000000        0.0000000000000000     
  0.12500000000000000       0.75000000000000000        0.0000000000000000     
   0.0000000000000000       0.78125000000000000        0.0000000000000000     
   3.1250000000000000E-002  0.78125000000000000        0.0000000000000000     
   6.2500000000000000E-002  0.78125000000000000        0.0000000000000000     
   9.3750000000000000E-002  0.78125000000000000        0.0000000000000000     
  0.12500000000000000       0.78125000000000000        0.0000000000000000     
   0.0000000000000000       0.81250000000000000        0.0000000000000000     
   3.1250000000000000E-002  0.81250000000000000        0.0000000000000000     
   6.2500000000000000E-002  0.81250000000000000        0.0000000000000000     
   9.3750000000000000E-002  0.81250000000000000        0.0000000000000000     
  0.12500000000000000       0.81250000000000000        0.0000000000000000     
   0.0000000000000000       0.84375000000000000        0.0000000000000000     
   3.1250000000000000E-002  0.84375000000000000        0.0000000000000000     
   6.2500000000000000E-002  0.84375000000000000        0.0000000000000000     
   9.3750000000000000E-002  0.84375000000000000        0.0000000000000000     
  0.12500000000000000       0.84375000000000000        0.0000000000000000     
   0.0000000000000000       0.87500000000000000        0.0000000000000000     
   3.1250000000000000E-002  0.87500000000000000        0.0000000000000000     
   6.2500000000000000E-002  0.87500000000000000        0.0000000000000000     
   9.3750000000000000E-002  0.87500000000000000        0.0000000000000000     
  0.12500000000000000       0.87500000000000000        0.0000000000000000     
  0.12500000000000000       0.75000000000000000        0.0000000000000000     
  0.15625000000000000       0.75000000000000000        0.0000000000000000     
  0.18750000000000000       0.75000000000000000        0.0000000000000000     
  0.21875000000000000       0.75000000000000000        0.0000000000000000     
  0.25000000000000000       0.75000000000000000        0.0000000000000000     
  0.12500000000000000       0.78125000000000000        0.0000000000000000     
  0.15625000000000000       0.78125000000000000        0.0000000000000000     
  0.18750000000000000       0.78125000000000000        0.0000000000000000     
  0.21875000000000000       0.78125000000000000        0.0000000000000000     
  0.25000000000000000       0.78125000000000000        0.0000000000000000     
  0.12500000000000000       0.81250000000000000        0.0000000000000000     
  0.15625000000000000       0.81250000000000000        0.0000000000000000     
  0.18750000000000000       0.81250000000000000        0.0000000000000000     
  0.21875000000000000       0.81250000000000000        0.0000000000000000     
  0.25000000000000000       0.81250000000000000        0.0000000000000000     
  0.12500000000000000       0.84375000000000000        0.0000000000000000     
  0.15625000000000000       0.84375000000000000        0.0000000000000000     
  0.18750000000000000       0.84375000000000000        0.0000000000000000     
  0.21875000000000000       0.84375000000000000        0.0000000000000000     
  0.25000000000000000       0.84375000000000000        0.0000000000000000     
  0.12500000000000000       0.87500000000000000        0.0000000000000000     
  0.15625000000000000       0.87500000000000000        0.0000000000000000     
  0.18750000000000000       0.87500000000000000        0.0000000000000000     
  0.21875000000000000       0.87500000000000000        0.0000000000000000     
  0.25000000000000000       0.87500000000000000        0.0000000000000000     
  0.25000000000000000       0.75000000000000000        0.0000000000000000     
  0.28125000000000000       0.75000000000000000        0.0000000000000000     
  0.31250000000000000       0.75000000000000000        0.0000000000000000     
  0.34375000000000000       0.75000000000000000        0.0000000000000000     
  0.37500000000000000       0.75000000000000000        0.0000000000000000     
  0.25000000000000000       0.78125000000000000        0.0000000000000000     
  0.28125000000000000       0.78125000000000000        0.0000000000000000     
  0.31250000000000000       0.78125000000000000        0.0000000000000000     
  0.34375000000000000       0.78125000000000000        0.0000000000000000     
  0.37500000000000000       0.78125000000000000        0.0000000000000000     
  0.25000000000000000       0.81250000000000000        0.0000000000000000     
  0.28125000000000000       0.81250000000000000        0.0000000000000000     
  0.31250000000000000       0.81250000000000000        0.0000000000000000     
  0.34375000000000000       0.81250000000000000        0.0000000000000000     
  0.37500000000000000       0.81250000000000000        0.0000000000000000     
  0.25000000000000000       0.84375000000000000        0.0000000000000000     
  0.28125000000000000       0.84375000000000000        0.0000000000000000     
  0.31250000000000000       0.84375000000000000        0.0000000000000000     
  0.34375000000000000       0.84375000000000000        0.0000000000000000     
  0.37500000000000000       0.84375000000000000        0.0000000000000000     
  0.25000000000000000       0.87500000000000000        0.0000000000000000     
  0.28125000000000000       0.87500000000000000        0.0000000000000000     
  0.31250000000000000       0.87500000000000000        0.0000000000000000     
  0.34375000000000000       0.87500000000000000        0.0000000000000000     
  0.37500000000000000       0.87500000000000000        0.0000000000000000     
  0.37500000000000000       0.75000000000000000        0.0000000000000000     
  0.40625000000000000       0.75000000000000000        0.0000000000000000     
  0.43750000000000000       0.75000000000000000        0.0000000000000000     
  0.46875000000000000       0.75000000000000000        0.0000000000000000     
  0.50000000000000000       0.75000000000000000        0.0000000000000000     
  0.37500000000000000       0.78125000000000000        0.0000000000000000     
  0.40625000000000000       0.78125000000000000        0.0000000000000000     
  0.43750000000000000       0.78125000000000000        0.0000000000000000     
  0.46875000000000000       0.78125000000000000        0.0000000000000000     
  0.50000000000000000       0.78125000000000000        0.0000000000000000     
  0.37500000000000000       0.81250000000000000        0.0000000000000000     
  0.40625000000000000       0.81250000000000000        0.0000000000000000     
  0.43750000000000000       0.81250000000000000        0.0000000000000000     
  0.46875000000000000       0.81250000000000000        0.0000000000000000     
  0.50000000000000000       0.81250000000000000        0.0000000000000000     
  0.37500000000000000       0.84375000000000000        0.0000000000000000     
  0.40625000000000000       0.84375000000000000        0.0000000000000000     
  0.43750000000000000       0.84375000000000000        0.0000000000000000     
  0.46875000000000000       0.84375000000000000        0.0000000000000000     
  0.50000000000000000       0.84375000000000000        0.0000000000000000     
  0.37500000000000000       0.87500000000000000        0.0000000000000000     
  0.40625000000000000       0.87500000000000000        0.0000000000000000     
  0.43750000000000000       0.87500000000000000        0.0000000000000000     
  0.46875000000000000       0.87500000000000000        0.0000000000000000     
  0.50000000000000000       0.87500000000000000        0.0000000000000000     
  0.50000000000000000       0.75000000000000000        0.0000000000000000     
  0.53125000000000000       0.75000000000000000        0.0000000000000000     
  0.56250000000000000       0.75000000000000000        0.0000000000000000     
  0.59375000000000000       0.75000000000000000        0.0000000000000000     
  0.62500000000000000       0.75000000000000000        0.0000000000000000     
  0.50000000000000000       0.78125000000000000        0.0000000000000000     
  0.53125000000000000       0.78125000000000000        0.0000000000000000     
  0.56250000000000000       0.78125000000000000        0.0000000000000000     
  0.59375000000000000       0.78125000000000000        0.0000000000000000     
  0.62500000000000000       0.78125000000000000        0.0000000000000000     
  0.50000000000000000       0.81250000000000000        0.0000000000000000     
  0.53125000000000000       0.81250000000000000        0.0000000000000000     
  0.56250000000000000       0.81250000000000000        0.0000000000000000     
  0.59375000000000000       0.81250000000000000        0.0000000000000000     
  0.62500000000000000       0.81250000000000000        0.0000000000000000     
  0.50000000000000000       0.84375000000000000        0.0000000000000000     
  0.53125000000000000       0.84375000000000000        0.0000000000000000     
  0.56250000000000000       0.84375000000000000        0.0000000000000000     
  0.59375000000000000       0.84375000000000000        0.0000000000000000     
  0.62500000000000000       0.84375000000000000        0.0000000000000000     
  0.50000000000000000       0.87500000000000000        0.0000000000000000     
  0.53125000000000000       0.87500000000000000        0.0000000000000000     
  0.56250000000000000       0.87500000000000000        0.0000000000000000     
  0.59375000000000000       0.87500000000000000        0.0000000000000000     
  0.62500000000000000       0.87500000000000000        0.0000000000000000     
  0.62500000000000000       0.75000000000000000        0.0000000000000000     
  0.65625000000000000       0.75000000000000000        0.0000000000000000     
  0.68750000000000000       0.75000000000000000        0.0000000000000000     
  0.71875000000000000       0.75000000000000000        0.0000000000000000     
  0.75000000000000000       0.75000000000000000        0.0000000000000000     
  0.62500000000000000       0.78125000000000000        0.0000000000000000     
  0.65625000000000000       0.78125000000000000        0.0000000000000000     
  0.68750000000000000       0.78125000000000000        0.0000000000000000     
  0.71875000000000000       0.78125000000000000        0.0000000000000000     
  0.75000000000000000       0.78125000000000000        0.0000000000000000     
  0.62500000000000000       0.81250000000000000        0.0000000000000000     
  0.65625000000000000       0.81250000000000000        0.0000000000000000     
  0.68750000000000000       0.81250000000000000        0.0000000000000000     
  0.71875000000000000       0.81250000000000000        0.0000000000000000     
  0.75000000000000000       0.81250000000000000        0.0000000000000000     
  0.62500000000000000       0.84375000000000000        0.0000000000000000     
  0.65625000000000000       0.84375000000000000        0.0000000000000000     
  0.68750000000000000       0.84375000000000000        0.0000000000000000     
  0.71875000000000000       0.84375000000000000        0.0000000000000000     
  0.75000000000000000       0.84375000000000000        0.0000000000000000     
  0.62500000000000000       0.87500000000000000        0.0000000000000000     
  0.65625000000000000       0.87500000000000000        0.0000000000000000     
  0.68750000000000000       0.87500000000000000        0.0000000000000000     
  0.71875000000000000       0.87500000000000000        0.0000000000000000     
  0.75000000000000000       0.87500000000000000        0.0000000000000000     
  0.75000000000000000       0.75000000000000000        0.0000000000000000     
  0.78125000000000000       0.75000000000000000        0.0000000000000000     
  0.81250000000000000       0.75000000000000000        0.0000000000000000     
  0.84375000000000000       0.75000000000000000        0.0000000000000000     
  0.87500000000000000       0.75000000000000000        0.0000000000000000     
  0.75000000000000000       0.78125000000000000        0.0000000000000000     
  0.78125000000000000       0.78125000000000000        0.0000000000000000     
  0.81250000000000000       0.78125000000000000        0.0000000000000000     
  0.84375000000000000       0.78125000000000000        0.0000000000000000     
  0.87500000000000000       0.78125000000000000        0.0000000000000000     
  0.75000000000000000       0.81250000000000000        0.0000000000000000     
  0.78125000000000000       0.81250000000000000        0.0000000000000000     
  0.81250000000000000       0.81250000000000000        0.0000000000000000     
  0.84375000000000000       0.81250000000000000        0.0000000000000000     
  0.87500000000000000       0.81250000000000000        0.0000000000000000     
  0.75000000000000000       0.84375000000000000        0.0000000000000000     
  0.78125000000000000       0.84375000000000000        0.0000000000000000     
  0.81250000000000000       0.84375000000000000        0.0000000000000000     
  0.84375000000000000       0.84375000000000000        0.0000000000000000     
  0.87500000000000000       0.84375000000000000        0.0000000000000000     
  0.75000000000000000       0.87500000000000000        0.0000000000000000     
  0.78125000000000000       0.87500000000000000        0.0000000000000000     
  0.81250000000000000       0.87500000000000000        0.0000000000000000     
  0.84375000000000000       0.87500000000000000        0.0000000000000000     
  0.87500000000000000       0.87500000000000000        0.0000000000000000     
  0.87500000000000000       0.75000000000000000        0.0000000000000000     
  0.90625000000000000       0.75000000000000000        0.0000000000000000     
  0.93750000000000000       0.75000000000000000        0.0000000000000000     
  0.96875000000000000       0.75000000000000000        0.0000000000000000     
   1.0000000000000000       0.75000000000000000        0.0000000000000000     
  0.87500000000000000       0.78125000000000000        0.0000000000000000     
  0.90625000000000000       0.78125000000000000        0.0000000000000000     
  0.93750000000000000       0.78125000000000000        0.0000000000000000     
  0.96875000000000000       0.78125000000000000        0.0000000000000000     
   1.0000000000000000       0.78125000000000000        0.0000000000000000     
  0.87500000000000000       0.81250000000000000        0.0000000000000000     
  0.90625000000000000       0.81250000000000000        0.0000000000000000     
  0.93750000000000000       0.81250000000000000        0.0000000000000000     
  0.96875000000000000       0.81250000000000000        0.0000000000000000     
   1.0000000000000000       0.81250000000000000        0.0000000000000000     
  0.87500000000000000       0.84375000000000000        0.0000000000000000     
  0.90625000000000000       0.84375000000000000        0.0000000000000000     
  0.93750000000000000       0.84375000000000000        0.0000000000000000     
  0.96875000000000000       0.84375000000000000        0.0000000000000000     
   1.0000000000000000       0.84375000000000000        0.0000000000000000     
  0.87500000000000000       0.87500000000000000        0.0000000000000000     
  0.90625000000000000       0.87500000000000000        0.0000000000000000     
  0.93750000000000000       0.87500000000000000        0.0000000000000000     
  0.96875000000000000       0.87500000000000000        0.0000000000000000     
   1.0000000000000000       0.87500000000000000        0.0000000000000000     
   0.0000000000000000       0.87500000000000000        0.0000000000000000     
   3.1250000000000000E-002  0.87500000000000000        0.0000000000000000     
   6.2500000000000000E-002  0.87500000000000000        0.0000000000000000     
   9.3750000000000000E-002  0.87500000000000000        0.0000000000000000     
  0.12500000000000000       0.87500000000000000        0.0000000000000000     
   0.0000000000000000       0.90625000000000000        0.0000000000000000     
   3.1250000000000000E-002  0.90625000000000000        0.0000000000000000     
   6.2500000000000000E-002  0.90625000000000000        0.0000000000000000     
   9.3750000000000000E-002  0.90625000000000000        0.0000000000000000     
  0.12500000000000000       0.90625000000000000        0.0000000000000000     
   0.0000000000000000       0.93750000000000000        0.0000000000000000     
   3.1250000000000000E-002  0.93750000000000000        0.0000000000000000     
   6.2500000000000000E-002  0.93750000000000000        0.0000000000000000     
   9.3750000000000000E-002  0.93750000000000000        0.0000000000000000     
  0.12500000000000000       0.93750000000000000        0.0000000000000000     
   0.0000000000000000       0.96875000000000000        0.0000000000000000     
   3.1250000000000000E-002  0.96875000000000000        0.0000000000000000     
   6.2500000000000000E-002  0.96875000000000000        0.0000000000000000     
   9.3750000000000000E-002  0.96875000000000000        0.0000000000000000     
  0.12500000000000000       0.96875000000000000        0.0000000000000000     
   0.0000000000000000        1.0000000000000000        0.0000000000000000     
   3.1250000000000000E-002   1.0000000000000000        0.0000000000000000     
   6.2500000000000000E-002   1.0000000000000000        0.0000000000000000     
   9.3750000000000000E-002   1.0000000000000000        0.0000000000000000     
  0.12500000000000000        1.0000000000000000        0.0000000000000000     
  0.12500000000000000       0.87500000000000000        0.0000000000000000     
  0.15625000000000000       0.87500000000000000        0.0000000000000000     
  0.18750000000000000       0.87500000000000000        0.0000000000000000     
  0.21875000000000000       0.87500000000000000        0.0000000000000000     
  0.25000000000000000       0.87500000000000000        0.0000000000000000     
  0.12500000000000000       0.90625000000000000        0.0000000000000000     
  0.15625000000000000       0.90625000000000000        0.0000000000000000     
  0.18750000000000000       0.90625000000000000        0.0000000000000000     
  0.21875000000000000       0.90625000000000000        0.0000000000000000     
  0.25000000000000000       0.90625000000000000        0.0000000000000000     
  0.12500000000000000       0.93750000000000000        0.0000000000000000     
  0.15625000000000000       0.93750000000000000        0.0000000000000000     
  0.18750000000000000       0.93750000000000000        0.0000000000000000     
  0.21875000000000000       0.93750000000000000        0.0000000000000000     
  0.25000000000000000       0.93750000000000000        0.0000000000000000     
  0.12500000000000000       0.96875000000000000        0.0000000000000000     
  0.15625000000000000       0.96875000000000000        0.0000000000000000     
  0.18750000000000000       0.96875000000000000        0.0000000000000000     
  0.21875000000000000       0.96875000000000000        0.0000000000000000     
  0.25000000000000000       0.96875000000000000        0.0000000000000000     
  0.12500000000000000        1.0000000000000000        0.0000000000000000     
  0.15625000000000000        1.0000000000000000        0.0000000000000000     
  0.18750000000000000        1.0000000000000000        0.0000000000000000     
  0.21875000000000000        1.0000000000000000        0.0000000000000000     
  0.25000000000000000        1.0000000000000000        0.0000000000000000     
  0.25000000000000000       0.87500000000000000        0.0000000000000000     
  0.28125000000000000       0.87500000000000000        0.0000000000000000     
  0.31250000000000000       0.87500000000000000        0.0000000000000000     
  0.34375000000000000       0.87500000000000000        0.0000000000000000     
  0.37500000000000000       0.87500000000000000        0.0000000000000000     
  0.25000000000000000       0.90625000000000000        0.0000000000000000     
  0.28125000000000000       0.90625000000000000        0.0000000000000000     
  0.31250000000000000       0.90625000000000000        0.0000000000000000     
  0.34375000000000000       0.90625000000000000        0.0000000000000000     
  0.37500000000000000       0.90625000000000000        0.0000000000000000     
  0.25000000000000000       0.93750000000000000        0.0000000000000000     
  0.28125000000000000       0.93750000000000000        0.0000000000000000     
  0.31250000000000000       0.93750000000000000        0.0000000000000000     
  0.34375000000000000       0.93750000000000000        0.0000000000000000     
  0.37500000000000000       0.93750000000000000        0.0000000000000000     
  0.25000000000000000       0.96875000000000000        0.0000000000000000     
  0.28125000000000000       0.96875000000000000        0.0000000000000000     
  0.31250000000000000       0.96875000000000000        0.0000000000000000     
  0.34375000000000000       0.96875000000000000        0.0000000000000000     
  0.37500000000000000       0.96875000000000000        0.0000000000000000     
  0.25000000000000000        1.0000000000000000        0.0000000000000000     
  0.28125000000000000        1.0000000000000000        0.0000000000000000     
  0.31250000000000000        1.0000000000000000        0.0000000000000000     
  0.34375000000000000        1.0000000000000000        0.0000000000000000     
  0.37500000000000000        1.0000000000000000        0.0000000000000000     
  0.37500000000000000       0.87500000000000000        0.0000000000000000     
  0.40625000000000000       0.87500000000000000        0.0000000000000000     
  0.43750000000000000       0.87500000000000000        0.0000000000000000     
  0.46875000000000000       0.87500000000000000        0.0000000000000000     
  0.50000000000000000       0.87500000000000000        0.0000000000000000     
  0.37500000000000000       0.90625000000000000        0.0000000000000000     
  0.40625000000000000       0.90625000000000000        0.0000000000000000     
  0.43750000000000000       0.90625000000000000        0.0000000000000000     
  0.46875000000000000       0.90625000000000000        0.0000000000000000     
  0.50000000000000000       0.90625000000000000        0.0000000000000000     
  0.37500000000000000       0.93750000000000000        0.0000000000000000     
  0.40625000000000000       0.93750000000000000        0.0000000000000000     
  0.43750000000000000       0.93750000000000000        0.0000000000000000     
  0.46875000000000000       0.93750000000000000        0.0000000000000000     
  0.50000000000000000       0.93750000000000000        0.0000000000000000     
  0.37500000000000000       0.96875000000000000        0.0000000000000000     
  0.40625000000000000       0.96875000000000000        0.0000000000000000     
  0.43750000000000000       0.96875000000000000        0.0000000000000000     
  0.46875000000000000       0.96875000000000000        0.0000000000000000     
  0.50000000000000000       0.96875000000000000        0.0000000000000000     
  0.37500000000000000        1.0000000000000000        0.0000000000000000     
  0.40625000000000000        1.0000000000000000        0.0000000000000000     
  0.43750000000000000        1.0000000000000000        0.0000000000000000     
  0.46875000000000000        1.0000000000000000        0.0000000000000000     
  0.50000000000000000        1.0000000000000000        0.0000000000000000     
  0.50000000000000000       0.87500000000000000        0.0000000000000000     
  0.53125000000000000       0.87500000000000000        0.0000000000000000     
  0.56250000000000000       0.87500000000000000        0.0000000000000000     
  0.59375000000000000       0.87500000000000000        0.0000000000000000     
  0.62500000000000000       0.87500000000000000        0.0000000000000000     
  0.50000000000000000       0.90625000000000000        0.0000000000000000     
  0.53125000000000000       0.90625000000000000        0.0000000000000000     
  0.56250000000000000       0.90625000000000000        0.0000000000000000     
  0.59375000000000000       0.90625000000000000        0.0000000000000000     
  0.62500000000000000       0.90625000000000000        0.0000000000000000     
  0.50000000000000000       0.93750000000000000        0.0000000000000000     
  0.53125000000000000       0.93750000000000000        0.0000000000000000     
  0.56250000000000000       0.93750000000000000        0.0000000000000000     
  0.59375000000000000       0.93750000000000000        0.0000000000000000     
  0.62500000000000000       0.93750000000000000        0.0000000000000000     
  0.50000000000000000       0.96875000000000000        0.0000000000000000     
  0.53125000000000000       0.96875000000000000        0.0000000000000000     
  0.56250000000000000       0.96875000000000000        0.0000000000000000     
  0.59375000000000000       0.96875000000000000        0.0000000000000000     
  0.62500000000000000       0.96875000000000000        0.0000000000000000     
  0.50000000000000000        1.0000000000000000        0.0000000000000000     
  0.53125000000000000        1.0000000000000000        0.0000000000000000     
  0.56250000000000000        1.0000000000000000        0.0000000000000000     
  0.59375000000000000        1.0000000000000000        0.0000000000000000     
  0.62500000000000000        1.0000000000000000        0.0000000000000000     
  0.62500000000000000       0.87500000000000000        0.0000000000000000     
  0.65625000000000000       0.87500000000000000        0.0000000000000000     
  0.68750000000000000       0.87500000000000000        0.0000000000000000     
  0.71875000000000000       0.87500000000000000        0.0000000000000000     
  0.75000000000000000       0.87500000000000000        0.0000000000000000     
  0.62500000000000000       0.90625000000000000        0.0000000000000000     
  0.65625000000000000       0.90625000000000000        0.0000000000000000     
  0.68750000000000000       0.90625000000000000        0.0000000000000000     
  0.71875000000000000       0.90625000000000000        0.0000000000000000     
  0.75000000000000000       0.90625000000000000        0.0000000000000000     
  0.62500000000000000       0.93750000000000000        0.0000000000000000     
  0.65625000000000000       0.93750000000000000        0.0000000000000000     
  0.68750000000000000       0.93750000000000000        0.0000000000000000     
  0.71875000000000000       0.93750000000000000        0.0000000000000000     
  0.75000000000000000       0.93750000000000000        0.0000000000000000     
  0.62500000000000000       0.96875000000000000        0.0000000000000000     
  0.65625000000000000       0.96875000000000000        0.0000000000000000     
  0.68750000000000000       0.96875000000000000        0.0000000000000000     
  0.71875000000000000       0.96875000000000000        0.0000000000000000     
  0.75000000000000000       0.96875000000000000        0.0000000000000000     
  0.62500000000000000        1.0000000000000000        0.0000000000000000     
  0.65625000000000000        1.0000000000000000        0.0000000000000000     
  0.68750000000000000        1.0000000000000000        0.0000000000000000     
  0.71875000000000000        1.0000000000000000        0.0000000000000000     
  0.75000000000000000        1.0000000000000000        0.0000000000000000     
  0.75000000000000000       0.87500000000000000        0.0000000000000000     
  0.78125000000000000       0.87500000000000000        0.0000000000000000     
  0.81250000000000000       0.87500000000000000        0.0000000000000000     
  0.84375000000000000       0.87500000000000000        0.0000000000000000     
  0.87500000000000000       0.87500000000000000        0.0000000000000000     
  0.75000000000000000       0.90625000000000000        0.0000000000000000     
  0.78125000000000000       0.90625000000000000        0.0000000000000000     
  0.81250000000000000       0.90625000000000000        0.0000000000000000     
  0.84375000000000000       0.90625000000000000        0.0000000000000000     
  0.87500000000000000       0.90625000000000000        0.0000000000000000     
  0.75000000000000000       0.93750000000000000        0.0000000000000000     
  0.78125000000000000       0.93750000000000000        0.0000000000000000     
  0.81250000000000000       0.93750000000000000        0.0000000000000000     
  0.84375000000000000       0.93750000000000000        0.0000000000000000     
  0.87500000000000000       0.93750000000000000        0.0000000000000000     
  0.75000000000000000       0.96875000000000000        0.0000000000000000     
  0.78125000000000000       0.96875000000000000        0.0000000000000000     
  0.81250000000000000       0.96875000000000000        0.0000000000000000     
  0.84375000000000000       0.96875000000000000        0.0000000000000000     
  0.87500000000000000       0.96875000000000000        0.0000000000000000     
  0.75000000000000000        1.0000000000000000        0.0000000000000000     
  0.78125000000000000        1.0000000000000000        0.0000000000000000     
  0.81250000000000000        1.0000000000000000        0.0000000000000000     
  0.84375000000000000        1.0000000000000000        0.0000000000000000     
  0.87500000000000000        1.0000000000000000        0.0000000000000000     
  0.87500000000000000       0.87500000000000000        0.0000000000000000     
  0.90625000000000000       0.87500000000000000        0.0000000000000000     
  0.93750000000000000       0.87500000000000000        0.0000000000000000     
  0.96875000000000000       0.87500000000000000        0.0000000000000000     
   1.0000000000000000       0.87500000000000000        0.0000000000000000     
  0.87500000000000000       0.90625000000000000        0.0000000000000000     
  0.90625000000000000       0.90625000000000000        0.0000000000000000     
  0.93750000000000000       0.90625000000000000        0.0000000000000000     
  0.96875000000000000       0.90625000000000000        0.0000000000000000     
   1.0000000000000000       0.90625000000000000        0.0000000000000000     
  0.87500000000000000       0.93750000000000000        0.0000000000000000     
  0.90625000000000000       0.93750000000000000        0.0000000000000000     
  0.93750000000000000       0.93750000000000000        0.0000000000000000     
  0.96875000000000000       0.93750000000000000        0.0000000000000000     
   1.0000000000000000       0.93750000000000000        0.0000000000000000     
  0.87500000000000000       0.96875000000000000        0.0000000000000000     
  0.90625000000000000       0.96875000000000000        0.0000000000000000     
  0.93750000000000000       0.96875000000000000        0.0000000000000000     
  0.96875000000000000       0.96875000000000000        0.0000000000000000     
   1.0000000000000000       0.96875000000000000        0.0000000000000000     
  0.87500000000000000        1.0000000000000000        0.0000000000000000     
  0.90625000000000000        1.0000000000000000        0.0000000000000000     
  0.93750000000000000        1.0000000000000000        0.0000000000000000     
  0.96875000000000000        1.0000000000000000        0.0000000000000000     
   1.0000000000000000        1.0000000000000000        0.0000000000000000     
 </DataArray>
 </Points>
 <Cells>
 <DataArray  type="Int32"  Name="connectivity"  format="ascii">
           0           1           6           5
           1           2           7           6
           2           3           8           7
           3           4           9           8
           5           6          11          10
           6           7          12          11
           7           8          13          12
           8           9          14          13
          10          11          16          15
          11          12          17          16
          12          13          18          17
          13          14          19          18
          15          16          21          20
          16          17          22          21
          17          18          23          22
          18          19          24          23
          25          26          31          30
          26          27          32          31
          27          28          33          32
          28          29          34          33
          30          31          36          35
          31          32          37          36
          32          33          38          37
          33          34          39          38
          35          36          41          40
          36          37          42          41
          37          38          43          42
          38          39          44          43
          40          41          46          45
          41          42          47          46
          42          43          48          47
          43          44          49          48
          50          51          56          55
          51          52          57          56
          52          53          58          57
          53          54          59          58
          55          56          61          60
          56          57          62          61
          57          58          63          62
          58          59          64          63
          60          61          66          65
          61          62          67          66
          62          63          68          67
          63          64          69          68
          65          66          71          70
          66          67          72          71
          67          68          73          72
          68          69          74          73
          75          76          81          80
          76          77          82          81
          77          78          83          82
          78          79          84          83
          80          81          86          85
          81          82          87          86
          82          83          88          87
          83          84          89          88
          85          86          91          90
          86          87          92          91
          87          88          93          92
          88          89          94          93
          90          91          96          95
          91          92          97          96
          92          93          98          97
          93          94          99          98
         100         101         106         105
         101         102         107         106
         102         103         108         107
         103         104         109         108
         105         106         111         110
         106         107         112         111
         107         108         113         112
         108         109         114         113
         110         111         116         115
         111         112         117         116
         112         113         118         117
         113         114         119         118
         115         116         121         120
         116         117         122         121
         117         118         123         122
         118         119         124         123
         125         126         131         130
         126         127         132         131
         127         128         133         132
         128         129         134         133
         130         131         136         135
         131         132         137         136
         132         133         138         137
         133         134         139         138
         135         136         141         140
         136         137         142         141
         137         138         143         142
         138         139         144         143
         140         141         146         145
         141         142         147         146
         142         143         148         147
         143         144         149         148
         150         151         156         155
         151         152         157         156
         152         153         158         157
         153         154         159         158
         155         156         161         160
         156         157         162         161
         157         158         163         162
         158         159         164         163
         160         161         166         165
         161         162         167         166
         162         163         168         167
         163         164         169         168
         165         166         171         170
         166         167         172         171
         167         168         173         172
         168         169         174         173
         175         176         181         180
         176         177         182         181
         177         178         183         182
         178         179         184         183
         180         181         186         185
         181         182         187         186
         182         183         188         187
         183         184         189         188
         185         186         191         190
         186         187         192         191
         187         188         193         192
         188         189         194         193
         190         191         196         195
         191         192         197         196
         192         193         198         197
         193         194         199         198
         200         201         206         205
         201         202         207         206
         202         203         208         207
         203         204         209         208
         205         206         211         210
         206         207         212         211
         207         208         213         212
         208         209         214         213
         210         211         216         215
         211         212         217         216
         212         213         218         217
         213         214         219         218
         215         216         221         220
         216         217         222         221
         217         218         223         222
         218         219         224         223
         225         226         231         230
         226         227         232         231
         227         228         233         232
         228         229         234         233
         230         231         236         235
         231         232         237         236
         232         233         238         237
         233         234         239         238
         235         236         241         240
         236         237         242         241
         237         238         243         242
         238         239         244         243
         240         241         246         245
         241         242         247         246
         242         243         248         247
         243         244         249         248
         250         251         256         255
         251         252         257         256
         252         253         258         257
         253         254         259         258
         255         256         261         260
         256         257         262         261
         257         258         263         262
         258         259         264         263
         260         261         266         265
         261         262         267         266
         262         263         268         267
         263         264         269         268
         265         266         271         270
         266         267         272         271
         267         268         273         272
         268         269         274         273
         275         276         281         280
         276         277         282         281
         277         278         283         282
         278         279         284         283
         280         281         286         285
         281         282         287         286
         282         283         288         287
         283         284         289         288
         285         286         291         290
         286         287         292         291
         287         288         293         292
         288         289         294         293
         290         291         296         295
         291         292         297         296
         292         293         298         297
         293         294         299         298
         300         301         306         305
         301         302         307         306
         302         303         308         307
         303         304         309         308
         305         306         311         310
         306         307         312         311
         307         308         313         312
         308         309         314         313
         310         311         316         315
         311         312         317         316
         312         313         318         317
         313         314         319         318
         315         316         321         320
         316         317         322         321
         317         318         323         322
         318         319         324         323
         325         326         331         330
         326         327         332         331
         327         328         333         332
         328         329         334         333
         330         331         336         335
         331         332         337         336
         332         333         338         337
         333         334         339         338
         335         336         341         340
         336         337         342         341
         337         338         343         342
         338         339         344         343
         340         341         346         345
         341         342         347         346
         342         343         348         347
         343         344         349         348
         350         351         356         355
         351         352         357         356
         352         353         358         357
         353         354         359         358
         355         356         361         360
         356         357         362         361
         357         358         363         362
         358         359         364         363
         360         361         366         365
         361         362         367         366
         362         363         368         367
         363         364         369         368
         365         366         371         370
         366         367         372         371
         367         368         373         372
         368         369         374         373
         375         376         381         380
         376         377         382         381
         377         378         383         382
         378         379         384         383
         380         381         386         385
         381         382         387         386
         382         383         388         387
         383         384         389         388
         385         386         391         390
         386         387         392         391
         387         388         393         392
         388         389         394         393
         390         391         396         395
         391         392         397         396
         392         393         398         397
         393         394         399         398
         400         401         406         405
         401         402         407         406
         402         403         408         407
         403         404         409         408
         405         406         411         410
         406         407         412         411
         407         408         413         412
         408         409         414         413
         410         411         416         415
         411         412         417         416
         412         413         418         417
         413         414         419         418
         415         416         421         420
         416         417         422         421
         417         418         423         422
         418         419         424         423
         425         426         431         430
         426         427         432         431
         427         428         433         432
         428         429         434         433
         430         431         436         435
         431         432         437         436
         432         433         438         437
         433         434         439         438
         435         436         441         440
         436         437         442         441
         437         438         443         442
         438         439         444         443
         440         441         446         445
         441         442         447         446
         442         443         448         447
         443         444         449         448
         450         451         456         455
         451         452         457         456
         452         453         458         457
         453         454         459         458
         455         456         461         460
         456         457         462         461
         457         458         463         462
         458         459         464         463
         460         461         466         465
         461         462         467         466
         462         463         468         467
         463         464         469         468
         465         466         471         470
         466         467         472         471
         467         468         473         472
         468         469         474         473
         475         476         481         480
         476         477         482         481
         477         478         483         482
         478         479         484         483
         480         481         486         485
         481         482         487         486
         482         483         488         487
         483         484         489         488
         485         486         491         490
         486         487         492         491
         487         488         493         492
         488         489         494         493
         490         491         496         495
         491         492         497         496
         492         493         498         497
         493         494         499         498
         500         501         506         505
         501         502         507         506
         502         503         508         507
         503         504         509         508
         505         506         511         510
         506         507         512         511
         507         508         513         512
         508         509         514         513
         510         511         516         515
         511         512         517         516
         512         513         518         517
         513         514         519         518
         515         516         521         520
         516         517         522         521
         517         518         523         522
         518         519         524         523
         525         526         531         530
         526         527         532         531
         527         528         533         532
         528         529         534         533
         530         531         536         535
         531         532         537         536
         532         533         538         537
         533         534         539         538
         535         536         541         540
         536         537         542         541
         537         538         543         542
         538         539         544         543
         540         541         546         545
         541         542         547         546
         542         543         548         547
         543         544         549         548
         550         551         556         555
         551         552         557         556
         552         553         558         557
         553         554         559         558
         555         556         561         560
         556         557         562         561
         557         558         563         562
         558         559         564         563
         560         561         566         565
         561         562         567         566
         562         563         568         567
         563         564         569         568
         565         566         571         570
         566         567         572         571
         567         568         573         572
         568         569         574         573
         575         576         581         580
         576         577         582         581
         577         578         583         582
         578         579         584         583
         580         581         586         585
         581         582         587         586
         582         583         588         587
         583         584         589         588
         585         586         591         590
         586         587         592         591
         587         588         593         592
         588         589         594         593
         590         591         596         595
         591         592         597         596
         592         593         598         597
         593         594         599         598
         600         601         606         605
         601         602         607         606
         602         603         608         607
         603         604         609         608
         605         606         611         610
         606         607         612         611
         607         608         613         612
         608         609         614         613
         610         611         616         615
         611         612         617         616
         612         613         618         617
         613         614         619         618
         615         616         621         620
         616         617         622         621
         617         618         623         622
         618         619         624         623
         625         626         631         630
         626         627         632         631
         627         628         633         632
         628         629         634         633
         630         631         636         635
         631         632         637         636
         632         633         638         637
         633         634         639         638
         635         636         641         640
         636         637         642         641
         637         638         643         642
         638         639         644         643
         640         641         646         645
         641         642         647         646
         642         643         648         647
         643         644         649         648
         650         651         656         655
         651         652         657         656
         652         653         658         657
         653         654         659         658
         655         656         661         660
         656         657         662         661
         657         658         663         662
         658         659         664         663
         660         661         666         665
         661         662         667         666
         662         663         668         667
         663         664         669         668
         665         666         671         670
         666         667         672         671
         667         668         673         672
         668         669         674         673
         675         676         681         680
         676         677         682         681
         677         678         683         682
         678         679         684         683
         680         681         686         685
         681         682         687         686
         682         683         688         687
         683         684         689         688
         685         686         691         690
         686         687         692         691
         687         688         693         692
         688         689         694         693
         690         691         696         695
         691         692         697         696
         692         693         698         697
         693         694         699         698
         700         701         706         705
         701         702         707         706
         702         703         708         707
         703         704         709         708
         705         706         711         710
         706         707         712         711
         707         708         713         712
         708         709         714         713
         710         711         716         715
         711         712         717         716
         712         713         718         717
         713         714         719         718
         715         716         721         720
         716         717         722         721
         717         718         723         722
         718         719         724         723
         725         726         731         730
         726         727         732         731
         727         728         733         732
         728         729         734         733
         730         731         736         735
         731         732         737         736
         732         733         738         737
         733         734         739         738
         735         736         741         740
         736         737         742         741
         737         738         743         742
         738         739         744         743
         740         741         746         745
         741         742         747         746
         742         743         748         747
         743         744         749         748
         750         751         756         755
         751         752         757         756
         752         753         758         757
         753         754         759         758
         755         756         761         760
         756         757         762         761
         757         758         763         762
         758         759         764         763
         760         761         766         765
         761         762         767         766
         762         763         768         767
         763         764         769         768
         765         766         771         770
         766         767         772         771
         767         768         773         772
         768         769         774         773
         775         776         781         780
         776         777         782         781
         777         778         783         782
         778         779         784         783
         780         781         786         785
         781         782         787         786
         782         783         788         787
         783         784         789         788
         785         786         791         790
         786         787         792         791
         787         788         793         792
         788         789         794         793
         790         791         796         795
         791         792         797         796
         792         793         798         797
         793         794         799         798
         800         801         806         805
         801         802         807         806
         802         803         808         807
         803         804         809         808
         805         806         811         810
         806         807         812         811
         807         808         813         812
         808         809         814         813
         810         811         816         815
         811         812         817         816
         812         813         818         817
         813         814         819         818
         815         816         821         820
         816         817         822         821
         817         818         823         822
         818         819         824         823
         825         826         831         830
         826         827         832         831
         827         828         833         832
         828         829         834         833
         830         831         836         835
         831         832         837         836
         832         833         838         837
         833         834         839         838
         835         836         841         840
         836         837         842         841
         837         838         843         842
         838         839         844         843
         840         841         846         845
         841         842         847         846
         842         843         848         847
         843         844         849         848
         850         851         856         855
         851         852         857         856
         852         853         858         857
         853         854         859         858
         855         856         861         860
         856         857         862         861
         857         858         863         862
         858         859         864         863
         860         861         866         865
         861         862         867         866
         862         863         868         867
         863         864         869         868
         865         866         871         870
         866         867         872         871
         867         868         873         872
         868         869         874         873
         875         876         881         880
         876         877         882         881
         877         878         883         882
         878         879         884         883
         880         881         886         885
         881         882         887         886
         882         883         888         887
         883         884         889         888
         885         886         891         890
         886         887         892         891
         887         888         893         892
         888         889         894         893
         890         891         896         895
         891         892         897         896
         892         893         898         897
         893         894         899         898
         900         901         906         905
         901         902         907         906
         902         903         908         907
         903         904         909         908
         905         906         911         910
         906         907         912         911
         907         908         913         912
         908         909         914         913
         910         911         916         915
         911         912         917         916
         912         913         918         917
         913         914         919         918
         915         916         921         920
         916         917         922         921
         917         918         923         922
         918         919         924         923
         925         926         931         930
         926         927         932         931
         927         928         933         932
         928         929         934         933
         930         931         936         935
         931         932         937         936
         932         933         938         937
         933         934         939         938
         935         936         941         940
         936         937         942         941
         937         938         943         942
         938         939         944         943
         940         941         946         945
         941         942         947         946
         942         943         948         947
         943         944         949         948
         950         951         956         955
         951         952         957         956
         952         953         958         957
         953         954         959         958
         955         956         961         960
         956         957         962         961
         957         958         963         962
         958         959         964         963
         960         961         966         965
         961         962         967         966
         962         963         968         967
         963         964         969         968
         965         966         971         970
         966         967         972         971
         967         968         973         972
         968         969         974         973
         975         976         981         980
         976         977         982         981
         977         978         983         982
         978         979         984         983
         980         981         986         985
         981         982         987         986
         982         983         988         987
         983         984         989         988
         985         986         991         990
         986         987         992         991
         987         988         993         992
         988         989         994         993
         990         991         996         995
         991         992         997         996
         992         993         998         997
         993         994         999         998
        1000        1001        1006        1005
        1001        1002        1007        1006
        1002        1003        1008        1007
        1003        1004        1009        1008
        1005        1006        1011        1010
        1006        1007        1012        1011
        1007        1008        1013        1012
        1008        1009        1014        1013
        1010        1011        1016        1015
        1011        1012        1017        1016
        1012        1013        1018        1017
        1013        1014        1019        1018
        1015        1016        1021        1020
        1016        1017        1022        1021
        1017        1018        1023        1022
        1018        1019        1024        1023
        1025        1026        1031        1030
        1026        1027        1032        1031
        1027        1028        1033        1032
        1028        1029        1034        1033
        1030        1031        1036        1035
        1031        1032        1037        1036
        1032        1033        1038        1037
        1033        1034        1039        1038
        1035        1036        1041        1040
        1036        1037        1042        1041
        1037        1038        1043        1042
        1038        1039        1044        1043
        1040        1041        1046        1045
        1041        1042        1047        1046
        1042        1043        1048        1047
        1043        1044        1049        1048
        1050        1051        1056        1055
        1051        1052        1057        1056
        1052        1053        1058        1057
        1053        1054        1059        1058
        1055        1056        1061        1060
        1056        1057        1062        1061
        1057        1058        1063        1062
        1058        1059        1064        1063
        1060        1061        1066        1065
        1061        1062        1067        1066
        1062        1063        1068        1067
        1063        1064        1069        1068
        1065        1066        1071        1070
        1066        1067        1072        1071
        1067        1068        1073        1072
        1068        1069        1074        1073
        1075        1076        1081        1080
        1076        1077        1082        1081
        1077        1078        1083        1082
        1078        1079        1084        1083
        1080        1081        1086        1085
        1081        1082        1087        1086
        1082        1083        1088        1087
        1083        1084        1089        1088
        1085        1086        1091        1090
        1086        1087        1092        1091
        1087        1088        1093        1092
        1088        1089        1094        1093
        1090        1091        1096        1095
        1091        1092        1097        1096
        1092        1093        1098        1097
        1093        1094        1099        1098
        1100        1101        1106        1105
        1101        1102        1107        1106
        1102        1103        1108        1107
        1103        1104        1109        1108
        1105        1106        1111        1110
        1106        1107        1112        1111
        1107        1108        1113        1112
        1108        1109        1114        1113
        1110        1111        1116        1115
        1111        1112        1117        1116
        1112        1113        1118        1117
        1113        1114        1119        1118
        1115        1116        1121        1120
        1116        1117        1122        1121
        1117        1118        1123        1122
        1118        1119        1124        1123
        1125        1126        1131        1130
        1126        1127        1132        1131
        1127        1128        1133        1132
        1128        1129        1134        1133
        1130        1131        1136        1135
        1131        1132        1137        1136
        1132        1133        1138        1137
        1133        1134        1139        1138
        1135        1136        1141        1140
        1136        1137        1142        1141
        1137        1138        1143        1142
        1138        1139        1144        1143
        1140        1141        1146        1145
        1141        1142        1147        1146
        1142        1143        1148        1147
        1143        1144        1149        1148
        1150        1151        1156        1155
        1151        1152        1157        1156
        1152        1153        1158        1157
        1153        1154        1159        1158
        1155        1156        1161        1160
        1156        1157        1162        1161
        1157        1158        1163        1162
        1158        1159        1164        1163
        1160        1161        1166        1165
        1161        1162        1167        1166
        1162        1163        1168        1167
        1163        1164        1169        1168
        1165        1166        1171        1170
        1166        1167        1172        1171
        1167        1168        1173        1172
        1168        1169        1174        1173
        1175        1176        1181        1180
        1176        1177        1182        1181
        1177        1178        1183        1182
        1178        1179        1184        1183
        1180        1181        1186        1185
        1181        1182        1187        1186
        1182        1183        1188        1187
        1183        1184        1189        1188
        1185        1186        1191        1190
        1186        1187        1192        1191
        1187        1188        1193        1192
        1188        1189        1194        1193
        1190        1191        1196        1195
        1191        1192        1197        1196
        1192        1193        1198        1197
        1193        1194        1199        1198
        1200        1201        1206        1205
        1201        1202        1207        1206
        1202        1203        1208        1207
        1203        1204        1209        1208
        1205        1206        1211        1210
        1206        1207        1212        1211
        1207        1208        1213        1212
        1208        1209        1214        1213
        1210        1211        1216        1215
        1211        1212        1217        1216
        1212        1213        1218        1217
        1213        1214        1219        1218
        1215        1216        1221        1220
        1216        1217        1222        1221
        1217        1218        1223        1222
        1218        1219        1224        1223
        1225        1226        1231        1230
        1226        1227        1232        1231
        1227        1228        1233        1232
        1228        1229        1234        1233
        1230        1231        1236        1235
        1231        1232        1237        1236
        1232        1233        1238        1237
        1233        1234        1239        1238
        1235        1236        1241        1240
        1236        1237        1242        1241
        1237        1238        1243        1242
        1238        1239        1244        1243
        1240        1241        1246        1245
        1241        1242        1247        1246
        1242        1243        1248        1247
        1243        1244        1249        1248
        1250        1251        1256        1255
        1251        1252        1257        1256
        1252        1253        1258        1257
        1253        1254        1259        1258
        1255        1256        1261        1260
        1256        1257        1262        1261
        1257        1258        1263        1262
        1258        1259        1264        1263
        1260        1261        1266        1265
        1261        1262        1267        1266
        1262        1263        1268        1267
        1263        1264        1269        1268
        1265        1266        1271        1270
        1266        1267        1272        1271
        1267        1268        1273        1272
        1268        1269        1274        1273
        1275        1276        1281        1280
        1276        1277        1282        1281
        1277        1278        1283        1282
        1278        1279        1284        1283
        1280        1281        1286        1285
        1281        1282        1287        1286
        1282        1283        1288        1287
        1283        1284        1289        1288
        1285        1286        1291        1290
        1286        1287        1292        1291
        1287        1288        1293        1292
        1288        1289        1294        1293
        1290        1291        1296        1295
        1291        1292        1297        1296
        1292        1293        1298        1297
        1293        1294        1299        1298
        1300        1301        1306        1305
        1301        1302        1307        1306
        1302        1303        1308        1307
        1303        1304        1309        1308
        1305        1306        1311        1310
        1306        1307        1312        1311
        1307        1308        1313        1312
        1308        1309        1314        1313
        1310        1311        1316        1315
        1311        1312        1317        1316
        1312        1313        1318        1317
        1313        1314        1319        1318
        1315        1316        1321        1320
        1316        1317        1322        1321
        1317        1318        1323        1322
        1318        1319        1324        1323
        1325        1326        1331        1330
        1326        1327        1332        1331
        1327        1328        1333        1332
        1328        1329        1334        1333
        1330        1331        1336        1335
        1331        1332        1337        1336
        1332        1333        1338        1337
        1333        1334        1339        1338
        1335        1336        1341        1340
        1336        1337        1342        1341
        1337        1338        1343        1342
        1338        1339        1344        1343
        1340        1341        1346        1345
        1341        1342        1347        1346
        1342        1343        1348        1347
        1343        1344        1349        1348
        1350        1351        1356        1355
        1351        1352        1357        1356
        1352        1353        1358        1357
        1353        1354        1359        1358
        1355        1356        1361        1360
        1356        1357        1362        1361
        1357        1358        1363        1362
        1358        1359        1364        1363
        1360        1361        1366        1365
        1361        1362        1367        1366
        1362        1363        1368        1367
        1363        1364        1369        1368
        1365        1366        1371        1370
        1366        1367        1372        1371
        1367        1368        1373        1372
        1368        1369        1374        1373
        1375        1376        1381        1380
        1376        1377        1382        1381
        1377        1378        1383        1382
        1378        1379        1384        1383
        1380        1381        1386        1385
        1381        1382        1387        1386
        1382        1383        1388        1387
        1383        1384        1389        1388
        1385        1386        1391        1390
        1386        1387        1392        1391
        1387        1388        1393        1392
        1388        1389        1394        1393
        1390        1391        1396        1395
        1391        1392        1397        1396
        1392        1393        1398        1397
        1393        1394        1399        1398
        1400        1401        1406        1405
        1401        1402        1407        1406
        1402        1403        1408        1407
        1403        1404        1409        1408
        1405        1406        1411        1410
        1406        1407        1412        1411
        1407        1408        1413        1412
        1408        1409        1414        1413
        1410        1411        1416        1415
        1411        1412        1417        1416
        1412        1413        1418        1417
        1413        1414        1419        1418
        1415        1416        1421        1420
        1416        1417        1422        1421
        1417        1418        1423        1422
        1418        1419        1424        1423
        1425        1426        1431        1430
        1426        1427        1432        1431
        1427        1428        1433        1432
        1428        1429        1434        1433
        1430        1431        1436        1435
        1431        1432        1437        1436
        1432        1433        1438        1437
        1433        1434        1439        1438
        1435        1436        1441        1440
        1436        1437        1442        1441
        1437        1438        1443        1442
        1438        1439        1444        1443
        1440        1441        1446        1445
        1441        1442        1447        1446
        1442        1443        1448        1447
        1443        1444        1449        1448
        1450        1451        1456        1455
        1451        1452        1457        1456
        1452        1453        1458        1457
        1453        1454        1459        1458
        1455        1456        1461        1460
        1456        1457        1462        1461
        1457        1458        1463        1462
        1458        1459        1464        1463
        1460        1461        1466        1465
        1461        1462        1467        1466
        1462        1463        1468        1467
        1463        1464        1469        1468
        1465        1466        1471        1470
        1466        1467        1472        1471
        1467        1468        1473        1472
        1468        1469        1474        1473
        1475        1476        1481        1480
        1476        1477        1482        1481
        1477        1478        1483        1482
        1478        1479        1484        1483
        1480        1481        1486        1485
        1481        1482        1487        1486
        1482        1483        1488        1487
        1483        1484        1489        1488
        1485        1486        1491        1490
        1486        1487        1492        1491
        1487        1488        1493        1492
        1488        1489        1494        1493
        1490        1491        1496        1495
        1491        1492        1497        1496
        1492        1493        1498        1497
        1493        1494        1499        1498
        1500        1501        1506        1505
        1501        1502        1507        1506
        1502        1503        1508        1507
        1503        1504        1509        1508
        1505        1506        1511        1510
        1506        1507        1512        1511
        1507        1508        1513        1512
        1508        1509        1514        1513
        1510        1511        1516        1515
        1511        1512        1517        1516
        1512        1513        1518        1517
        1513        1514        1519        1518
        1515        1516        1521        1520
        1516        1517        1522        1521
        1517        1518        1523        1522
        1518        1519        1524        1523
        1525        1526        1531        1530
        1526        1527        1532        1531
        1527        1528        1533        1532
        1528        1529        1534        1533
        1530        1531        1536        1535
        1531        1532        1537        1536
        1532        1533        1538        1537
        1533        1534        1539        1538
        1535        1536        1541        1540
        1536        1537        1542        1541
        1537        1538        1543        1542
        1538        1539        1544        1543
        1540        1541        1546        1545
        1541        1542        1547        1546
        1542        1543        1548        1547
        1543        1544        1549        1548
        1550        1551        1556        1555
        1551        1552        1557        1556
        1552        1553        1558        1557
        1553        1554        1559        1558
        1555        1556        1561        1560
        1556        1557        1562        1561
        1557        1558        1563        1562
        1558        1559        1564        1563
        1560        1561        1566        1565
        1561        1562        1567        1566
        1562        1563        1568        1567
        1563        1564        1569        1568
        1565        1566        1571        1570
        1566        1567        1572        1571
        1567        1568        1573        1572
        1568        1569        1574        1573
        1575        1576        1581        1580
        1576        1577        1582        1581
        1577        1578        1583        1582
        1578        1579        1584        1583
        1580        1581        1586        1585
        1581        1582        1587        1586
        1582        1583        1588        1587
        1583        1584        1589        1588
        1585        1586        1591        1590
        1586        1587        1592        1591
        1587        1588        1593        1592
        1588        1589        1594        1593
        1590        1591        1596        1595
        1591        1592        1597        1596
        1592        1593        1598        1597
        1593        1594        1599        1598
 </DataArray>
 <DataArray  type="Int32"  Name="offsets"  format="ascii"> 
           4
           8
          12
          16
          20
          24
          28
          32
          36
          40
          44
          48
          52
          56
          60
          64
          68
          72
          76
          80
          84
          88
          92
          96
         100
         104
         108
         112
         116
         120
         124
         128
         132
         136
         140
         144
         148
         152
         156
         160
         164
         168
         172
         176
         180
         184
         188
         192
         196
         200
         204
         208
         212
         216
         220
         224
         228
         232
         236
         240
         244
         248
         252
         256
         260
         264
         268
         272
         276
         280
         284
         288
         292
         296
         300
         304
         308
         312
         316
         320
         324
         328
         332
         336
         340
         344
         348
         352
         356
         360
         364
         368
         372
         376
         380
         384
         388
         392
         396
         400
         404
         408
         412
         416
         420
         424
         428
         432
         436
         440
         444
         448
         452
         456
         460
         464
         468
         472
         476
         480
         484
         488
         492
         496
         500
         504
         508
         512
         516
         520
         524
         528
         532
         536
         540
         544
         548
         552
         556
         560
         564
         568
         572
         576
         580
         584
         588
         592
         596
         600
         604
         608
         612
         616
         620
         624
         628
         632
         636
         640
         644
         648
         652
         656
         660
         664
         668
         672
         676
         680
         684
         688
         692
         696
         700
         704
         708
         712
         716
         720
         724
         728
         732
         736
         740
         744
         748
         752
         756
         760
         764
         768
         772
         776
         780
         784
         788
         792
         796
         800
         804
         808
         812
         816
         820
         824
         828
         832
         836
         840
         844
         848
         852
         856
         860
         864
         868
         872
         876
         880
         884
         888
         892
         896
         900
         904
         908
         912
         916
         920
         924
         928
         932
         936
         940
         944
         948
         952
         956
         960
         964
         968
         972
         976
         980
         984
         988
         992
         996
        1000
        1004
        1008
        1012
        1016
        1020
        1024
        1028
        1032
        1036
        1040
        1044
        1048
        1052
        1056
        1060
        1064
        1068
        1072
        1076
        1080
        1084
        1088
        1092
        1096
        1100
        1104
        1108
        1112
        1116
        1120
        1124
        1128
        1132
        1136
        1140
        1144
        1148
        1152
        1156
        1160
        1164
        1168
        1172
        1176
        1180
        1184
        1188
        1192
        1196
        1200
        1204
        1208
        1212
        1216
        1220
        1224
        1228
        1232
        1236
        1240
        1244
        1248
        1252
        1256
        1260
        1264
        1268
        1272
        1276
        1280
        1284
        1288
        1292
        1296
        1300
        1304
        1308
        1312
        1316
        1320
        1324
        1328
        1332
        1336
        1340
        1344
        1348
        1352
        1356
        1360
        1364
        1368
        1372
        1376
        1380
        1384
        1388
        1392
        1396
        1400
        1404
        1408
        1412
        1416
        1420
        1424
        1428
        1432
        1436
        1440
        1444
        1448
        1452
        1456
        1460
        1464
        1468
        1472
        1476
        1480
        1484
        1488
        1492
        1496
        1500
        1504
        1508
        1512
        1516
        1520
        1524
        1528
        1532
        1536
        1540
        1544
        1548
        1552
        1556
        1560
        1564
        1568
        1572
        1576
        1580
        1584
        1588
        1592
        1596
        1600
        1604
        1608
        1612
        1616
        1620
        1624
        1628
        1632
        1636
        1640
        1644
        1648
        1652
        1656
        1660
        1664
        1668
        1672
        1676
        1680
        1684
        1688
        1692
        1696
        1700
        1704
        1708
        1712
        1716
        1720
        1724
        1728
        1732
        1736
        1740
        1744
        1748
        1752
        1756
        1760
        1764
        1768
        1772
        1776
        1780
        1784
        1788
        1792
        1796
        1800
        1804
        1808
        1812
        1816
        1820
        1824
        1828
        1832
        1836
        1840
        1844
        1848
        1852
        1856
        1860
        1864
        1868
        1872
        1876
        1880
        1884
        1888
        1892
        1896
        1900
        1904
        1908
        1912
        1916
        1920
        1924
        1928
        1932
        1936
        1940
        1944
        1948
        1952
        1956
        1960
        1964
        1968
        1972
        1976
        1980
        1984
        1988
        1992
        1996
        2000
        2004
        2008
        2012
        2016
        2020
        2024
        2028
        2032
        2036
        2040
        2044
        2048
        2052
        2056
        2060
        2064
        2068
        2072
        2076
        2080
        2084
        2088
        2092
        2096
        2100
        2104
        2108
        2112
        2116
        2120
        2124
        2128
        2132
        2136
        2140
        2144
        2148
        2152
        2156
        2160
        2164
        2168
        2172
        2176
        2180
        2184
        2188
        2192
        2196
        2200
        2204
        2208
        2212
        2216
        2220
        2224
        2228
        2232
        2236
        2240
        2244
        2248
        2252
        2256
        2260
        2264
        2268
        2272
        2276
        2280
        2284
        2288
        2292
        2296
        2300
        2304
        2308
        2312
        2316
        2320
        2324
        2328
        2332
        2336
        2340
        2344
        2348
        2352
        2356
        2360
        2364
        2368
        2372
        2376
        2380
        2384
        2388
        2392
        2396
        2400
        2404
        2408
        2412
        2416
        2420
        2424
        2428
        2432
        2436
        2440
        2444
        2448
        2452
        2456
        2460
        2464
        2468
        2472
        2476
        2480
        2484
        2488
        2492
        2496
        2500
        2504
        2508
        2512
        2516
        2520
        2524
        2528
        2532
        2536
        2540
        2544
        2548
        2552
        2556
        2560
        2564
        2568
        2572
        2576
        2580
        2584
        2588
        2592
        2596
        2600
        2604
        2608
        2612
        2616
        2620
        2624
        2628
        2632
        2636
        2640
        2644
        2648
        2652
        2656
        2660
        2664
        2668
        2672
        2676
        2680
        2684
        2688
        2692
        2696
        2700
        2704
        2708
        2712
        2716
        2720
        2724
        2728
        2732
        2736
        2740
        2744
        2748
        2752
        2756
        2760
        2764
        2768
        2772
        2776
        2780
        2784
        2788
        2792
        2796
        2800
        2804
        2808
        2812
        2816
        2820
        2824
        2828
        2832
        2836
        2840
        2844
        2848
        2852
        2856
        2860
        2864
        2868
        2872
        2876
        2880
        2884
        2888
        2892
        2896
        2900
        2904
        2908
        2912
        2916
        2920
        2924
        2928
        2932
        2936
        2940
        2944
        2948
        2952
        2956
        2960
        2964
        2968
        2972
        2976
        2980
        2984
        2988
        2992
        2996
        3000
        3004
        3008
        3012
        3016
        3020
        3024
        3028
        3032
        3036
        3040
        3044
        3048
        3052
        3056
        3060
        3064
        3068
        3072
        3076
        3080
        3084
        3088
        3092
        3096
        3100
        3104
        3108
        3112
        3116
        3120
        3124
        3128
        3132
        3136
        3140
        3144
        3148
        3152
        3156
        3160
        3164
        3168
        3172
        3176
        3180
        3184
        3188
        3192
        3196
        3200
        3204
        3208
        3212
        3216
        3220
        3224
        3228
        3232
        3236
        3240
        3244
        3248
        3252
        3256
        3260
        3264
        3268
        3272
        3276
        3280
        3284
        3288
        3292
        3296
        3300
        3304
        3308
        3312
        3316
        3320
        3324
        3328
        3332
        3336
        3340
        3344
        3348
        3352
        3356
        3360
        3364
        3368
        3372
        3376
        3380
        3384
        3388
        3392
        3396
        3400
        3404
        3408
        3412
        3416
        3420
        3424
        3428
        3432
        3436
        3440
        3444
        3448
        3452
        3456
        3460
        3464
        3468
        3472
        3476
        3480
        3484
        3488
        3492
        3496
        3500
        3504
        3508
        3512
        3516
        3520
        3524
        3528
        3532
        3536
        3540
        3544
        3548
        3552
        3556
        3560
        3564
        3568
        3572
        3576
        3580
        3584
        3588
        3592
        3596
        3600
        3604
        3608
        3612
        3616
        3620
        3624
        3628
        3632
        3636
        3640
        3644
        3648
        3652
        3656
        3660
        3664
        3668
        3672
        3676
        3680
        3684
        3688
        3692
        3696
        3700
        3704
        3708
        3712
        3716
        3720
        3724
        3728
        3732
        3736
        3740
        3744
        3748
        3752
        3756
        3760
        3764
        3768
        3772
        3776
        3780
        3784
        3788
        3792
        3796
        3800
        3804
        3808
        3812
        3816
        3820
        3824
        3828
        3832
        3836
        3840
        3844
        3848
        3852
        3856
        3860
        3864
        3868
        3872
        3876
        3880
        3884
        3888
        3892
        3896
        3900
        3904
        3908
        3912
        3916
        3920
        3924
        3928
        3932
        3936
        3940
        3944
        3948
        3952
        3956
        3960
        3964
        3968
        3972
        3976
        3980
        3984
        3988
        3992
        3996
        4000
        4004
        4008
        4012
        4016
        4020
        4024
        4028
        4032
        4036
        4040
        4044
        4048
        4052
        4056
        4060
        4064
        4068
        4072
        4076
        4080
        4084
        4088
        4092
        4096
 </DataArray>
 <DataArray  type="UInt8"  Name="types"  format="ascii">
 9
 9
 9
 9
 9
 9
 9
 9
 9
 9
 9
 9
 9
 9
 9
 9
 9
 9
 9
 9
 9
 9
 9
 9
 9
 9
 9
 9
 9
 9
 9
 9
 9
 9
 9
 9
 9
 9
 9
 9
 9
 9
 9
 9
 9
 9
 9
 9
 9
 9
 9
 9
 9
 9
 9
 9
 9
 9
 9
 9
 9
 9
 9
 9
 9
 9
 9
 9
 9
 9
 9
 9
 9
 9
 9
 9
 9
 9
 9
 9
 9
 9
 9
 9
 9
 9
 9
 9
 9
 9
 9
 9
 9
 9
 9
 9
 9
 9
 9
 9
 9
 9
 9
 9
 9
 9
 9
 9
 9
 9
 9
 9
 9
 9
 9
 9
 9
 9
 9
 9
 9
 9
 9
 9
 9
 9
 9
 9
 9
 9
 9
 9
 9
 9
 9
 9
 9
 9
 9
 9
 9
 9
 9
 9
 9
 9
 9
 9
 9
 9
 9
 9
 9
 9
 9
 9
 9
 9
 9
 9
 9
 9
 9
 9
 9
 9
 9
 9
 9
 9
 9
 9
 9
 9
 9
 9
 9
 9
 9
 9
 9
 9
 9
 9
 9
 9
 9
 9
 9
 9
 9
 9
 9
 9
 9
 9
 9
 9
 9
 9
 9
 9
 9
 9
 9
 9
 9
 9
 9
 9
 9
 9
 9
 9
 9
 9
 9
 9
 9
 9
 9
 9
 9
 9
 9
 9
 9
 9
 9
 9
 9
 9
 9
 9
 9
 9
 9
 9
 9
 9
 9
 9
 9
 9
 9
 9
 9
 9
 9
 9
 9
 9
 9
 9
 9
 9
 9
 9
 9
 9
 9
 9
 9
 9
 9
 9
 9
 9
 9
 9
 9
 9
 9
 9
 9
 9
 9
 9
 9
 9
 9
 9
 9
 9
 9
 9
 9
 9
 9
 9
 9
 9
 9
 9
 9
 9
 9
 9
 9
 9
 9
 9
 9
 9
 9
 9
 9
 9
 9
 9
 9
 9
 9
 9
 9
 9
 9
 9
 9
 9
 9
 9
 9
 9
 9
 9
 9
 9
 9
 9
 9
 9
 9
 9
 9
 9
 9
 9
 9
 9
 9
 9
 9
 9
 9
 9
 9
 9
 9
 9
 9
 9
 9
 9
 9
 9
 9
 9
 9
 9
 9
 9
 9
 9
 9
 9
 9
 9
 9
 9
 9
 9
 9
 9
 9
 9
 9
 9
 9
 9
 9
 9
 9
 9
 9
 9
 9
 9
 9
 9
 9
 9
 9
 9
 9
 9
 9
 9
 9
 9
 9
 9
 9
 9
 9
 9
 9
 9
 9
 9
 9
 9
 9
 9
 9
 9
 9
 9
 9
 9
 9
 9
 9
 9
 9
 9
 9
 9
 9
 9
 9
 9
 9
 9
 9
 9
 9
 9
 9
 9
 9
 9
 9
 9
 9
 9
 9
 9
 9
 9
 9
 9
 9
 9
 9
 9
 9
 9
 9
 9
 9
 9
 9
 9
 9
 9
 9
 9
 9
 9
 9
 9
 9
 9
 9
 9
 9
 9
 9
 9
 9
 9
 9
 9
 9
 9
 9
 9
 9
 9
 9
 9
 9
 9
 9
 9
 9
 9
 9
 9
 9
 9
 9
 9
 9
 9
 9
 9
 9
 9
 9
 9
 9
 9
 9
 9
 9
 9
 9
 9
 9
 9
 9
 9
 9
 9
 9
 9
 9
 9
 9
 9
 9
 9
 9
 9
 9
 9
 9
 9
 9
 9
 9
 9
 9
 9
 9
 9
 9
 9
 9
 9
 9
 9
 9
 9
 9
 9
 9
 9
 9
 9
 9
 9
 9
 9
 9
 9
 9
 9
 9
 9
 9
 9
 9
 9
 9
 9
 9
 9
 9
 9
 9
 9
 9
 9
 9
 9
 9
 9
 9
 9
 9
 9
 9
 9
 9
 9
 9
 9
 9
 9
 9
 9
 9
 9
 9
 9
 9
 9
 9
 9
 9
 9
 9
 9
 9
 9
 9
 9
 9
 9
 9
 9
 9
 9
 9
 9
 9
 9
 9
 9
 9
 9
 9
 9
 9
 9
 9
 9
 9
 9
 9
 9
 9
 9
 9
 9
 9
 9
 9
 9
 9
 9
 9
 9
 9
 9
 9
 9
 9
 9
 9
 9
 9
 9
 9
 9
 9
 9
 9
 9
 9
 9
 9
 9
 9
 9
 9
 9
 9
 9
 9
 9
 9
 9
 9
 9
 9
 9
 9
 9
 9
 9
 9
 9
 9
 9
 9
 9
 9
 9
 9
 9
 9
 9
 9
 9
 9
 9
 9
 9
 9
 9
 9
 9
 9
 9
 9
 9
 9
 9
 9
 9
 9
 9
 9
 9
 9
 9
 9
 9
 9
 9
 9
 9
 9
 9
 9
 9
 9
 9
 9
 9
 9
 9
 9
 9
 9
 9
 9
 9
 9
 9
 9
 9
 9
 9
 9
 9
 9
 9
 9
 9
 9
 9
 9
 9
 9
 9
 9
 9
 9
 9
 9
 9
 9
 9
 9
 9
 9
 9
 9
 9
 9
 9
 9
 9
 9
 9
 9
 9
 9
 9
 9
 9
 9
 9
 9
 9
 9
 9
 9
 9
 9
 9
 9
 9
 9
 9
 9
 9
 9
 9
 9
 9
 9
 9
 9
 9
 9
 9
 9
 9
 9
 9
 9
 9
 9
 9
 9
 9
 9
 9
 9
 9
 9
 9
 9
 9
 9
 9
 9
 9
 9
 9
 9
 9
 9
 9
 9
 9
 9
 9
 9
 9
 9
 9
 9
 9
 9
 9
 9
 9
 9
 9
 9
 9
 9
 9
 9
 9
 9
 9
 9
 9
 9
 9
 9
 9
 9
 9
 9
 9
 9
 9
 9
 9
 9
 9
 9
 9
 9
 9
 9
 9
 9
 9
 9
 9
 9
 9
 9
 9
 9
 9
 9
 9
 9
 9
 9
 9
 9
 9
 9
 9
 9
 9
 9
 9
 9
 9
 9
 9
 9
 9
 9
 9
 9
 9
 9
 9
 9
 9
 9
 9
 9
 9
 9
 9
 9
 9
 9
 9
 9
 9
 9
 9
 9
 9
 9
 9
 9
 9
 9
 9
 9
 9
 9
 9
 9
 9
 9
 9
 9
 9
 9
 9
 9
 9
 9
 9
 9
 9
 9
 9
 9
 9
 9
 9
 9
 9
 9
 9
 9
 9
 9
 9
 9
 9
 9
 9
 9
 9
 9
 9
 9
 9
 9
 9
 9
 9
 9
 9
 9
 9
 9
 9
 9
 9
 9
 9
 9
 9
 9
 9
 9
 9
 9
 9
 9
 9
 9
 9
 </DataArray>
 </Cells> 
 <PointData>
 <DataArray  type="Float64" Name="disp" NumberOfComponents="3" format="ascii">
   0.0000000000000000        0.0000000000000000        0.0000000000000000     
   6.0943779503220448E-003   3.7869592496064751E-003   0.0000000000000000     
   1.1664025639163456E-002   7.3176750736057266E-003   0.0000000000000000     
   1.6708943066524241E-002   1.0592147471997755E-002   0.0000000000000000     
   2.1229130232404386E-002   1.3610376444782560E-002   0.0000000000000000     
   0.0000000000000000        0.0000000000000000        0.0000000000000000     
   4.8909436380657600E-003   3.0192184356336634E-003   0.0000000000000000     
   9.5737747623485109E-003   6.0548265830176959E-003   0.0000000000000000     
   1.4048493372848246E-002   9.1068244421520957E-003   0.0000000000000000     
   1.8315099469564975E-002   1.2175212013036864E-002   0.0000000000000000     
   0.0000000000000000        0.0000000000000000        0.0000000000000000     
   3.9541703525799114E-003   2.4226070625808782E-003   0.0000000000000000     
   7.9119160085425553E-003   5.0576454872943892E-003   0.0000000000000000     
   1.1873236967887932E-002   7.9051152741405305E-003   0.0000000000000000     
   1.5838133230616044E-002   1.0965016423119305E-002   0.0000000000000000     
   0.0000000000000000        0.0000000000000000        0.0000000000000000     
   3.2840580938644985E-003   1.9971251304481195E-003   0.0000000000000000     
   6.6784493777455965E-003   4.3261317864358067E-003   0.0000000000000000     
   1.0183173851643294E-002   6.9870199679630610E-003   0.0000000000000000     
   1.3798231515557591E-002   9.9797896750298803E-003   0.0000000000000000     
   0.0000000000000000        0.0000000000000000        0.0000000000000000     
   2.8806068619195218E-003   1.7427726392353869E-003   0.0000000000000000     
   5.8733748699576326E-003   3.8602854804419481E-003   0.0000000000000000     
   8.9783040241143315E-003   6.3525385236196845E-003   0.0000000000000000     
   1.2195394324389619E-002   9.2195317687685952E-003   0.0000000000000000     
   2.1229130232404386E-002   1.3610376444782560E-002   0.0000000000000000     
   2.5437035703427795E-002   1.6601093849919674E-002   0.0000000000000000     
   2.9545108046218359E-002   1.9793031545368635E-002   0.0000000000000000     
   3.3553347260776072E-002   2.3186189531129445E-002   0.0000000000000000     
   3.7461753347100946E-002   2.6780567807202095E-002   0.0000000000000000     
   1.8315099469564975E-002   1.2175212013036864E-002   0.0000000000000000     
   2.2412179039608345E-002   1.5327188637417990E-002   0.0000000000000000     
   2.6378318070088023E-002   1.8629953657041454E-002   0.0000000000000000     
   3.0213516561003993E-002   2.2083507071907267E-002   0.0000000000000000     
   3.3917774512356273E-002   2.5687848882015422E-002   0.0000000000000000     
   1.5838133230616044E-002   1.0965016423119305E-002   0.0000000000000000     
   1.9735553133865234E-002   1.4195533939641146E-002   0.0000000000000000     
   2.3494445014773855E-002   1.7554852829116493E-002   0.0000000000000000     
   2.7114808873341903E-002   2.1042973091545344E-002   0.0000000000000000     
   3.0596644709569385E-002   2.4659894726927700E-002   0.0000000000000000     
   1.3798231515557591E-002   9.9797896750298803E-003   0.0000000000000000     
   1.7407157986198452E-002   1.3206129756589153E-002   0.0000000000000000     
   2.0893488880275857E-002   1.6567729061593751E-002   0.0000000000000000     
   2.4257224197789796E-002   2.0064587590043682E-002   0.0000000000000000     
   2.7498363938740271E-002   2.3696705341938948E-002   0.0000000000000000     
   1.2195394324389619E-002   9.2195317687685952E-003   0.0000000000000000     
   1.5426993596608009E-002   1.2358976088262003E-002   0.0000000000000000     
   1.8575449666594031E-002   1.5668582354473229E-002   0.0000000000000000     
   2.1640762534347671E-002   1.9148350567402279E-002   0.0000000000000000     
   2.4622932199868938E-002   2.2798280727049144E-002   0.0000000000000000     
   3.7461753347100946E-002   2.6780567807202095E-002   0.0000000000000000     
   4.1280559167817490E-002   3.0575227278060717E-002   0.0000000000000000     
   4.5019997585550232E-002   3.4569228848179430E-002   0.0000000000000000     
   4.8680068600299158E-002   3.8762572517558234E-002   0.0000000000000000     
   5.2260772212064294E-002   4.3155258286197137E-002   0.0000000000000000     
   3.3917774512356273E-002   2.5687848882015422E-002   0.0000000000000000     
   3.7516277683375482E-002   2.9473634038575607E-002   0.0000000000000000     
   4.1034211833292242E-002   3.3471517492797517E-002   0.0000000000000000     
   4.4471576962106546E-002   3.7681499244681151E-002   0.0000000000000000     
   4.7828373069818408E-002   4.2103579294226506E-002   0.0000000000000000     
   3.0596644709569385E-002   2.4659894726927700E-002   0.0000000000000000     
   3.3968606056748875E-002   2.8450925838702165E-002   0.0000000000000000     
   3.7259346448172956E-002   3.2461374530307327E-002   0.0000000000000000     
   4.0468865883841632E-002   3.6691240801743193E-002   0.0000000000000000     
   4.3597164363754895E-002   4.1140524653009762E-002   0.0000000000000000     
   2.7498363938740271E-002   2.3696705341938948E-002   0.0000000000000000     
   3.0637544287937669E-002   2.7507102678440386E-002   0.0000000000000000     
   3.3695401430192395E-002   3.1538799960708852E-002   0.0000000000000000     
   3.6671935365504414E-002   3.5791797188744347E-002   0.0000000000000000     
   3.9567146093873753E-002   4.0266094362546884E-002   0.0000000000000000     
   2.4622932199868938E-002   2.2798280727049144E-002   0.0000000000000000     
   2.7523092376941876E-002   2.6642164557790272E-002   0.0000000000000000     
   3.0342376779350526E-002   3.0703793784002103E-002   0.0000000000000000     
   3.3080785407094887E-002   3.4983168405684641E-002   0.0000000000000000     
   3.5738318260174970E-002   3.9480288422837871E-002   0.0000000000000000     
   5.2260772212064294E-002   4.3155258286197137E-002   0.0000000000000000     
   5.5759185072227990E-002   4.7760995169753559E-002   0.0000000000000000     
   5.9172383832172597E-002   5.2593492183884920E-002   0.0000000000000000     
   6.2500368491898134E-002   5.7652749328591241E-002   0.0000000000000000     
   6.5743139051404581E-002   6.2938766603872515E-002   0.0000000000000000     
   4.7828373069818408E-002   4.2103579294226506E-002   0.0000000000000000     
   5.1107855300335535E-002   4.6741854607388673E-002   0.0000000000000000     
   5.4313278797565624E-002   5.1600422150122699E-002   0.0000000000000000     
   5.7444643561508670E-002   5.6679281922428611E-002   0.0000000000000000     
   6.0501949592164685E-002   6.1978433924306388E-002   0.0000000000000000     
   4.3597164363754895E-002   4.1140524653009762E-002   0.0000000000000000     
   4.6650088184505910E-002   4.5807004784572294E-002   0.0000000000000000     
   4.9633483642687826E-002   5.0688459896896049E-002   0.0000000000000000     
   5.2547350738300642E-002   5.5784889989981039E-002   0.0000000000000000     
   5.5391689471344353E-002   6.1096295063827244E-002   0.0000000000000000     
   3.9567146093873753E-002   4.0266094362546884E-002   0.0000000000000000     
   4.2385883724739108E-002   4.4956445701304422E-002   0.0000000000000000     
   4.5132998367539201E-002   4.9857605424204969E-002   0.0000000000000000     
   4.7808490022274032E-002   5.4969573531248532E-002   0.0000000000000000     
   5.0412358688943608E-002   6.0292350022435104E-002   0.0000000000000000     
   3.5738318260174970E-002   3.9480288422837871E-002   0.0000000000000000     
   3.8315241921035137E-002   4.4190177357585056E-002   0.0000000000000000     
   4.0811822972119771E-002   4.9107858732049474E-002   0.0000000000000000     
   4.3228061413428859E-002   5.4233332546231097E-002   0.0000000000000000     
   4.5563957244962421E-002   5.9566598800129926E-002   0.0000000000000000     
   6.5743139051404581E-002   6.2938766603872515E-002   0.0000000000000000     
   6.8903897038352341E-002   6.8417675911686085E-002   0.0000000000000000     
   7.1985843980401809E-002   7.4055609153989288E-002   0.0000000000000000     
   7.4988979877552986E-002   7.9852566330782165E-002   0.0000000000000000     
   7.7913304729805871E-002   8.5808547442064675E-002   0.0000000000000000     
   6.0501949592164685E-002   6.1978433924306388E-002   0.0000000000000000     
   6.3483655975937844E-002   6.7470126183597712E-002   0.0000000000000000     
   6.6388221799232330E-002   7.3126606728144278E-002   0.0000000000000000     
   6.9215647062048150E-002   7.8947875557946037E-002   0.0000000000000000     
   7.1965931764385316E-002   8.4933932673003032E-002   0.0000000000000000     
   5.5391689471344353E-002   6.1096295063827244E-002   0.0000000000000000     
   5.8164978729262976E-002   6.6600333173475260E-002   0.0000000000000000     
   6.0865697399500512E-002   7.2274662373965612E-002   0.0000000000000000     
   6.3493845482056957E-002   7.8119282665298329E-002   0.0000000000000000     
   6.6049422976932309E-002   8.4134194047473410E-002   0.0000000000000000     
   5.0412358688943608E-002   6.0292350022435104E-002   0.0000000000000000     
   5.2947865298327762E-002   6.5808296881318687E-002   0.0000000000000000     
   5.5418270781206341E-002   7.1499776091453332E-002   0.0000000000000000     
   5.7823575137579381E-002   7.7366787652839039E-002   0.0000000000000000     
   6.0163778367446852E-002   8.3409331565475822E-002   0.0000000000000000     
   4.5563957244962421E-002   5.9566598800129926E-002   0.0000000000000000     
   4.7832315683132162E-002   6.5094017307128035E-002   0.0000000000000000     
   5.0045941944349845E-002   7.0801947880607438E-002   0.0000000000000000     
   5.2204836028615448E-002   7.6690390520568211E-002   0.0000000000000000     
   5.4308997935928971E-002   8.2759345227010270E-002   0.0000000000000000     
   7.7913304729805871E-002   8.5808547442064675E-002   0.0000000000000000     
   8.0750097758045633E-002   9.1931541984029863E-002   0.0000000000000000     
   8.3490638183157467E-002   9.8229539452870676E-002   0.0000000000000000     
   8.6134926005141360E-002  0.10470253984858720        0.0000000000000000     
   8.8682961223997298E-002  0.11135054317117936        0.0000000000000000     
   7.1965931764385316E-002   8.4933932673003032E-002   0.0000000000000000     
   7.4630286164769910E-002   9.1089521207619539E-002   0.0000000000000000     
   7.7199920521728096E-002   9.7419384296099878E-002   0.0000000000000000     
   7.9674834835259847E-002  0.10392352193844402        0.0000000000000000     
   8.2055029105365176E-002  0.11060193413465202        0.0000000000000000     
   6.6049422976932309E-002   8.4134194047473410E-002   0.0000000000000000     
   6.8522332763436000E-002   9.0320646085477949E-002   0.0000000000000000     
   7.0902477720877446E-002   9.6679888344299053E-002   0.0000000000000000     
   7.3189857849256676E-002  0.10321192082393675        0.0000000000000000     
   7.5384473148573689E-002  0.10991674352439099        0.0000000000000000     
   6.0163778367446852E-002   8.3409331565475822E-002   0.0000000000000000     
   6.2426237554043876E-002   8.9624916617605077E-002   0.0000000000000000     
   6.4598309780605545E-002   9.6011051597468242E-002   0.0000000000000000     
   6.6679995047131874E-002  0.10256773650506530        0.0000000000000000     
   6.8671293353622848E-002  0.10929497134039629        0.0000000000000000     
   5.4308997935928971E-002   8.2759345227010270E-002   0.0000000000000000     
   5.6342000536593564E-002   8.9002332804000925E-002   0.0000000000000000     
   5.8287416700912371E-002   9.5412874055607416E-002   0.0000000000000000     
   6.0145246428885399E-002  0.10199096898182974        0.0000000000000000     
   6.1915489720512626E-002  0.10873661758266789        0.0000000000000000     
   8.8682961223997298E-002  0.11135054317117936        0.0000000000000000     
   9.1129450610800938E-002  0.11816407297364157        0.0000000000000000     
   9.3469100936627858E-002  0.12513365280896821        0.0000000000000000     
   9.5701912201478112E-002  0.13225928267715928        0.0000000000000000     
   9.7827884405351645E-002  0.13954096257821477        0.0000000000000000     
   8.2055029105365176E-002  0.11060193413465202        0.0000000000000000     
   8.4341168948561834E-002  0.11744144514913486        0.0000000000000000     
   8.6533919981367571E-002  0.12442887924630364        0.0000000000000000     
   8.8633282203782401E-002  0.13156423642615833        0.0000000000000000     
   9.0639255615806338E-002  0.13884751668869896        0.0000000000000000     
   7.5384473148573689E-002  0.10991674352439099        0.0000000000000000     
   7.7488329656854163E-002  0.11677886342116095        0.0000000000000000     
   7.9503433412123806E-002  0.12378278748974578        0.0000000000000000     
   8.1429784414382630E-002  0.13092851573014549        0.0000000000000000     
   8.3267382663630610E-002  0.13821604814236010        0.0000000000000000     
   6.8671293353622848E-002  0.10929497134039629        0.0000000000000000     
   7.0570932735677910E-002  0.11617632778971983        0.0000000000000000     
   7.2377641228896533E-002  0.12319537753929467        0.0000000000000000     
   7.4091418833278744E-002  0.13035212058912077        0.0000000000000000     
   7.5712265548824487E-002  0.13764655693919814        0.0000000000000000     
   6.1915489720512626E-002  0.10873661758266789        0.0000000000000000     
   6.3588978185033090E-002  0.11563383825481154        0.0000000000000000     
   6.5156543431685796E-002  0.12266664939495028        0.0000000000000000     
   6.6618185460470755E-002  0.12983505100308415        0.0000000000000000     
   6.7973904271387942E-002  0.13713904307921310        0.0000000000000000     
   9.7827884405351645E-002  0.13954096257821477        0.0000000000000000     
   9.9781181164992891E-002  0.14688214650915543        0.0000000000000000     
  0.10149596609714621       0.15418628846700194        0.0000000000000000     
  0.10297223920181163       0.16145338845175439        0.0000000000000000     
  0.10421000047898914       0.16868344646341271        0.0000000000000000     
   9.0639255615806338E-002  0.13884751668869896        0.0000000000000000     
   9.2535513290997101E-002  0.14624083927316137        0.0000000000000000     
   9.4305728302912395E-002  0.15370632341878132        0.0000000000000000     
   9.5949900651552317E-002  0.16124396912555888        0.0000000000000000     
   9.7468030336916769E-002  0.16885377639349408        0.0000000000000000     
   8.3267382663630610E-002  0.13821604814236010        0.0000000000000000     
   8.5025419317271894E-002  0.14563940605464537        0.0000000000000000     
   8.6713085532710676E-002  0.15319261079525723        0.0000000000000000     
   8.8330381309946859E-002  0.16087566236419557        0.0000000000000000     
   8.9877306648980526E-002  0.16868856076146047        0.0000000000000000     
   7.5712265548824487E-002  0.13764655693919814        0.0000000000000000     
   7.7250899243817381E-002  0.14507784685360750        0.0000000000000000     
   7.8718037786540990E-002  0.15264515059642958        0.0000000000000000     
   8.0113681176995327E-002  0.16034846816766438        0.0000000000000000     
   8.1437829415180407E-002  0.16818779956731192        0.0000000000000000     
   6.7973904271387942E-002  0.13713904307921310        0.0000000000000000     
   6.9211953070633464E-002  0.14455616167004770        0.0000000000000000     
   7.0320585064403376E-002  0.15206394282229846        0.0000000000000000     
   7.1299800252697693E-002  0.15966238653596537        0.0000000000000000     
   7.2149598635516413E-002  0.16735149281104841        0.0000000000000000     
   0.0000000000000000        0.0000000000000000        0.0000000000000000     
   2.8806068619195218E-003   1.7427726392353869E-003   0.0000000000000000     
   5.8733748699576326E-003   3.8602854804419481E-003   0.0000000000000000     
   8.9783040241143315E-003   6.3525385236196845E-003   0.0000000000000000     
   1.2195394324389619E-002   9.2195317687685952E-003   0.0000000000000000     
   0.0000000000000000        0.0000000000000000        0.0000000000000000     
   2.6103495129930591E-003   1.5870474600364623E-003   0.0000000000000000     
   5.2893828031795953E-003   3.5529405162849021E-003   0.0000000000000000     
   8.0370998705596094E-003   5.8976791687453184E-003   0.0000000000000000     
   1.0853500715133101E-002   8.6212634174177120E-003   0.0000000000000000     
   0.0000000000000000        0.0000000000000000        0.0000000000000000     
   2.3398189033331874E-003   1.4574474639451275E-003   0.0000000000000000     
   4.7191634954124187E-003   3.2969308409367538E-003   0.0000000000000000     
   7.1380337762376959E-003   5.5184501309748796E-003   0.0000000000000000     
   9.5964297458090170E-003   8.1220053340595039E-003   0.0000000000000000     
   0.0000000000000000        0.0000000000000000        0.0000000000000000     
   2.0690150329399073E-003   1.3539726509613824E-003   0.0000000000000000     
   4.1627169466561037E-003   3.0922564543975043E-003   0.0000000000000000     
   6.2811057411485891E-003   5.2148514103083675E-003   0.0000000000000000     
   8.4241814164173635E-003   7.7217575186939690E-003   0.0000000000000000     
   0.0000000000000000        0.0000000000000000        0.0000000000000000     
   1.7979379018132188E-003   1.2766230210852270E-003   0.0000000000000000     
   3.6200431569106484E-003   2.9389173566671542E-003   0.0000000000000000     
   5.4663157652922890E-003   4.9868830067457820E-003   0.0000000000000000     
   7.3367557269581416E-003   7.4205199713211090E-003   0.0000000000000000     
   1.2195394324389619E-002   9.2195317687685952E-003   0.0000000000000000     
   1.5426993596608009E-002   1.2358976088262003E-002   0.0000000000000000     
   1.8575449666594031E-002   1.5668582354473229E-002   0.0000000000000000     
   2.1640762534347671E-002   1.9148350567402279E-002   0.0000000000000000     
   2.4622932199868938E-002   2.2798280727049144E-002   0.0000000000000000     
   1.0853500715133101E-002   8.6212634174177120E-003   0.0000000000000000     
   1.3684733590488645E-002   1.1641253348045454E-002   0.0000000000000000     
   1.6476946750214813E-002   1.4875209046371917E-002   0.0000000000000000     
   1.9230140194311601E-002   1.8323130512397104E-002   0.0000000000000000     
   2.1944313922779020E-002   2.1985017746121008E-002   0.0000000000000000     
   9.5964297458090170E-003   8.1220053340595039E-003   0.0000000000000000     
   1.2070051593235097E-002   1.1040141949325268E-002   0.0000000000000000     
   1.4534599507624646E-002   1.4205405475906811E-002   0.0000000000000000     
   1.6990073488977665E-002   1.7617795913804135E-002   0.0000000000000000     
   1.9436473537294156E-002   2.1277313263017236E-002   0.0000000000000000     
   8.4241814164173635E-003   7.7217575186939690E-003   0.0000000000000000     
   1.0582947604847364E-002   1.0555641892101442E-002   0.0000000000000000     
   1.2748407938823526E-002   1.3659171643077908E-002   0.0000000000000000     
   1.4920562418345855E-002   1.7032346771623370E-002   0.0000000000000000     
   1.7099411043414347E-002   2.0675167277737824E-002   0.0000000000000000     
   7.3367557269581416E-003   7.4205199713211090E-003   0.0000000000000000     
   9.2234216253254484E-003   1.0187753176373973E-002   0.0000000000000000     
   1.1118372043811458E-002   1.3236507547885206E-002   0.0000000000000000     
   1.3021606982416173E-002   1.6566783085854814E-002   0.0000000000000000     
   1.4933126441139586E-002   2.0178579790282786E-002   0.0000000000000000     
   2.4622932199868938E-002   2.2798280727049144E-002   0.0000000000000000     
   2.7523092376941876E-002   2.6642164557790272E-002   0.0000000000000000     
   3.0342376779350526E-002   3.0703793784002103E-002   0.0000000000000000     
   3.3080785407094887E-002   3.4983168405684641E-002   0.0000000000000000     
   3.5738318260174970E-002   3.9480288422837871E-002   0.0000000000000000     
   2.1944313922779020E-002   2.1985017746121008E-002   0.0000000000000000     
   2.4599946428097937E-002   2.5860702451006894E-002   0.0000000000000000     
   2.7177516202749216E-002   2.9950016330518033E-002   0.0000000000000000     
   2.9677023246732874E-002   3.4252959384654419E-002   0.0000000000000000     
   3.2098467560048902E-002   3.8769531613416064E-002   0.0000000000000000     
   1.9436473537294156E-002   2.1277313263017236E-002   0.0000000000000000     
   2.1842802545742307E-002   2.5167307332345321E-002   0.0000000000000000     
   2.4178063407490312E-002   2.9271127930587615E-002   0.0000000000000000     
   2.6442256122538168E-002   3.3588775057744102E-002   0.0000000000000000     
   2.8635380690885875E-002   3.8120248713814794E-002   0.0000000000000000     
   1.7099411043414347E-002   2.0675167277737824E-002   0.0000000000000000     
   1.9251660729874994E-002   2.4561979201805553E-002   0.0000000000000000     
   2.1344018393573805E-002   2.8667128584210836E-002   0.0000000000000000     
   2.3376484034510772E-002   3.2990615424953663E-002   0.0000000000000000     
   2.5349057652685896E-002   3.7532439724034056E-002   0.0000000000000000     
   1.4933126441139586E-002   2.0178579790282786E-002   0.0000000000000000     
   1.6826520980495998E-002   2.4044718059387599E-002   0.0000000000000000     
   1.8675381160999698E-002   2.8138018291387710E-002   0.0000000000000000     
   2.0479706982650687E-002   3.2458480486283130E-002   0.0000000000000000     
   2.2239498445448962E-002   3.7006104644073848E-002   0.0000000000000000     
   3.5738318260174970E-002   3.9480288422837871E-002   0.0000000000000000     
   3.8315241921035137E-002   4.4190177357585056E-002   0.0000000000000000     
   4.0811822972119771E-002   4.9107858732049474E-002   0.0000000000000000     
   4.3228061413428859E-002   5.4233332546231097E-002   0.0000000000000000     
   4.5563957244962421E-002   5.9566598800129926E-002   0.0000000000000000     
   3.2098467560048902E-002   3.8769531613416064E-002   0.0000000000000000     
   3.4437296354264700E-002   4.3495759619123373E-002   0.0000000000000000     
   3.6688956840947674E-002   4.8427670004096784E-002   0.0000000000000000     
   3.8853449020097824E-002   5.3565262768336265E-002   0.0000000000000000     
   4.0930772891715150E-002   5.8908537911841849E-002   0.0000000000000000     
   2.8635380690885875E-002   3.8120248713814794E-002   0.0000000000000000     
   3.0751180605298491E-002   4.2860752351628527E-002   0.0000000000000000     
   3.2783399358541077E-002   4.7805489424014136E-002   0.0000000000000000     
   3.4732036950613630E-002   5.2954459930971622E-002   0.0000000000000000     
   3.6597093381516149E-002   5.8307663872500998E-002   0.0000000000000000     
   2.5349057652685896E-002   3.7532439724034056E-002   0.0000000000000000     
   2.7256894674136514E-002   4.2285155555100498E-002   0.0000000000000000     
   2.9095150524899978E-002   4.7241316991801535E-002   0.0000000000000000     
   3.0863825204976277E-002   5.2400924034137146E-002   0.0000000000000000     
   3.2562918714365417E-002   5.7763976682107358E-002   0.0000000000000000     
   2.2239498445448962E-002   3.7006104644073848E-002   0.0000000000000000     
   2.3954438560778776E-002   4.1768969229539314E-002   0.0000000000000000     
   2.5624210340024378E-002   4.6735152707458982E-002   0.0000000000000000     
   2.7248813783185763E-002   5.1904655077832859E-002   0.0000000000000000     
   2.8828248890262941E-002   5.7277476340660931E-002   0.0000000000000000     
   4.5563957244962421E-002   5.9566598800129926E-002   0.0000000000000000     
   4.7832315683132162E-002   6.5094017307128035E-002   0.0000000000000000     
   5.0045941944349845E-002   7.0801947880607438E-002   0.0000000000000000     
   5.2204836028615448E-002   7.6690390520568211E-002   0.0000000000000000     
   5.4308997935928971E-002   8.2759345227010270E-002   0.0000000000000000     
   4.0930772891715150E-002   5.8908537911841849E-002   0.0000000000000000     
   4.2942193270290988E-002   6.4447290763586823E-002   0.0000000000000000     
   4.4908974970316665E-002   7.0171316652544433E-002   0.0000000000000000     
   4.6831117991792175E-002   7.6080615578714719E-002   0.0000000000000000     
   4.8708622334717538E-002   8.2175187542097655E-002   0.0000000000000000     
   3.6597093381516149E-002   5.8307663872500998E-002   0.0000000000000000     
   3.8401361446418980E-002   6.3857913563378596E-002   0.0000000000000000     
   4.0167633940492477E-002   6.9598021318380790E-002   0.0000000000000000     
   4.1895910863736625E-002   7.5527987137507552E-002   0.0000000000000000     
   4.3586192216151440E-002   8.1647811020758909E-002   0.0000000000000000     
   3.2562918714365417E-002   5.7763976682107358E-002   0.0000000000000000     
   3.4209820211516161E-002   6.3325885706503410E-002   0.0000000000000000     
   3.5821918854877288E-002   6.9082061878116510E-002   0.0000000000000000     
   3.7399214644448800E-002   7.5032505196946736E-002   0.0000000000000000     
   3.8941707580230682E-002   8.1177215662994018E-002   0.0000000000000000     
   2.8828248890262941E-002   5.7277476340660931E-002   0.0000000000000000     
   3.0367569565582512E-002   6.2851207192961195E-002   0.0000000000000000     
   3.1871829713471085E-002   6.8623438331751621E-002   0.0000000000000000     
   3.3341029333928671E-002   7.4594169757032230E-002   0.0000000000000000     
   3.4775168426955258E-002   8.0763401468803009E-002   0.0000000000000000     
   5.4308997935928971E-002   8.2759345227010270E-002   0.0000000000000000     
   5.6342000536593564E-002   8.9002332804000925E-002   0.0000000000000000     
   5.8287416700912371E-002   9.5412874055607416E-002   0.0000000000000000     
   6.0145246428885399E-002  0.10199096898182974        0.0000000000000000     
   6.1915489720512626E-002  0.10873661758266789        0.0000000000000000     
   4.8708622334717538E-002   8.2175187542097655E-002   0.0000000000000000     
   5.0521894835417767E-002   8.8444602330619709E-002   0.0000000000000000     
   5.2251342330217887E-002   9.4878429732207295E-002   0.0000000000000000     
   5.3896964819117925E-002  0.10147666974686044        0.0000000000000000     
   5.5458762302117867E-002  0.10823932237457913        0.0000000000000000     
   4.3586192216151440E-002   8.1647811020758909E-002   0.0000000000000000     
   4.5218193574849165E-002   8.7943432883415662E-002   0.0000000000000000     
   4.6771630516942039E-002   9.4400792640758624E-002   0.0000000000000000     
   4.8246503042430090E-002  0.10101989029278785        0.0000000000000000     
   4.9642811151313304E-002  0.10780072583950327        0.0000000000000000     
   3.8941707580230682E-002   8.1177215662994018E-002   0.0000000000000000     
   4.0430896754887764E-002   8.7498824462388783E-002   0.0000000000000000     
   4.1848281261084842E-002   9.3979962781261445E-002   0.0000000000000000     
   4.3193861098821923E-002  0.10062063061961195        0.0000000000000000     
   4.4467636268098992E-002  0.10742082797744032        0.0000000000000000     
   3.4775168426955258E-002   8.0763401468803009E-002   0.0000000000000000     
   3.6160004375533558E-002   8.7110777067539100E-002   0.0000000000000000     
   3.7481294562646268E-002   9.3615940153715674E-002   0.0000000000000000     
   3.8739038988293381E-002  0.10027889072733275        0.0000000000000000     
   3.9933237652474904E-002  0.10709962878839030        0.0000000000000000     
   6.1915489720512626E-002  0.10873661758266789        0.0000000000000000     
   6.3588978185033090E-002  0.11563383825481154        0.0000000000000000     
   6.5156543431685796E-002  0.12266664939495028        0.0000000000000000     
   6.6618185460470755E-002  0.12983505100308415        0.0000000000000000     
   6.7973904271387942E-002  0.13713904307921310        0.0000000000000000     
   5.5458762302117867E-002  0.10823932237457913        0.0000000000000000     
   5.6920414901636122E-002  0.11515184129282661        0.0000000000000000     
   5.8265602740091169E-002  0.12219968017906614        0.0000000000000000     
   5.9494325817483006E-002  0.12938283903329770        0.0000000000000000     
   6.0606584133811620E-002  0.13670131785552131        0.0000000000000000     
   4.9642811151313304E-002  0.10780072583950327        0.0000000000000000     
   5.0943191782203454E-002  0.11473078338015566        0.0000000000000000     
   5.2130281873712311E-002  0.12179754701399578        0.0000000000000000     
   5.3204081425839857E-002  0.12900101674102360        0.0000000000000000     
   5.4164590438586117E-002  0.13634119256123911        0.0000000000000000     
   4.4467636268098992E-002  0.10742082797744032        0.0000000000000000     
   4.5657308826735077E-002  0.11437066451679870        0.0000000000000000     
   4.6750580832549175E-002  0.12146024989973916        0.0000000000000000     
   4.7747452285541295E-002  0.12868958412626172        0.0000000000000000     
   4.8647923185711435E-002  0.13605866719636647        0.0000000000000000     
   3.9933237652474904E-002  0.10709962878839030        0.0000000000000000     
   4.1062766035230999E-002  0.11407148470275572        0.0000000000000000     
   4.2126499616601809E-002  0.12118778883629636        0.0000000000000000     
   4.3124438396587340E-002  0.12844854118901225        0.0000000000000000     
   4.4056582375187586E-002  0.13585374176090337        0.0000000000000000     
   6.7973904271387942E-002  0.13713904307921310        0.0000000000000000     
   6.9211953070633464E-002  0.14455616167004770        0.0000000000000000     
   7.0320585064403376E-002  0.15206394282229846        0.0000000000000000     
   7.1299800252697693E-002  0.15966238653596537        0.0000000000000000     
   7.2149598635516413E-002  0.16735149281104841        0.0000000000000000     
   6.0606584133811620E-002  0.13670131785552131        0.0000000000000000     
   6.1563665939105588E-002  0.14410528843422080        0.0000000000000000     
   6.2326859483393497E-002  0.15154492255787982        0.0000000000000000     
   6.2896164766675366E-002  0.15902022022649848        0.0000000000000000     
   6.3271581788951148E-002  0.16653118144007675        0.0000000000000000     
   5.4164590438586117E-002  0.13634119256123911        0.0000000000000000     
   5.4961122990619136E-002  0.14375616507638145        0.0000000000000000     
   5.5542993160606999E-002  0.15118402488818963        0.0000000000000000     
   5.5910200948549704E-002  0.15862477199666369        0.0000000000000000     
   5.6062746354447246E-002  0.16607840640180371        0.0000000000000000     
   4.8647923185711435E-002  0.13605866719636647        0.0000000000000000     
   4.9404324225174122E-002  0.14350879159652968        0.0000000000000000     
   4.9968986096043888E-002  0.15098124981322791        0.0000000000000000     
   5.0341908798320747E-002  0.15847604184646108        0.0000000000000000     
   5.0523092332004679E-002  0.16599316769622929        0.0000000000000000     
   4.4056582375187586E-002  0.13585374176090337        0.0000000000000000     
   4.4893269642770524E-002  0.14336316799466556        0.0000000000000000     
   4.5604838289704165E-002  0.15093659733299467        0.0000000000000000     
   4.6191288315988475E-002  0.15857402977589063        0.0000000000000000     
   4.6652619721623476E-002  0.16627546532335347        0.0000000000000000     
   0.0000000000000000        0.0000000000000000        0.0000000000000000     
   1.7979379018132188E-003   1.2766230210852270E-003   0.0000000000000000     
   3.6200431569106484E-003   2.9389173566671542E-003   0.0000000000000000     
   5.4663157652922890E-003   4.9868830067457820E-003   0.0000000000000000     
   7.3367557269581416E-003   7.4205199713211090E-003   0.0000000000000000     
   0.0000000000000000        0.0000000000000000        0.0000000000000000     
   1.5347389411230021E-003   1.2181190999098301E-003   0.0000000000000000     
   3.0982745128234307E-003   2.8221226653262418E-003   0.0000000000000000     
   4.6906067151012863E-003   4.8120106962492347E-003   0.0000000000000000     
   6.3117355479565696E-003   7.1877831926788075E-003   0.0000000000000000     
   0.0000000000000000        0.0000000000000000        0.0000000000000000     
   1.2875695820391371E-003   1.1711814130283612E-003   0.0000000000000000     
   2.6045434010418277E-003   2.7270814979553069E-003   0.0000000000000000     
   3.9509214570080716E-003   4.6677002547808365E-003   0.0000000000000000     
   5.3267037499378682E-003   6.9930376835049511E-003   0.0000000000000000     
   0.0000000000000000        0.0000000000000000        0.0000000000000000     
   1.0564298245616243E-003   1.1358099604408200E-003   0.0000000000000000     
   2.1388498215658392E-003   2.6537938545543498E-003   0.0000000000000000     
   3.2472599910126441E-003   4.5539516823405899E-003   0.0000000000000000     
   4.3816603329020400E-003   6.8362834437995391E-003   0.0000000000000000     
   0.0000000000000000        0.0000000000000000        0.0000000000000000     
   8.4131966869046312E-004   1.1120047421472067E-003   0.0000000000000000     
   1.7011937743954644E-003   2.6022597351233710E-003   0.0000000000000000     
   2.5796223171150033E-003   4.4707649789284924E-003   0.0000000000000000     
   3.4766052968490811E-003   6.7175204735625714E-003   0.0000000000000000     
   7.3367557269581416E-003   7.4205199713211090E-003   0.0000000000000000     
   9.2234216253254484E-003   1.0187753176373973E-002   0.0000000000000000     
   1.1118372043811458E-002   1.3236507547885206E-002   0.0000000000000000     
   1.3021606982416173E-002   1.6566783085854814E-002   0.0000000000000000     
   1.4933126441139586E-002   2.0178579790282786E-002   0.0000000000000000     
   6.3117355479565696E-003   7.1877831926788075E-003   0.0000000000000000     
   7.9491562308114157E-003   9.9004386506501407E-003   0.0000000000000000     
   9.5903639830879645E-003   1.2900975566198415E-002   0.0000000000000000     
   1.1235358804786212E-002   1.6189393939323626E-002   0.0000000000000000     
   1.2884140695906161E-002   1.9765693770025777E-002   0.0000000000000000     
   5.3267037499378682E-003   6.9930376835049511E-003   0.0000000000000000     
   6.7178339974473290E-003   9.6576611634372270E-003   0.0000000000000000     
   8.1102559171525642E-003   1.2616138073887234E-002   0.0000000000000000     
   9.5039695090535711E-003   1.5868468414854984E-002   0.0000000000000000     
   1.0898974773150353E-002   1.9414652186340465E-002   0.0000000000000000     
   4.3816603329020400E-003   6.8362834437995391E-003   0.0000000000000000     
   5.5294549252331900E-003   9.4594207147352238E-003   0.0000000000000000     
   6.6780478460052592E-003   1.2381995070951671E-002   0.0000000000000000     
   7.8274390952182468E-003   1.5604006512448882E-002   0.0000000000000000     
   8.9776286728721552E-003   1.9125455039226854E-002   0.0000000000000000     
   3.4766052968490811E-003   6.7175204735625714E-003   0.0000000000000000     
   4.3840190141689970E-003   9.3057173045441362E-003   0.0000000000000000     
   5.2937397696460496E-003   1.2198546557391719E-002   0.0000000000000000     
   6.2057675632802428E-003   1.5396008232105322E-002   0.0000000000000000     
   7.1201023950715732E-003   1.8898102328684940E-002   0.0000000000000000     
   1.4933126441139586E-002   2.0178579790282786E-002   0.0000000000000000     
   1.6826520980495998E-002   2.4044718059387599E-002   0.0000000000000000     
   1.8675381160999698E-002   2.8138018291387710E-002   0.0000000000000000     
   2.0479706982650687E-002   3.2458480486283130E-002   0.0000000000000000     
   2.2239498445448962E-002   3.7006104644073848E-002   0.0000000000000000     
   1.2884140695906161E-002   1.9765693770025777E-002   0.0000000000000000     
   1.4520205173351978E-002   2.3604408523937293E-002   0.0000000000000000     
   1.6127047754027821E-002   2.7680071666690589E-002   0.0000000000000000     
   1.7704668437933689E-002   3.1992683198285674E-002   0.0000000000000000     
   1.9253067225069583E-002   3.6542243118722541E-002   0.0000000000000000     
   1.0898974773150353E-002   1.9414652186340465E-002   0.0000000000000000     
   1.2285535184189601E-002   2.3229935214300484E-002   0.0000000000000000     
   1.3653914216918001E-002   2.7289563324691828E-002   0.0000000000000000     
   1.5004111871335562E-002   3.1593536517514516E-002   0.0000000000000000     
   1.6336128147442279E-002   3.6141854792768512E-002   0.0000000000000000     
   8.9776286728721552E-003   1.9125455039226854E-002   0.0000000000000000     
   1.0122511013008862E-002   2.2921298130477181E-002   0.0000000000000000     
   1.1255980549670244E-002   2.6966493265391443E-002   0.0000000000000000     
   1.2378037282856302E-002   3.1261040443969643E-002   0.0000000000000000     
   1.3488681212567034E-002   3.5804939666211781E-002   0.0000000000000000     
   7.1201023950715732E-003   1.8898102328684940E-002   0.0000000000000000     
   8.0311326598097657E-003   2.2678497272467374E-002   0.0000000000000000     
   8.9332467522845460E-003   2.6710861488789411E-002   0.0000000000000000     
   9.8264446724959098E-003   3.0995194977651061E-002   0.0000000000000000     
   1.0710726420443861E-002   3.5531497739052322E-002   0.0000000000000000     
   2.2239498445448962E-002   3.7006104644073848E-002   0.0000000000000000     
   2.3954438560778776E-002   4.1768969229539314E-002   0.0000000000000000     
   2.5624210340024378E-002   4.6735152707458982E-002   0.0000000000000000     
   2.7248813783185763E-002   5.1904655077832859E-002   0.0000000000000000     
   2.8828248890262941E-002   5.7277476340660931E-002   0.0000000000000000     
   1.9253067225069583E-002   3.6542243118722541E-002   0.0000000000000000     
   2.0776312377704123E-002   4.1312282269444993E-002   0.0000000000000000     
   2.2278472158105900E-002   4.6286331491896864E-002   0.0000000000000000     
   2.3759546566274933E-002   5.1464390786078146E-002   0.0000000000000000     
   2.5219535602211202E-002   5.6846460151988812E-002   0.0000000000000000     
   1.6336128147442279E-002   3.6141854792768512E-002   0.0000000000000000     
   1.7655016237391401E-002   4.0915183569317629E-002   0.0000000000000000     
   1.8965829333336171E-002   4.5894188266025593E-002   0.0000000000000000     
   2.0268567435276594E-002   5.1078868882892418E-002   0.0000000000000000     
   2.1563230543212679E-002   5.6469225419918098E-002   0.0000000000000000     
   1.3488681212567034E-002   3.5804939666211781E-002   0.0000000000000000     
   1.4590550139840609E-002   4.0577673129157173E-002   0.0000000000000000     
   1.5686281865715187E-002   4.5558723029845136E-002   0.0000000000000000     
   1.6775876390190771E-002   5.0748089368275677E-002   0.0000000000000000     
   1.7859333713267360E-002   5.6145772144448797E-002   0.0000000000000000     
   1.0710726420443861E-002   3.5531497739052322E-002   0.0000000000000000     
   1.1582914085051755E-002   4.0299750948963653E-002   0.0000000000000000     
   1.2439829755242951E-002   4.5279935783355520E-002   0.0000000000000000     
   1.3281473431017449E-002   5.0472052242227929E-002   0.0000000000000000     
   1.4107845112375249E-002   5.5876100325580880E-002   0.0000000000000000     
   2.8828248890262941E-002   5.7277476340660931E-002   0.0000000000000000     
   3.0367569565582512E-002   6.2851207192961195E-002   0.0000000000000000     
   3.1871829713471085E-002   6.8623438331751621E-002   0.0000000000000000     
   3.3341029333928671E-002   7.4594169757032230E-002   0.0000000000000000     
   3.4775168426955258E-002   8.0763401468803009E-002   0.0000000000000000     
   2.5219535602211202E-002   5.6846460151988812E-002   0.0000000000000000     
   2.6651256426618451E-002   6.2431445646823208E-002   0.0000000000000000     
   2.8047526200200384E-002   6.8218253327775605E-002   0.0000000000000000     
   2.9408344922957009E-002   7.4206883194846043E-002   0.0000000000000000     
   3.0733712594888322E-002   8.0397335248034496E-002   0.0000000000000000     
   2.1563230543212679E-002   5.6469225419918098E-002   0.0000000000000000     
   2.2837527712624379E-002   6.2064168692160630E-002   0.0000000000000000     
   2.4079167998991666E-002   6.7862609514677999E-002   0.0000000000000000     
   2.5288151402314545E-002   7.3864547887470169E-002   0.0000000000000000     
   2.6464477922593009E-002   8.0069983810537176E-002   0.0000000000000000     
   1.7859333713267360E-002   5.6145772144448797E-002   0.0000000000000000     
   1.8926383423600299E-002   6.1749376328973475E-002   0.0000000000000000     
   1.9966755109844941E-002   6.7556506892458762E-002   0.0000000000000000     
   2.0980448772001278E-002   7.3567163834904609E-002   0.0000000000000000     
   2.1967464410069321E-002   7.9781347156311050E-002   0.0000000000000000     
   1.4107845112375249E-002   5.5876100325580880E-002   0.0000000000000000     
   1.4917823559546213E-002   6.1487068557261743E-002   0.0000000000000000     
   1.5710287532760200E-002   6.7299945461117908E-002   0.0000000000000000     
   1.6485237032017219E-002   7.3314731037149375E-002   0.0000000000000000     
   1.7242672057317256E-002   7.9531425285356117E-002   0.0000000000000000     
   3.4775168426955258E-002   8.0763401468803009E-002   0.0000000000000000     
   3.6160004375533558E-002   8.7110777067539100E-002   0.0000000000000000     
   3.7481294562646268E-002   9.3615940153715674E-002   0.0000000000000000     
   3.8739038988293381E-002  0.10027889072733275        0.0000000000000000     
   3.9933237652474904E-002  0.10709962878839030        0.0000000000000000     
   3.0733712594888322E-002   8.0397335248034496E-002   0.0000000000000000     
   3.2014029731041886E-002   8.6767131758017715E-002   0.0000000000000000     
   3.3239696846465258E-002   9.3293794995472482E-002   0.0000000000000000     
   3.4410713941158445E-002   9.9977324960398781E-002   0.0000000000000000     
   3.5527081015121434E-002  0.10681772165279660        0.0000000000000000     
   2.6464477922593009E-002   8.0069983810537176E-002   0.0000000000000000     
   2.7601486115668074E-002   8.6455729592975830E-002   0.0000000000000000     
   2.8692514537380753E-002   9.2998597543882969E-002   0.0000000000000000     
   2.9737563187731044E-002   9.9698587663258564E-002   0.0000000000000000     
   3.0736632066718946E-002  0.10655569995110264        0.0000000000000000     
   2.1967464410069321E-002   7.9781347156311050E-002   0.0000000000000000     
   2.2922373529412118E-002   8.6176570572413430E-002   0.0000000000000000     
   2.3839747635392747E-002   9.2730347798947121E-002   0.0000000000000000     
   2.4719586728011191E-002   9.9442678835912138E-002   0.0000000000000000     
   2.5561890807267451E-002  0.10631356368330844        0.0000000000000000     
   1.7242672057317256E-002   7.9531425285356117E-002   0.0000000000000000     
   1.7976691972274025E-002   8.5929654696330543E-002   0.0000000000000000     
   1.8681396140501232E-002   9.2489045760664995E-002   0.0000000000000000     
   1.9356784561998876E-002   9.9209598478359501E-002   0.0000000000000000     
   2.0002857236766952E-002  0.10609131284941403        0.0000000000000000     
   3.9933237652474904E-002  0.10709962878839030        0.0000000000000000     
   4.1062766035230999E-002  0.11407148470275572        0.0000000000000000     
   4.2126499616601809E-002  0.12118778883629636        0.0000000000000000     
   4.3124438396587340E-002  0.12844854118901225        0.0000000000000000     
   4.4056582375187586E-002  0.13585374176090337        0.0000000000000000     
   3.5527081015121434E-002  0.10681772165279660        0.0000000000000000     
   3.6598419552687569E-002  0.11381104220581033        0.0000000000000000     
   3.7634351038190191E-002  0.12095334375258436        0.0000000000000000     
   3.8634875471629297E-002  0.12824462629311870        0.0000000000000000     
   3.9599992853004889E-002  0.13568488982741331        0.0000000000000000     
   3.0736632066718946E-002  0.10655569995110264        0.0000000000000000     
   3.1703125524101150E-002  0.11356713529374621        0.0000000000000000     
   3.2650447909634346E-002  0.12073009457752021        0.0000000000000000     
   3.3578599223318531E-002  0.12804457780242476        0.0000000000000000     
   3.4487579465153705E-002  0.13551058496845980        0.0000000000000000     
   2.5561890807267451E-002  0.10631356368330844        0.0000000000000000     
   2.6376883949471745E-002  0.11333976396656331        0.0000000000000000     
   2.7174790230934269E-002  0.12051804131110400        0.0000000000000000     
   2.7955609651655028E-002  0.12784839571693046        0.0000000000000000     
   2.8719342211634018E-002  0.13533082718404274        0.0000000000000000     
   2.0002857236766952E-002  0.10609131284941403        0.0000000000000000     
   2.0619694828799356E-002  0.11312892822426168        0.0000000000000000     
   2.1207378002089973E-002  0.12031718395333560        0.0000000000000000     
   2.1765906756638795E-002  0.12765608003663581        0.0000000000000000     
   2.2295281092445832E-002  0.13514561647416221        0.0000000000000000     
   4.4056582375187586E-002  0.13585374176090337        0.0000000000000000     
   4.4893269642770524E-002  0.14336316799466556        0.0000000000000000     
   4.5604838289704165E-002  0.15093659733299467        0.0000000000000000     
   4.6191288315988475E-002  0.15857402977589063        0.0000000000000000     
   4.6652619721623476E-002  0.16627546532335347        0.0000000000000000     
   3.9599992853004889E-002  0.13568488982741331        0.0000000000000000     
   4.0520644226010129E-002  0.14325587244952859        0.0000000000000000     
   4.1387770634338142E-002  0.15093931225352480        0.0000000000000000     
   4.2201372077988963E-002  0.15873520923940199        0.0000000000000000     
   4.2961448556962559E-002  0.16664356340716013        0.0000000000000000     
   3.4487579465153705E-002  0.13551058496845980        0.0000000000000000     
   3.5379132957494654E-002  0.14312348313985829        0.0000000000000000     
   3.6255004022696165E-002  0.15087863938085336        0.0000000000000000     
   3.7115192660758238E-002  0.15877605369144493        0.0000000000000000     
   3.7959698871680873E-002  0.16681572607163306        0.0000000000000000     
   2.8719342211634018E-002  0.13533082718404274        0.0000000000000000     
   2.9468735837224123E-002  0.14296600006565471        0.0000000000000000     
   3.0206538454778224E-002  0.15075457871498027        0.0000000000000000     
   3.0932750064296324E-002  0.15869656313201949        0.0000000000000000     
   3.1647370665778420E-002  0.16679195331677224        0.0000000000000000     
   2.2295281092445832E-002  0.13514561647416221        0.0000000000000000     
   2.2789452865198526E-002  0.14278342322691787        0.0000000000000000     
   2.3242373930584318E-002  0.15056713025590562        0.0000000000000000     
   2.3654044288603210E-002  0.15849673756112559        0.0000000000000000     
   2.4024463939255201E-002  0.16657224514257771        0.0000000000000000     
   0.0000000000000000        0.0000000000000000        0.0000000000000000     
   8.4131966869046312E-004   1.1120047421472067E-003   0.0000000000000000     
   1.7011937743954644E-003   2.6022597351233710E-003   0.0000000000000000     
   2.5796223171150033E-003   4.4707649789284924E-003   0.0000000000000000     
   3.4766052968490811E-003   6.7175204735625714E-003   0.0000000000000000     
   0.0000000000000000        0.0000000000000000        0.0000000000000000     
   6.3341567309712146E-004   1.0962354036435156E-003   0.0000000000000000     
   1.2771412027342628E-003   2.5666845473574789E-003   0.0000000000000000     
   1.9311765889114248E-003   4.4113474311418908E-003   0.0000000000000000     
   2.5955218316286066E-003   6.6302240549967490E-003   0.0000000000000000     
   0.0000000000000000        0.0000000000000000        0.0000000000000000     
   4.2389439645306663E-004   1.0849715904257410E-003   0.0000000000000000     
   8.5225804978579381E-004   2.5412736989517842E-003   0.0000000000000000     
   1.2850909599981817E-003   4.3689063255781292E-003   0.0000000000000000     
   1.7223931270902301E-003   6.5678694703047756E-003   0.0000000000000000     
   0.0000000000000000        0.0000000000000000        0.0000000000000000     
   2.1275583875829862E-004   1.0782133024938832E-003   0.0000000000000000     
   4.2654431555005668E-004   2.5260271899062861E-003   0.0000000000000000     
   6.4136543037527445E-004   4.3434416622372077E-003   0.0000000000000000     
   8.5721918323395166E-004   6.5304567194866504E-003   0.0000000000000000     
   0.0000000000000000        0.0000000000000000        0.0000000000000000     
   1.2817438083123633E-014   1.0759605398479421E-003   0.0000000000000000     
   2.7051657355142700E-014   2.5209450202209847E-003   0.0000000000000000     
   4.2702712026165823E-014   4.3349534411191290E-003   0.0000000000000000     
   5.9770629201247316E-014   6.5179858025423741E-003   0.0000000000000000     
   3.4766052968490811E-003   6.7175204735625714E-003   0.0000000000000000     
   4.3840190141689970E-003   9.3057173045441362E-003   0.0000000000000000     
   5.2937397696460496E-003   1.2198546557391719E-002   0.0000000000000000     
   6.2057675632802428E-003   1.5396008232105322E-002   0.0000000000000000     
   7.1201023950715732E-003   1.8898102328684940E-002   0.0000000000000000     
   2.5955218316286066E-003   6.6302240549967490E-003   0.0000000000000000     
   3.2670445779213715E-003   9.1907117749745401E-003   0.0000000000000000     
   3.9426124748252822E-003   1.2060207947127749E-002   0.0000000000000000     
   4.6222255223403392E-003   1.5238712571456372E-002   0.0000000000000000     
   5.3058837204665431E-003   1.8726225647960414E-002   0.0000000000000000     
   1.7223931270902301E-003   6.5678694703047756E-003   0.0000000000000000     
   2.1640499301569379E-003   9.1085649681370093E-003   0.0000000000000000     
   2.6099467482933029E-003   1.1961394654080118E-002   0.0000000000000000     
   3.0600835814993256E-003   1.5126358528134098E-002   0.0000000000000000     
   3.5144604297750056E-003   1.8603456590298953E-002   0.0000000000000000     
   8.5721918323395166E-004   6.5304567194866504E-003   0.0000000000000000     
   1.0750350708756946E-003   9.0592768840315439E-003   0.0000000000000000     
   1.2957425900501107E-003   1.1902106678248831E-002   0.0000000000000000     
   1.5193417407571993E-003   1.5058946102138501E-002   0.0000000000000000     
   1.7458325229969601E-003   1.8529795155700565E-002   0.0000000000000000     
   5.9770629201247316E-014   6.5179858025423741E-003   0.0000000000000000     
   7.7642590707444059E-014   9.0428475226581474E-003   0.0000000000000000     
   9.5705636070277794E-014   1.1882344019633886E-002   0.0000000000000000     
   1.1396050898467621E-013   1.5036475293469583E-002   0.0000000000000000     
   1.3240656401153350E-013   1.8505241344165240E-002   0.0000000000000000     
   7.1201023950715732E-003   1.8898102328684940E-002   0.0000000000000000     
   8.0311326598097657E-003   2.2678497272467374E-002   0.0000000000000000     
   8.9332467522845460E-003   2.6710861488789411E-002   0.0000000000000000     
   9.8264446724959098E-003   3.0995194977651061E-002   0.0000000000000000     
   1.0710726420443861E-002   3.5531497739052322E-002   0.0000000000000000     
   5.3058837204665431E-003   1.8726225647960414E-002   0.0000000000000000     
   5.9875202854247685E-003   2.2494849870502147E-002   0.0000000000000000     
   6.6610684334358905E-003   2.6516687932943865E-002   0.0000000000000000     
   7.3265281644999082E-003   3.0791739835285558E-002   0.0000000000000000     
   7.9838994786168242E-003   3.5320005577527229E-002   0.0000000000000000     
   3.5144604297750056E-003   1.8603456590298953E-002   0.0000000000000000     
   3.9677940506863242E-003   2.2363673154812587E-002   0.0000000000000000     
   4.4148012017992616E-003   2.6377992535912900E-002   0.0000000000000000     
   4.8554818831138200E-003   3.0646414733599903E-002   0.0000000000000000     
   5.2898360946299974E-003   3.5168939747873586E-002   0.0000000000000000     
   1.7458325229969601E-003   1.8529795155700565E-002   0.0000000000000000     
   1.9719539555944341E-003   2.2284967125398680E-002   0.0000000000000000     
   2.1944450573746620E-003   2.6294775297696523E-002   0.0000000000000000     
   2.4133058283376434E-003   3.0559219672594090E-002   0.0000000000000000     
   2.6285362684833791E-003   3.5078300250091392E-002   0.0000000000000000     
   1.3240656401153350E-013   1.8505241344165240E-002   0.0000000000000000     
   1.4909780224683922E-013   2.2258731782260434E-002   0.0000000000000000     
   1.6208917346348384E-013   2.6267036218294734E-002   0.0000000000000000     
   1.7137974931335717E-013   3.0530154652268132E-002   0.0000000000000000     
   1.7697063432742244E-013   3.5048087084180640E-002   0.0000000000000000     
   1.0710726420443861E-002   3.5531497739052322E-002   0.0000000000000000     
   1.1582914085051755E-002   4.0299750948963653E-002   0.0000000000000000     
   1.2439829755242951E-002   4.5279935783355520E-002   0.0000000000000000     
   1.3281473431017449E-002   5.0472052242227929E-002   0.0000000000000000     
   1.4107845112375249E-002   5.5876100325580880E-002   0.0000000000000000     
   7.9838994786168242E-003   3.5320005577527229E-002   0.0000000000000000     
   8.6245661796909776E-003   4.0082638905034454E-002   0.0000000000000000     
   9.2399120716267144E-003   4.5060793563172802E-002   0.0000000000000000     
   9.8299371544240313E-003   5.0254469551942287E-002   0.0000000000000000     
   1.0394641428082932E-002   5.5663666871342894E-002   0.0000000000000000     
   5.2898360946299974E-003   3.5168939747873586E-002   0.0000000000000000     
   5.7079645304244234E-003   3.9927558873666960E-002   0.0000000000000000     
   6.0999678845737315E-003   4.4904263405913053E-002   0.0000000000000000     
   6.4658461570779200E-003   5.0099053344611857E-002   0.0000000000000000     
   6.8055993479369898E-003   5.5511928689763373E-002   0.0000000000000000     
   2.6285362684833791E-003   3.5078300250091392E-002   0.0000000000000000     
   2.8331091372520911E-003   3.9834510854861185E-002   0.0000000000000000     
   3.0199971940840027E-003   4.4810345311576280E-002   0.0000000000000000     
   3.1892004389791132E-003   5.0005803620236655E-002   0.0000000000000000     
   3.3407188719374236E-003   5.5420885780842317E-002   0.0000000000000000     
   1.7697063432742244E-013   3.5048087084180640E-002   0.0000000000000000     
   1.7397942895375218E-013   3.9803494848617130E-002   0.0000000000000000     
   1.5752638993574153E-013   4.4779039280162469E-002   0.0000000000000000     
   1.2761104293494002E-013   4.9974720378816673E-002   0.0000000000000000     
   8.4233618344309313E-014   5.5390538144579705E-002   0.0000000000000000     
   1.4107845112375249E-002   5.5876100325580880E-002   0.0000000000000000     
   1.4917823559546213E-002   6.1487068557261743E-002   0.0000000000000000     
   1.5710287532760200E-002   6.7299945461117908E-002   0.0000000000000000     
   1.6485237032017219E-002   7.3314731037149375E-002   0.0000000000000000     
   1.7242672057317256E-002   7.9531425285356117E-002   0.0000000000000000     
   1.0394641428082932E-002   5.5663666871342894E-002   0.0000000000000000     
   1.0942508848399481E-002   6.1280511265793640E-002   0.0000000000000000     
   1.1482023371169747E-002   6.7097128479713566E-002   0.0000000000000000     
   1.2013184996393736E-002   7.3113518513102618E-002   0.0000000000000000     
   1.2535993724071444E-002   7.9329681365960858E-002   0.0000000000000000     
   6.8055993479369898E-003   5.5511928689763373E-002   0.0000000000000000     
   7.1311000180974667E-003   6.1132970343337423E-002   0.0000000000000000     
   7.4542207285058781E-003   6.6952259207303841E-002   0.0000000000000000     
   7.7749614791622276E-003   7.2969795281662586E-002   0.0000000000000000     
   8.0933222700665108E-003   7.9185578566413728E-002   0.0000000000000000     
   3.3407188719374236E-003   5.5420885780842317E-002   0.0000000000000000     
   3.4835970686401705E-003   6.1044445789893063E-002   0.0000000000000000     
   3.6268796047685919E-003   6.6865337643888717E-002   0.0000000000000000     
   3.7705664803226878E-003   7.2883561342829292E-002   0.0000000000000000     
   3.9146576953024582E-003   7.9099116886714754E-002   0.0000000000000000     
   8.4233618344309313E-014   5.5390538144579705E-002   0.0000000000000000     
   2.7593162130190585E-014   6.1014937605460583E-002   0.0000000000000000     
  -4.2112147102812969E-014   6.6836363789468223E-002   0.0000000000000000     
  -1.2487992410992188E-013   7.2854816696602681E-002   0.0000000000000000     
  -2.2071298781678461E-013   7.9070296326863909E-002   0.0000000000000000     
   1.7242672057317256E-002   7.9531425285356117E-002   0.0000000000000000     
   1.7976691972274025E-002   8.5929654696330543E-002   0.0000000000000000     
   1.8681396140501232E-002   9.2489045760664995E-002   0.0000000000000000     
   1.9356784561998876E-002   9.9209598478359501E-002   0.0000000000000000     
   2.0002857236766952E-002  0.10609131284941403        0.0000000000000000     
   1.2535993724071444E-002   7.9329681365960858E-002   0.0000000000000000     
   1.3043924192051925E-002   8.5727709680476077E-002   0.0000000000000000     
   1.3530451038184241E-002   9.2289696098836124E-002   0.0000000000000000     
   1.3995574262468388E-002   9.9015640621041040E-002   0.0000000000000000     
   1.4439293864904369E-002  0.10590554324709078        0.0000000000000000     
   8.0933222700665108E-003   7.9185578566413728E-002   0.0000000000000000     
   8.4035529365439551E-003   8.5583463240598970E-002   0.0000000000000000     
   8.6999033139197896E-003   9.2147303483260140E-002   0.0000000000000000     
   8.9823734021940074E-003   9.8877099294397156E-002   0.0000000000000000     
   9.2509632013666136E-003  0.10577285067401010        0.0000000000000000     
   3.9146576953024582E-003   7.9099116886714754E-002   0.0000000000000000     
   4.0555782057501164E-003   8.5496915376699248E-002   0.0000000000000000     
   4.1897529677078736E-003   9.2061867913936987E-002   0.0000000000000000     
   4.3171819811757316E-003   9.8793974498427917E-002   0.0000000000000000     
   4.4378652461536886E-003  0.10569323513017208        0.0000000000000000     
  -2.2071298781678461E-013   7.9070296326863909E-002   0.0000000000000000     
  -3.2959268994603441E-013   8.5468066088776912E-002   0.0000000000000000     
  -4.5150043643041315E-013   9.2033389390866693E-002   0.0000000000000000     
  -5.8643748765494635E-013   9.8766266233133282E-002   0.0000000000000000     
  -7.3440298981042318E-013  0.10566669661557661        0.0000000000000000     
   2.0002857236766952E-002  0.10609131284941403        0.0000000000000000     
   2.0619694828799356E-002  0.11312892822426168        0.0000000000000000     
   2.1207378002089973E-002  0.12031718395333560        0.0000000000000000     
   2.1765906756638795E-002  0.12765608003663581        0.0000000000000000     
   2.2295281092445832E-002  0.13514561647416221        0.0000000000000000     
   1.4439293864904369E-002  0.10590554324709078        0.0000000000000000     
   1.4851466731673240E-002  0.11295168126813339        0.0000000000000000     
   1.5221949748956059E-002  0.12014633197531695        0.0000000000000000     
   1.5550742916752831E-002  0.12748949536864146        0.0000000000000000     
   1.5837846235063551E-002  0.13498117144810690        0.0000000000000000     
   9.2509632013666136E-003  0.10577285067401010        0.0000000000000000     
   9.4921082276826461E-003  0.11282507629947050        0.0000000000000000     
   9.6922439973871535E-003  0.12002429484814985        0.0000000000000000     
   9.8513705104801320E-003  0.12737050632004818        0.0000000000000000     
   9.9694877669615801E-003  0.13486371071516548        0.0000000000000000     
   4.4378652461536886E-003  0.10569323513017208        0.0000000000000000     
   4.5416193168275835E-003  0.11274911331827299        0.0000000000000000     
   4.6182607473832533E-003  0.11995107257183428        0.0000000000000000     
   4.6677895378206980E-003  0.12729911289085596        0.0000000000000000     
   4.6902056881399177E-003  0.13479323427533799        0.0000000000000000     
  -7.3440298981042318E-013  0.10566669661557661        0.0000000000000000     
  -8.9195361166471976E-013  0.11272379232454088        0.0000000000000000     
  -1.0556415767568050E-012  0.11992666514637029        0.0000000000000000     
  -1.2254687011253179E-012  0.12727531508106479        0.0000000000000000     
  -1.4014332229417281E-012  0.13476974212862441        0.0000000000000000     
   2.2295281092445832E-002  0.13514561647416221        0.0000000000000000     
   2.2789452865198526E-002  0.14278342322691787        0.0000000000000000     
   2.3242373930584318E-002  0.15056713025590562        0.0000000000000000     
   2.3654044288603210E-002  0.15849673756112559        0.0000000000000000     
   2.4024463939255201E-002  0.16657224514257771        0.0000000000000000     
   1.5837846235063551E-002  0.13498117144810690        0.0000000000000000     
   1.6067317637598732E-002  0.14261268997100901        0.0000000000000000     
   1.6223215058068882E-002  0.15037538069464348        0.0000000000000000     
   1.6305538496474006E-002  0.15826924361901040        0.0000000000000000     
   1.6314287952814099E-002  0.16629427874410968        0.0000000000000000     
   9.9694877669615801E-003  0.13486371071516548        0.0000000000000000     
   1.0028363750605618E-002  0.14249073764528952        0.0000000000000000     
   1.0009766445186368E-002  0.15023841672220797        0.0000000000000000     
   9.9136958507038322E-003  0.15810674794592094        0.0000000000000000     
   9.7401519671580054E-003  0.16609573131642835        0.0000000000000000     
   4.6902056881399177E-003  0.13479323427533799        0.0000000000000000     
   4.6725912042191861E-003  0.14241756624975940        0.0000000000000000     
   4.6020280919367761E-003  0.15015623833859917        0.0000000000000000     
   4.4785163512926886E-003  0.15800925054185727        0.0000000000000000     
   4.3020559822869228E-003  0.16597660285953378        0.0000000000000000     
  -1.4014332229417281E-012  0.13476974212862441        0.0000000000000000     
  -1.5605669968082880E-012  0.14239317578441862        0.0000000000000000     
  -1.6798982994600808E-012  0.15012884554381695        0.0000000000000000     
  -1.7594265616909660E-012  0.15797675140681938        0.0000000000000000     
  -1.7991524069171927E-012  0.16593689337342593        0.0000000000000000     
   0.0000000000000000        0.0000000000000000        0.0000000000000000     
   1.2817438083123633E-014   1.0759605398479421E-003   0.0000000000000000     
   2.7051657355142700E-014   2.5209450202209847E-003   0.0000000000000000     
   4.2702712026165823E-014   4.3349534411191290E-003   0.0000000000000000     
   5.9770629201247316E-014   6.5179858025423741E-003   0.0000000000000000     
   0.0000000000000000        0.0000000000000000        0.0000000000000000     
  -2.1275583873303834E-004   1.0782133024879819E-003   0.0000000000000000     
  -4.2654431549667517E-004   2.5260271898959203E-003   0.0000000000000000     
  -6.4136543029091008E-004   4.3434416622238148E-003   0.0000000000000000     
  -8.5721918311574348E-004   6.5304567194716650E-003   0.0000000000000000     
   0.0000000000000000        0.0000000000000000        0.0000000000000000     
  -4.2389439642893023E-004   1.0849715904140680E-003   0.0000000000000000     
  -8.5225804973457719E-004   2.5412736989311310E-003   0.0000000000000000     
  -1.2850909599169407E-003   4.3689063255511907E-003   0.0000000000000000     
  -1.7223931269760213E-003   6.5678694702742454E-003   0.0000000000000000     
   0.0000000000000000        0.0000000000000000        0.0000000000000000     
  -6.3341567307485835E-004   1.0962354036261994E-003   0.0000000000000000     
  -1.2771412026866549E-003   2.5666845473266186E-003   0.0000000000000000     
  -1.9311765888353897E-003   4.4113474311012557E-003   0.0000000000000000     
  -2.5955218315210620E-003   6.6302240549501136E-003   0.0000000000000000     
   0.0000000000000000        0.0000000000000000        0.0000000000000000     
  -8.4131966867082226E-004   1.1120047421243769E-003   0.0000000000000000     
  -1.7011937743529077E-003   2.6022597350823812E-003   0.0000000000000000     
  -2.5796223170462557E-003   4.4707649788740126E-003   0.0000000000000000     
  -3.4766052967508672E-003   6.7175204734992713E-003   0.0000000000000000     
   5.9770629201247316E-014   6.5179858025423741E-003   0.0000000000000000     
   7.7642590707444059E-014   9.0428475226581474E-003   0.0000000000000000     
   9.5705636070277794E-014   1.1882344019633886E-002   0.0000000000000000     
   1.1396050898467621E-013   1.5036475293469583E-002   0.0000000000000000     
   1.3240656401153350E-013   1.8505241344165240E-002   0.0000000000000000     
  -8.5721918311574348E-004   6.5304567194716650E-003   0.0000000000000000     
  -1.0750350707219635E-003   9.0592768840162922E-003   0.0000000000000000     
  -1.2957425898603597E-003   1.1902106678234518E-002   0.0000000000000000     
  -1.5193417405309311E-003   1.5058946102126344E-002   0.0000000000000000     
  -1.7458325227336794E-003   1.8529795155691767E-002   0.0000000000000000     
  -1.7223931269760213E-003   6.5678694702742454E-003   0.0000000000000000     
  -2.1640499300078688E-003   9.1085649681054513E-003   0.0000000000000000     
  -2.6099467481085340E-003   1.1961394654049962E-002   0.0000000000000000     
  -3.0600835812780187E-003   1.5126358528107786E-002   0.0000000000000000     
  -3.5144604295163210E-003   1.8603456590278913E-002   0.0000000000000000     
  -2.5955218315210620E-003   6.6302240549501136E-003   0.0000000000000000     
  -3.2670445777800722E-003   9.1907117749256244E-003   0.0000000000000000     
  -3.9426124746488192E-003   1.2060207947080220E-002   0.0000000000000000     
  -4.6222255221273012E-003   1.5238712571413907E-002   0.0000000000000000     
  -5.3058837202155200E-003   1.8726225647926677E-002   0.0000000000000000     
  -3.4766052967508672E-003   6.7175204734992713E-003   0.0000000000000000     
  -4.3840190140385753E-003   9.3057173044768116E-003   0.0000000000000000     
  -5.2937397694812110E-003   1.2198546557325293E-002   0.0000000000000000     
  -6.2057675630787790E-003   1.5396008232044709E-002   0.0000000000000000     
  -7.1201023948312750E-003   1.8898102328635064E-002   0.0000000000000000     
   1.3240656401153350E-013   1.8505241344165240E-002   0.0000000000000000     
   1.4909780224683922E-013   2.2258731782260434E-002   0.0000000000000000     
   1.6208917346348384E-013   2.6267036218294734E-002   0.0000000000000000     
   1.7137974931335717E-013   3.0530154652268132E-002   0.0000000000000000     
   1.7697063432742244E-013   3.5048087084180640E-002   0.0000000000000000     
  -1.7458325227336794E-003   1.8529795155691767E-002   0.0000000000000000     
  -1.9719539552973324E-003   2.2284967125396109E-002   0.0000000000000000     
  -2.1944450570506235E-003   2.6294775297704701E-002   0.0000000000000000     
  -2.4133058279935515E-003   3.0559219672617537E-002   0.0000000000000000     
  -2.6285362681261167E-003   3.5078300250134628E-002   0.0000000000000000     
  -3.5144604295163210E-003   1.8603456590278913E-002   0.0000000000000000     
  -3.9677940503925072E-003   2.2363673154803979E-002   0.0000000000000000     
  -4.4148012014756455E-003   2.6377992535923617E-002   0.0000000000000000     
  -4.8554818827657321E-003   3.0646414733637831E-002   0.0000000000000000     
  -5.2898360942627686E-003   3.5168939747946611E-002   0.0000000000000000     
  -5.3058837202155200E-003   1.8726225647926677E-002   0.0000000000000000     
  -5.9875202851364271E-003   2.2494849870484033E-002   0.0000000000000000     
  -6.6610684331129717E-003   2.6516687932951481E-002   0.0000000000000000     
  -7.3265281641451598E-003   3.0791739835328995E-002   0.0000000000000000     
  -7.9838994782329854E-003   3.5320005577616609E-002   0.0000000000000000     
  -7.1201023948312750E-003   1.8898102328635064E-002   0.0000000000000000     
  -8.0311326595290909E-003   2.2678497272436281E-002   0.0000000000000000     
  -8.9332467519626091E-003   2.6710861488788273E-002   0.0000000000000000     
  -9.8264446721318382E-003   3.0995194977691053E-002   0.0000000000000000     
  -1.0710726420036770E-002   3.5531497739144602E-002   0.0000000000000000     
   1.7697063432742244E-013   3.5048087084180640E-002   0.0000000000000000     
   1.7397942895375218E-013   3.9803494848617130E-002   0.0000000000000000     
   1.5752638993574153E-013   4.4779039280162469E-002   0.0000000000000000     
   1.2761104293494002E-013   4.9974720378816673E-002   0.0000000000000000     
   8.4233618344309313E-014   5.5390538144579705E-002   0.0000000000000000     
  -2.6285362681261167E-003   3.5078300250134628E-002   0.0000000000000000     
  -2.8331091368977192E-003   3.9834510854925953E-002   0.0000000000000000     
  -3.0199971937577602E-003   4.4810345311661531E-002   0.0000000000000000     
  -3.1892004387062420E-003   5.0005803620341349E-002   0.0000000000000000     
  -3.3407188717431615E-003   5.5420885780965407E-002   0.0000000000000000     
  -5.2898360942627686E-003   3.5168939747946611E-002   0.0000000000000000     
  -5.7079645300508134E-003   3.9927558873778836E-002   0.0000000000000000     
  -6.0999678842139247E-003   4.4904263406063329E-002   0.0000000000000000     
  -6.4658461567521017E-003   5.0099053344800130E-002   0.0000000000000000     
  -6.8055993476653451E-003   5.5511928689989221E-002   0.0000000000000000     
  -7.9838994782329854E-003   3.5320005577616609E-002   0.0000000000000000     
  -8.6245661792853021E-003   4.0082638905175751E-002   0.0000000000000000     
  -9.2399120712109636E-003   4.5060793563367903E-002   0.0000000000000000     
  -9.8299371540099666E-003   5.0254469552193037E-002   0.0000000000000000     
  -1.0394641427682315E-002   5.5663666871651162E-002   0.0000000000000000     
  -1.0710726420036770E-002   3.5531497739144602E-002   0.0000000000000000     
  -1.1582914084601190E-002   4.0299750949116725E-002   0.0000000000000000     
  -1.2439829754748883E-002   4.5279935783575205E-002   0.0000000000000000     
  -1.3281473430479841E-002   5.0472052242520042E-002   0.0000000000000000     
  -1.4107845111794071E-002   5.5876100325951243E-002   0.0000000000000000     
   8.4233618344309313E-014   5.5390538144579705E-002   0.0000000000000000     
   2.7593162130190585E-014   6.1014937605460583E-002   0.0000000000000000     
  -4.2112147102812969E-014   6.6836363789468223E-002   0.0000000000000000     
  -1.2487992410992188E-013   7.2854816696602681E-002   0.0000000000000000     
  -2.2071298781678461E-013   7.9070296326863909E-002   0.0000000000000000     
  -3.3407188717431615E-003   5.5420885780965407E-002   0.0000000000000000     
  -3.4835970685501414E-003   6.1044445790030752E-002   0.0000000000000000     
  -3.6268796048087980E-003   6.6865337644034420E-002   0.0000000000000000     
  -3.7705664805191348E-003   7.2883561342976425E-002   0.0000000000000000     
  -3.9146576956811500E-003   7.9099116886856752E-002   0.0000000000000000     
  -6.8055993476653451E-003   5.5511928689989221E-002   0.0000000000000000     
  -7.1311000179029053E-003   6.1132970343594377E-002   0.0000000000000000     
  -7.4542207284140332E-003   6.6952259207579370E-002   0.0000000000000000     
  -7.7749614791987288E-003   7.2969795281944208E-002   0.0000000000000000     
  -8.0933222702569921E-003   7.9185578566688841E-002   0.0000000000000000     
  -1.0394641427682315E-002   5.5663666871651162E-002   0.0000000000000000     
  -1.0942508848030700E-002   6.1280511266151458E-002   0.0000000000000000     
  -1.1482023370857814E-002   6.7097128480103047E-002   0.0000000000000000     
  -1.2013184996163663E-002   7.3113518513505990E-002   0.0000000000000000     
  -1.2535993723948244E-002   7.9329681366360191E-002   0.0000000000000000     
  -1.4107845111794071E-002   5.5876100325951243E-002   0.0000000000000000     
  -1.4917823558933523E-002   6.1487068557701995E-002   0.0000000000000000     
  -1.5710287532140148E-002   6.7299945461605490E-002   0.0000000000000000     
  -1.6485237031413941E-002   7.3314731037661743E-002   0.0000000000000000     
  -1.7242672056754903E-002   7.9531425285870760E-002   0.0000000000000000     
  -2.2071298781678461E-013   7.9070296326863909E-002   0.0000000000000000     
  -3.2959268994603441E-013   8.5468066088776912E-002   0.0000000000000000     
  -4.5150043643041315E-013   9.2033389390866693E-002   0.0000000000000000     
  -5.8643748765494635E-013   9.8766266233133282E-002   0.0000000000000000     
  -7.3440298981042318E-013  0.10566669661557661        0.0000000000000000     
  -3.9146576956811500E-003   7.9099116886856752E-002   0.0000000000000000     
  -4.0555782063366567E-003   8.5496915376828811E-002   0.0000000000000000     
  -4.1897529685274741E-003   9.2061867914045969E-002   0.0000000000000000     
  -4.3171819822535994E-003   9.8793974498508214E-002   0.0000000000000000     
  -4.4378652475150337E-003  0.10569323513021558        0.0000000000000000     
  -8.0933222702569921E-003   7.9185578566688841E-002   0.0000000000000000     
  -8.4035529369125631E-003   8.5583463240851781E-002   0.0000000000000000     
  -8.6999033144891848E-003   9.2147303483471429E-002   0.0000000000000000     
  -8.9823734029868575E-003   9.8877099294547743E-002   0.0000000000000000     
  -9.2509632024055724E-003  0.10577285067408079        0.0000000000000000     
  -1.2535993723948244E-002   7.9329681366360191E-002   0.0000000000000000     
  -1.3043924192057316E-002   8.5727709680845851E-002   0.0000000000000000     
  -1.3530451038336635E-002   9.2289696099143059E-002   0.0000000000000000     
  -1.3995574262786201E-002   9.9015640621251885E-002   0.0000000000000000     
  -1.4439293865406022E-002  0.10590554324717226        0.0000000000000000     
  -1.7242672056754903E-002   7.9531425285870760E-002   0.0000000000000000     
  -1.7976691971770910E-002   8.5929654696810978E-002   0.0000000000000000     
  -1.8681396140069820E-002   9.2489045761060942E-002   0.0000000000000000     
  -1.9356784561651647E-002   9.9209598478620611E-002   0.0000000000000000     
  -2.0002857236516378E-002  0.10609131284948997        0.0000000000000000     
  -7.3440298981042318E-013  0.10566669661557661        0.0000000000000000     
  -8.9195361166471976E-013  0.11272379232454088        0.0000000000000000     
  -1.0556415767568050E-012  0.11992666514637029        0.0000000000000000     
  -1.2254687011253179E-012  0.12727531508106479        0.0000000000000000     
  -1.4014332229417281E-012  0.13476974212862441        0.0000000000000000     
  -4.4378652475150337E-003  0.10569323513021558        0.0000000000000000     
  -4.5416193184897521E-003  0.11274911331826283        0.0000000000000000     
  -4.6182607493557345E-003  0.11995107257174478        0.0000000000000000     
  -4.6677895401129798E-003  0.12729911289066140        0.0000000000000000     
  -4.6902056907614873E-003  0.13479323427501275        0.0000000000000000     
  -9.2509632024055724E-003  0.10577285067408079        0.0000000000000000     
  -9.4921082289796087E-003  0.11282507629942749        0.0000000000000000     
  -9.6922439989432351E-003  0.12002429484794473        0.0000000000000000     
  -9.8513705122964517E-003  0.12737050631963259        0.0000000000000000     
  -9.9694877690392550E-003  0.13486371071449099        0.0000000000000000     
  -1.4439293865406022E-002  0.10590554324717226        0.0000000000000000     
  -1.4851466732361519E-002  0.11295168126803480        0.0000000000000000     
  -1.5221949749818142E-002  0.12014633197497017        0.0000000000000000     
  -1.5550742917775881E-002  0.12748949536797824        0.0000000000000000     
  -1.5837846236234736E-002  0.13498117144705918        0.0000000000000000     
  -2.0002857236516378E-002  0.10609131284948997        0.0000000000000000     
  -2.0619694828635488E-002  0.11312892822408484        0.0000000000000000     
  -2.1207378001980449E-002  0.12031718395282101        0.0000000000000000     
  -2.1765906756551268E-002  0.12765608003569850        0.0000000000000000     
  -2.2295281092347932E-002  0.13514561647271733        0.0000000000000000     
  -1.4014332229417281E-012  0.13476974212862441        0.0000000000000000     
  -1.5605669968082880E-012  0.14239317578441862        0.0000000000000000     
  -1.6798982994600808E-012  0.15012884554381695        0.0000000000000000     
  -1.7594265616909660E-012  0.15797675140681938        0.0000000000000000     
  -1.7991524069171927E-012  0.16593689337342593        0.0000000000000000     
  -4.6902056907614873E-003  0.13479323427501275        0.0000000000000000     
  -4.6725912071357957E-003  0.14241756624925758        0.0000000000000000     
  -4.6020280950704456E-003  0.15015623833785480        0.0000000000000000     
  -4.4785163545654344E-003  0.15800925054080434        0.0000000000000000     
  -4.3020559856207664E-003  0.16597660285810625        0.0000000000000000     
  -9.9694877690392550E-003  0.13486371071449099        0.0000000000000000     
  -1.0028363752908652E-002  0.14249073764426659        0.0000000000000000     
  -1.0009766447641658E-002  0.15023841672070598        0.0000000000000000     
  -9.9136958532382597E-003  0.15810674794380919        0.0000000000000000     
  -9.7401519696984663E-003  0.16609573131357616        0.0000000000000000     
  -1.5837846236234736E-002  0.13498117144705918        0.0000000000000000     
  -1.6067317638879142E-002  0.14261268996944571        0.0000000000000000     
  -1.6223215059393534E-002  0.15037538069237064        0.0000000000000000     
  -1.6305538497777900E-002  0.15826924361583394        0.0000000000000000     
  -1.6314287954032253E-002  0.16629427873983571        0.0000000000000000     
  -2.2295281092347932E-002  0.13514561647271733        0.0000000000000000     
  -2.2789452865047261E-002  0.14278342322479487        0.0000000000000000     
  -2.3242373930326073E-002  0.15056713025284862        0.0000000000000000     
  -2.3654044288184357E-002  0.15849673755687860        0.0000000000000000     
  -2.4024463938622120E-002  0.16657224513688479        0.0000000000000000     
   0.0000000000000000        0.0000000000000000        0.0000000000000000     
  -8.4131966867082226E-004   1.1120047421243769E-003   0.0000000000000000     
  -1.7011937743529077E-003   2.6022597350823812E-003   0.0000000000000000     
  -2.5796223170462557E-003   4.4707649788740126E-003   0.0000000000000000     
  -3.4766052967508672E-003   6.7175204734992713E-003   0.0000000000000000     
   0.0000000000000000        0.0000000000000000        0.0000000000000000     
  -1.0564298245453103E-003   1.1358099604128302E-003   0.0000000000000000     
  -2.1388498215298458E-003   2.6537938545037505E-003   0.0000000000000000     
  -3.2472599909536067E-003   4.5539516822727605E-003   0.0000000000000000     
  -4.3816603328165928E-003   6.8362834437198615E-003   0.0000000000000000     
   0.0000000000000000        0.0000000000000000        0.0000000000000000     
  -1.2875695820268095E-003   1.1711814129957891E-003   0.0000000000000000     
  -2.6045434010139785E-003   2.7270814978960570E-003   0.0000000000000000     
  -3.9509214569615073E-003   4.6677002547008024E-003   0.0000000000000000     
  -5.3267037498693952E-003   6.9930376834100288E-003   0.0000000000000000     
   0.0000000000000000        0.0000000000000000        0.0000000000000000     
  -1.5347389411153206E-003   1.2181190998732541E-003   0.0000000000000000     
  -3.0982745128053063E-003   2.8221226652593006E-003   0.0000000000000000     
  -4.6906067150699589E-003   4.8120106961581392E-003   0.0000000000000000     
  -6.3117355479092750E-003   7.1877831925697714E-003   0.0000000000000000     
   0.0000000000000000        0.0000000000000000        0.0000000000000000     
  -1.7979379018108429E-003   1.2766230210452248E-003   0.0000000000000000     
  -3.6200431569038292E-003   2.9389173565934814E-003   0.0000000000000000     
  -5.4663157652789594E-003   4.9868830066447708E-003   0.0000000000000000     
  -7.3367557269362329E-003   7.4205199711990921E-003   0.0000000000000000     
  -3.4766052967508672E-003   6.7175204734992713E-003   0.0000000000000000     
  -4.3840190140385753E-003   9.3057173044768116E-003   0.0000000000000000     
  -5.2937397694812110E-003   1.2198546557325293E-002   0.0000000000000000     
  -6.2057675630787790E-003   1.5396008232044709E-002   0.0000000000000000     
  -7.1201023948312750E-003   1.8898102328635064E-002   0.0000000000000000     
  -4.3816603328165928E-003   6.8362834437198615E-003   0.0000000000000000     
  -5.5294549251181536E-003   9.4594207146494018E-003   0.0000000000000000     
  -6.6780478458576369E-003   1.2381995070865733E-002   0.0000000000000000     
  -7.8274390950350443E-003   1.5604006512368856E-002   0.0000000000000000     
  -8.9776286726503743E-003   1.9125455039158773E-002   0.0000000000000000     
  -5.3267037498693952E-003   6.9930376834100288E-003   0.0000000000000000     
  -6.7178339973535837E-003   9.6576611633337802E-003   0.0000000000000000     
  -8.1102559170300164E-003   1.2616138073782111E-002   0.0000000000000000     
  -9.5039695088986915E-003   1.5868468414755015E-002   0.0000000000000000     
  -1.0898974772959607E-002   1.9414652186252501E-002   0.0000000000000000     
  -6.3117355479092750E-003   7.1877831925697714E-003   0.0000000000000000     
  -7.9491562307448700E-003   9.9004386505299451E-003   0.0000000000000000     
  -9.5903639829983504E-003   1.2900975566074415E-002   0.0000000000000000     
  -1.1235358804669715E-002   1.6189393939203177E-002   0.0000000000000000     
  -1.2884140695758968E-002   1.9765693769916239E-002   0.0000000000000000     
  -7.3367557269362329E-003   7.4205199711990921E-003   0.0000000000000000     
  -9.2234216252920047E-003   1.0187753176237902E-002   0.0000000000000000     
  -1.1118372043762636E-002   1.3236507547742657E-002   0.0000000000000000     
  -1.3021606982348121E-002   1.6566783085713355E-002   0.0000000000000000     
  -1.4933126441048463E-002   2.0178579790150003E-002   0.0000000000000000     
  -7.1201023948312750E-003   1.8898102328635064E-002   0.0000000000000000     
  -8.0311326595290909E-003   2.2678497272436281E-002   0.0000000000000000     
  -8.9332467519626091E-003   2.6710861488788273E-002   0.0000000000000000     
  -9.8264446721318382E-003   3.0995194977691053E-002   0.0000000000000000     
  -1.0710726420036770E-002   3.5531497739144602E-002   0.0000000000000000     
  -8.9776286726503743E-003   1.9125455039158773E-002   0.0000000000000000     
  -1.0122511012744797E-002   2.2921298130429833E-002   0.0000000000000000     
  -1.1255980549359482E-002   2.6966493265376385E-002   0.0000000000000000     
  -1.2378037282494436E-002   3.1261040443998439E-002   0.0000000000000000     
  -1.3488681212149647E-002   3.5804939666295998E-002   0.0000000000000000     
  -1.0898974772959607E-002   1.9414652186252501E-002   0.0000000000000000     
  -1.2285535183957854E-002   2.3229935214233801E-002   0.0000000000000000     
  -1.3653914216638528E-002   2.7289563324658189E-002   0.0000000000000000     
  -1.5004111871001627E-002   3.1593536517525646E-002   0.0000000000000000     
  -1.6336128147047158E-002   3.6141854792836180E-002   0.0000000000000000     
  -1.2884140695758968E-002   1.9765693769916239E-002   0.0000000000000000     
  -1.4520205173168261E-002   2.3604408523848198E-002   0.0000000000000000     
  -1.6127047753799747E-002   2.7680071666633672E-002   0.0000000000000000     
  -1.7704668437653420E-002   3.1992683198272649E-002   0.0000000000000000     
  -1.9253067224729283E-002   3.6542243118765139E-002   0.0000000000000000     
  -1.4933126441048463E-002   2.0178579790150003E-002   0.0000000000000000     
  -1.6826520980376011E-002   2.4044718059273020E-002   0.0000000000000000     
  -1.8675381160843128E-002   2.8138018291302847E-002   0.0000000000000000     
  -2.0479706982449802E-002   3.2458480486239470E-002   0.0000000000000000     
  -2.2239498445196040E-002   3.7006104644082896E-002   0.0000000000000000     
  -1.0710726420036770E-002   3.5531497739144602E-002   0.0000000000000000     
  -1.1582914084601190E-002   4.0299750949116725E-002   0.0000000000000000     
  -1.2439829754748883E-002   4.5279935783575205E-002   0.0000000000000000     
  -1.3281473430479841E-002   5.0472052242520042E-002   0.0000000000000000     
  -1.4107845111794071E-002   5.5876100325951243E-002   0.0000000000000000     
  -1.3488681212149647E-002   3.5804939666295998E-002   0.0000000000000000     
  -1.4590550139359885E-002   4.0577673129307726E-002   0.0000000000000000     
  -1.5686281865159912E-002   4.5558723030072308E-002   0.0000000000000000     
  -1.6775876389549724E-002   5.0748089368589738E-002   0.0000000000000000     
  -1.7859333712529329E-002   5.6145772144860016E-002   0.0000000000000000     
  -1.6336128147047158E-002   3.6141854792836180E-002   0.0000000000000000     
  -1.7655016236922803E-002   4.0915183569454727E-002   0.0000000000000000     
  -1.8965829332776296E-002   4.5894188266246208E-002   0.0000000000000000     
  -2.0268567434607622E-002   5.1078868883210685E-002   0.0000000000000000     
  -2.1563230542416788E-002   5.6469225420348081E-002   0.0000000000000000     
  -1.9253067224729283E-002   3.6542243118765139E-002   0.0000000000000000     
  -2.0776312377289954E-002   4.1312282269557722E-002   0.0000000000000000     
  -2.2278472157598039E-002   4.6286331492096953E-002   0.0000000000000000     
  -2.3759546565653541E-002   5.1464390786382846E-002   0.0000000000000000     
  -2.5219535601456462E-002   5.6846460152415394E-002   0.0000000000000000     
  -2.2239498445196040E-002   3.7006104644082896E-002   0.0000000000000000     
  -2.3954438560461325E-002   4.1768969229616711E-002   0.0000000000000000     
  -2.5624210339625135E-002   4.6735152707624503E-002   0.0000000000000000     
  -2.7248813782687474E-002   5.1904655078106279E-002   0.0000000000000000     
  -2.8828248889648345E-002   5.7277476341062013E-002   0.0000000000000000     
  -1.4107845111794071E-002   5.5876100325951243E-002   0.0000000000000000     
  -1.4917823558933523E-002   6.1487068557701995E-002   0.0000000000000000     
  -1.5710287532140148E-002   6.7299945461605490E-002   0.0000000000000000     
  -1.6485237031413941E-002   7.3314731037661743E-002   0.0000000000000000     
  -1.7242672056754903E-002   7.9531425285870760E-002   0.0000000000000000     
  -1.7859333712529329E-002   5.6145772144860016E-002   0.0000000000000000     
  -1.8926383422771191E-002   6.1749376329473894E-002   0.0000000000000000     
  -1.9966755108947791E-002   6.7556506893022131E-002   0.0000000000000000     
  -2.0980448771059139E-002   7.3567163835504712E-002   0.0000000000000000     
  -2.1967464409105217E-002   7.9781347156921659E-002   0.0000000000000000     
  -2.1563230542416788E-002   5.6469225420348081E-002   0.0000000000000000     
  -2.2837527711703515E-002   6.2064168692695092E-002   0.0000000000000000     
  -2.4079167997967537E-002   6.7862609515288413E-002   0.0000000000000000     
  -2.5288151401208842E-002   7.3864547888128032E-002   0.0000000000000000     
  -2.6464477921427438E-002   8.0069983811213954E-002   0.0000000000000000     
  -2.5219535601456462E-002   5.6846460152415394E-002   0.0000000000000000     
  -2.6651256425730505E-002   6.2431445647365580E-002   0.0000000000000000     
  -2.8047526199199369E-002   6.8218253328404352E-002   0.0000000000000000     
  -2.9408344921863054E-002   7.4206883195531703E-002   0.0000000000000000     
  -3.0733712593721565E-002   8.0397335248747676E-002   0.0000000000000000     
  -2.8828248889648345E-002   5.7277476341062013E-002   0.0000000000000000     
  -3.0367569564852152E-002   6.2851207193485345E-002   0.0000000000000000     
  -3.1871829712643296E-002   6.8623438332369932E-002   0.0000000000000000     
  -3.3341029333021778E-002   7.4594169757715739E-002   0.0000000000000000     
  -3.4775168425987595E-002   8.0763401469522780E-002   0.0000000000000000     
  -1.7242672056754903E-002   7.9531425285870760E-002   0.0000000000000000     
  -1.7976691971770910E-002   8.5929654696810978E-002   0.0000000000000000     
  -1.8681396140069820E-002   9.2489045761060942E-002   0.0000000000000000     
  -1.9356784561651647E-002   9.9209598478620611E-002   0.0000000000000000     
  -2.0002857236516378E-002  0.10609131284948997        0.0000000000000000     
  -2.1967464409105217E-002   7.9781347156921659E-002   0.0000000000000000     
  -2.2922373528440912E-002   8.6176570572987762E-002   0.0000000000000000     
  -2.3839747634421097E-002   9.2730347799417870E-002   0.0000000000000000     
  -2.4719586727045766E-002   9.9442678836211981E-002   0.0000000000000000     
  -2.5561890806314928E-002  0.10631356368337007        0.0000000000000000     
  -2.6464477921427438E-002   8.0069983811213954E-002   0.0000000000000000     
  -2.7601486114454898E-002   8.6455729593616679E-002   0.0000000000000000     
  -2.8692514536122815E-002   9.2998597544406703E-002   0.0000000000000000     
  -2.9737563186431167E-002   9.9698587663584054E-002   0.0000000000000000     
  -3.0736632065379969E-002  0.10655569995114872        0.0000000000000000     
  -3.0733712593721565E-002   8.0397335248747676E-002   0.0000000000000000     
  -3.2014029729812883E-002   8.6767131758697741E-002   0.0000000000000000     
  -3.3239696845174964E-002   9.3293794996027482E-002   0.0000000000000000     
  -3.4410713939807845E-002   9.9977324960736871E-002   0.0000000000000000     
  -3.5527081013711492E-002  0.10681772165282591        0.0000000000000000     
  -3.4775168425987595E-002   8.0763401469522780E-002   0.0000000000000000     
  -3.6160004374514831E-002   8.7110777068230949E-002   0.0000000000000000     
  -3.7481294561577554E-002   9.3615940154280153E-002   0.0000000000000000     
  -3.8739038987175782E-002  0.10027889072767038        0.0000000000000000     
  -3.9933237651309503E-002  0.10709962878840165        0.0000000000000000     
  -2.0002857236516378E-002  0.10609131284948997        0.0000000000000000     
  -2.0619694828635488E-002  0.11312892822408484        0.0000000000000000     
  -2.1207378001980449E-002  0.12031718395282101        0.0000000000000000     
  -2.1765906756551268E-002  0.12765608003569850        0.0000000000000000     
  -2.2295281092347932E-002  0.13514561647271733        0.0000000000000000     
  -2.5561890806314928E-002  0.10631356368337007        0.0000000000000000     
  -2.6376883948510104E-002  0.11333976396630463        0.0000000000000000     
  -2.7174790229912822E-002  0.12051804131042816        0.0000000000000000     
  -2.7955609650523086E-002  0.12784839571574058        0.0000000000000000     
  -2.8719342210340885E-002  0.13533082718224199        0.0000000000000000     
  -3.0736632065379969E-002  0.10655569995114872        0.0000000000000000     
  -3.1703125522693970E-002  0.11356713529342127        0.0000000000000000     
  -3.2650447908097915E-002  0.12073009457672229        0.0000000000000000     
  -3.3578599221591815E-002  0.12804457780105180        0.0000000000000000     
  -3.4487579463175648E-002  0.13551058496640978        0.0000000000000000     
  -3.5527081013711492E-002  0.10681772165282591        0.0000000000000000     
  -3.6598419551187068E-002  0.11381104220543474        0.0000000000000000     
  -3.7634351036535715E-002  0.12095334375170351        0.0000000000000000     
  -3.8634875469757426E-002  0.12824462629163219        0.0000000000000000     
  -3.9599992850852216E-002  0.13568488982522081        0.0000000000000000     
  -3.9933237651309503E-002  0.10709962878840165        0.0000000000000000     
  -4.1062766033989423E-002  0.11407148470234507        0.0000000000000000     
  -4.2126499615226243E-002  0.12118778883537175        0.0000000000000000     
  -4.3124438395019962E-002  0.12844854118748170        0.0000000000000000     
  -4.4056582373370574E-002  0.13585374175867493        0.0000000000000000     
  -2.2295281092347932E-002  0.13514561647271733        0.0000000000000000     
  -2.2789452865047261E-002  0.14278342322479487        0.0000000000000000     
  -2.3242373930326073E-002  0.15056713025284862        0.0000000000000000     
  -2.3654044288184357E-002  0.15849673755687860        0.0000000000000000     
  -2.4024463938622120E-002  0.16657224513688479        0.0000000000000000     
  -2.8719342210340885E-002  0.13533082718224199        0.0000000000000000     
  -2.9468735835723601E-002  0.14296600006305354        0.0000000000000000     
  -3.0206538453028599E-002  0.15075457871129658        0.0000000000000000     
  -3.0932750062255873E-002  0.15869656312697103        0.0000000000000000     
  -3.1647370663405429E-002  0.16679195331007696        0.0000000000000000     
  -3.4487579463175648E-002  0.13551058496640978        0.0000000000000000     
  -3.5379132955218752E-002  0.14312348313696122        0.0000000000000000     
  -3.6255004020090430E-002  0.15087863937687099        0.0000000000000000     
  -3.7115192657790695E-002  0.15877605368613909        0.0000000000000000     
  -3.7959698868319521E-002  0.16681572606476552        0.0000000000000000     
  -3.9599992850852216E-002  0.13568488982522081        0.0000000000000000     
  -4.0520644223532701E-002  0.14325587244651780        0.0000000000000000     
  -4.1387770631511570E-002  0.15093931224957180        0.0000000000000000     
  -4.2201372074788808E-002  0.15873520923438275        0.0000000000000000     
  -4.2961448553364402E-002  0.16664356340095060        0.0000000000000000     
  -4.4056582373370574E-002  0.13585374175867493        0.0000000000000000     
  -4.4893269640665472E-002  0.14336316799172341        0.0000000000000000     
  -4.5604838287292018E-002  0.15093659732939910        0.0000000000000000     
  -4.6191288313250214E-002  0.15857402977170199        0.0000000000000000     
  -4.6652619718540067E-002  0.16627546531863208        0.0000000000000000     
   0.0000000000000000        0.0000000000000000        0.0000000000000000     
  -1.7979379018108429E-003   1.2766230210452248E-003   0.0000000000000000     
  -3.6200431569038292E-003   2.9389173565934814E-003   0.0000000000000000     
  -5.4663157652789594E-003   4.9868830066447708E-003   0.0000000000000000     
  -7.3367557269362329E-003   7.4205199711990921E-003   0.0000000000000000     
   0.0000000000000000        0.0000000000000000        0.0000000000000000     
  -2.0690150329433052E-003   1.3539726509190658E-003   0.0000000000000000     
  -4.1627169466616522E-003   3.0922564543190687E-003   0.0000000000000000     
  -6.2811057411550388E-003   5.2148514102000089E-003   0.0000000000000000     
  -8.4241814164234680E-003   7.7217575185618854E-003   0.0000000000000000     
   0.0000000000000000        0.0000000000000000        0.0000000000000000     
  -2.3398189033426355E-003   1.4574474639021421E-003   0.0000000000000000     
  -4.7191634954308779E-003   3.2969308408565315E-003   0.0000000000000000     
  -7.1380337762647272E-003   5.5184501308631678E-003   0.0000000000000000     
  -9.5964297458441816E-003   8.1220053339220513E-003   0.0000000000000000     
   0.0000000000000000        0.0000000000000000        0.0000000000000000     
  -2.6103495130088339E-003   1.5870474599944534E-003   0.0000000000000000     
  -5.2893828032115082E-003   3.5529405162058694E-003   0.0000000000000000     
  -8.0370998706080238E-003   5.8976791686342475E-003   0.0000000000000000     
  -1.0853500715198378E-002   8.6212634172795864E-003   0.0000000000000000     
   0.0000000000000000        0.0000000000000000        0.0000000000000000     
  -2.8806068619419002E-003   1.7427726391960000E-003   0.0000000000000000     
  -5.8733748700035421E-003   3.8602854803670827E-003   0.0000000000000000     
  -8.9783040241849261E-003   6.3525385235132480E-003   0.0000000000000000     
  -1.2195394324486053E-002   9.2195317686344959E-003   0.0000000000000000     
  -7.3367557269362329E-003   7.4205199711990921E-003   0.0000000000000000     
  -9.2234216252920047E-003   1.0187753176237902E-002   0.0000000000000000     
  -1.1118372043762636E-002   1.3236507547742657E-002   0.0000000000000000     
  -1.3021606982348121E-002   1.6566783085713355E-002   0.0000000000000000     
  -1.4933126441048463E-002   2.0178579790150003E-002   0.0000000000000000     
  -8.4241814164234680E-003   7.7217575185618854E-003   0.0000000000000000     
  -1.0582947604850774E-002   1.0555641891952525E-002   0.0000000000000000     
  -1.2748407938820795E-002   1.3659171642919759E-002   0.0000000000000000     
  -1.4920562418333528E-002   1.7032346771463581E-002   0.0000000000000000     
  -1.7099411043388975E-002   2.0675167277583992E-002   0.0000000000000000     
  -9.5964297458441816E-003   8.1220053339220513E-003   0.0000000000000000     
  -1.2070051593276954E-002   1.1040141949168705E-002   0.0000000000000000     
  -1.4534599507670744E-002   1.4205405475738652E-002   0.0000000000000000     
  -1.6990073489025558E-002   1.7617795913631898E-002   0.0000000000000000     
  -1.9436473537341393E-002   2.1277313262848433E-002   0.0000000000000000     
  -1.0853500715198378E-002   8.6212634172795864E-003   0.0000000000000000     
  -1.3684733590570540E-002   1.1641253347886437E-002   0.0000000000000000     
  -1.6476946750312488E-002   1.4875209046199343E-002   0.0000000000000000     
  -1.9230140194424209E-002   1.8323130512218299E-002   0.0000000000000000     
  -2.1944313922905714E-002   2.1985017745943310E-002   0.0000000000000000     
  -1.2195394324486053E-002   9.2195317686344959E-003   0.0000000000000000     
  -1.5426993596731543E-002   1.2358976088105721E-002   0.0000000000000000     
  -1.8575449666746020E-002   1.5668582354301821E-002   0.0000000000000000     
  -2.1640762534529481E-002   1.9148350567222798E-002   0.0000000000000000     
  -2.4622932200081934E-002   2.2798280726868642E-002   0.0000000000000000     
  -1.4933126441048463E-002   2.0178579790150003E-002   0.0000000000000000     
  -1.6826520980376011E-002   2.4044718059273020E-002   0.0000000000000000     
  -1.8675381160843128E-002   2.8138018291302847E-002   0.0000000000000000     
  -2.0479706982449802E-002   3.2458480486239470E-002   0.0000000000000000     
  -2.2239498445196040E-002   3.7006104644082896E-002   0.0000000000000000     
  -1.7099411043388975E-002   2.0675167277583992E-002   0.0000000000000000     
  -1.9251660729831473E-002   2.4561979201667181E-002   0.0000000000000000     
  -2.1344018393505360E-002   2.8667128584099331E-002   0.0000000000000000     
  -2.3376484034410644E-002   3.2990615424880430E-002   0.0000000000000000     
  -2.5349057652547313E-002   3.7532439724010505E-002   0.0000000000000000     
  -1.9436473537341393E-002   2.1277313262848433E-002   0.0000000000000000     
  -2.1842802545784998E-002   2.5167307332189606E-002   0.0000000000000000     
  -2.4178063407523133E-002   2.9271127930456765E-002   0.0000000000000000     
  -2.6442256122555800E-002   3.3588775057649914E-002   0.0000000000000000     
  -2.8635380690882988E-002   3.8120248713769032E-002   0.0000000000000000     
  -2.1944313922905714E-002   2.1985017745943310E-002   0.0000000000000000     
  -2.4599946428236590E-002   2.5860702450840298E-002   0.0000000000000000     
  -2.7177516202896445E-002   2.9950016330375154E-002   0.0000000000000000     
  -2.9677023246885269E-002   3.4252959384547886E-002   0.0000000000000000     
  -3.2098467560203077E-002   3.8769531613358499E-002   0.0000000000000000     
  -2.4622932200081934E-002   2.2798280726868642E-002   0.0000000000000000     
  -2.7523092377186247E-002   2.6642164557619245E-002   0.0000000000000000     
  -3.0342376779625285E-002   3.0703793783854485E-002   0.0000000000000000     
  -3.3080785407399067E-002   3.4983168405574368E-002   0.0000000000000000     
  -3.5738318260507572E-002   3.9480288422778884E-002   0.0000000000000000     
  -2.2239498445196040E-002   3.7006104644082896E-002   0.0000000000000000     
  -2.3954438560461325E-002   4.1768969229616711E-002   0.0000000000000000     
  -2.5624210339625135E-002   4.6735152707624503E-002   0.0000000000000000     
  -2.7248813782687474E-002   5.1904655078106279E-002   0.0000000000000000     
  -2.8828248889648345E-002   5.7277476341062013E-002   0.0000000000000000     
  -2.5349057652547313E-002   3.7532439724010505E-002   0.0000000000000000     
  -2.7256894673950205E-002   4.2285155555143769E-002   0.0000000000000000     
  -2.9095150524654157E-002   4.7241316991934477E-002   0.0000000000000000     
  -3.0863825204659159E-002   5.2400924034382630E-002   0.0000000000000000     
  -3.2562918713965223E-002   5.7763976682488220E-002   0.0000000000000000     
  -2.8635380690882988E-002   3.8120248713769032E-002   0.0000000000000000     
  -3.0751180605269889E-002   4.2860752351650953E-002   0.0000000000000000     
  -3.2783399358481673E-002   4.7805489424132486E-002   0.0000000000000000     
  -3.4732036950518339E-002   5.2954459931213609E-002   0.0000000000000000     
  -3.6597093381379897E-002   5.8307663872894329E-002   0.0000000000000000     
  -3.2098467560203077E-002   3.8769531613358499E-002   0.0000000000000000     
  -3.4437296354420367E-002   4.3495759619138284E-002   0.0000000000000000     
  -3.6688956841107678E-002   4.8427670004218507E-002   0.0000000000000000     
  -3.8853449020265003E-002   5.3565262768599201E-002   0.0000000000000000     
  -4.0930772891892349E-002   5.8908537912280345E-002   0.0000000000000000     
  -3.5738318260507572E-002   3.9480288422778884E-002   0.0000000000000000     
  -3.8315241921401656E-002   4.4190177357605720E-002   0.0000000000000000     
  -4.0811822972532198E-002   4.9107858732192568E-002   0.0000000000000000     
  -4.3228061413899163E-002   5.4233332546539413E-002   0.0000000000000000     
  -4.5563957245502586E-002   5.9566598800646277E-002   0.0000000000000000     
  -2.8828248889648345E-002   5.7277476341062013E-002   0.0000000000000000     
  -3.0367569564852152E-002   6.2851207193485345E-002   0.0000000000000000     
  -3.1871829712643296E-002   6.8623438332369932E-002   0.0000000000000000     
  -3.3341029333021778E-002   7.4594169757715739E-002   0.0000000000000000     
  -3.4775168425987595E-002   8.0763401469522780E-002   0.0000000000000000     
  -3.2562918713965223E-002   5.7763976682488220E-002   0.0000000000000000     
  -3.4209820211035136E-002   6.3325885707016652E-002   0.0000000000000000     
  -3.5821918854331627E-002   6.9082061878733336E-002   0.0000000000000000     
  -3.7399214643854761E-002   7.5032505197638252E-002   0.0000000000000000     
  -3.8941707579604495E-002   8.1177215663731414E-002   0.0000000000000000     
  -3.6597093381379897E-002   5.8307663872894329E-002   0.0000000000000000     
  -3.8401361446246091E-002   6.3857913563921676E-002   0.0000000000000000     
  -4.0167633940296717E-002   6.9598021319042691E-002   0.0000000000000000     
  -4.1895910863531748E-002   7.5527987138257355E-002   0.0000000000000000     
  -4.3586192215951218E-002   8.1647811021565653E-002   0.0000000000000000     
  -4.0930772891892349E-002   5.8908537912280345E-002   0.0000000000000000     
  -4.2942193270485075E-002   6.4447290764200457E-002   0.0000000000000000     
  -4.4908974970538543E-002   7.0171316653298024E-002   0.0000000000000000     
  -4.6831117992052779E-002   7.6080615579573019E-002   0.0000000000000000     
  -4.8708622335027769E-002   8.2175187543025496E-002   0.0000000000000000     
  -4.5563957245502586E-002   5.9566598800646277E-002   0.0000000000000000     
  -4.7832315683752027E-002   6.5094017307852955E-002   0.0000000000000000     
  -5.0045941945057106E-002   7.0801947881499308E-002   0.0000000000000000     
  -5.2204836029417820E-002   7.6690390521585300E-002   0.0000000000000000     
  -5.4308997936834157E-002   8.2759345228110959E-002   0.0000000000000000     
  -3.4775168425987595E-002   8.0763401469522780E-002   0.0000000000000000     
  -3.6160004374514831E-002   8.7110777068230949E-002   0.0000000000000000     
  -3.7481294561577554E-002   9.3615940154280153E-002   0.0000000000000000     
  -3.8739038987175782E-002  0.10027889072767038        0.0000000000000000     
  -3.9933237651309503E-002  0.10709962878840165        0.0000000000000000     
  -3.8941707579604495E-002   8.1177215663731414E-002   0.0000000000000000     
  -4.0430896754238332E-002   8.7498824463104308E-002   0.0000000000000000     
  -4.1848281260413761E-002   9.3979962781848392E-002   0.0000000000000000     
  -4.3193861098130795E-002  0.10062063061996367        0.0000000000000000     
  -4.4467636267389428E-002  0.10742082797745012        0.0000000000000000     
  -4.3586192215951218E-002   8.1647811021565653E-002   0.0000000000000000     
  -4.5218193574660927E-002   8.7943432884205766E-002   0.0000000000000000     
  -4.6771630516766749E-002   9.4400792641415765E-002   0.0000000000000000     
  -4.8246503042268664E-002  0.10101989029319569        0.0000000000000000     
  -4.9642811151166685E-002  0.10780072583954552        0.0000000000000000     
  -4.8708622335027769E-002   8.2175187543025496E-002   0.0000000000000000     
  -5.0521894835782642E-002   8.8444602331535296E-002   0.0000000000000000     
  -5.2251342330636524E-002   9.4878429732982300E-002   0.0000000000000000     
  -5.3896964819589395E-002  0.10147666974736648        0.0000000000000000     
  -5.5458762302641282E-002  0.10823932237468785        0.0000000000000000     
  -5.4308997936834157E-002   8.2759345228110959E-002   0.0000000000000000     
  -5.6342000537603458E-002   8.9002332805092954E-002   0.0000000000000000     
  -5.8287416702023073E-002   9.5412874056547969E-002   0.0000000000000000     
  -6.0145246430092988E-002  0.10199096898247600        0.0000000000000000     
  -6.1915489721813224E-002  0.10873661758287709        0.0000000000000000     
  -3.9933237651309503E-002  0.10709962878840165        0.0000000000000000     
  -4.1062766033989423E-002  0.11407148470234507        0.0000000000000000     
  -4.2126499615226243E-002  0.12118778883537175        0.0000000000000000     
  -4.3124438395019962E-002  0.12844854118748170        0.0000000000000000     
  -4.4056582373370574E-002  0.13585374175867493        0.0000000000000000     
  -4.4467636267389428E-002  0.10742082797745012        0.0000000000000000     
  -4.5657308825984545E-002  0.11437066451637090        0.0000000000000000     
  -4.6750580831711047E-002  0.12146024989878909        0.0000000000000000     
  -4.7747452284568906E-002  0.12868958412470469        0.0000000000000000     
  -4.8647923184558156E-002  0.13605866719411769        0.0000000000000000     
  -4.9642811151166685E-002  0.10780072583954552        0.0000000000000000     
  -5.0943191782055974E-002  0.11473078337973093        0.0000000000000000     
  -5.2130281873531671E-002  0.12179754701301757        0.0000000000000000     
  -5.3204081425593797E-002  0.12900101673940537        0.0000000000000000     
  -5.4164590438242344E-002  0.13634119255889440        0.0000000000000000     
  -5.5458762302641282E-002  0.10823932237468785        0.0000000000000000     
  -5.6920414902203696E-002  0.11515184129242516        0.0000000000000000     
  -5.8265602740688142E-002  0.12219968017805716        0.0000000000000000     
  -5.9494325818094627E-002  0.12938283903158382        0.0000000000000000     
  -6.0606584134423144E-002  0.13670131785300518        0.0000000000000000     
  -6.1915489721813224E-002  0.10873661758287709        0.0000000000000000     
  -6.3588978186427711E-002  0.11563383825445359        0.0000000000000000     
  -6.5156543433180447E-002  0.12266664939390790        0.0000000000000000     
  -6.6618185462071391E-002  0.12983505100124001        0.0000000000000000     
  -6.7973904273100572E-002  0.13713904307644992        0.0000000000000000     
  -4.4056582373370574E-002  0.13585374175867493        0.0000000000000000     
  -4.4893269640665472E-002  0.14336316799172341        0.0000000000000000     
  -4.5604838287292018E-002  0.15093659732939910        0.0000000000000000     
  -4.6191288313250214E-002  0.15857402977170199        0.0000000000000000     
  -4.6652619718540067E-002  0.16627546531863208        0.0000000000000000     
  -4.8647923184558156E-002  0.13605866719411769        0.0000000000000000     
  -4.9404324223807951E-002  0.14350879159366198        0.0000000000000000     
  -4.9968986094447471E-002  0.15098124980997146        0.0000000000000000     
  -5.0341908796476709E-002  0.15847604184304609        0.0000000000000000     
  -5.0523092329895665E-002  0.16599316769288591        0.0000000000000000     
  -5.4164590438242344E-002  0.13634119255889440        0.0000000000000000     
  -5.4961122990151039E-002  0.14375616507341754        0.0000000000000000     
  -5.5542993159993601E-002  0.15118402488490748        0.0000000000000000     
  -5.5910200947770043E-002  0.15862477199336433        0.0000000000000000     
  -5.6062746353480346E-002  0.16607840639878810        0.0000000000000000     
  -6.0606584134423144E-002  0.13670131785300518        0.0000000000000000     
  -6.1563665939694742E-002  0.14410528843099002        0.0000000000000000     
  -6.2326859483930429E-002  0.15154492255420718        0.0000000000000000     
  -6.2896164767130225E-002  0.15902022022265666        0.0000000000000000     
  -6.3271581789294096E-002  0.16653118143633855        0.0000000000000000     
  -6.7973904273100572E-002  0.13713904307644992        0.0000000000000000     
  -6.9211953072439061E-002  0.14455616166637952        0.0000000000000000     
  -7.0320585066257948E-002  0.15206394281787061        0.0000000000000000     
  -7.1299800254557233E-002  0.15966238653092321        0.0000000000000000     
  -7.2149598637336929E-002  0.16735149280553729        0.0000000000000000     
   0.0000000000000000        0.0000000000000000        0.0000000000000000     
  -2.8806068619419002E-003   1.7427726391960000E-003   0.0000000000000000     
  -5.8733748700035421E-003   3.8602854803670827E-003   0.0000000000000000     
  -8.9783040241849261E-003   6.3525385235132480E-003   0.0000000000000000     
  -1.2195394324486053E-002   9.2195317686344959E-003   0.0000000000000000     
   0.0000000000000000        0.0000000000000000        0.0000000000000000     
  -3.2840580938916508E-003   1.9971251304125876E-003   0.0000000000000000     
  -6.6784493778022274E-003   4.3261317863674091E-003   0.0000000000000000     
  -1.0183173851731727E-002   6.9870199678644636E-003   0.0000000000000000     
  -1.3798231515680149E-002   9.9797896749037520E-003   0.0000000000000000     
   0.0000000000000000        0.0000000000000000        0.0000000000000000     
  -3.9541703526079037E-003   2.4226070625500210E-003   0.0000000000000000     
  -7.9119160086028074E-003   5.0576454872340850E-003   0.0000000000000000     
  -1.1873236967984710E-002   7.9051152740521897E-003   0.0000000000000000     
  -1.5838133230753615E-002   1.0965016423004339E-002   0.0000000000000000     
   0.0000000000000000        0.0000000000000000        0.0000000000000000     
  -4.8909436380906567E-003   3.0192184356083009E-003   0.0000000000000000     
  -9.5737747624052849E-003   6.0548265829671096E-003   0.0000000000000000     
  -1.4048493372943883E-002   9.1068244420764253E-003   0.0000000000000000     
  -1.8315099469706449E-002   1.2175212012936249E-002   0.0000000000000000     
   0.0000000000000000        0.0000000000000000        0.0000000000000000     
  -6.0943779503399116E-003   3.7869592495874274E-003   0.0000000000000000     
  -1.1664025639209657E-002   7.3176750735664845E-003   0.0000000000000000     
  -1.6708943066609236E-002   1.0592147471937173E-002   0.0000000000000000     
  -2.1229130232538647E-002   1.3610376444699489E-002   0.0000000000000000     
  -1.2195394324486053E-002   9.2195317686344959E-003   0.0000000000000000     
  -1.5426993596731543E-002   1.2358976088105721E-002   0.0000000000000000     
  -1.8575449666746020E-002   1.5668582354301821E-002   0.0000000000000000     
  -2.1640762534529481E-002   1.9148350567222798E-002   0.0000000000000000     
  -2.4622932200081934E-002   2.2798280726868642E-002   0.0000000000000000     
  -1.3798231515680149E-002   9.9797896749037520E-003   0.0000000000000000     
  -1.7407157986358158E-002   1.3206129756440222E-002   0.0000000000000000     
  -2.0893488880476416E-002   1.6567729061428817E-002   0.0000000000000000     
  -2.4257224198034919E-002   2.0064587589869533E-002   0.0000000000000000     
  -2.7498363939033675E-002   2.3696705341762381E-002   0.0000000000000000     
  -1.5838133230753615E-002   1.0965016423004339E-002   0.0000000000000000     
  -1.9735553134048602E-002   1.4195533939503596E-002   0.0000000000000000     
  -2.3494445015008754E-002   1.7554852828963047E-002   0.0000000000000000     
  -2.7114808873634069E-002   2.1042973091382679E-002   0.0000000000000000     
  -3.0596644709924545E-002   2.4659894726762496E-002   0.0000000000000000     
  -1.8315099469706449E-002   1.2175212012936249E-002   0.0000000000000000     
  -2.2412179039802863E-002   1.5327188637295854E-002   0.0000000000000000     
  -2.6378318070343028E-002   1.8629953656904508E-002   0.0000000000000000     
  -3.0213516561326922E-002   2.2083507071762216E-002   0.0000000000000000     
  -3.3917774512754559E-002   2.5687848881868983E-002   0.0000000000000000     
  -2.1229130232538647E-002   1.3610376444699489E-002   0.0000000000000000     
  -2.5437035703620964E-002   1.6601093849816985E-002   0.0000000000000000     
  -2.9545108046479234E-002   1.9793031545253210E-002   0.0000000000000000     
  -3.3553347261113482E-002   2.3186189531008164E-002   0.0000000000000000     
  -3.7461753347523691E-002   2.6780567807081844E-002   0.0000000000000000     
  -2.4622932200081934E-002   2.2798280726868642E-002   0.0000000000000000     
  -2.7523092377186247E-002   2.6642164557619245E-002   0.0000000000000000     
  -3.0342376779625285E-002   3.0703793783854485E-002   0.0000000000000000     
  -3.3080785407399067E-002   3.4983168405574368E-002   0.0000000000000000     
  -3.5738318260507572E-002   3.9480288422778884E-002   0.0000000000000000     
  -2.7498363939033675E-002   2.3696705341762381E-002   0.0000000000000000     
  -3.0637544288282467E-002   2.7507102678272544E-002   0.0000000000000000     
  -3.3695401430591083E-002   3.1538799960565231E-002   0.0000000000000000     
  -3.6671935365959529E-002   3.5791797188640430E-002   0.0000000000000000     
  -3.9567146094387794E-002   4.0266094362498138E-002   0.0000000000000000     
  -3.0596644709924545E-002   2.4659894726762496E-002   0.0000000000000000     
  -3.3968606057173757E-002   2.8450925838546283E-002   0.0000000000000000     
  -3.7259346448675248E-002   3.2461374530177833E-002   0.0000000000000000     
  -4.0468865884429023E-002   3.6691240801657143E-002   0.0000000000000000     
  -4.3597164364435087E-002   4.1140524652984213E-002   0.0000000000000000     
  -3.3917774512754559E-002   2.5687848881868983E-002   0.0000000000000000     
  -3.7516277683860108E-002   2.9473634038440454E-002   0.0000000000000000     
  -4.1034211833877773E-002   3.3471517492692310E-002   0.0000000000000000     
  -4.4471576962807555E-002   3.7681499244624522E-002   0.0000000000000000     
  -4.7828373070649445E-002   4.2103579294237102E-002   0.0000000000000000     
  -3.7461753347523691E-002   2.6780567807081844E-002   0.0000000000000000     
  -4.1280559168341530E-002   3.0575227277955065E-002   0.0000000000000000     
  -4.5019997586198679E-002   3.4569228848108632E-002   0.0000000000000000     
  -4.8680068601095118E-002   3.8762572517542553E-002   0.0000000000000000     
  -5.2260772213030868E-002   4.3155258286256826E-002   0.0000000000000000     
  -3.5738318260507572E-002   3.9480288422778884E-002   0.0000000000000000     
  -3.8315241921401656E-002   4.4190177357605720E-002   0.0000000000000000     
  -4.0811822972532198E-002   4.9107858732192568E-002   0.0000000000000000     
  -4.3228061413899163E-002   5.4233332546539413E-002   0.0000000000000000     
  -4.5563957245502586E-002   5.9566598800646277E-002   0.0000000000000000     
  -3.9567146094387794E-002   4.0266094362498138E-002   0.0000000000000000     
  -4.2385883725322732E-002   4.4956445701343876E-002   0.0000000000000000     
  -4.5132998368211164E-002   4.9857605424383146E-002   0.0000000000000000     
  -4.7808490023053096E-002   5.4969573531615953E-002   0.0000000000000000     
  -5.0412358689848544E-002   6.0292350023042292E-002   0.0000000000000000     
  -4.3597164364435087E-002   4.1140524652984213E-002   0.0000000000000000     
  -4.6650088185292565E-002   4.5807004784643328E-002   0.0000000000000000     
  -4.9633483643600561E-002   5.0688459897118752E-002   0.0000000000000000     
  -5.2547350739359087E-002   5.5784889990410522E-002   0.0000000000000000     
  -5.5391689472568145E-002   6.1096295064518594E-002   0.0000000000000000     
  -4.7828373070649445E-002   4.2103579294237102E-002   0.0000000000000000     
  -5.1107855301311150E-002   4.6741854607504067E-002   0.0000000000000000     
  -5.4313278798700383E-002   5.1600422150399394E-002   0.0000000000000000     
  -5.7444643562817137E-002   5.6679281922923090E-002   0.0000000000000000     
  -6.0501949593661397E-002   6.1978433925075169E-002   0.0000000000000000     
  -5.2260772213030868E-002   4.3155258286256826E-002   0.0000000000000000     
  -5.5759185073378507E-002   4.7760995169926108E-002   0.0000000000000000     
  -5.9172383833510631E-002   5.2593492184225071E-002   0.0000000000000000     
  -6.2500368493427230E-002   5.7652749329153714E-002   0.0000000000000000     
  -6.5743139053128313E-002   6.2938766604712038E-002   0.0000000000000000     
  -4.5563957245502586E-002   5.9566598800646277E-002   0.0000000000000000     
  -4.7832315683752027E-002   6.5094017307852955E-002   0.0000000000000000     
  -5.0045941945057106E-002   7.0801947881499308E-002   0.0000000000000000     
  -5.2204836029417820E-002   7.6690390521585300E-002   0.0000000000000000     
  -5.4308997936834157E-002   8.2759345228110959E-002   0.0000000000000000     
  -5.0412358689848544E-002   6.0292350023042292E-002   0.0000000000000000     
  -5.2947865299368381E-002   6.5808296882166578E-002   0.0000000000000000     
  -5.5418270782383511E-002   7.1499776092493167E-002   0.0000000000000000     
  -5.7823575138893933E-002   7.7366787654022079E-002   0.0000000000000000     
  -6.0163778368899648E-002   8.3409331566753342E-002   0.0000000000000000     
  -5.5391689472568145E-002   6.1096295064518594E-002   0.0000000000000000     
  -5.8164978730655480E-002   6.6600333174428608E-002   0.0000000000000000     
  -6.0865697401048816E-002   7.2274662375126170E-002   0.0000000000000000     
  -6.3493845483748160E-002   7.8119282666611278E-002   0.0000000000000000     
  -6.6049422978753533E-002   8.4134194048883934E-002   0.0000000000000000     
  -6.0501949593661397E-002   6.1978433925075169E-002   0.0000000000000000     
  -6.3483655977613337E-002   6.7470126184639101E-002   0.0000000000000000     
  -6.6388221801053027E-002   7.3126606729398316E-002   0.0000000000000000     
  -6.9215647063980534E-002   7.8947875559352884E-002   0.0000000000000000     
  -7.1965931766395805E-002   8.4933932674502777E-002   0.0000000000000000     
  -6.5743139053128313E-002   6.2938766604712038E-002   0.0000000000000000     
  -6.8903897040241940E-002   6.8417675912798015E-002   0.0000000000000000     
  -7.1985843982396172E-002   7.4055609155309635E-002   0.0000000000000000     
  -7.4988979879591036E-002   7.9852566332246910E-002   0.0000000000000000     
  -7.7913304731826477E-002   8.5808547443609828E-002   0.0000000000000000     
  -5.4308997936834157E-002   8.2759345228110959E-002   0.0000000000000000     
  -5.6342000537603458E-002   8.9002332805092954E-002   0.0000000000000000     
  -5.8287416702023073E-002   9.5412874056547969E-002   0.0000000000000000     
  -6.0145246430092988E-002  0.10199096898247600        0.0000000000000000     
  -6.1915489721813224E-002  0.10873661758287709        0.0000000000000000     
  -6.0163778368899648E-002   8.3409331566753342E-002   0.0000000000000000     
  -6.2426237555631217E-002   8.9624916618874714E-002   0.0000000000000000     
  -6.4598309782319188E-002   9.6011051598573968E-002   0.0000000000000000     
  -6.6679995048963575E-002  0.10256773650585116        0.0000000000000000     
  -6.8671293355564364E-002  0.10929497134070626        0.0000000000000000     
  -6.6049422978753533E-002   8.4134194048883934E-002   0.0000000000000000     
  -6.8522332765373742E-002   9.0320646086876538E-002   0.0000000000000000     
  -7.0902477722917662E-002   9.6679888345521492E-002   0.0000000000000000     
  -7.3189857851385293E-002  0.10321192082481877        0.0000000000000000     
  -7.5384473150776607E-002  0.10991674352476838        0.0000000000000000     
  -7.1965931766395805E-002   8.4933932674502777E-002   0.0000000000000000     
  -7.4630286166831067E-002   9.1089521209098467E-002   0.0000000000000000     
  -7.7199920523818494E-002   9.7419384297390471E-002   0.0000000000000000     
  -7.9674834837358141E-002  0.10392352193937880        0.0000000000000000     
  -8.2055029107449953E-002  0.11060193413506346        0.0000000000000000     
  -7.7913304731826477E-002   8.5808547443609828E-002   0.0000000000000000     
  -8.0750097760003164E-002   9.1931541985540488E-002   0.0000000000000000     
  -8.3490638185021698E-002   9.8229539454180989E-002   0.0000000000000000     
  -8.6134926006882107E-002  0.10470253984953130        0.0000000000000000     
  -8.8682961225584361E-002  0.11135054317159146        0.0000000000000000     
  -6.1915489721813224E-002  0.10873661758287709        0.0000000000000000     
  -6.3588978186427711E-002  0.11563383825445359        0.0000000000000000     
  -6.5156543433180447E-002  0.12266664939390790        0.0000000000000000     
  -6.6618185462071391E-002  0.12983505100124001        0.0000000000000000     
  -6.7973904273100572E-002  0.13713904307644992        0.0000000000000000     
  -6.8671293355564364E-002  0.10929497134070626        0.0000000000000000     
  -7.0570932737736625E-002  0.11617632778940644        0.0000000000000000     
  -7.2377641231095385E-002  0.12319537753821884        0.0000000000000000     
  -7.4091418835640674E-002  0.13035212058714346        0.0000000000000000     
  -7.5712265551372490E-002  0.13764655693618039        0.0000000000000000     
  -7.5384473150776607E-002  0.10991674352476838        0.0000000000000000     
  -7.7488329659139002E-002  0.11677886342087397        0.0000000000000000     
  -7.9503433414519833E-002  0.12378278748863911        0.0000000000000000     
  -8.1429784416919088E-002  0.13092851572806383        0.0000000000000000     
  -8.3267382666336806E-002  0.13821604813914815        0.0000000000000000     
  -8.2055029107449953E-002  0.11060193413506346        0.0000000000000000     
  -8.4341168950634829E-002  0.11744144514885614        0.0000000000000000     
  -8.6533919983453750E-002  0.12442887924516870        0.0000000000000000     
  -8.8633282205906647E-002  0.13156423642400106        0.0000000000000000     
  -9.0639255617993533E-002  0.13884751668535320        0.0000000000000000     
  -8.8682961225584361E-002  0.11135054317159146        0.0000000000000000     
  -9.1129450612224147E-002  0.11816407297335303        0.0000000000000000     
  -9.3469100937897107E-002  0.12513365280780758        0.0000000000000000     
  -9.5701912202603281E-002  0.13225928267495510        0.0000000000000000     
  -9.7827884406342644E-002  0.13954096257479562        0.0000000000000000     
  -6.7973904273100572E-002  0.13713904307644992        0.0000000000000000     
  -6.9211953072439061E-002  0.14455616166637952        0.0000000000000000     
  -7.0320585066257948E-002  0.15206394281787061        0.0000000000000000     
  -7.1299800254557233E-002  0.15966238653092321        0.0000000000000000     
  -7.2149598637336929E-002  0.16735149280553729        0.0000000000000000     
  -7.5712265551372490E-002  0.13764655693618039        0.0000000000000000     
  -7.7250899246537177E-002  0.14507784684947081        0.0000000000000000     
  -7.8718037789381134E-002  0.15264515059115605        0.0000000000000000     
  -8.0113681179904334E-002  0.16034846816123619        0.0000000000000000     
  -8.1437829418106802E-002  0.16818779955971117        0.0000000000000000     
  -8.3267382666336806E-002  0.13821604813914815        0.0000000000000000     
  -8.5025419320142306E-002  0.14563940605014861        0.0000000000000000     
  -8.6713085535704948E-002  0.15319261078932195        0.0000000000000000     
  -8.8330381313024731E-002  0.16087566235666806        0.0000000000000000     
  -8.9877306652101641E-002  0.16868856075218702        0.0000000000000000     
  -9.0639255617993533E-002  0.13884751668535320        0.0000000000000000     
  -9.2535513293254462E-002  0.14624083926841300        0.0000000000000000     
  -9.4305728305229403E-002  0.15370632341236820        0.0000000000000000     
  -9.5949900653918396E-002  0.16124396911721883        0.0000000000000000     
  -9.7468030339321471E-002  0.16885377638296489        0.0000000000000000     
  -9.7827884406342644E-002  0.13954096257479562        0.0000000000000000     
  -9.9781181165873589E-002  0.14688214650426396        0.0000000000000000     
 -0.10149596609795450       0.15418628846029492        0.0000000000000000     
 -0.10297223920258540       0.16145338844288848        0.0000000000000000     
 -0.10421000047976627       0.16868344645204472        0.0000000000000000     
 </DataArray>
 <DataArray  type="Float64" Name="stress" NumberOfComponents="3" format="ascii">
   13412029357.845860        4023608807.3537579        2891136710.7028337     
   11764791896.443529        1891090942.8220348        1714761386.7037745     
   10314362166.213581        414598848.86491919        810939450.73934400     
   9060740167.1560154       -405867474.51759100        179670902.80954105     
   8003925899.2708311       -570308027.32549667       -179044257.08563173     
   10538900877.272474        3161670263.1817422        2223525105.0524154     
   9668011364.8254929        1590625309.9030745        1445397779.1786692     
   8945449697.2895851        514006506.32799101        862337123.40831864     
   8371215874.6647530       -68186147.543509960        474343137.74136555     
   7945309896.9509974       -155952651.71142483        281415822.17780697     
   8339093171.1055012        2501727951.3316503        1710565943.2722921     
   8023160984.9532051        1425738722.5078392        1274126748.2190006     
   7807076757.4506779        682576022.51658964        955267505.33787358     
   7690840488.5979185        272239851.35790205        753988214.62890935     
   7674452178.3949223        194730209.03177404        670288876.09211004     
   6812606239.3449488        2043781871.8034847        1352259225.3624632     
   6830240756.8266716        1396431180.6363297        1200948293.8247695     
   6899243346.6968575        920307397.43071413        1089730596.5280066     
   7019614008.9555044        615410522.18663907        1018606133.4721746     
   7191352743.6026125        481740554.90410209        987574904.65727460     
   5959440081.9908104        1787832024.5972431        1148604951.3229289     
   6089250680.4458904        1502702684.2885461        1225862415.9959743     
   6221949465.0281267        1227200631.0703664        1265726396.9787188     
   6357536435.7375164        961325864.94270349        1268196894.2711623     
   6496011592.5740643        705078385.90555906        1233273907.8733044     
   8003925899.2708311       -570308027.32549667       -179044257.08563173     
   7921539725.9556980       -205996584.35237980       -79491317.586150497     
   7798229492.2879686        21901324.112073421       -11594286.227843350     
   7633995198.2676411        113385698.06786728        24646836.989287645     
   7428836843.8947124        68456537.514995575        29232052.065243758     
   7945309896.9509974       -155952651.71142483        281415822.17780697     
   7744932530.0460529        14142245.146427631        278126427.48628724     
   7521635769.5156097        107839163.25262690        260549687.27806899     
   7275419615.3596745        125138102.60716963        228685601.55315462     
   7006284067.5782356        66039063.210051537        182534170.31153998     
   7674452178.3949223        194730209.03177404        670288876.09211004     
   7405708082.5415306        185495899.16677666        585162591.72454047     
   7132049259.7897415        159879166.30712700        503117524.46474957     
   6853475710.1395597        117880010.45282936        424153674.31274009     
   6569987433.5909777        59498431.603876114        348271041.26850969     
   7191352743.6026125        481740554.90410209        987574904.65727460     
   6903866383.4421329        308064377.70866060        841617175.12860823     
   6629469963.1103592        178021333.27557373        716109225.33220017     
   6368163482.6072922        91611421.604840040        611051055.26804543     
   6119946941.9329300        48834642.696462870        526442664.93614972     
   6496011592.5740643        705078385.90555906        1233273907.8733044     
   6239407432.7478590        381847680.77208114        1047490177.6984917     
   6013897879.4774628        162265664.15796542        899524789.88041437     
   5819482932.7628746        46332336.063208342        789377744.41907048     
   5656162592.6040955        34047696.487811565        717049041.31446004     
   7428836843.8947124        68456537.514995575        29232052.065243758     
   7251294364.3513517       -15400348.533200741        16057186.810309406     
   7083546832.2303429       -66607409.840227604        1792012.7419686243     
   6925594247.5316944       -85164646.406047344       -13563470.139774263     
   6777436610.2553959       -71072058.230703831       -30009261.834922619     
   7006284067.5782356        66039063.210051537        182534170.31153998     
   6835143970.9486370        11213809.500380516        174171876.81728521     
   6670357433.0051212       -22432915.255683422        165125194.60736302     
   6511924453.7476864       -34901111.058139324        155394123.68176800     
   6359845033.1763344       -26190777.906979799        144978664.04050666     
   6569987433.5909777        59498431.603876114        348271041.26850969     
   6406409491.5829506        34052741.745072126        340706366.00928724     
   6245743719.5247364        18314285.052301884        332863222.13212734     
   6087990117.4163342        12283061.525574923        324741609.63703239     
   5933148685.2577410        15959071.164874315        316341528.52400362     
   6119946941.9329300        48834642.696462870        526442664.93614972     
   5965090926.2542906        53116448.200869560        515660654.38630486     
   5809705691.7891922        55634191.083741903        505006095.31625837     
   5653791238.5376291        56387871.345075369        494478987.72601348     
   5497347566.4996080        55377488.984870672        484079331.61556661     
   5656162592.6040955        34047696.487811565        717049041.31446004     
   5511188274.9626570        68404928.867777824        699034741.94834220     
   5362243349.7984858        89526802.838634014        681553814.15976000     
   5209327817.1115808        97413318.400377035        664606257.94870949     
   5052441676.9019413        92064475.553007841        648192073.31519556     
   6777436610.2553959       -71072058.230703831       -30009261.834922619     
   6619611492.7382679       -51785541.885675907       -21411065.412905246     
   6457328244.6615934       -47359460.739134550       -2128907.1158601637     
   6290586866.0253649       -57793814.791110754        27837213.056212950     
   6119387356.8295870       -83088604.041580915        68487295.103306726     
   6359845033.1763344       -26190777.906979799        144978664.04050666     
   6222813480.9946308       -8986725.4756271839        143167742.09505519     
   6082052123.1575966       -4215358.5620431900        147148477.12805751     
   5937560959.6652298       -11876677.166229486        156920869.13951889     
   5789339990.5175295       -31970681.288191080        172484918.12943304     
   5933148685.2577410        15959071.164874315        316341528.52400362     
   5802932684.4212580        26887255.485497475        304971200.59933579     
   5669715202.8336649        27810503.969081640        294500224.75655401     
   5533496240.4949589        18728816.615617990        284928600.99565208     
   5394275797.4051313       -357806.57490134239        276256329.31664449     
   5497347566.4996080        55377488.984870672        484079331.61556661     
   5359969103.0181503        55836400.997708797        463999310.09993821     
   5220317483.6897974        48718126.854225636        439926335.76962072     
   5078392708.5145435        34022666.554416895        411860408.62462097     
   4934194777.4923973        11750020.098283052        379801528.66493511     
   5052441676.9019413        92064475.553007841        648192073.31519556     
   4893922736.7853031        77860711.060989618        620252070.59685647     
   4733858965.7259903        58507510.093385458        583426810.16726017     
   4572250363.7239952        34004872.650176048        537716292.02641153     
   4409096930.7793207        4352798.7313683033        483120516.17430687     
   6119387356.8295870       -83088604.041580915        68487295.103306726     
   5961334234.8178768       -105541656.73155308        64540286.602394916     
   5807012531.5450211       -115556646.95866632        60756286.271802045     
   5656422247.0110226       -113133574.72292566        57135294.111539967     
   5509563381.2158756       -98272440.024346113        53677310.121597469     
   5789339990.5175295       -31970681.288191080        172484918.12943304     
   5634534736.4617882       -54288607.743854284        151109351.90714756     
   5483295351.6693192       -64720303.321938276        132037954.50351898     
   5335621836.1401262       -63265768.022433519        115270725.91854617     
   5191514189.8742113       -49925001.845348597        100807666.15223698     
   5394275797.4051313       -357806.57490134239        276256329.31664449     
   5248836013.1577473       -20705326.240536928        237259064.31813750     
   5106796548.6980495       -29718446.613877773        202707128.78662020     
   4968157404.0260563       -27397167.694880247        172600522.72210297     
   4832918579.1417475       -13741489.483590603        146939246.12457433     
   4934194777.4923973        11750020.098283052        379801528.66493511     
   4804238064.9057550       -4791812.2216157913        322989423.83536291     
   4677516122.6312199       -10551076.834472895        272763809.12111944     
   4554028950.6687975       -5527773.7402963638        229124684.52220571     
   4433776549.0184898        10278097.060925961        192072050.03862077     
   4409096930.7793207        4352798.7313683033        483120516.17430687     
   4300740891.7058048       -6548065.6870801449        408300430.45882595     
   4195454073.4688187       -7218193.9837584496        342207995.50701070     
   4093236476.0683665        2342413.8413441181        284843211.31885713     
   3994088099.5044465        22133757.788213730        236206077.89436951     
   5509563381.2158756       -98272440.024346113        53677310.121597469     
   5327659559.9734116       -88601850.813735485        62588541.161627650     
   5145533951.5170803       -79670552.316023827        72475451.490406647     
   4963186555.8468714       -71478544.531239510        83338041.107929349     
   4780617372.9627943       -64025827.459340096        95176310.014190614     
   5191514189.8742113       -49925001.845348597        100807666.15223698     
   5011748558.5342083       -42935495.049560547        95145832.056811601     
   4831282642.1996784       -38280271.568856955        90771791.462573007     
   4650116440.8706188       -35959331.403250456        87685544.369522169     
   4468249954.5470428       -35972674.552724600        85887090.777656212     
   4832918579.1417475       -13741489.483590603        146939246.12457433     
   4656182892.5968981       -9165538.6348176003        126146099.48293231     
   4478268423.2768736       -8518863.7033042908        106952860.55491760     
   4299175171.1816578       -11801464.689080715        89359529.340529606     
   4118903136.3112679       -19013341.592123032        73366105.839775324     
   4433776549.0184898        10278097.060925961        192072050.03862077     
   4260962562.1614904        12708018.430492401        155589343.43999404     
   4086491294.7486539        9613671.2806138992        121018658.76743966     
   3910362746.7799821        995055.61127781868        88359996.020953968     
   3732576918.2554688       -13147828.577517986        57613355.200537413     
   3994088099.5044465        22133757.788213730        236206077.89436951     
   3826087567.2279840        22685176.146381617        183475563.92800391     
   3655951256.6150308        16117333.382918835        132969186.10014223     
   3483679167.6655879        2430229.4978208542        84686944.410792142     
   3309271300.3796506       -18376135.508922577        38628838.859957516     
   4780617372.9627943       -64025827.459340096        95176310.014190614     
   4572711232.3165102       -73276306.029427290        100099917.33386749     
   4359025488.7874165       -101792127.54222512        118210488.73130564     
   4139560142.3755083       -149573291.99772382        149508024.20649675     
   3914315193.0807819       -216619799.39596438        193992523.75946069     
   4468249954.5470428       -35972674.552724600        85887090.777656212     
   4286587791.0416288       -43824833.068921804        68611996.691021636     
   4100417047.3359241       -66705592.252768278        58014924.007169954     
   3909737723.4299335       -104614952.10423851        54095872.726086430     
   3714549819.3236284       -157552912.62339973        56854842.847806275     
   4118903136.3112679       -19013341.592123032        73366105.839775324     
   3944887970.8753757       -31046273.775804520        35375170.143090524     
   3767635247.9216971       -53871064.352093935       -2446686.8257776271     
   3587144967.4502392       -87487713.320989370       -40099465.066847064     
   3403417129.4609928       -131896220.68250632       -77583164.580111369     
   3732576918.2554688       -13147828.577517986        57613355.200537413     
   3547611771.8177199       -34940628.150120020        389437.69008791092     
   3360680090.5447121       -63288543.840265989       -63174343.767535031     
   3171781874.4364271       -98191575.647981882       -133077989.17233615     
   2980917123.4928823       -139649723.57324243       -209321498.52430701     
   3309271300.3796506       -18376135.508922577        38628838.859957516     
   3094759193.8686857       -55507896.191845536       -36345200.668001890     
   2879551575.2049704       -94958030.717270970       -124168046.81811298     
   2663648444.3885078       -136726539.08519161       -224839699.59036809     
   2447049801.4192963       -180813421.29560757       -338360158.98477614     
   3914315193.0807819       -216619799.39596438        193992523.75946069     
   3451078834.2379150       -234265299.61621785        154492150.34767458     
   3073269394.7893653        32845598.144564271        219017106.49820253     
   2780886874.7351093        584712893.88635159        387567392.21102667     
   2573931274.0751543        1421336587.6091099        660143007.48615980     
   3714549819.3236284       -157552912.62339973        56854842.847806275     
   3474620361.2339983       -150644727.95944190        38047341.179592296     
   3287508457.8796945        32321972.488953233        81322814.016735986     
   3153214109.2607112        391347188.72174680        186681261.35925463     
   3071737315.3770609        926430920.73896170        354122683.20713478     
   3403417129.4609928       -131896220.68250632       -77583164.580111369     
   3266959271.9619150       -136384941.18312955       -113742053.27357979     
   3150709604.5391855       -73513028.095922709       -129760322.51860757     
   3054668127.1928034        56719518.579115748       -125637972.31520593     
   2978834839.9227681        254312698.84196734       -101375002.66340211     
   2980917123.4928823       -139649723.57324243       -209321498.52430701     
   2828095566.4216723       -191485939.28725839       -300876033.01181221     
   2662872834.7678246       -284659403.61005414       -414232303.10783851     
   2485248928.5313625       -419170116.54160166       -549390308.81236875     
   2295223847.7122669       -595018078.08188987       -706350050.12541497     
   2447049801.4192963       -180813421.29560757       -338360158.98477614     
   2158029244.6132684       -315947722.27184224       -523354598.03514344     
   1823998148.5656366       -601117154.05342031       -772093127.75095057     
   1444956513.2763970       -1036321716.6403570       -1084575748.1322191     
   1020904338.7455639       -1621561410.0326207       -1460802459.1789293     
   5959440081.9908104        1787832024.5972431        1148604951.3229289     
   6089250680.4458904        1502702684.2885461        1225862415.9959743     
   6221949465.0281267        1227200631.0703664        1265726396.9787188     
   6357536435.7375164        961325864.94270349        1268196894.2711623     
   6496011592.5740643        705078385.90555906        1233273907.8733044     
   5435093009.7153120        1630527902.9145937        1032092058.0409651     
   5489707517.1085901        1373000086.8539281        1112179405.9194710     
   5546630996.7982330        1123168845.1144834        1165447507.9988840     
   5605863448.7842445        881034177.69626129        1191896364.2792037     
   5667404873.0666199        646596084.59925938        1191525974.7604299     
   4895063333.1906776        1468518999.9572031        935209482.40384841     
   4904693857.7827454        1247656340.6227472        1017450964.0185608     
   4916054140.8403931        1032559542.8402169        1083447437.7253883     
   4929144182.3636189        823228606.60961211        1133198903.5243304     
   4943963982.3524189        619663531.93093264        1166705361.4153886     
   4339351052.4169064        1301805315.7250719        857957224.41157842     
   4334209702.4683609        1126671445.5950036        941677090.29324400     
   4330218897.1546040        955372724.24756527        1019726186.1582327     
   4327378636.4756365        787909151.68275678        1092104512.0065444     
   4325688920.4314566        624280727.90057790        1158812067.8381793     
   3767956167.3939977        1130386850.2181993        800335284.06415510     
   3778255051.1654320        1010045401.7706971        884857784.74352074     
   3789125265.7408667        891608389.33652937        974283753.29741728     
   3800566811.1203003        775075812.91569495        1068613189.7258445     
   3812579687.3037353        660447672.50819492        1167846094.0288029     
   6496011592.5740643        705078385.90555906        1233273907.8733044     
   6239407432.7478590        381847680.77208114        1047490177.6984917     
   6013897879.4774628        162265664.15796542        899524789.88041437     
   5819482932.7628746        46332336.063208342        789377744.41907048     
   5656162592.6040955        34047696.487811565        717049041.31446004     
   5667404873.0666199        646596084.59925938        1191525974.7604299     
   5515037320.5106182        388430422.77391934        1069662877.1377065     
   5387027910.5966072        211458569.75521994        975148432.75652790     
   5283376643.3245859        115680525.54315686        907982641.61689091     
   5204083518.6945591        101096290.13773322        868165503.71879768     
   4943963982.3524189        619663531.93093264        1166705361.4153886     
   4865919639.5946436        417588894.17213821        1100903688.4453015     
   4805496975.5650444        274253185.50726199        1051980979.6015673     
   4762695990.2636204        189656405.93630290        1019937234.8841870     
   4737516683.6903706        163798555.45925927        1004772454.2931584     
   4325688920.4314566        624280727.90057790        1158812067.8381793     
   4292054389.9999404        469323094.96673858        1141212611.6212761     
   4269305074.3827806        350649511.41409445        1130022430.4155354     
   4257440973.5799761        268259977.24264407        1125241524.2209566     
   4256462087.5915365        222154492.45239091        1126869893.0375421     
   3812579687.3037353        660447672.50819492        1167846094.0288029     
   3793441571.7265010        543633025.15771663        1190589646.6656315     
   3778452207.0498085        440647547.47571397        1209272785.1984310     
   3767611593.2736583        351491239.46218514        1223895509.6272044     
   3760919730.3980484        276164101.11712778        1234457819.9519479     
   5656162592.6040955        34047696.487811565        717049041.31446004     
   5511188274.9626570        68404928.867777824        699034741.94834220     
   5362243349.7984858        89526802.838634014        681553814.15976000     
   5209327817.1115808        97413318.400377035        664606257.94870949     
   5052441676.9019413        92064475.553007841        648192073.31519556     
   5204083518.6945591        101096290.13773322        868165503.71879768     
   5053972865.7618074        100328923.30139184        843584770.41137052     
   4902621956.1606245        95427367.570276260        822625315.12147033     
   4750030789.8910112        86391622.944391489        805287137.84909928     
   4596199366.9529638        73221689.423733711        791570238.59425294     
   4737516683.6903706        163798555.45925927        1004772454.2931584     
   4591092285.2948618        130553366.35517478        976810696.37443948     
   4446157981.0852222        102275157.87065792        955558122.91324353     
   4302713771.0614548        78963930.005711555        941014733.90956736     
   4160759655.2235570        60619682.760333300        933180529.36341250     
   4256462087.5915365        222154492.45239091        1126869893.0375421     
   4122546533.5618205        159078258.02912998        1098712519.8375516     
   3992851424.5722761        110070173.73977518        1080352237.5350759     
   3867376760.6229076        75130239.584333181        1071789046.1301163     
   3746122541.7137089        54258455.562799454        1073022945.6226711     
   3760919730.3980484        276164101.11712778        1234457819.9519479     
   3648335610.5626822        185903598.32325661        1209290240.8007054     
   3542702286.6217890        118812415.17763150        1197007658.9869711     
   3444019758.5753717        74890551.680259585        1197610074.5107460     
   3352288026.4234304        54138007.831137776        1211097487.3720303     
   5052441676.9019413        92064475.553007841        648192073.31519556     
   4893922736.7853031        77860711.060989618        620252070.59685647     
   4733858965.7259903        58507510.093385458        583426810.16726017     
   4572250363.7239952        34004872.650176048        537716292.02641153     
   4409096930.7793207        4352798.7313683033        483120516.17430687     
   4596199366.9529638        73221689.423733711        791570238.59425294     
   4421972865.8761978        50343854.044580698        773197689.21011651     
   4246619998.3358498        23711463.786828756        753629367.00339651     
   4070140764.3319254       -6675481.3495118618        732865271.97409773     
   3892535163.8644242       -40816981.364445448        710905404.12221014     
   4160759655.2235570        60619682.760333300        933180529.36341250     
   3992795550.0114355        35658763.541470528        924863641.87242794     
   3824123542.8148384        8338171.0410161018        923040466.44753420     
   3654743633.6337624       -21342094.741023302        927711003.08873034     
   3484655822.4682140       -53382033.804651737        938875251.79601979     
   3746122541.7137089        54258455.562799454        1073022945.6226711     
   3606390789.1910176        33805439.551662445        1075249928.5837901     
   3466369599.1629496        12387631.855937958        1091660108.4996767     
   3326058971.6295099       -9994967.5243620872        1122253485.3703241     
   3185458906.5906906       -33342358.589255333        1167030059.1957328     
   3352288026.4234304        54138007.831137776        1211097487.3720303     
   3262758583.4149485        44783882.075164676        1224356549.3442061     
   3173358167.3801894        35859846.231598616        1259488293.1598177     
   3084086778.3191609        27365900.300469637        1316492718.8188682     
   2994944416.2318559        19302044.281750917        1395369826.3213575     
   4409096930.7793207        4352798.7313683033        483120516.17430687     
   4300740891.7058048       -6548065.6870801449        408300430.45882595     
   4195454073.4688187       -7218193.9837584496        342207995.50701070     
   4093236476.0683665        2342413.8413441181        284843211.31885713     
   3994088099.5044465        22133757.788213730        236206077.89436951     
   3892535163.8644242       -40816981.364445448        710905404.12221014     
   3805578150.8325443       -44986148.749687672        676365970.70377684     
   3721578991.9998536       -39295802.137643337        648006207.23835301     
   3640537687.3663440       -23745941.528311014        625826113.72593904     
   3562454236.9320264        1663433.0783052444        609825690.16653216     
   3484655822.4682140       -53382033.804651737        938875251.79601979     
   3411817890.3046703       -53003487.708679914        944486542.93106210     
   3341826445.7029667       -43136649.739904642        953729523.20845938     
   3274681488.6631017       -23781519.898335695        966604192.62821031     
   3210383019.1850758        5061901.8160309792        983110551.19031572     
   3185458906.5906906       -33342358.589255333        1167030059.1957328     
   3119460110.1221800       -30600082.564059019        1212662147.1406856     
   3056196434.5781655       -18740736.790547132        1259377943.4173341     
   2995667879.9586406        2235678.7312707901        1307177448.0256774     
   2937874446.2636118        32329164.001404285        1356060660.9657226     
   2994944416.2318559        19302044.281750917        1395369826.3213575     
   2928504810.2850757        22224066.684180856        1480892783.3326440     
   2864688958.6254468        33891936.710443258        1564951467.8649702     
   2803496861.2529635        54305654.360525370        1647545879.9183438     
   2744928518.1676250        83465219.634424210        1728676019.4927552     
   3994088099.5044465        22133757.788213730        236206077.89436951     
   3826087567.2279840        22685176.146381617        183475563.92800391     
   3655951256.6150308        16117333.382918835        132969186.10014223     
   3483679167.6655879        2430229.4978208542        84686944.410792142     
   3309271300.3796506       -18376135.508922577        38628838.859957516     
   3562454236.9320264        1663433.0783052444        609825690.16653216     
   3402250569.8371334        4131247.1892976761        583176084.31947088     
   3240206304.2590218        463733.02289342880        559857685.76137888     
   3076321440.1976895       -9339109.4209020138        539870494.49225760     
   2910595977.6531458       -25277280.142089367        523214510.51210016     
   3210383019.1850758        5061901.8160309792        983110551.19031572     
   3061139277.7016253        10395029.808809042        982886229.95805597     
   2910350117.5882254        10576762.368435025        987100187.16521800     
   2758015538.8448853        5607099.4949097633        995752422.81180096     
   2604135541.4715929       -4513958.8117723465        1008842936.8978045     
   2937874446.2636118        32329164.001404285        1356060660.9657226     
   2802753690.8214712        41476524.004931808        1382606000.8437476     
   2666382696.6026521        46456421.419542074        1414696690.3116469     
   2528761463.6071625        47268856.245242476        1452332729.3694181     
   2389889991.8350000        43913828.482037067        1495514118.0170689     
   2744928518.1676250        83465219.634424210        1728676019.4927552     
   2627093809.1966591        97375729.777652383        1782335396.9765465     
   2508304041.3022933        108102710.17621517        1842647195.2006674     
   2388559214.4845281        115646160.83011067        1909611414.1651189     
   2267859328.7433600        120006081.73932540        1983228053.8698976     
   3309271300.3796506       -18376135.508922577        38628838.859957516     
   3094759193.8686857       -55507896.191845536       -36345200.668001890     
   2879551575.2049704       -94958030.717270970       -124168046.81811298     
   2663648444.3885078       -136726539.08519161       -224839699.59036809     
   2447049801.4192963       -180813421.29560757       -338360158.98477614     
   2910595977.6531458       -25277280.142089367        523214510.51210016     
   2675260457.7511015       -64354542.344296932        485380209.84272546     
   2440278014.8330860       -102254881.26639581        444825667.38372797     
   2205648648.8991022       -138978296.90839708        401550883.13512206     
   1971372359.9491467       -174524789.27029908        355555857.09689915     
   2604135541.4715929       -4513958.8117723465        1008842936.8978045     
   2376915364.8428526       -36855095.533939600        1009371729.0799218     
   2151096854.3349237       -64524011.853404164        1017308844.3049542     
   1926680009.9478049       -87520707.770170212        1032654282.5729086     
   1703664831.6815014       -105845183.28421915        1055408043.8837750     
   2389889991.8350000        43913828.482037067        1495514118.0170689     
   2199723915.1439500        26990444.239225984        1535629357.0435901     
   2012008093.7104776        18234577.521692395        1593281483.9455588     
   1826742527.5346110        17646228.329497695        1668470498.7229848     
   1643927216.6163285        25225396.662592411        1761196401.3758607     
   2267859328.7433600        120006081.73932540        1983228053.8698976     
   2143686108.6543760        127182076.97517347        2064153093.7337317     
   2023011732.9597635        146020886.85892850        2172743586.3055506     
   1905836201.6595211        176522511.39058352        2308999531.5853562     
   1792159514.7536561        218686950.57016087        2472920929.5731492     
   2447049801.4192963       -180813421.29560757       -338360158.98477614     
   2158029244.6132684       -315947722.27184224       -523354598.03514344     
   1823998148.5656366       -601117154.05342031       -772093127.75095057     
   1444956513.2763970       -1036321716.6403570       -1084575748.1322191     
   1020904338.7455639       -1621561410.0326207       -1460802459.1789293     
   1971372359.9491467       -174524789.27029908        355555857.09689915     
   1561610238.0469472       -299513658.50553966        218870629.78861791     
   1127233526.8611405       -506551158.68612403        50710112.670027114     
   668242226.39173222       -795637289.81205380       -148925694.25885016     
   184636336.63872457       -1166772051.8833148       -380036790.99803185     
   1703664831.6815014       -105845183.28421915        1055408043.8837750     
   1265357718.5549710       -193029648.61693370        990827303.26857185     
   822831966.10285258       -294276245.03497183        927040073.69822216     
   376087574.32513189       -409584972.53833127        864046355.17272472     
  -74875456.778189525       -538955831.12702477        801846147.69207871     
   1643927216.6163285        25225396.662592411        1761196401.3758607     
   1269271686.1373496        3504307.3939753771        1792515422.4047461     
   910793466.29077399        35707586.900046438        1856896755.3336272     
   568492557.07660222        121835235.18079573        1954340400.1625144     
   242368958.49484634        261887252.23624688        2084846356.8914132     
   1792159514.7536561        218686950.57016087        2472920929.5731492     
   1573352140.7940788        290088209.52719969        2623934987.1971169     
   1391118027.4249094        483400337.11893392        2840280157.5762415     
   1245457174.6461501        798623333.34537053        3121956440.7105174     
   1136369582.4577971        1235757198.2064929        3468963836.5999570     
   3767956167.3939977        1130386850.2181993        800335284.06415510     
   3778255051.1654320        1010045401.7706971        884857784.74352074     
   3789125265.7408667        891608389.33652937        974283753.29741728     
   3800566811.1203003        775075812.91569495        1068613189.7258445     
   3812579687.3037353        660447672.50819492        1167846094.0288029     
   3207751650.1119056        962325495.03357172        757053686.51559854     
   3235138845.2638636        869317709.84456813        853570835.28079748     
   3262224544.7364187        775304939.05755246        952021602.63529241     
   3289008748.5295701        680287182.67252398        1052405988.5790824     
   3315491456.6433177        584264440.68948364        1154723993.1121686     
   2685610472.5605845        805683141.76817536        722822456.91992795     
   2721600695.4209666        737463434.73604035        830315956.20698917     
   2756416596.1185408        665329320.49454618        936773224.79811072     
   2790058174.6533074        589280799.04369307        1042194262.6932927     
   2822525431.0252662        509317870.38348132        1146579069.8925352     
   2201532634.7400346        660459790.42201042        697641595.27714360     
   2237640601.6367397        614482576.44511354        815093147.52209604     
   2271701419.8872328        561681533.64751112        928538619.78587294     
   2303715089.4915133        502056662.02920318        1037978012.0684752     
   2333681610.4495835        435607961.59018975        1143411324.3699026     
   1755518136.6502559        526655440.99507678        681511101.58724546     
   1783258563.9111822        500375134.97178763        807902409.22611713     
   1808079016.0424929        464361578.51644659        927317787.59857869     
   1829979493.0441880        418614771.62905353        1039757236.7046301     
   1848959994.9162672        363134714.30960858        1145220756.5442717     
   3812579687.3037353        660447672.50819492        1167846094.0288029     
   3793441571.7265010        543633025.15771663        1190589646.6656315     
   3778452207.0498085        440647547.47571397        1209272785.1984310     
   3767611593.2736583        351491239.46218514        1223895509.6272044     
   3760919730.3980484        276164101.11712778        1234457819.9519479     
   3315491456.6433177        584264440.68948364        1154723993.1121686     
   3291007470.3300614        478413908.67974138        1184346367.6214724     
   3270426442.3125157        385573237.65570271        1211386767.5130794     
   3253748372.5906835        305742427.61737132        1235845192.7869895     
   3240973261.1645598        238921478.56474197        1257721643.4432025     
   2822525431.0252662        509317870.38348132        1146579069.8925352     
   2796919686.7940774        415698687.55990237        1182793508.2353451     
   2774971108.2537699        334270057.03925741        1217904411.4467885     
   2756679695.4043422        265031978.82154822        1251911779.5268674     
   2742045448.2457948        207984452.90677345        1284815612.4755797     
   2333681610.4495835        435607961.59018975        1143411324.3699026     
   2311178221.1185513        355487361.79820049        1185931068.5072496     
   2292086204.8735685        286738005.62637562        1228825716.9995608     
   2276405561.7146358        229359893.07471550        1272095269.8468392     
   2264136291.6417527        183353024.14322090        1315739727.0490813     
   1848959994.9162672        363134714.30960858        1145220756.5442717     
   1833783073.3034811        297779931.39463586        1193759048.4371850     
   1821771732.1719134        242977083.41705680        1244150684.1713958     
   1812925971.5215647        198726170.37687403        1296395663.7469022     
   1807245791.3524342        165027192.27408719        1350493987.1637058     
   3760919730.3980484        276164101.11712778        1234457819.9519479     
   3648335610.5626822        185903598.32325661        1209290240.8007054     
   3542702286.6217890        118812415.17763150        1197007658.9869711     
   3444019758.5753717        74890551.680259585        1197610074.5107460     
   3352288026.4234304        54138007.831137776        1211097487.3720303     
   3240973261.1645598        238921478.56474197        1257721643.4432025     
   3163223424.6282439        166775496.10484517        1245560160.1323373     
   3090911762.1868453        112756760.62800896        1243129008.0984690     
   3024038273.8403678        76865272.134241104        1250428187.3415968     
   2962602959.5888081        59101030.623532057        1267457697.8617246     
   2742045448.2457948        207984452.90677345        1284815612.4755797     
   2690116563.4070683        151248991.30041397        1283895499.5722766     
   2642113230.8637013        107598704.01192784        1289551051.8854585     
   2598035450.6156993        77033591.041320324        1301782269.4151256     
   2557883222.6630592        59553652.388585925        1320589152.1612794     
   2264136291.6417527        183353024.14322090        1315739727.0490813     
   2229015026.8991513        139324083.90995991        1324296259.1205244     
   2196306692.6523585        103338245.32938790        1336273790.3479400     
   2166011288.9013710        75395508.401502252        1351672320.7313299     
   2138128815.6461892        55495873.126306415        1370491850.2706952     
   1807245791.3524342        165027192.27408719        1350493987.1637058     
   1779918815.1044979        131000773.93348473        1366762438.7770793     
   1753492147.5528131        99975384.580384016        1383297223.4859140     
   1727965788.6973784        71951024.214786589        1400098341.2902119     
   1703339738.5381932        46927692.836685717        1417165792.1899717     
   3352288026.4234304        54138007.831137776        1211097487.3720303     
   3262758583.4149485        44783882.075164676        1224356549.3442061     
   3173358167.3801894        35859846.231598616        1259488293.1598177     
   3084086778.3191609        27365900.300469637        1316492718.8188682     
   2994944416.2318559        19302044.281750917        1395369826.3213575     
   2962602959.5888081        59101030.623532057        1267457697.8617246     
   2921426885.2428751        56793831.760043144        1271876695.3059494     
   2880996771.3133616        56973167.617947698        1289991695.9796665     
   2841312617.8002696        59639038.197258472        1321802699.8828707     
   2802374424.7035947        64791443.497960806        1367309707.0155644     
   2557883222.6630592        59553652.388585925        1320589152.1612794     
   2541698578.0826850        57284798.748489380        1316887840.7606988     
   2526876827.3614211        59558924.638762951        1318705853.9756591     
   2513417970.4992709        66376030.059417605        1326043191.8061614     
   2501322007.4962335        77736115.010444760        1338899854.2522049     
   2138128815.6461892        55495873.126306415        1370491850.2706952     
   2123573661.9343767        46256783.040500522        1359389985.7084494     
   2110998335.5243685        43617117.294042945        1345630767.1477985     
   2100402836.4161677        47576875.886944890        1329214194.5887382     
   2091787164.6097720        58136058.819195628        1310140268.0312753     
   1703339738.5381932        46927692.836685717        1417165792.1899717     
   1667052136.7979496        23709784.636074960        1399383130.1492038     
   1633361295.8022041        9147745.5837932229        1370766435.4960809     
   1602267215.5509582        3241575.6798421144        1331315708.2306030     
   1573769896.0442114        5991274.9242201447        1281030948.3527710     
   2994944416.2318559        19302044.281750917        1395369826.3213575     
   2928504810.2850757        22224066.684180856        1480892783.3326440     
   2864688958.6254468        33891936.710443258        1564951467.8649702     
   2803496861.2529635        54305654.360525370        1647545879.9183438     
   2744928518.1676250        83465219.634424210        1728676019.4927552     
   2802374424.7035947        64791443.497960806        1367309707.0155644     
   2734289984.4385161        64730034.563015342        1418492796.1213512     
   2667787095.7888026        69940464.345951915        1470563384.6929531     
   2602865758.7544503        80422732.846761942        1523521472.7303717     
   2539525973.3354640        96176840.065458298        1577367060.2336001     
   2501322007.4962335        77736115.010444760        1338899854.2522049     
   2438312081.3264942        76707079.262213588        1354527172.3354111     
   2375841504.1003342        77475873.325915098        1373393761.8292041     
   2313910275.8177562        80042497.201554179        1395499622.7335882     
   2252518396.4787574        84406950.889128804        1420844755.0485566     
   2091787164.6097720        58136058.819195628        1310140268.0312753     
   2040571100.9490075        58155200.781766415        1288995911.9748180     
   1988852183.5600421        56498163.650335193        1273442599.2737234     
   1936630412.4428720        53164947.424887896        1263480329.9279900     
   1883905787.5974989        48155552.105430603        1259109103.9376192     
   1573769896.0442114        5991274.9242201447        1281030948.3527710     
   1541067043.3060617        9074399.1216911674        1221899015.0395732     
   1506819134.1679227        7007335.3191993833        1170709897.0265119     
   1471026168.6298013       -209916.48323893547        1127463594.3135822     
   1433688146.6916935       -12577356.285625219        1092160106.9007893     
   2744928518.1676250        83465219.634424210        1728676019.4927552     
   2627093809.1966591        97375729.777652383        1782335396.9765465     
   2508304041.3022933        108102710.17621517        1842647195.2006674     
   2388559214.4845281        115646160.83011067        1909611414.1651189     
   2267859328.7433600        120006081.73932540        1983228053.8698976     
   2539525973.3354640        96176840.065458298        1577367060.2336001     
   2436363965.7578492        102063614.14663339        1601701472.3344655     
   2332991395.6923852        107248513.26831508        1632521788.4734299     
   2229408263.1390791        111731537.43052173        1669828008.6505022     
   2125614568.0979235        115512686.63322818        1713620132.8656807     
   2252518396.4787574        84406950.889128804        1420844755.0485566     
   2163553328.2881360        82127260.306336045        1416722780.9412985     
   2075122194.0452232        81627349.549245477        1418920194.1699255     
   1987224993.7500169        82907218.617842197        1427436994.7344322     
   1899861727.4025249        85966867.512145817        1442273182.6348228     
   1883905787.5974989        48155552.105430603        1259109103.9376192     
   1808661896.7875187        37566668.256772876        1227399322.7970595     
   1734696436.3608012        31239219.018989444        1201842412.2901571     
   1662009406.3173478        29173204.392087281        1182438372.4169140     
   1590600806.6571598        31368624.376068234        1169187203.1773281     
   1433688146.6916935       -12577356.285625219        1092160106.9007893     
   1371689671.2559991       -31618162.002064407        1033731097.9017423     
   1311714122.6391258       -43915878.322432458        981288442.83412707     
   1253761500.8410683       -49470505.246750832        934832141.69794619     
   1197831805.8618326       -48282042.774994612        894362194.49320257     
   2267859328.7433600        120006081.73932540        1983228053.8698976     
   2143686108.6543760        127182076.97517347        2064153093.7337317     
   2023011732.9597635        146020886.85892850        2172743586.3055506     
   1905836201.6595211        176522511.39058352        2308999531.5853562     
   1792159514.7536561        218686950.57016087        2472920929.5731492     
   2125614568.0979235        115512686.63322818        1713620132.8656807     
   2063435815.7706244        134855312.08205467        1763439355.8121550     
   2003496412.8093832        161662435.41773289        1830473494.2797163     
   1945796359.2141988        195934056.64027619        1914722548.2683661     
   1890335654.9850740        237670175.74967533        2016186517.7780991     
   1899861727.4025249        85966867.512145817        1442273182.6348228     
   1869818765.1600487        108518519.87088537        1459517177.7975798     
   1840755657.2553141        134336353.35543078        1483525551.2945175     
   1812672403.6883245        163420367.96579659        1514298303.1256397     
   1785569004.4590790        195770563.70196903        1551835433.2909451     
   1590600806.6571598        31368624.376068234        1169187203.1773281     
   1562834956.8226483        48171700.341673553        1152386559.6899951     
   1534789466.2975574        64042640.672022402        1131899757.3499467     
   1506464335.0819027        78981445.367152750        1107726796.1571770     
   1477859563.1756740        92988114.427038193        1079867676.1116889     
   1197831805.8618326       -48282042.774994612        894362194.49320257     
   1142484390.7584174       -46185146.505592406        842047501.48941493     
   1085597839.9361138       -49218702.632490516        775596112.44600570     
   1027172153.3949280       -57382711.155658245        695008027.36298168     
   967207331.13485682       -70677172.075112879        600283246.24033082     
   1792159514.7536561        218686950.57016087        2472920929.5731492     
   1573352140.7940788        290088209.52719969        2623934987.1971169     
   1391118027.4249094        483400337.11893392        2840280157.5762415     
   1245457174.6461501        798623333.34537053        3121956440.7105174     
   1136369582.4577971        1235757198.2064929        3468963836.5999570     
   1890335654.9850740        237670175.74967533        2016186517.7780991     
   1810151024.0609183        312947846.60330915        2119490119.6931441     
   1754732799.6516380        470780205.83985949        2263200931.5195365     
   1724080981.7572334        711167253.45932865        2447318953.2572613     
   1718195570.3776946        1034108989.4616898        2671844184.9063320     
   1785569004.4590790        195770563.70196903        1551835433.2909451     
   1772795965.5880163        253561301.15750116        1593653916.4089518     
   1772982479.1562903        354550546.74416292        1650955706.5944810     
   1786128545.1639056        498738300.46195865        1723740803.8475313     
   1812234163.6108634        686124562.31088805        1812009208.1681082     
   1477859563.1756740        92988114.427038193        1079867676.1116889     
   1461286965.3753705        111928573.18977410        1046426377.3445230     
   1445867065.9388678        134711359.83185011        1003544482.8010691     
   1431599864.8661699        161336474.35326868        951221992.48132181     
   1418485362.1572804        191803916.75405076        889458906.38527215     
   967207331.13485682       -70677172.075112879        600283246.24033082     
   875624023.42297781       -111950337.29988682        477807502.49987477     
   773386559.99936628       -188737354.89709884        320967260.13930452     
   660494940.86402905       -301038224.86673582        129762519.15862745     
   536949166.01695871       -448852947.20880824       -95806720.442147806     
   1755518136.6502559        526655440.99507678        681511101.58724546     
   1783258563.9111822        500375134.97178763        807902409.22611713     
   1808079016.0424929        464361578.51644659        927317787.59857869     
   1829979493.0441880        418614771.62905353        1039757236.7046301     
   1848959994.9162672        363134714.30960858        1145220756.5442717     
   1325561131.9429164        397668339.58287489        671356455.58766150     
   1338758249.3726487        375675649.15918756        793572655.42895341     
   1349765385.4552903        346383020.91186380        910588173.37429070     
   1358582540.1908407        309790454.84090364        1022403009.4236735     
   1365209713.5793004        265897950.94630706        1129017163.5771010     
   889655774.26968551        266896732.28090563        664103137.01582038     
   893381717.21238244        250713298.06006759        782995888.47247803     
   895647672.59051299        229663238.62400866        898463205.40363622     
   896453640.40407753        203746553.97272903        1010505087.8092953     
   895799620.65307581        172963244.10622799        1119121535.6894548     
   447802063.63056296        134340619.08916888        659751145.87172186     
   447128967.43038267        125488081.67442770        776172108.35669053     
   445725877.44816107        114202231.65288098        890942883.68661523     
   443592793.68389785        100483069.02452910        1004063471.8614961     
   440729716.13759279        84330593.789371610        1115533872.8813334     
   2.5548702347860969E-002   7.6646107043582901E-003   658300482.15536618     
   2.6649927685885453E-002   2.2677887498282080E-003   773101315.08159113     
   2.8234188682085212E-002  -1.5190444483783212E-003   888027208.22322774     
   3.0301563970903531E-002  -3.6953448828855161E-003   1003078161.5802760     
   3.2851823367879174E-002  -4.2623785682301754E-003   1118254175.1527359     
   1848959994.9162672        363134714.30960858        1145220756.5442717     
   1833783073.3034811        297779931.39463586        1193759048.4371850     
   1821771732.1719134        242977083.41705680        1244150684.1713958     
   1812925971.5215647        198726170.37687403        1296395663.7469022     
   1807245791.3524342        165027192.27408719        1350493987.1637058     
   1365209713.5793004        265897950.94630706        1129017163.5771010     
   1358711147.8940182        218347101.41736418        1185236236.8439167     
   1354586767.5697451        178710203.09178531        1242169024.6630461     
   1352836572.6064808        146987255.96956974        1299815527.0344908     
   1353460563.0042262        123178260.05071831        1358175743.9582508     
   895799620.65307581        172963244.10622799        1119121535.6894548     
   894723327.21249175        142239502.85847348        1182098096.0232611     
   895229824.01270771        116791729.08005139        1244648741.6203997     
   897319111.05372322        96619922.770961940        1306773472.4808712     
   900991188.33553863        81724083.931205511        1368472288.6046765     
   440729716.13759279        84330593.789371610        1115533872.8813334     
   441819611.25890207        69457135.717964455        1184344625.9752190     
   443700901.50080121        57221661.381857619        1251589835.0434558     
   446373586.86329168        47624170.781054050        1317269500.0860429     
   449837667.34637165        40664663.915549681        1381383621.1029820     
   3.2851823367879174E-002  -4.2623785682301754E-003   1118254175.1527359     
   3.3248764318683809E-002  -4.1636966310662701E-003   1191975826.6997900     
   3.4026466111300536E-002  -2.7959419921227691E-003   1262992304.9322138     
   3.5184896219664183E-002  -1.5911465139967045E-004   1331303609.8500061     
   3.6724675498447351E-002   3.7490500630694631E-003   1396909741.4531679     
   1807245791.3524342        165027192.27408719        1350493987.1637058     
   1779918815.1044979        131000773.93348473        1366762438.7770793     
   1753492147.5528131        99975384.580384016        1383297223.4859140     
   1727965788.6973784        71951024.214786589        1400098341.2902119     
   1703339738.5381932        46927692.836685717        1417165792.1899717     
   1353460563.0042262        123178260.05071831        1358175743.9582508     
   1330008767.6549380        96771477.347884655        1376168741.8560042     
   1307232203.8282406        72615466.387018859        1395117937.5869999     
   1285130871.5241337        50710227.168122470        1415023331.1512392     
   1263704770.7426183        31055759.691197455        1435884922.5487208     
   900991188.33553863        81724083.931205511        1368472288.6046765     
   883385615.99284256        63528249.498520702        1387927242.7508733     
   866230197.99907839        46832929.562276036        1409028259.4680946     
   849524934.35424554        31638124.122466952        1431775338.7563391     
   833269825.05834365        17943833.179097772        1456168480.6156082     
   449837667.34637165        40664663.915549681        1381383621.1029820     
   440049360.11821377        31271090.385399684        1402037941.4616866     
   430486130.06532764        22627774.106154904        1425028189.1291966     
   421147977.18771422        14734715.077819780        1450354364.1055110     
   412034901.48537230        7591913.3003889918        1478016466.3906310     
   3.6724675498447351E-002   3.7490500630694631E-003   1396909741.4531679     
   3.1050288256313310E-002   8.5163503996152322E-003   1418500837.9884450     
   2.6988930778882005E-002   1.8660937035546239E-002   1443117726.5703070     
   2.4538498522507848E-002   3.4175361144508219E-002   1470760407.1987569     
   2.3702560061198565E-002   5.5070737347629392E-002   1501428879.8737907     
   1703339738.5381932        46927692.836685717        1417165792.1899717     
   1667052136.7979496        23709784.636074960        1399383130.1492038     
   1633361295.8022041        9147745.5837932229        1370766435.4960809     
   1602267215.5509582        3241575.6798421144        1331315708.2306030     
   1573769896.0442114        5991274.9242201447        1281030948.3527710     
   1263704770.7426183        31055759.691197455        1435884922.5487208     
   1207231617.1473064        4865092.8593727350        1427386497.6067374     
   1152706034.1102209       -14833672.111701310        1414880778.9188731     
   1100128021.6313634       -28040535.222014189        1398367766.4851303     
   1049497579.7107289       -34755496.471583962        1377847460.3055098     
   833269825.05834365        17943833.179097772        1456168480.6156082     
   776116087.79789805       -5368101.8269588351        1456196904.2217550     
   720260730.90940404       -24352102.259841114        1459044772.9484975     
   665703754.39286304       -39008168.119546324        1464712086.7958403     
   612445158.24827480       -49336299.406077027        1473198845.7637777     
   412034901.48537230        7591913.3003889918        1478016466.3906310     
   373705548.74972284       -6989799.4229188561        1485814349.9942575     
   336025386.19975084       -19407544.860635847        1503258417.5849571     
   298994413.83545911       -29661323.012749955        1530348669.1627283     
   262612631.65684912       -37751133.879260346        1567085104.7275770     
   2.3702560061198565E-002   5.5070737347629392E-002   1501428879.8737907     
   2.7805596653002126E-003   7.1488899964613106E-002   1516238834.9242446     
  -1.8737506967260040E-002   8.5920522070752334E-002   1547521712.8282468     
  -4.0846641545323942E-002   9.8382091164226998E-002   1595277513.5857983     
  -6.3550401205162033E-002  0.10886088276239737        1659506237.1969004     
   1573769896.0442114        5991274.9242201447        1281030948.3527710     
   1541067043.3060617        9074399.1216911674        1221899015.0395732     
   1506819134.1679227        7007335.3191993833        1170709897.0265119     
   1471026168.6298013       -209916.48323893547        1127463594.3135822     
   1433688146.6916935       -12577356.285625219        1092160106.9007893     
   1049497579.7107289       -34755496.471583962        1377847460.3055098     
   1035061955.7726839       -29415698.635536909        1346487901.6327093     
   1019467539.5341027       -27938541.801276684        1320716471.2817192     
   1002714330.9949867       -30324025.968799591        1300533169.2525415     
   984802330.15533793       -36572151.138098359        1285937995.5451789     
   612445158.24827480       -49336299.406077027        1473198845.7637777     
   609549086.02941430       -43758131.055732459        1470062303.1807320     
   605880485.60947037       -40755056.708999932        1470159201.9411757     
   601439356.98844314       -40327076.365878999        1473489542.0451107     
   596225700.16633403       -42474190.026362658        1480053323.4925392     
   262612631.65684912       -37751133.879260346        1567085104.7275770     
   264528434.07625273       -33952898.138898104        1592622219.6836445     
   266057972.39402795       -31442209.403962806        1619038089.0048826     
   267201246.61016855       -30219067.674477667        1646332712.6912887     
   267958256.72467971       -30283472.950422093        1674506090.7428677     
  -6.3550401205162033E-002  0.10886088276239737        1659506237.1969004     
  -8.6798745846505709E-002  0.11497590883032485        1714167651.1414456     
 -0.11222581929693673       0.11382885247932298        1767353132.4728394     
 -0.13983586495695793       0.10540418126226836        1819062681.1910784     
 -0.16962310676928113        8.9723924261016358E-002   1869296297.2961679     
   1433688146.6916935       -12577356.285625219        1092160106.9007893     
   1371689671.2559991       -31618162.002064407        1033731097.9017423     
   1311714122.6391258       -43915878.322432458        981288442.83412707     
   1253761500.8410683       -49470505.246750832        934832141.69794619     
   1197831805.8618326       -48282042.774994612        894362194.49320257     
   984802330.15533793       -36572151.138098359        1285937995.5451789     
   939533936.59076500       -50483616.525069058        1250538718.9459257     
   895782738.13977861       -59337764.866750658        1220838688.2400665     
   853548734.80238891       -63134596.163109839        1196837903.4276054     
   812831926.57859039       -61874110.414168537        1178536364.5085421     
   596225700.16633403       -42474190.026362658        1480053323.4925392     
   566867079.79277349       -51502407.687907636        1467093758.9703109     
   538519922.82757735       -57159080.654905021        1459546332.3034446     
   511184229.27074188       -59444208.927365869        1457411043.4919374     
   484859999.12227160       -58357792.505277187        1460687892.5357924     
   267958256.72467971       -30283472.950422093        1674506090.7428677     
   253689100.86202762       -34674535.490569189        1683396217.9749024     
   239925676.70251143       -37379825.686928794        1697411375.0242596     
   226667984.24613070       -38399343.539504424        1716551561.8909421     
   213916023.49288255       -37733089.048304409        1740816778.5749457     
 -0.16962310676928113        8.9723924261016358E-002   1869296297.2961679     
 -0.20147304154675466        6.6942856935414796E-002   1899446095.9596982     
 -0.23541201039815990        3.7197648807317199E-002   1934433816.4025142     
 -0.27144917495099746        4.5828153543099603E-004   1974259458.6246164     
 -0.30957608271747333       -4.3245855614497501E-002   2018923022.6260073     
   1197831805.8618326       -48282042.774994612        894362194.49320257     
   1142484390.7584174       -46185146.505592406        842047501.48941493     
   1085597839.9361138       -49218702.632490516        775596112.44600570     
   1027172153.3949280       -57382711.155658245        695008027.36298168     
   967207331.13485682       -70677172.075112879        600283246.24033082     
   812831926.57859039       -61874110.414168537        1178536364.5085421     
   729494828.95577669       -72849399.112823337        1149490016.1634989     
   645003379.54165459       -87672527.115843624        1116066496.9127064     
   559357578.33621967       -106343494.42323667        1078265806.7561607     
   472557425.33946860       -128862301.03502259        1036087945.6938685     
   484859999.12227160       -58357792.505277187        1460687892.5357924     
   401417576.50541186       -74039958.914359033        1455358803.4316626     
   317205586.02480888       -92287351.535916939        1455412068.5556481     
   232224027.68046683       -113099970.36993867        1460847687.9077556     
   146472901.47238219       -136477815.41643673        1471665661.4879839     
   213916023.49288255       -37733089.048304409        1740816778.5749457     
   158252633.40731499       -49756825.910222247        1759653863.2938957     
   102204459.38557707       -63063175.892710648        1793632827.3748302     
   45771501.427670434       -77652138.995758623        1842753670.8177595     
  -11046240.466403261       -93523715.219366387        1907016393.6226757     
 -0.30957608271747333       -4.3245855614497501E-002   2018923022.6260073     
 -0.33850879974553039      -0.10040022842409820        2062375195.7502019     
 -0.37603944683381191      -0.18621644976928503        2130728773.3702571     
 -0.42216383777050115      -0.30067744310841210        2223983755.4861732     
 -0.47688629602026134      -0.44379866082444230        2342140142.0979481     
   967207331.13485682       -70677172.075112879        600283246.24033082     
   875624023.42297781       -111950337.29988682        477807502.49987477     
   773386559.99936628       -188737354.89709884        320967260.13930452     
   660494940.86402905       -301038224.86673582        129762519.15862745     
   536949166.01695871       -448852947.20880824       -95806720.442147806     
   472557425.33946860       -128862301.03502259        1036087945.6938685     
   313912772.06171322       -186804326.74468750        972228971.79459560     
   147277501.99488479       -271381741.75126427        894995506.19204164     
  -27348384.861021265       -382594546.05476159        804387548.88620341     
  -209964888.50599939       -520442739.65517408        700405099.87708664     
   146472901.47238219       -136477815.41643673        1471665661.4879839     
  -19261649.037460722       -193097267.11086601        1469530919.5063274     
  -190323277.41372150       -267473645.02668756        1475011692.7382131     
  -366711983.65639895       -359606949.16390216        1488107981.1836429     
  -548427767.76549304       -469497179.52250051        1508819784.8426247     
  -11046240.466403261       -93523715.219366387        1907016393.6226757     
  -123899239.87454168       -130829158.39842077        1969713345.6350679     
  -239415778.22643977       -177013064.72334090        2061015819.7778304     
  -357595855.52209699       -232075434.19412720        2180923816.0509720     
  -478439471.76151711       -296016266.81078613        2329437334.4544802     
 -0.47688629602026134      -0.44379866082444230        2342140142.0979481     
 -0.44952590185019714      -0.60733316269873783        2472776250.1808209     
 -0.44327257066399595      -0.84122523507530023        2653007887.3108935     
 -0.45812165874035282       -1.1454576641596375        2882835053.4881620     
 -0.49407218243386819       -1.5200309875253979        3162257748.7126327     
   2.5548702347860969E-002   7.6646107043582901E-003   658300482.15536618     
   2.6649927685885453E-002   2.2677887498282080E-003   773101315.08159113     
   2.8234188682085212E-002  -1.5190444483783212E-003   888027208.22322774     
   3.0301563970903531E-002  -3.6953448828855161E-003   1003078161.5802760     
   3.2851823367879174E-002  -4.2623785682301754E-003   1118254175.1527359     
  -447802063.58028501       -134340619.07408550        659751145.86683381     
  -447128967.37776256       -125488081.66984795        776172108.35230994     
  -445725877.39234585       -114202231.65596324        890942883.68278289     
  -443592793.62403482       -100483069.03243119        1004063471.8582528     
  -440729716.07282978       -84330593.799252093        1115533872.8787193     
  -889655774.22186613       -266896732.26655984        664103137.00620556     
  -893381717.16196430       -250713298.05590051        782995888.46374583     
  -895647672.53675735       -229663238.62755710        898463205.39586794     
  -896453640.34624481       -203746553.98152921        1010505087.8025725     
  -895799620.59042704       -172963244.11781728        1119121535.6838596     
  -1325561131.8991950       -397668339.56975847        671356455.57348168     
  -1338758249.3259556       -375675649.15588993        793572655.41589892     
  -1349765385.4049997       -346383020.91630012        910588173.36248350     
  -1358582540.1363280       -309790454.85098934        1022403009.4132357     
  -1365209713.5199394       -265897950.95995662        1129017163.5681553     
  -1755518136.6122708       -526655440.98368126        681511101.56866217     
  -1783258563.8697362       -500375134.96981615        807902409.20876932     
  -1808079015.9970739       -464361578.52219260        927317787.58262932     
  -1829979492.9942844       -418614771.64081085        1039757236.6902422     
  -1848959994.8613675       -363134714.32567072        1145220756.5316076     
   3.2851823367879174E-002  -4.2623785682301754E-003   1118254175.1527359     
   3.3248764318683809E-002  -4.1636966310662701E-003   1191975826.6997900     
   3.4026466111300536E-002  -2.7959419921227691E-003   1262992304.9322138     
   3.5184896219664183E-002  -1.5911465139967045E-004   1331303609.8500061     
   3.6724675498447351E-002   3.7490500630694631E-003   1396909741.4531679     
  -440729716.07282978       -84330593.799252093        1115533872.8787193     
  -441819611.19341630       -69457135.728615180        1184344625.9731722     
  -443700901.43382275       -57221661.390712216        1251589835.0421453     
  -446373586.79404896       -47624170.785541460        1317269500.0856373     
  -449837667.27409554       -40664663.913104802        1381383621.1036494     
  -895799620.59042704       -172963244.11781728        1119121535.6838596     
  -894723327.14870930       -142239502.87165377        1182098096.0188098     
  -895229823.94701266       -116791729.09222856        1244648741.6174304     
  -897319110.98533750       -96619922.779541045        1306773472.4797213     
  -900991188.26368320       -81724083.933589280        1368472288.6056814     
  -1365209713.5199394       -265897950.95995662        1129017163.5681553     
  -1358711147.8326306       -218347101.43328187        1185236236.8367021     
  -1354586767.5055442       -178710203.10734844        1242169024.6580694     
  -1352836572.5386798       -146987255.98215497        1299815527.0322568     
  -1353460562.9320381       -123178260.05770367        1358175743.9592650     
  -1848959994.8613675       -363134714.32567072        1145220756.5316076     
  -1833783073.2451801       -297779931.41349745        1193759048.4268494     
  -1821771732.1094167       -242977083.43607044        1244150684.1640618     
  -1812925971.4540772       -198726170.39338893        1296395663.7432454     
  -1807245791.2791600       -165027192.28544837        1350493987.1643994     
   3.6724675498447351E-002   3.7490500630694631E-003   1396909741.4531679     
   3.1050288256313310E-002   8.5163503996152322E-003   1418500837.9884450     
   2.6988930778882005E-002   1.8660937035546239E-002   1443117726.5703070     
   2.4538498522507848E-002   3.4175361144508219E-002   1470760407.1987569     
   2.3702560061198565E-002   5.5070737347629392E-002   1501428879.8737907     
  -449837667.27409554       -40664663.913104802        1381383621.1036494     
  -440049360.05684161       -31271090.375248492        1402037941.4663372     
  -430486130.01236236       -22627774.079975203        1425028189.1385958     
  -421147977.14065951       -14734715.027289361        1450354364.1204228     
  -412034901.44173205       -7591913.2171880156        1478016466.4118195     
  -900991188.26368320       -81724083.933589280        1368472288.6056814     
  -883385615.92926252       -63528249.494372815        1387927242.7589955     
  -866230197.94200444       -46832929.545699507        1409028259.4848619     
  -849524934.30191100       -31638124.087574363        1431775338.7832820     
  -833269825.00898111       -17943833.119993538        1456168480.6542535     
  -1353460562.9320381       -123178260.05770367        1358175743.9592650     
  -1330008767.5862117       -96771477.348854780        1376168741.8664181     
  -1307232203.7619367       -72615466.378510416        1395117937.6091073     
  -1285130871.4592142       -50710227.146673560        1415023331.1873336     
  -1263704770.6780431       -31055759.653343439        1435884922.6010945     
  -1807245791.2791600       -165027192.28544837        1350493987.1643994     
  -1779918815.0276902       -131000773.93869644        1366762438.7886055     
  -1753492147.4721591       -99975384.578408003        1383297223.5113313     
  -1727965788.6125691       -71951024.204587340        1400098341.3325765     
  -1703339738.4489188       -46927692.817235827        1417165792.2523417     
   2.3702560061198565E-002   5.5070737347629392E-002   1501428879.8737907     
   2.7805596653002126E-003   7.1488899964613106E-002   1516238834.9242446     
  -1.8737506967260040E-002   8.5920522070752334E-002   1547521712.8282468     
  -4.0846641545323942E-002   9.8382091164226998E-002   1595277513.5857983     
  -6.3550401205162033E-002  0.10886088276239737        1659506237.1969004     
  -412034901.44173205       -7591913.2171880156        1478016466.4118195     
  -373705548.74704391        6989799.5311159939        1485814350.0192409     
  -336025386.23816776        19407544.993380055        1503258417.6162245     
  -298994413.91510665        29661323.169594601        1530348669.2027678     
  -262612631.77785552        37751134.059774563        1567085104.7788744     
  -833269825.00898111       -17943833.119993538        1456168480.6542535     
  -776116087.78150332        5368101.9053553641        1456196904.2692196     
  -720260730.92505813        24352102.360594928        1459044773.0097611     
  -665703754.43964458        39008168.245727867        1464712086.8758755     
  -612445158.32526362        49336299.560754865        1473198845.8675647     
  -1263704770.6780431       -31055759.653343439        1435884922.6010945     
  -1207231617.1005979       -4865092.8057963848        1427386497.6741829     
  -1152706034.0794060        14833672.187572479        1414880779.0088592     
  -1100128021.6144631        28040535.326777458        1398367766.6051204     
  -1049497579.7057738        34755496.611804128        1377847460.4629676     
  -1703339738.4489188       -46927692.817235827        1417165792.2523417     
  -1667052136.7043281       -23709784.602338850        1399383130.2341297     
  -1633361295.7012091       -9147745.5256789327        1370766435.6135180     
  -1602267215.4395628       -3241575.5872621536        1331315708.3905041     
  -1573769895.9193847       -5991274.7870752215        1281030948.5650883     
  -6.3550401205162033E-002  0.10886088276239737        1659506237.1969004     
  -8.6798745846505709E-002  0.11497590883032485        1714167651.1414456     
 -0.11222581929693673       0.11382885247932298        1767353132.4728394     
 -0.13983586495695793       0.10540418126226836        1819062681.1910784     
 -0.16962310676928113        8.9723924261016358E-002   1869296297.2961679     
  -262612631.77785552        37751134.059774563        1567085104.7788744     
  -264528434.24228114        33952898.335766435        1592622219.7434535     
  -266057972.60904062        31442209.603977934        1619038089.0733862     
  -267201246.87813264        30219067.864414006        1646332712.7686701     
  -267958257.04955518        30283473.117081493        1674506090.8293076     
  -612445158.32526362        49336299.560754865        1473198845.8675647     
  -609549086.14942527        43758131.231050968        1470062303.3020003     
  -605880485.77607179        40755056.893063962        1470159202.0802941     
  -601439357.20520401        40327076.546791464        1473489542.2024465     
  -596225700.43681860        42474190.192244679        1480053323.6684544     
  -1049497579.7057738        34755496.611804128        1377847460.4629676     
  -1035061955.8082278        29415698.800843358        1346487901.8170836     
  -1019467539.6133205        27938541.981087148        1320716471.4935610     
  -1002714331.1210513        30324026.152536213        1300533169.4924011     
  -984802330.33141637        36572151.315206707        1285937995.8136022     
  -1573769895.9193847       -5991274.7870752215        1281030948.5650883     
  -1541067043.2186897       -9074398.9548636675        1221899015.2887042     
  -1506819134.1207876       -7007335.1319598556        1170709897.3131869     
  -1471026168.6256735        209916.68164891005        1127463594.6385379     
  -1433688146.7333474        12577356.485965490        1092160107.2647545     
 -0.16962310676928113        8.9723924261016358E-002   1869296297.2961679     
 -0.20147304154675466        6.6942856935414796E-002   1899446095.9596982     
 -0.23541201039815990        3.7197648807317199E-002   1934433816.4025142     
 -0.27144917495099746        4.5828153543099603E-004   1974259458.6246164     
 -0.30957608271747333       -4.3245855614497501E-002   2018923022.6260073     
  -267958257.04955518        30283473.117081493        1674506090.8293076     
  -253689101.24715513        34674535.617723450        1683396218.0699923     
  -239925677.15396363        37379825.754336700        1697411375.1292534     
  -226667984.76998255        38399343.526915520        1716551562.0070899     
  -213916024.09521365        37733088.935453311        1740816778.7035069     
  -596225700.43681860        42474190.192244679        1480053323.6684544     
  -566867080.11648202        51502407.821410596        1467093759.1613195     
  -538519923.21247077        57159080.729492038        1459546332.5120533     
  -511184229.72478735        59444208.916481227        1457411043.7206562     
  -484859999.65343171        58357792.382378340        1460687892.7871258     
  -984802330.33141637        36572151.315206707        1285937995.8136022     
  -939533936.80945492        50483616.678002357        1250538719.2336810     
  -895782738.41093540        59337764.962658644        1220838688.5509169     
  -853548735.13585913        63134596.169168532        1196837903.7653120     
  -812831926.98422873        61874110.297527969        1178536364.8768702     
  -1433688146.7333474        12577356.485965490        1092160107.2647545     
  -1371689671.3260696        31618162.187508106        1033731098.2870733     
  -1311714122.7493525        43915878.453848720        981288443.24584258     
  -1253761501.0031977        49470505.284981489        934832142.14106131     
  -1197831806.0876064        48282042.680903494        894362194.97273302     
 -0.30957608271747333       -4.3245855614497501E-002   2018923022.6260073     
 -0.33850879974553039      -0.10040022842409820        2062375195.7502019     
 -0.37603944683381191      -0.18621644976928503        2130728773.3702571     
 -0.42216383777050115      -0.30067744310841210        2223983755.4861732     
 -0.47688629602026134      -0.44379866082444230        2342140142.0979481     
  -213916024.09521365        37733088.935453311        1740816778.7035069     
  -158252634.06564260        49756825.671437420        1759653863.4245725     
  -102204460.11522590        63063175.476904765        1793632827.5117474     
  -45771502.243949972        77652138.351904631        1842753670.9650319     
   11046239.548172820        93523714.296392694        1907016393.7844317     
  -484859999.65343171        58357792.382378340        1460687892.7871258     
  -401417577.07893145        74039958.657415241        1455358803.6894176     
  -317205586.65413326        92287351.100113049        1455412068.8280723     
  -232224028.37903592        113099969.71047346        1460847688.2030878     
  -146472902.25363606        136477814.48851034        1471665661.8144603     
  -812831926.98422873        61874110.297527969        1178536364.8768702     
  -729494829.37836957        72849398.857553244        1149490016.5447457     
  -645003379.99276185        87672526.683403313        1116066497.3192320     
  -559357578.82740915        106343493.77507436        1078265807.2003257     
  -472557425.88230717        128862300.13257265        1036087946.1880355     
  -1197831806.0876064        48282042.680903494        894362194.97273302     
  -1142484390.9639578        46185146.271847904        842047501.99054742     
  -1085597840.1311157        49218702.226770222        775596112.98522437     
  -1027172153.5890777        57382710.545677006        695008027.95676279     
  -967207331.33784044        70677171.228582919        600283246.90515935     
 -0.47688629602026134      -0.44379866082444230        2342140142.0979481     
 -0.44952590185019714      -0.60733316269873783        2472776250.1808209     
 -0.44327257066399595      -0.84122523507530023        2653007887.3108935     
 -0.45812165874035282       -1.1454576641596375        2882835053.4881620     
 -0.49407218243386819       -1.5200309875253979        3162257748.7126327     
   11046239.548172820        93523714.296392694        1907016393.7844317     
   123899239.01056683        130829157.15722132        1969713345.7823842     
   239415777.37537226        177013063.02608845        2061015819.9083045     
   357595854.64258766        232075431.90298879        2180923816.1622009     
   478439470.81220359        296016263.78788894        2329437334.5440798     
  -146472902.25363606        136477814.48851034        1471665661.8144603     
   19261648.303158380        193097265.87154543        1469530919.8049169     
   190323276.68586880        267473643.34096760        1475011693.0041223     
   366711982.89449549        359606946.89677811        1488107981.4120741     
   548427766.92903697        469497176.53896952        1508819785.0287759     
  -472557425.88230717        128862300.13257265        1036087946.1880355     
  -313912772.57175636        186804325.53562099        972228972.24842680     
  -147277502.51178360        271381740.10341042        894995506.59833908     
   27348384.297609553        382594543.83593434        804387549.23777401     
   209964887.85643089        520442736.73321831        700405100.16672671     
  -967207331.33784044        70677171.228582919        600283246.90515935     
  -875624023.61418867        111950336.14941466        477807503.11290878     
  -773386560.21759617        188737353.31338024        320967260.69095492     
  -660494941.14807081        301038222.72045934        129762519.63929713     
  -536949166.40561283        448852944.37064242       -95806720.042062715     
  -1755518136.6122708       -526655440.98368126        681511101.56866217     
  -1783258563.8697362       -500375134.96981615        807902409.20876932     
  -1808079015.9970739       -464361578.52219260        927317787.58262932     
  -1829979492.9942844       -418614771.64081085        1039757236.6902422     
  -1848959994.8613675       -363134714.32567072        1145220756.5316076     
  -2201532634.7091641       -660459790.41274929        697641595.25448751     
  -2237640601.6018519       -614482576.44399977        815093147.50071251     
  -2271701419.8479404       -561681533.65325332        928538619.76573265     
  -2303715089.4474301       -502056662.04051006        1037978012.0495480     
  -2333681610.4003205       -435607961.60576934        1143411324.3521585     
  -2685610472.5379443       -805683141.76138330        722822456.89369845     
  -2721600695.3943043       -737463434.73628449        830315956.18192494     
  -2756416596.0875945       -665329320.50095022        936773224.77398896     
  -2790058174.6178145       -589280799.05538034        1042194262.6698902     
  -2822525430.9849629       -509317870.39957476        1146579069.8696294     
  -3207751650.0986114       -962325495.02958345        757053686.48629498     
  -3235138845.2470951       -869317709.84667051        853570835.25240636     
  -3262224544.7160373       -775304939.06528354        952021602.60739756     
  -3289008748.5054374       -680287182.68542218        1052405988.5512683     
  -3315491456.6152940       -584264440.70708680        1154723993.0840192     
  -3767956167.3911657       -1130386850.2173498        800335284.03227711     
  -3778255051.1602235       -1010045401.7751578        884857784.71215701     
  -3789125265.7332678       -891608389.34625340        974283753.26595891     
  -3800566811.1102982       -775075812.93063617        1068613189.6936830     
  -3812579687.2913146       -660447672.52830553        1167846093.9953289     
  -1848959994.8613675       -363134714.32567072        1145220756.5316076     
  -1833783073.2451801       -297779931.41349745        1193759048.4268494     
  -1821771732.1094167       -242977083.43607044        1244150684.1640618     
  -1812925971.4540772       -198726170.39338893        1296395663.7432454     
  -1807245791.2791600       -165027192.28544837        1350493987.1643994     
  -2333681610.4003205       -435607961.60576934        1143411324.3521585     
  -2311178221.0643911       -355487361.81662840        1185931068.4913957     
  -2292086204.8139033       -286738005.64562631        1228825716.9860866     
  -2276405561.6488585       -229359893.09276527        1272095269.8362315     
  -2264136291.5692544       -183353024.15804219        1315739727.0418296     
  -2822525430.9849629       -509317870.39957476        1146579069.8696294     
  -2796919686.7479105       -415698687.57905024        1182793508.2136734     
  -2774971108.2013192       -334270057.06006074        1217904411.4266543     
  -2756679695.3451881       -265031978.84260690        1251911779.5085716     
  -2742045448.1795168       -207984452.92668581        1284815612.4594264     
  -3315491456.6152940       -584264440.70708680        1154723993.0840192     
  -3291007470.2957397       -478413908.70076585        1184346367.5936823     
  -3270426442.2716656       -385573237.67937446        1211386767.4857652     
  -3253748372.5430694       -305742427.64291251        1235845192.7602668     
  -3240973261.1099524       -238921478.59138131        1257721643.4171891     
  -3812579687.2913146       -660447672.52830553        1167846093.9953289     
  -3793441571.7078791       -543633025.18177402        1190589646.6314232     
  -3778452207.0249405       -440647547.50356662        1209272785.1634190     
  -3767611593.2424998       -351491239.49368608        1223895509.5913174     
  -3760919730.3605576       -276164101.15212786        1234457819.9151185     
  -1807245791.2791600       -165027192.28544837        1350493987.1643994     
  -1779918815.0276902       -131000773.93869644        1366762438.7886055     
  -1753492147.4721591       -99975384.578408003        1383297223.5113313     
  -1727965788.6125691       -71951024.204587340        1400098341.3325765     
  -1703339738.4489188       -46927692.817235827        1417165792.2523417     
  -2264136291.5692544       -183353024.15804219        1315739727.0418296     
  -2229015026.8165488       -139324083.91934240        1324296259.1220372     
  -2196306692.5594683       -103338245.33272529        1336273790.3603790     
  -2166011288.7980142       -75395508.398193955        1351672320.7568564     
  -2138128815.5321848       -55495873.115744948        1370491850.3114674     
  -2742045448.1795168       -207984452.92668581        1284815612.4594264     
  -2690116563.3266768       -151248991.31636798        1283895499.5626690     
  -2642113230.7691479       -107598704.02375174        1289551051.8836606     
  -2598035450.5069280       -77033591.048837781        1301782269.4224026     
  -2557883222.5400200       -59553652.391625643        1320589152.1788945     
  -3240973261.1099524       -238921478.59138131        1257721643.4171891     
  -3163223424.5580764       -166775496.12977672        1245560160.1105011     
  -3090911762.1011987       -112756760.65149224        1243129008.0811768     
  -3024038273.7393146       -76865272.156524420        1250428187.3292177     
  -2962602959.4724269       -59101030.644877315        1267457697.8546247     
  -3760919730.3605576       -276164101.15212786        1234457819.9151185     
  -3648335610.5107470       -185903598.35956526        1209290240.7655330     
  -3542702286.5556178       -118812415.21593952        1197007658.9529274     
  -3444019758.4951696       -74890551.721252322        1197610074.4773011     
  -3352288026.3294044       -54138007.875501156        1211097487.3386548     
  -1703339738.4489188       -46927692.817235827        1417165792.2523417     
  -1667052136.7043281       -23709784.602338850        1399383130.2341297     
  -1633361295.7012091       -9147745.5256789327        1370766435.6135180     
  -1602267215.4395628       -3241575.5872621536        1331315708.3905041     
  -1573769895.9193847       -5991274.7870752215        1281030948.5650883     
  -2138128815.5321848       -55495873.115744948        1370491850.3114674     
  -2123573661.7939682       -46256783.013715029        1359389985.7678857     
  -2110998335.3549383       -43617117.242309570        1345630767.2324648     
  -2100402836.2150965       -47576875.801528215        1329214194.7052031     
  -2091787164.3744435       -58136058.691378951        1310140268.1861007     
  -2557883222.5400200       -59553652.391625643        1320589152.1788945     
  -2541698577.9208589       -57284798.736263752        1316887840.7926078     
  -2526876827.1586013       -59558924.603915453        1318705854.0250413     
  -2513417970.2532492       -66376029.994585872        1326043191.8761954     
  -2501322007.2048011       -77736114.908268452        1338899854.3460727     
  -2962602959.4724269       -59101030.644877315        1267457697.8546247     
  -2921426885.0850029       -56793831.769990563        1271876695.3082943     
  -2880996771.1121974       -56973167.610504627        1289991695.9912469     
  -2841312617.5540161       -59639038.166425467        1321802699.9034824     
  -2802374424.4104548       -64791443.437748671        1367309707.0450001     
  -3352288026.3294044       -54138007.875501156        1211097487.3386548     
  -3262758583.2863970       -44783882.114891768        1224356549.3149462     
  -3173358167.2157288       -35859846.262071013        1259488293.1310825     
  -3084086778.1174002       -27365900.317052603        1316492718.7870624     
  -2994944415.9914060       -19302044.279818177        1395369826.2828863     
  -1573769895.9193847       -5991274.7870752215        1281030948.5650883     
  -1541067043.2186897       -9074398.9548636675        1221899015.2887042     
  -1506819134.1207876       -7007335.1319598556        1170709897.3131869     
  -1471026168.6256735        209916.68164891005        1127463594.6385379     
  -1433688146.7333474        12577356.485965490        1092160107.2647545     
  -2091787164.3744435       -58136058.691378951        1310140268.1861007     
  -2040571100.7513347       -58155200.632018089        1288995912.1447818     
  -1988852183.4019194       -56498163.484970927        1273442599.4597270     
  -1936630412.3261950       -53164947.250224590        1263480330.1309352     
  -1883905787.5241597       -48155551.927778244        1259109104.1584084     
  -2501322007.2048011       -77736114.908268452        1338899854.3460727     
  -2438312081.0724306       -76707079.145713568        1354527172.4237671     
  -2375841503.8846512       -77475873.198465466        1373393761.9131207     
  -2313910275.6414638       -80042497.066520572        1395499622.8141358     
  -2252518396.3428693       -84406950.749887824        1420844755.1268141     
  -2802374424.4104548       -64791443.437748671        1367309707.0450001     
  -2734289984.1819692       -64730034.495932937        1418492796.1256557     
  -2667787095.5689774       -69940464.272434950        1470563384.6733699     
  -2602865758.5714817       -80422732.767248869        1523521472.6881413     
  -2539525973.1894760       -96176839.980365038        1577367060.1699746     
  -2994944415.9914060       -19302044.279818177        1395369826.2828863     
  -2928504810.0799594       -22224066.682697892        1480892783.2504501     
  -2864688958.4549055       -33891936.706889868        1564951467.7404714     
  -2803496861.1162457       -54305654.352392912        1647545879.7529495     
  -2744928518.0639806       -83465219.619214773        1728676019.2878833     
  -1433688146.7333474        12577356.485965490        1092160107.2647545     
  -1371689671.3260696        31618162.187508106        1033731098.2870733     
  -1311714122.7493525        43915878.453848720        981288443.24584258     
  -1253761501.0031977        49470505.284981489        934832142.14106131     
  -1197831806.0876064        48282042.680903494        894362194.97273302     
  -1883905787.5241597       -48155551.927778244        1259109104.1584084     
  -1808661896.7287977       -37566668.085185170        1227399323.0075891     
  -1734696436.3264596       -31239218.885994673        1201842412.4939883     
  -1662009406.3171473       -29173204.330225110        1182438372.6176038     
  -1590600806.7008505       -31368624.417847514        1169187203.3784370     
  -2252518396.3428693       -84406950.749887824        1420844755.1268141     
  -2163553328.1572351       -82127260.165589452        1416722780.9799869     
  -2075122193.9270854       -81627349.432903290        1418920194.1711416     
  -1987224993.6524191       -82907218.551825047        1427436994.7002828     
  -1899861727.3332334       -85966867.522358596        1442273182.5674067     
  -2539525973.1894760       -96176839.980365038        1577367060.1699746     
  -2436363965.6113777       -102063614.05370295        1601701472.2042663     
  -2332991395.5512209       -107248513.18685007        1632521788.2773085     
  -2229408263.0090141       -111731537.37982357        1669828008.3891022     
  -2125614567.9847500       -115512686.63261044        1713620132.5396492     
  -2744928518.0639806       -83465219.619214773        1728676019.2878833     
  -2627093809.0912285       -97375729.749537110        1782335396.6804237     
  -2508304041.1988797       -108102710.14787459        1842647194.8124850     
  -2388559214.3869328       -115646160.81421959        1909611413.6840599     
  -2267859328.6553931       -120006081.74858367        1983228053.2951572     
  -1197831806.0876064        48282042.680903494        894362194.97273302     
  -1142484390.9639578        46185146.271847904        842047501.99054742     
  -1085597840.1311157        49218702.226770222        775596112.98522437     
  -1027172153.5890777        57382710.545677006        695008027.95676279     
  -967207331.33784044        70677171.228582919        600283246.90515935     
  -1590600806.7008505       -31368624.417847514        1169187203.3784370     
  -1562834956.7967958       -48171700.476064086        1152386559.8767753     
  -1534789466.2075729       -64042640.917045295        1131899757.5329862     
  -1506464334.9331748       -78981445.740778744        1107726796.3470657     
  -1477859562.9736083       -92988114.947285533        1079867676.3190198     
  -1899861727.3332334       -85966867.522358596        1442273182.5674067     
  -1869818764.9887381       -108518519.93170989        1459517177.6849055     
  -1840755656.9830992       -134336353.47058189        1483525551.1412868     
  -1812672403.3163121       -163420368.13895994        1514298302.9365509     
  -1785569003.9883811       -195770563.93685555        1551835433.0707021     
  -2125614567.9847500       -115512686.63261044        1713620132.5396492     
  -2063435815.5397820       -134855312.09508979        1763439355.4149454     
  -2003496412.4576919       -161662435.43382472        1830473493.8101361     
  -1945796358.7384858       -195934056.64884537        1914722547.7252200     
  -1890335654.3821602       -237670175.74012399        2016186517.1602037     
  -2267859328.6553931       -120006081.74858367        1983228053.2951572     
  -2143686108.4499240       -127182076.96618772        2064153093.0668869     
  -2023011732.6313605       -146020886.80681896        2172743585.5395274     
  -1905836201.1996965       -176522511.27044410        2308999530.7130694     
  -1792159514.1549413       -218686950.35709649        2472920928.5875206     
  -967207331.33784044        70677171.228582919        600283246.90515935     
  -875624023.61418867        111950336.14941466        477807503.11290878     
  -773386560.21759617        188737353.31338024        320967260.69095492     
  -660494941.14807081        301038222.72045934        129762519.63929713     
  -536949166.40561283        448852944.37064242       -95806720.042062715     
  -1477859562.9736083       -92988114.947285533        1079867676.3190198     
  -1461286965.1387830       -111928573.86194092        1046426377.4337659     
  -1445867065.6621432       -134711360.63720918        1003544482.7642303     
  -1431599864.5436749       -161336475.27304971        951221992.31041384     
  -1418485361.7833884       -191803917.76950440        889458906.07229948     
  -1785569003.9883811       -195770563.93685555        1551835433.0707021     
  -1772795965.0554760       -253561301.39094949        1593653916.0561447     
  -1772982478.5118630       -354550546.80934447        1650955706.1027269     
  -1786128544.3575420       -498738300.19204950        1723740803.2104428     
  -1812234162.5925174       -686124561.53906393        1812009207.3793008     
  -1890335654.3821602       -237670175.74012399        2016186517.1602037     
  -1810151023.3642588       -312947846.43757665        2119490118.9800479     
  -1754732798.7667639       -470780205.20303708        2263200930.7064486     
  -1724080980.5896766       -711167252.03652036        2447318952.3394184     
  -1718195568.8329897       -1034108986.9380199        2671844183.8789234     
  -1792159514.1549413       -218686950.35709649        2472920928.5875206     
  -1573352140.0651360       -290088209.00183880        2623934986.2054677     
  -1391118026.4268453       -483400335.81829643        2840280156.5753951     
  -1245457173.2400718       -798623330.80647743        3121956439.6972952     
  -1136369580.5048170       -1235757193.9663887        3468963835.5711799     
  -3767956167.3911657       -1130386850.2173498        800335284.03227711     
  -3778255051.1602235       -1010045401.7751578        884857784.71215701     
  -3789125265.7332678       -891608389.34625340        974283753.26595891     
  -3800566811.1102982       -775075812.93063617        1068613189.6936830     
  -3812579687.2913146       -660447672.52830553        1167846093.9953289     
  -4339351052.4253912       -1301805315.7276173        857957224.37804115     
  -4334209702.4751587       -1126671445.5999067        941677090.25991738     
  -4330218897.1598969       -955372724.25544131        1019726186.1245147     
  -4327378636.4796104       -787909151.69422138        1092104511.9718337     
  -4325688920.4342976       -624280727.91624844        1158812067.8018737     
  -4895063333.2110739       -1468518999.9633222        935209482.36998308     
  -4904693857.8021221       -1247656340.6282644        1017450963.9843702     
  -4916054140.8591299       -1032559542.8464104        1083447437.6902783     
  -4929144182.3821020       -823228606.61776149        1133198903.4877057     
  -4943963982.3710346       -619663531.94231665        1166705361.3766541     
  -5435093009.7482128       -1630527902.9244640        1032092058.0081028     
  -5489707517.1411171       -1373000086.8602314        1112179405.8855155     
  -5546630996.8309698       -1123168845.1191614        1165447507.9632478     
  -5605863448.8177710       -881034177.70125413        1191896364.2412996     
  -5667404873.1015215       -646596084.60650992        1191525974.7196708     
  -5959440082.0368090       -1787832024.6110427        1148604951.2924004     
  -6089250680.4921427       -1502702684.2958074        1225862415.9633534     
  -6221949465.0754137       -1227200631.0736938        1265726396.9434249     
  -6357536435.7866211       -961325864.94470131        1268196894.2326145     
  -6496011592.6257629       -705078385.90882993        1233273907.8309236     
  -3812579687.2913146       -660447672.52830553        1167846093.9953289     
  -3793441571.7078791       -543633025.18177402        1190589646.6314232     
  -3778452207.0249405       -440647547.50356662        1209272785.1634190     
  -3767611593.2424998       -351491239.49368608        1223895509.5913174     
  -3760919730.3605576       -276164101.15212786        1234457819.9151185     
  -4325688920.4342976       -624280727.91624844        1158812067.8018737     
  -4292054389.9971008       -469323094.98555791        1141212611.5838490     
  -4269305074.3742814       -350649511.43612742        1130022430.3764718     
  -4257440973.5658402       -268259977.26795435        1125241524.1797409     
  -4256462087.5717750       -222154492.48103976        1126869892.9936566     
  -4943963982.3710346       -619663531.94231665        1166705361.3766541     
  -4865919639.6093760       -417588894.18625975        1100903688.4049850     
  -4805496975.5759792       -274253185.52439475        1051980979.5587066     
  -4762695990.2708368       -189656405.95671988        1019937234.8378204     
  -4737516683.6939526       -163798555.48323703        1004772454.2423247     
  -5667404873.1015215       -646596084.60650992        1191525974.7196708     
  -5515037320.5447073       -388430422.78387690        1069662877.0948294     
  -5387027910.6300306       -211458569.76836848        975148432.71012545     
  -5283376643.3574886       -115680525.55998302        907982641.56555688     
  -5204083518.7270861       -101096290.15872121        868165503.66112220     
  -6496011592.6257629       -705078385.90882993        1233273907.8309236     
  -6239407432.8030920       -381847680.77841115        1047490177.6533843     
  -6013897879.5364389       -162265664.16804838        899524789.83072650     
  -5819482932.8258018       -46332336.077743053        789377744.36294782     
  -5656162592.6711826       -34047696.507496119        717049041.25005078     
  -3760919730.3605576       -276164101.15212786        1234457819.9151185     
  -3648335610.5107470       -185903598.35956526        1209290240.7655330     
  -3542702286.5556178       -118812415.21593952        1197007658.9529274     
  -3444019758.4951696       -74890551.721252322        1197610074.4773011     
  -3352288026.3294044       -54138007.875501156        1211097487.3386548     
  -4256462087.5717750       -222154492.48103976        1126869892.9936566     
  -4122546533.5294003       -159078258.05889654        1098712519.7931139     
  -3992851424.5271111       -110070173.77036476        1080352237.4891984     
  -3867376760.5649037       -75130239.615444183        1071789046.0819128     
  -3746122541.6427817       -54258455.594137907        1073022945.5712534     
  -4737516683.6939526       -163798555.48323703        1004772454.2423247     
  -4591092285.2885914       -130553366.38038754        976810696.32118821     
  -4446157981.0687132       -102275157.89582443        955558122.85632801     
  -4302713771.0343227       -78963930.029543877        941014733.84774482     
  -4160759655.1854186       -60619682.781551838        933180529.29543686     
  -5204083518.7270861       -101096290.15872121        868165503.66112220     
  -5053972865.7883148       -100328923.32403946        843584770.34975696     
  -4902621956.1804304       -95427367.592316389        822625315.05431640     
  -4750030789.9034338       -86391622.963551760        805287137.77479923     
  -4596199366.9573221       -73221689.437746286        791570238.51120818     
  -5656162592.6711826       -34047696.507496119        717049041.25005078     
  -5511188275.0285730       -68404928.889850616        699034741.87881839     
  -5362243349.8622551       -89526802.859842539        681553814.08316123     
  -5209327817.1722260       -97413318.417459488        664606257.86307633     
  -5052441676.9584894       -92064475.562718868        648192073.21856427     
  -3352288026.3294044       -54138007.875501156        1211097487.3386548     
  -3262758583.2863970       -44783882.114891768        1224356549.3149462     
  -3173358167.2157288       -35859846.262071013        1259488293.1310825     
  -3084086778.1174002       -27365900.317052603        1316492718.7870624     
  -2994944415.9914060       -19302044.279818177        1395369826.2828863     
  -3746122541.6427817       -54258455.594137907        1073022945.5712534     
  -3606390789.0952811       -33805439.575708628        1075249928.5349205     
  -3466369599.0398922       -12387631.864308834        1091660108.4488564     
  -3326058971.4766126        9994967.5400493145        1122253485.3130622     
  -3185458906.4054413        33342358.637392640        1167030059.1275339     
  -4160759655.1854186       -60619682.781551838        933180529.29543686     
  -3992795549.9607849       -35658763.553513050        924863641.80674720     
  -3824123542.7480354       -8338171.0317418575        923040466.37875056     
  -3654743633.5471668        21342094.783755541        927711003.01144707     
  -3484655822.3581734        53382033.892993212        938875251.70483768     
  -4596199366.9573221       -73221689.437746286        791570238.51120818     
  -4421972865.8829145       -50343854.048303604        773197689.13042641     
  -4246619998.3401604       -23711463.764367819        753629366.92076397     
  -4070140764.3290534        6675481.4140634537        732865271.88222003     
  -3892535163.8496027        40816981.486983299        710905404.01479161     
  -5052441676.9584894       -92064475.562718868        648192073.21856427     
  -4893922736.8616657       -77860711.060082436        620252070.50595963     
  -4733858965.8162642       -58507510.062188387        583426810.07489634     
  -4572250363.8222857       -34004872.569041491        537716291.92537820     
  -4409096930.8797302       -4352798.5806307793        483120516.05739969     
  -2994944415.9914060       -19302044.279818177        1395369826.2828863     
  -2928504810.0799594       -22224066.682697892        1480892783.2504501     
  -2864688958.4549055       -33891936.706889868        1564951467.7404714     
  -2803496861.1162457       -54305654.352392912        1647545879.7529495     
  -2744928518.0639806       -83465219.619214773        1728676019.2878833     
  -3185458906.4054413        33342358.637392640        1167030059.1275339     
  -3119460109.9627390        30600082.630048156        1212662147.0219669     
  -3056196434.4451585        18740736.872291565        1259377943.2497864     
  -2995667879.8527036       -2235678.6358782053        1307177447.8109922     
  -2937874446.1853728       -32329163.894464374        1356060660.7055812     
  -3484655822.3581734        53382033.892993212        938875251.70483768     
  -3411817890.2101288        53003487.833413601        944486542.78095293     
  -3341826445.6259403        43136649.894314289        953729523.00138497     
  -3274681488.6056056        23781520.075704575        966604192.36613309     
  -3210383019.1491222       -5061901.6224160194        983110550.87519503     
  -3892535163.8496027        40816981.486983299        710905404.01479161     
  -3805578150.8221316        44986148.927392244        676365970.52740633     
  -3721578991.9972510        39295802.359179974        648006206.99526620     
  -3640537687.3749499        23745941.782357931        625826113.41837418     
  -3562454236.9552326       -1663432.8030750751        609825689.79672277     
  -4409096930.8797302       -4352798.5806307793        483120516.05739969     
  -4300740891.7987537        6548065.9119842052        408300430.26132947     
  -4195454073.5590901        7218194.2668826580        342207995.23143339     
  -4093236476.1607389       -2342413.5159285069        284843210.96771109     
  -3994088099.6037021       -22133757.436448574        236206077.47016397     
  -2744928518.0639806       -83465219.619214773        1728676019.2878833     
  -2627093809.0912285       -97375729.749537110        1782335396.6804237     
  -2508304041.1988797       -108102710.14787459        1842647194.8124850     
  -2388559214.3869328       -115646160.81421959        1909611413.6840599     
  -2267859328.6553931       -120006081.74858367        1983228053.2951572     
  -2937874446.1853728       -32329163.894464374        1356060660.7055812     
  -2802753690.7430358       -41476523.887111306        1382606000.4815483     
  -2666382696.5293608       -46456421.308634639        1414696689.8474491     
  -2528761463.5443459       -47268856.159026504        1452332728.8032737     
  -2389889991.7879891       -43913828.438276649        1495514117.3490353     
  -3210383019.1491222       -5061901.6224160194        983110550.87519503     
  -3061139277.6645975       -10395029.605624318        982886229.52829051     
  -2910350117.5569916       -10576762.178552508        987100186.62172937     
  -2758015538.8262959       -5607099.3411880732        995752422.15550983     
  -2604135541.4725213        4513958.9064511061        1008842936.1296321     
  -3562454236.9552326       -1663432.8030750751        609825689.79672277     
  -3402250569.8559175       -4131246.9050636292        583176083.82064962     
  -3240206304.2817736       -463732.75761437416        559857685.13533247     
  -3076321440.2327895        9339109.6392841339        539870493.74076438     
  -2910595977.7089858        25277280.285598516        523214509.63695771     
  -3994088099.6037021       -22133757.436448574        236206077.47016397     
  -3826087567.3169861       -22685175.785420656        183475563.35862538     
  -3655951256.7036934       -16117333.045805931        132969185.38824950     
  -3483679167.7638235       -2430229.2175989151        84686943.559043020     
  -3309271300.4973855        18376135.699168444        38628837.871003725     
  -2267859328.6553931       -120006081.74858367        1983228053.2951572     
  -2143686108.4499240       -127182076.96618772        2064153093.0668869     
  -2023011732.6313605       -146020886.80681896        2172743585.5395274     
  -1905836201.1996965       -176522511.27044410        2308999530.7130694     
  -1792159514.1549413       -218686950.35709649        2472920928.5875206     
  -2389889991.7879891       -43913828.438276649        1495514117.3490353     
  -2199723915.0127654       -26990444.213390589        1535629356.2851994     
  -2012008093.4934082       -18234577.508058429        1593281483.0873873     
  -1826742527.2299018       -17646228.322240472        1668470497.7555983     
  -1643927216.2222676       -25225396.655988216        1761196400.2898312     
  -2604135541.4725213        4513958.9064511061        1008842936.1296321     
  -2376915364.7986364        36855095.572496772        1009371728.2164482     
  -2151096854.2495751        64524011.822473526        1017308843.3344041     
  -1926680009.8253338        87520707.656385064        1032654281.4835017     
  -1703664831.5259144        105845183.07422221        1055408042.6637359     
  -2910595977.7089858        25277280.285598516        523214509.63695771     
  -2675260457.8075376        64354542.391483784        485380208.86063939     
  -2440278014.8998685        102254881.18475723        444825666.28057587     
  -2205648648.9859767        138978296.66544259        401550881.89676827     
  -1971372360.0658600        174524788.83354390        355555855.70922172     
  -3309271300.4973855        18376135.699168444        38628837.871003725     
  -3094759194.0394702        55507896.243544459       -36345201.782234959     
  -2879551575.4442840        94958030.578814268       -124168048.07409741     
  -2663648444.7118382        136726538.70494831       -224839701.00458395     
  -2447049801.8421292        180813420.62196517       -338360160.57370514     
  -1792159514.1549413       -218686950.35709649        2472920928.5875206     
  -1573352140.0651360       -290088209.00183880        2623934986.2054677     
  -1391118026.4268453       -483400335.81829643        2840280156.5753951     
  -1245457173.2400718       -798623330.80647743        3121956439.6972952     
  -1136369580.5048170       -1235757193.9663887        3468963835.5711799     
  -1643927216.2222676       -25225396.655988216        1761196400.2898312     
  -1269271685.6767547       -3504307.2767134905        1792515421.4282579     
  -910793465.68746531       -35707586.418195337        1856896754.4674001     
  -568492556.25441289       -121835234.08046283        1954340399.4072702     
  -242368957.37758395       -261887250.26349473        2084846356.2478492     
  -1703664831.5259144        105845183.07422221        1055408042.6637359     
  -1265357718.3854198        193029648.31930113        990827302.20046759     
  -822831965.90586877        294276244.69456702        927040072.78666151     
  -376087574.08727139        409584972.20000637        864046354.42231596     
   74875457.070383996        538955830.83561301        801846147.10743737     
  -1971372360.0658600        174524788.83354390        355555855.70922172     
  -1561610238.1911318        299513657.78620005        218870628.52209535     
  -1127233527.0820556        506551157.51999283        50710111.533171326     
  -668242226.73864698        795637288.03490901       -148925695.25754008     
  -184636337.16089761        1166772049.3309426       -380036791.85006022     
  -2447049801.8421292        180813420.62196517       -338360160.57370514     
  -2158029245.0938945        315947721.12397385       -523354599.60685927     
  -1823998149.2160273        601117152.05809414       -772093129.29306579     
  -1444956514.2085395        1036321713.4242674       -1084575749.6323271     
  -1020904340.0714382        1621561405.2225080       -1460802460.6246395     
  -5959440082.0368090       -1787832024.6110427        1148604951.2924004     
  -6089250680.4921427       -1502702684.2958074        1225862415.9633534     
  -6221949465.0754137       -1227200631.0736938        1265726396.9434249     
  -6357536435.7866211       -961325864.94470131        1268196894.2326145     
  -6496011592.6257629       -705078385.90882993        1233273907.8309236     
  -6812606239.3997831       -2043781871.8199348        1352259225.3352399     
  -6830240756.8837137       -1396431180.6452541        1200948293.7974420     
  -6899243346.7568951       -920307397.43474698        1089730596.4994259     
  -7019614009.0193310       -615410522.18841481        1018606133.4411911     
  -7191352743.6710176       -481740554.90625691        987574904.62273788     
  -8339093171.1600590       -2501727951.3480177        1710565943.2489848     
  -8023160985.0135489       -1425738722.5161798        1274126748.1975675     
  -7807076757.5176058       -682576022.51956964        955267505.31659508     
  -7690840488.6722317       -272239851.35818529        753988214.60606658     
  -7674452178.4774256       -194730209.03203011        670288876.06598365     
  -10538900877.317638       -3161670263.1952915        2223525105.0336351     
  -9668011364.8816490       -1590625309.9085851        1445397779.1637294     
  -8945449697.3575439       -514006506.32815981        862337123.39493191     
  -8371215874.7453232        68186147.545984745        474343137.72724211     
  -7945309897.0449848        155952651.71385050        281415822.16065967     
  -13412029357.872519       -4023608807.3617554        2891136710.6891904     
  -11764791896.488010       -1891090942.8224685        1714761386.6959288     
  -10314362166.276705       -414598848.86051607        810939450.73443747     
  -9060740167.2386017        405867474.52410316        179670902.80471703     
  -8003925899.3736944        570308027.33138609       -179044257.09323239     
  -6496011592.6257629       -705078385.90882993        1233273907.8309236     
  -6239407432.8030920       -381847680.77841115        1047490177.6533843     
  -6013897879.5364389       -162265664.16804838        899524789.83072650     
  -5819482932.8258018       -46332336.077743053        789377744.36294782     
  -5656162592.6711826       -34047696.507496119        717049041.25005078     
  -7191352743.6710176       -481740554.90625691        987574904.62273788     
  -6903866383.5184927       -308064377.71358681        841617175.09218597     
  -6629469963.1947937       -178021333.28366399        716109225.29227567     
  -6368163482.6999140       -91611421.616487026        611051055.22300851     
  -6119946942.0338659       -48834642.712062836        526442664.88438278     
  -7674452178.4774256       -194730209.03203011        670288876.06598365     
  -7405708082.6357241       -185495899.16931009        585162591.69747603     
  -7132049259.8956575       -159879166.31203079        503117524.43537378     
  -6853475710.2572222       -117880010.46018982        424153674.27967376     
  -6569987433.7204170       -59498431.613789797        348271041.23037893     
  -7945309897.0449848        155952651.71385050        281415822.16065967     
  -7744932530.1547899       -14142245.145585537        278126427.46925628     
  -7521635769.6390371       -107839163.25315237        260549687.26001921     
  -7275419615.4977198       -125138102.60884857        228685601.53294471     
  -7006284067.7308455       -66039063.212680340        182534170.28803858     
  -8003925899.3736944        570308027.33138609       -179044257.09323239     
  -7921539726.0756874        205996584.35758924       -79491317.592476219     
  -7798229492.4249277       -21901324.107029438       -11594286.233791238     
  -7633995198.4214153       -113385698.06246805        24646836.982819859     
  -7428836844.0651464       -68456537.508730412        29232052.057361603     
  -5656162592.6711826       -34047696.507496119        717049041.25005078     
  -5511188275.0285730       -68404928.889850616        699034741.87881839     
  -5362243349.8622551       -89526802.859842539        681553814.08316123     
  -5209327817.1722260       -97413318.417459488        664606257.86307633     
  -5052441676.9584894       -92064475.562718868        648192073.21856427     
  -6119946942.0338659       -48834642.712062836        526442664.88438278     
  -5965090926.3605766       -53116448.218215466        515660654.33181691     
  -5809705691.8998384       -55634191.099539042        505006095.25584692     
  -5653791238.6516523       -56387871.356026888        494478987.65647304     
  -5497347566.6160116       -55377488.987683058        484079331.53369343     
  -6569987433.7204170       -59498431.613789797        348271041.23037893     
  -6406409491.7278166       -34052741.757153511        340706365.97084284     
  -6245743719.6840248       -18314285.063219547        332863222.08892244     
  -6087990117.5890446       -12283061.531985998        324741609.58462137     
  -5933148685.4428720       -15959071.163449049        316341528.45793813     
  -7006284067.7308455       -66039063.212680340        182534170.28803858     
  -6835143971.1302929       -11213809.506658554        174171876.79589611     
  -6670357433.2148085        22432915.249123573        165125194.58239001     
  -6511924453.9843998        34901111.054672241        155394123.64752606     
  -6359845033.4390583        26190777.909987450        144978663.99129906     
  -7428836844.0651464       -68456537.508730412        29232052.057361603     
  -7251294364.5680103        15400348.533261299        16057186.806971051     
  -7083546832.4922009        66607409.837484360        1792012.7362422752     
  -6925594247.8377247        85164646.403936863       -13563470.154820761     
  -6777436610.6045771        71072058.232624531       -30009261.866224501     
  -5052441676.9584894       -92064475.562718868        648192073.21856427     
  -4893922736.8616657       -77860711.060082436        620252070.50595963     
  -4733858965.8162642       -58507510.062188387        583426810.07489634     
  -4572250363.8222857       -34004872.569041491        537716291.92537820     
  -4409096930.8797302       -4352798.5806307793        483120516.05739969     
  -5497347566.6160116       -55377488.987683058        484079331.53369343     
  -5359969103.1687937       -55836400.994536400        463999310.02859360     
  -5220317483.8707857       -48718126.832092047        439926335.70598555     
  -5078392708.7219820       -34022666.500337601        411860408.56586784     
  -4934194777.7223911       -11750019.999288321        379801528.60823905     
  -5933148685.4428720       -15959071.163449049        316341528.45793813     
  -5802932684.6425438       -26887255.478978634        304971200.54626006     
  -5669715203.0892153       -27810503.951158762        294500224.71801972     
  -5533496240.7828827       -18728816.579999924        284928600.97322035     
  -5394275797.7235489        357806.63450121880        276256329.31185716     
  -6359845033.4390583        26190777.909987450        144978663.99129906     
  -6222813481.2829180        8986725.4865930080        143167742.05895686     
  -6082052123.4715633        4215358.5805890560        147148477.11100113     
  -5937560960.0049934        11876677.191971302        156920869.14743218     
  -5789339990.8832073        31970681.320737839        172484918.16825011     
  -6777436610.6045771        71072058.232624531       -30009261.866224501     
  -6619611493.0899105        51785541.902182579       -21411065.433313280     
  -6457328245.0178251        47359460.763164043       -2128907.1150707309     
  -6290586866.3883009        57793814.815585852        27837213.088507708     
  -6119387357.2013512        83088604.059441805        68487295.177421808     
  -4409096930.8797302       -4352798.5806307793        483120516.05739969     
  -4300740891.7987537        6548065.9119842052        408300430.26132947     
  -4195454073.5590901        7218194.2668826580        342207995.23143339     
  -4093236476.1607389       -2342413.5159285069        284843210.96771109     
  -3994088099.6037021       -22133757.436448574        236206077.47016397     
  -4934194777.7223911       -11750019.999288321        379801528.60823905     
  -4804238065.1206408        4791812.3764240742        322989423.70981705     
  -4677516122.8351612        10551077.031236172        272763808.93433154     
  -4554028950.8659487        5527773.9651501179        229124684.28177848     
  -4433776549.2130136       -10278096.821846247        192072049.75216562     
  -5394275797.7235489        357806.63450121880        276256329.31185716     
  -5248836013.4388552        20705326.341964722        237259064.25696975     
  -5106796548.9453831        29718446.745342731        202707128.68177530     
  -4968157404.2431421        27397167.844627619        172600522.58627889     
  -4832918579.3321266        13741489.639822721        146939245.97047549     
  -5789339990.8832073        31970681.320737839        172484918.16825011     
  -5634534736.7533836        54288607.808616638        151109351.90277702     
  -5483295351.8897514        64720303.409211397        132037954.47376335     
  -5335621836.2923012        63265768.122520447        115270725.88120180     
  -5191514189.9610329        49925001.948566914        100807666.12509908     
  -6119387357.2013512        83088604.059441805        68487295.177421808     
  -5961334235.0642395        105541656.77637267        64540286.647248141     
  -5807012531.6682692        115556647.02283096        60756286.310294650     
  -5656422247.0134411        113133574.79882216        57135294.166561902     
  -5509563381.0997534        98272440.104333639        53677310.216036029     
  -3994088099.6037021       -22133757.436448574        236206077.47016397     
  -3826087567.3169861       -22685175.785420656        183475563.35862538     
  -3655951256.7036934       -16117333.045805931        132969185.38824950     
  -3483679167.7638235       -2430229.2175989151        84686943.559043020     
  -3309271300.4973855        18376135.699168444        38628837.871003725     
  -4433776549.2130136       -10278096.821846247        192072049.75216562     
  -4260962562.3396592       -12708018.189647913        155589343.03397483     
  -4086491294.9172444       -9613671.0605936050        121018658.24561174     
  -3910362746.9457765       -995055.43469357491        88359995.387072474     
  -3732576918.4252529        13147828.688067198        57613354.458357058     
  -4832918579.3321266        13741489.639822721        146939245.97047549     
  -4656182892.7616777        9165538.7863180637        126146099.23853502     
  -4478268423.4196939        8518863.8379454613        106952860.22507377     
  -4299175171.3061695        11801464.794689655        89359528.930095822     
  -4118903136.4211116        19013341.656566620        73366105.353603974     
  -5191514189.9610329        49925001.948566914        100807666.12509908     
  -5011748558.5830469        42935495.142488718        95145831.972295821     
  -4831282642.2110434        38280271.649797916        90771791.326637074     
  -4650116440.8450127        35959331.470549345        87685544.188115358     
  -4468249954.4849606        35972674.604673386        85887090.556744531     
  -5509563381.0997534        98272440.104333639        53677310.216036029     
  -5327659559.8037691        88601850.878833532        62588541.235262334     
  -5145533951.2912798        79670552.375016212        72475451.550298810     
  -4963186555.5622931        71478544.592849970        83338041.161136553     
  -4780617372.6168051        64025827.532368183        95176310.067768276     
  -3309271300.4973855        18376135.699168444        38628837.871003725     
  -3094759194.0394702        55507896.243544459       -36345201.782234959     
  -2879551575.4442840        94958030.578814268       -124168048.07409741     
  -2663648444.7118382        136726538.70494831       -224839701.00458395     
  -2447049801.8421292        180813420.62196517       -338360160.57370514     
  -3732576918.4252529        13147828.688067198        57613354.458357058     
  -3547611772.0667229        34940628.143551588        389436.84971238533     
  -3360680090.8849535        63288543.676486254       -63174344.714708939     
  -3171781874.8799429        98191575.286890388       -133077990.23489971     
  -2980917124.0516992        139649722.97475541       -209321499.71085849     
  -4118903136.4211116        19013341.656566620        73366105.353603974     
  -3944887971.0680990        31046273.751304626        35375169.589852303     
  -3767635248.2058687        53871064.210094452       -2446687.4468162642     
  -3587144967.8344307        87487713.032907486       -40099465.756403171     
  -3403417129.9537735        131896220.21979570       -77583165.338906333     
  -4468249954.4849606        35972674.604673386        85887090.556744531     
  -4286587791.0436020        43824833.066809654        68611996.438188225     
  -4100417047.4070354        66705592.179622173        58014923.729572222     
  -3909737723.5752950        104614951.94302344        54095872.430898838     
  -3714549819.5483546        157552912.35709023        56854842.542158380     
  -4780617372.6168051        64025827.532368183        95176310.067768276     
  -4572711231.9932070        73276306.090117216        100099917.39471497     
  -4359025488.4884539        101792127.58507299        118210488.81446348     
  -4139560142.1025362        149573292.01722574        149508024.32699940     
  -3914315192.8354511        216619799.38661647        193992523.93233010     
  -2447049801.8421292        180813420.62196517       -338360160.57370514     
  -2158029245.0938945        315947721.12397385       -523354599.60685927     
  -1823998149.2160273        601117152.05809414       -772093129.29306579     
  -1444956514.2085395        1036321713.4242674       -1084575749.6323271     
  -1020904340.0714382        1621561405.2225080       -1460802460.6246395     
  -2980917124.0516992        139649722.97475541       -209321499.71085849     
  -2828095566.9920788        191485938.32071602       -300876034.23786801     
  -2662872835.4444799        284659401.95994186       -414232304.37474769     
  -2485248929.4089060        419170113.89240885       -549390310.12149227     
  -2295223848.8853569        595018074.11814511       -706350051.47811747     
  -3403417129.9537735        131896220.21979570       -77583165.338906333     
  -3266959272.4594040        136384940.44670773       -113742054.10835050     
  -3150709605.1186957        73513026.828060031       -129760323.44448698     
  -3054668127.9316649       -56719520.636165500       -125637973.34731463     
  -2978834840.8982935       -254312701.94591594       -101375003.81683715     
  -3714549819.5483546        157552912.35709023        56854842.542158380     
  -3474620361.4958487        150644727.50197434        38047340.781688474     
  -3287508458.2386751       -32321973.337556839        81322813.497708887     
  -3153214109.7768002       -391347190.16144049        186681260.69020742     
  -3071737316.1102400       -926430922.96968377        354122682.35921401     
  -3914315192.8354511        216619799.38661647        193992523.93233010     
  -3451078834.1014423        234265299.48648286        154492150.43225050     
  -3073269394.8043995       -32845598.536870956        219017106.45183963     
  -2780886874.9443250       -584712894.68344557        387567391.99110454     
  -2573931274.5211859       -1421336588.9531512        660143007.05002654     
 </DataArray>
 <DataArray  type="Float64" Name="VM" NumberOfComponents="1" format="ascii">
   12929934815.053747     
   11338407373.219891     
   10210509526.889757     
   9275561730.2909794     
   8309570071.6408262     
   10127993519.062151     
   9321473771.5524921     
   8827124649.1750431     
   8445573383.0611782     
   8039213103.9161949     
   7982172807.1238861     
   7735315682.8763638     
   7669748505.8456831     
   7670390040.2579975     
   7667369167.3295221     
   6492378764.2049532     
   6587190454.7922077     
   6757191583.2758999     
   6960347835.2869587     
   7170019146.4787836     
   5658150900.6364584     
   5890243785.5084829     
   6114677927.7668447     
   6328959063.3266754     
   6532839992.5403938     
   8309570071.6408262     
   8027701598.6976271     
   7787327822.3788815     
   7578058823.2619400     
   7395019556.5152550     
   8039213103.9161949     
   7752851868.3501072     
   7481922576.8069944     
   7224531073.4344912     
   6980662241.2961569     
   7667369167.3295221     
   7384608197.3895054     
   7107095302.0513611     
   6834899870.2458563     
   6568199840.7105131     
   7170019146.4787836     
   6910600394.2096748     
   6658814742.3515291     
   6410823072.0056839     
   6163497027.7080631     
   6532839992.5403938     
   6323386475.8274765     
   6135542621.4626503     
   5955522623.6897974     
   5774359981.4456720     
   7395019556.5152550     
   7259060069.2845373     
   7117084979.9866772     
   6968606488.1618233     
   6813448926.9604063     
   6980662241.2961569     
   6836203506.2411127     
   6687720543.8352184     
   6534989944.7862301     
   6377926036.7875614     
   6568199840.7105131     
   6416644671.3724279     
   6263198660.9176960     
   6107811942.5264750     
   5950465222.0843210     
   6163497027.7080631     
   6005497848.1221037     
   5847875732.3277397     
   5690628973.6668596     
   5533756954.0744839     
   5774359981.4456720     
   5609530435.4113169     
   5447490348.0888844     
   5288121801.3343649     
   5131369336.2137136     
   6813448926.9604063     
   6645759063.2320843     
   6481138801.0167751     
   6319865899.4945145     
   6162493669.0342932     
   6377926036.7875614     
   6232246954.6747589     
   6089496847.1548691     
   5949719504.0933189     
   5813073363.9719105     
   5950465222.0843210     
   5813583062.9970255     
   5678816550.5998878     
   5546156191.3462410     
   5415634246.5408401     
   5533756954.0744839     
   5392493967.0002203     
   5251701585.1743593     
   5111490640.7579679     
   4972040514.8117857     
   5131369336.2137136     
   4972890068.4638596     
   4812176021.6527433     
   4649577116.3329372     
   4485663727.8983841     
   6162493669.0342932     
   6015838290.5273180     
   5866588510.8923540     
   5714686031.3281507     
   5560128426.7460756     
   5813073363.9719105     
   5667920439.1164112     
   5520679236.6476679     
   5371246333.0032482     
   5219577090.3062010     
   5415634246.5408401     
   5275250008.8996067     
   5133740427.4706583     
   4990874157.7844973     
   4846491075.7301521     
   4972040514.8117857     
   4839081922.8607016     
   4706572162.5616789     
   4574043970.5615349     
   4441124222.2444468     
   4485663727.8983841     
   4361731806.6514902     
   4240694462.3291969     
   4121699800.7187595     
   4004023651.8982220     
   5560128426.7460756     
   5373602064.6226740     
   5187347361.4368401     
   5001392506.9927778     
   4815772040.5236931     
   5219577090.3062010     
   5036050750.7572641     
   4853083423.3460865     
   4670669901.5671520     
   4488810128.3242111     
   4846491075.7301521     
   4665890919.8402433     
   4486360121.9056053     
   4307869353.5784492     
   4130397852.7796969     
   4441124222.2444468     
   4263148975.8720517     
   4087071554.0644536     
   3912859471.0055089     
   3740499497.8820419     
   4004023651.8982220     
   3828009282.4567957     
   3655182291.9386983     
   3485552459.0844016     
   3319171945.1241503     
   4815772040.5236931     
   4613045501.5285797     
   4415552115.7133560     
   4224281705.5503101     
   4040990601.0772676     
   4488810128.3242111     
   4310305942.6156902     
   4135394484.2021317     
   3964188374.5893812     
   3797056602.5670757     
   4130397852.7796969     
   3960976300.5879288     
   3794859935.8450236     
   3632343338.5811386     
   3473845141.7988739     
   3740499497.8820419     
   3565210564.5754504     
   3394531138.9262524     
   3230234257.4495687     
   3074589348.8319821     
   3319171945.1241503     
   3123517582.3870783     
   2936072880.6256299     
   2762167135.8663454     
   2608959268.0198760     
   4040990601.0772676     
   3583977795.8838248     
   3080426222.7087603     
   2626751989.9620872     
   2508837096.3661079     
   3797056602.5670757     
   3552950397.6775131     
   3274498131.4458122     
   2994404789.5854621     
   2797195127.3576856     
   3473845141.7988739     
   3343052429.8973126     
   3196014174.7208009     
   3034519709.2364583     
   2865555286.2019196     
   3074589348.8319821     
   2974543846.6110740     
   2905976549.4677615     
   2880867411.1499853     
   2912831935.9210157     
   2608959268.0198760     
   2502086671.9800186     
   2563811820.0627308     
   2861505809.9293189     
   3424762419.3001761     
   5658150900.6364584     
   5890243785.5084829     
   6114677927.7668447     
   6328959063.3266754     
   6532839992.5403938     
   5150963842.6197615     
   5309941436.3023682     
   5465493959.3810844     
   5614696765.1292534     
   5756061599.4533195     
   4642580091.5367098     
   4753831631.9510880     
   4866130285.9542913     
   4976823733.7774649     
   5083972144.8514576     
   4133273057.2862363     
   4222771507.8426332     
   4318111184.2284250     
   4417635369.7075014     
   4519889717.8311014     
   3624586832.6585999     
   3718617176.0228705     
   3823833994.8339047     
   3940193604.2096596     
   4067620817.8056321     
   6532839992.5403938     
   6323386475.8274765     
   6135542621.4626503     
   5955522623.6897974     
   5774359981.4456720     
   5756061599.4533195     
   5644186617.5845861     
   5547827918.8152637     
   5457981713.5007191     
   5369145762.3781223     
   5083972144.8514576     
   5045351049.8078690     
   5016979677.3319569     
   4993674271.8378019     
   4972283073.2452688     
   4519889717.8311014     
   4531526616.8121452     
   4547938350.4311228     
   4566636782.5475979     
   4585928173.7084007     
   4067620817.8056321     
   4108041726.5395951     
   4146435535.5931854     
   4181856214.1606193     
   4213527161.4462934     
   5774359981.4456720     
   5609530435.4113169     
   5447490348.0888844     
   5288121801.3343649     
   5131369336.2137136     
   5369145762.3781223     
   5213497267.6027288     
   5060345971.1048479     
   4909720488.1346006     
   4761682358.3570528     
   4972283073.2452688     
   4833039148.4161081     
   4697161213.9725790     
   4564684884.7621241     
   4435746771.9969435     
   4585928173.7084007     
   4470614711.2114763     
   4360844753.4024086     
   4256511000.4710622     
   4157794364.7529664     
   4213527161.4462934     
   4129627442.8527236     
   4054925507.7901430     
   3988955480.3457026     
   3931863567.3588190     
   5131369336.2137136     
   4972890068.4638596     
   4812176021.6527433     
   4649577116.3329372     
   4485663727.8983841     
   4761682358.3570528     
   4596440293.6877403     
   4431424346.1785221     
   4266677287.1740499     
   4102259992.2436824     
   4435746771.9969435     
   4285723739.0426517     
   4141028291.1040459     
   4002193087.9498191     
   3869903625.7783523     
   4157794364.7529664     
   4043979343.7948914     
   3943107520.5251045     
   3856730570.0315695     
   3786865240.3786860     
   3931863567.3588190     
   3872806095.5679679     
   3836225245.3355966     
   3824578483.1165543     
   3841018996.5831494     
   4485663727.8983841     
   4361731806.6514902     
   4240694462.3291969     
   4121699800.7187595     
   4004023651.8982220     
   4102259992.2436824     
   4003505950.9664125     
   3906107131.0612860     
   3809921454.8063197     
   3714945379.1661801     
   3869903625.7783523     
   3807927707.1996684     
   3747348391.9898148     
   3688489163.8019109     
   3631783745.8571358     
   3786865240.3786860     
   3773469481.7826490     
   3762454205.4359412     
   3754127373.4638896     
   3748849684.9995651     
   3841018996.5831494     
   3884672618.6377931     
   3931630822.7606859     
   3981647938.0917711     
   4034532846.8357806     
   4004023651.8982220     
   3828009282.4567957     
   3655182291.9386983     
   3485552459.0844016     
   3319171945.1241503     
   3714945379.1661801     
   3547048562.5408463     
   3381975222.1833634     
   3219775050.7447844     
   3060562057.5248723     
   3631783745.8571358     
   3498150528.9531512     
   3370840834.5322599     
   3250505398.7259417     
   3137927575.4452872     
   3748849684.9995651     
   3670926059.3788953     
   3604439548.9937377     
   3550372979.4046268     
   3509735148.0956197     
   4034532846.8357806     
   4023114109.7601113     
   4027178534.9910660     
   4047494127.4660654     
   4084729002.4693174     
   3319171945.1241503     
   3123517582.3870783     
   2936072880.6256299     
   2762167135.8663454     
   2608959268.0198760     
   3060562057.5248723     
   2835508249.0901427     
   2609320373.6173148     
   2382114094.1281734     
   2154084755.0369182     
   3137927575.4452872     
   2965666915.7101226     
   2806230617.3701110     
   2662236791.7010765     
   2536860302.6538072     
   3509735148.0956197     
   3443053125.9196978     
   3409905953.6395011     
   3414153767.8998132     
   3459350024.3113532     
   4084729002.4693174     
   4137766419.7694364     
   4240393929.7210164     
   4395609780.5141649     
   4605838857.4957495     
   2608959268.0198760     
   2502086671.9800186     
   2563811820.0627308     
   2861505809.9293189     
   3424762419.3001761     
   2154084755.0369182     
   1771940072.4950500     
   1451194506.6628518     
   1295299730.2741098     
   1429741236.2913079     
   2536860302.6538072     
   2197238810.7910848     
   1893145728.3683352     
   1644071118.8250844     
   1478038190.1698415     
   3459350024.3113532     
   3353498113.0041156     
   3338037479.2773480     
   3424486003.2879715     
   3619890509.3784738     
   4605838857.4957495     
   4770564083.4057217     
   5069318736.2098074     
   5516715299.4484015     
   6124972252.0534096     
   3624586832.6585999     
   3718617176.0228705     
   3823833994.8339047     
   3940193604.2096596     
   4067620817.8056321     
   3138189074.1873951     
   3255030360.7365174     
   3381275398.8120604     
   3516471782.6084499     
   3660175853.0170770     
   2695421073.7548375     
   2830575105.4263172     
   2973079716.2652693     
   3121867295.5629745     
   3276037629.6358709     
   2299791442.8105383     
   2450053806.3904533     
   2605128145.4370651     
   2763107608.8265638     
   2922571168.6655078     
   1956534908.4453595     
   2120426147.1114824     
   2285811412.9283910     
   2449753489.2843218     
   2610304592.8920197     
   4067620817.8056321     
   4108041726.5395951     
   4146435535.5931854     
   4181856214.1606193     
   4213527161.4462934     
   3660175853.0170770     
   3700429062.4069786     
   3739751412.3017993     
   3777232849.5201449     
   3812118076.0980349     
   3276037629.6358709     
   3321127931.8291221     
   3366672665.7491589     
   3411856668.9350872     
   3456012358.8726501     
   2922571168.6655078     
   2977518914.0377097     
   3034581940.8300033     
   3093087653.5311966     
   3152508260.1719499     
   2610304592.8920197     
   2679655098.4952822     
   2752993661.4246316     
   2829813065.2850776     
   2909747180.4180636     
   4213527161.4462934     
   4129627442.8527236     
   4054925507.7901430     
   3988955480.3457026     
   3931863567.3588190     
   3812118076.0980349     
   3763045134.1714854     
   3722101234.9651051     
   3689035671.0045209     
   3663981903.2511520     
   3456012358.8726501     
   3434805515.1429505     
   3420069822.7628403     
   3411670794.0951519     
   3409669933.6473975     
   3152508260.1719499     
   3152561729.7076297     
   3156637820.4706926     
   3164654175.7194963     
   3176595824.7351842     
   2909747180.4180636     
   2925101731.7304230     
   2941080985.4121003     
   2957624030.2546959     
   2974678355.1927061     
   3931863567.3588190     
   3872806095.5679679     
   3836225245.3355966     
   3824578483.1165543     
   3841018996.5831494     
   3663981903.2511520     
   3636626533.2466121     
   3623739029.4110756     
   3626106477.6779118     
   3644796011.8341336     
   3409669933.6473975     
   3394185215.0259180     
   3384540011.2211719     
   3380830756.5803699     
   3383218895.1734629     
   3176595824.7351842     
   3155518737.2635374     
   3130224791.9253211     
   3100718651.3084431     
   3067042165.9105721     
   2974678355.1927061     
   2935118220.5131125     
   2879238283.3557563     
   2807005773.4797106     
   2718543647.7769423     
   3841018996.5831494     
   3884672618.6377931     
   3931630822.7606859     
   3981647938.0917711     
   4034532846.8357806     
   3644796011.8341336     
   3652383666.7472115     
   3663749908.7619720     
   3679048984.4678869     
   3698440089.8974719     
   3383218895.1734629     
   3356850542.6438408     
   3335443934.9557862     
   3319282151.3491793     
   3308660590.6336432     
   3067042165.9105721     
   3005523915.4903474     
   2951495674.2877593     
   2905090470.9353209     
   2866490303.0154033     
   2718543647.7769423     
   2615357973.2272406     
   2524218534.0995779     
   2444943617.9605818     
   2377413089.0098691     
   4034532846.8357806     
   4023114109.7601113     
   4027178534.9910660     
   4047494127.4660654     
   4084729002.4693174     
   3698440089.8974719     
   3659776641.0929098     
   3633114835.3497787     
   3619202489.8905091     
   3618774226.5390649     
   3308660590.6336432     
   3245201303.1501260     
   3191145871.3121257     
   3147047919.4784169     
   3113518190.7595291     
   2866490303.0154033     
   2779253677.3021817     
   2699857886.1042142     
   2628520822.8434601     
   2565559608.6854467     
   2377413089.0098691     
   2265326139.2012706     
   2160765754.5006762     
   2063521951.9648576     
   1973478442.2670310     
   4084729002.4693174     
   4137766419.7694364     
   4240393929.7210164     
   4395609780.5141649     
   4605838857.4957495     
   3618774226.5390649     
   3650594900.1479549     
   3710544724.0939684     
   3800230672.2839794     
   3921173780.5168848     
   3113518190.7595291     
   3113785428.6601510     
   3124370564.9566164     
   3145720572.6343002     
   3178301522.6402516     
   2565559608.6854467     
   2520609756.9079452     
   2470825646.9147096     
   2416167646.4560857     
   2356615135.6255426     
   1973478442.2670310     
   1867431777.6415832     
   1743279913.5391719     
   1602006805.7071085     
   1445636430.8424735     
   4605838857.4957495     
   4770564083.4057217     
   5069318736.2098074     
   5516715299.4484015     
   6124972252.0534096     
   3921173780.5168848     
   4035444872.8766418     
   4223844587.7023740     
   4496689263.7171144     
   4864260476.2104921     
   3178301522.6402516     
   3221301729.6095276     
   3289000652.1206002     
   3385562203.4932656     
   3515917137.5205045     
   2356615135.6255426     
   2295506986.5335031     
   2221532937.2140985     
   2135183409.7097754     
   2037211293.7201345     
   1445636430.8424735     
   1249870689.9205980     
   1043444028.3083944     
   881037308.17953396     
   870822240.08003128     
   1956534908.4453595     
   2120426147.1114824     
   2285811412.9283910     
   2449753489.2843218     
   2610304592.8920197     
   1655378264.8829041     
   1822015270.9480484     
   1990433230.6511588     
   2157953772.0704432     
   2322828466.3037510     
   1395841671.9560144     
   1573611469.7786853     
   1752410056.4169929     
   1930247146.1153002     
   2105880307.7688038     
   1210054051.3169918     
   1402459140.6334774     
   1594411641.8312047     
   1785140951.0293677     
   1974192188.6457682     
   1140209881.7401834     
   1339050757.1196311     
   1538108243.1461771     
   1737382339.8198218     
   1936873047.1405652     
   2610304592.8920197     
   2679655098.4952822     
   2752993661.4246316     
   2829813065.2850776     
   2909747180.4180636     
   2322828466.3037510     
   2410696084.2641516     
   2500743055.3184295     
   2592582404.2788424     
   2685932895.0270438     
   2105880307.7688038     
   2210331340.1023135     
   2314729525.6173215     
   2418840387.1414776     
   2522494892.3422289     
   1974192188.6457682     
   2092213640.4110808     
   2207756066.9910374     
   2320744724.5075569     
   2431126728.5459547     
   1936873047.1405652     
   2064562693.2379513     
   2187566841.7111187     
   2305885492.5600648     
   2419518645.7847910     
   2909747180.4180636     
   2925101731.7304230     
   2941080985.4121003     
   2957624030.2546959     
   2974678355.1927061     
   2685932895.0270438     
   2707600846.8236423     
   2730982596.7695470     
   2756054551.1210613     
   2782798129.3178787     
   2522494892.3422289     
   2550943381.7161303     
   2582259067.0396271     
   2616439961.4135675     
   2653486095.6076264     
   2431126728.5459547     
   2465358323.8576941     
   2503638432.5359726     
   2545969477.3323517     
   2592354198.1577964     
   2419518645.7847910     
   2456915521.9750156     
   2499553223.7230625     
   2547431751.0289378     
   2600551103.8926339     
   2974678355.1927061     
   2935118220.5131125     
   2879238283.3557563     
   2807005773.4797106     
   2718543647.7769423     
   2782798129.3178787     
   2750246387.7439280     
   2711404240.9636803     
   2666123280.1892691     
   2614291451.8839068     
   2653486095.6076264     
   2639712018.3913717     
   2631224687.6221867     
   2628078290.5726838     
   2630339034.7020211     
   2592354198.1577964     
   2601009355.8535829     
   2626626876.9745889     
   2669278398.9497724     
   2729023936.0269618     
   2600551103.8926339     
   2626202698.4978318     
   2680386232.4345369     
   2763101705.7027526     
   2874349118.3024802     
   2718543647.7769423     
   2615357973.2272406     
   2524218534.0995779     
   2444943617.9605818     
   2377413089.0098691     
   2614291451.8839068     
   2557685401.6677032     
   2510269518.4570374     
   2472027808.2020516     
   2442969315.5130091     
   2630339034.7020211     
   2623620993.3607554     
   2622508163.6091347     
   2626999077.9691072     
   2637098190.6612101     
   2729023936.0269618     
   2772985070.7485018     
   2818509164.1919451     
   2865592168.0217395     
   2914231522.4609585     
   2874349118.3024802     
   2969025464.4679866     
   3061145420.3589664     
   3150708985.9754143     
   3237716161.3173399     
   2377413089.0098691     
   2265326139.2012706     
   2160765754.5006762     
   2063521951.9648576     
   1973478442.2670310     
   2442969315.5130091     
   2371549060.6898851     
   2308775159.6652265     
   2254702369.6789069     
   2209448185.9019294     
   2637098190.6612101     
   2609650952.9873319     
   2591308291.1741743     
   2582125233.4912109     
   2582173032.1804128     
   2914231522.4609585     
   2928451043.6604018     
   2951532837.3351607     
   2983488659.3304892     
   3024332113.5721197     
   3237716161.3173399     
   3289937144.4405465     
   3350537653.8885198     
   3419517689.6612616     
   3496877251.7587748     
   1973478442.2670310     
   1867431777.6415832     
   1743279913.5391719     
   1602006805.7071085     
   1445636430.8424735     
   2209448185.9019294     
   2134149688.3181229     
   2053552576.5138595     
   1967649696.6734805     
   1876498213.0842438     
   2582173032.1804128     
   2559403576.4790206     
   2548152913.4606061     
   2548570586.5790677     
   2560755799.4049015     
   3024332113.5721197     
   3053610803.9910212     
   3110019969.6756139     
   3193572046.1516829     
   3304235190.7704992     
   3496877251.7587748     
   3572138623.3091588     
   3690530492.6261973     
   3852052859.7098908     
   4056705724.5602360     
   1445636430.8424735     
   1249870689.9205980     
   1043444028.3083944     
   881037308.17953396     
   870822240.08003128     
   1876498213.0842438     
   1740047375.7302935     
   1593222522.3344655     
   1441451062.0702963     
   1295134398.3004851     
   2560755799.4049015     
   2551960337.4769521     
   2565898891.4431987     
   2602944246.4576592     
   2663330012.8402672     
   3304235190.7704992     
   3414025431.7987170     
   3576259560.9691114     
   3790518521.7673936     
   4056320867.1752591     
   4056705724.5602360     
   4282974101.0628314     
   4595144453.7034340     
   4993216782.4820385     
   5477191087.3986559     
   1140209881.7401834     
   1339050757.1196311     
   1538108243.1461771     
   1737382339.8198218     
   1936873047.1405652     
   1210054051.2942975     
   1402459140.6121025     
   1594411641.8109658     
   1785140951.0101674     
   1974192188.6275809     
   1395841671.9182129     
   1573611469.7415621     
   1752410056.3806510     
   1930247146.0798206     
   2105880307.7342937     
   1655378264.8379934     
   1822015270.9020276     
   1990433230.6044946     
   2157953772.0234737     
   2322828466.2567668     
   1956534908.3990154     
   2120426147.0620515     
   2285811412.8765616     
   2449753489.2306046     
   2610304592.8368287     
   1936873047.1405652     
   2064562693.2379513     
   2187566841.7111187     
   2305885492.5600648     
   2419518645.7847910     
   1974192188.6275809     
   2092213640.3940921     
   2207756066.9755554     
   2320744724.4939189     
   2431126728.5345087     
   2105880307.7342937     
   2210331340.0695863     
   2314729525.5870414     
   2418840387.1143622     
   2522494892.3190145     
   2322828466.2567668     
   2410696084.2186470     
   2500743055.2754283     
   2592582404.2394552     
   2685932894.9924221     
   2610304592.8368287     
   2679655098.4404531     
   2752993661.3714767     
   2829813065.2350550     
   2909747180.3727131     
   2419518645.7847910     
   2456915521.9750156     
   2499553223.7230625     
   2547431751.0289378     
   2600551103.8926339     
   2431126728.5345087     
   2465358323.8558402     
   2503638432.5451689     
   2545969477.3540759     
   2592354198.1935339     
   2522494892.3190145     
   2550943381.7087770     
   2582259067.0509257     
   2616439961.4463658     
   2653486095.6647954     
   2685932894.9924221     
   2707600846.8067861     
   2730982596.7743812     
   2756054551.1515884     
   2782798129.3781595     
   2909747180.3727131     
   2925101731.7002101     
   2941080985.4017711     
   2957624030.2690740     
   2974678355.2366939     
   2600551103.8926339     
   2626202698.4978318     
   2680386232.4345369     
   2763101705.7027526     
   2874349118.3024802     
   2592354198.1935339     
   2601009355.9040728     
   2626626877.0428014     
   2669278399.0385299     
   2729023936.1389952     
   2653486095.6647954     
   2639712018.4767709     
   2631224687.7431812     
   2628078290.7365537     
   2630339034.9159646     
   2782798129.3781595     
   2750246387.8401437     
   2711404241.1079097     
   2666123280.3937254     
   2614291452.1608562     
   2974678355.2366939     
   2935118220.5910959     
   2879238283.4826531     
   2807005773.6700201     
   2718543648.0443559     
   2874349118.3024802     
   2969025464.4679866     
   3061145420.3589664     
   3150708985.9754143     
   3237716161.3173399     
   2729023936.1389952     
   2772985070.8802085     
   2818509164.3431644     
   2865592168.1923676     
   2914231522.6509161     
   2630339034.9159646     
   2623620993.6167750     
   2622508163.9070082     
   2626999078.3086343     
   2637098191.0421605     
   2614291452.1608562     
   2557685402.0088320     
   2510269518.8625293     
   2472027808.6720476     
   2442969316.0475368     
   2718543648.0443559     
   2615357973.5736642     
   2524218534.5257444     
   2444943618.4673538     
   2377413089.5981717     
   3237716161.3173399     
   3289937144.4405465     
   3350537653.8885198     
   3419517689.6612616     
   3496877251.7587748     
   2914231522.6509161     
   2928451043.8670435     
   2951532837.5594549     
   2983488659.5734963     
   3024332113.8350830     
   2637098191.0421605     
   2609650953.4001203     
   2591308291.6202970     
   2582125233.9722791     
   2582173032.6983604     
   2442969316.0475368     
   2371549061.2676082     
   2308775160.2881041     
   2254702370.3489146     
   2209448186.6215243     
   2377413089.5981717     
   2265326139.8304329     
   2160765755.1721983     
   2063521952.6800687     
   1973478443.0279288     
   3496877251.7587748     
   3572138623.3091588     
   3690530492.6261973     
   3852052859.7098908     
   4056705724.5602360     
   3024332113.8350830     
   3053610804.2463326     
   3110019969.9286180     
   3193572046.4079738     
   3304235191.0359120     
   2582173032.6983604     
   2559403576.9893880     
   2548152913.9742308     
   2548570587.1067667     
   2560755799.9572921     
   2209448186.6215243     
   2134149689.0334826     
   2053552577.2416193     
   1967649697.4294317     
   1876498213.8825276     
   1973478443.0279288     
   1867431778.3704908     
   1743279914.2452815     
   1602006806.3904784     
   1445636431.4868550     
   4056705724.5602360     
   4282974101.0628314     
   4595144453.7034340     
   4993216782.4820385     
   5477191087.3986559     
   3304235191.0359120     
   3414025432.0138559     
   3576259561.1315808     
   3790518521.8711329     
   4056320867.2099648     
   2560755799.9572921     
   2551960337.9259162     
   2565898891.7725182     
   2602944246.6412210     
   2663330012.8393636     
   1876498213.8825276     
   1740047376.3715420     
   1593222522.7541344     
   1441451062.1550701     
   1295134397.8582797     
   1445636431.4868550     
   1249870690.2601390     
   1043444028.1255721     
   881037307.11552334     
   870822237.94988918     
   1956534908.3990154     
   2120426147.0620515     
   2285811412.8765616     
   2449753489.2306046     
   2610304592.8368287     
   2299791442.7665744     
   2450053806.3418527     
   2605128145.3842363     
   2763107608.7698255     
   2922571168.6051183     
   2695421073.7159152     
   2830575105.3820438     
   2973079716.2157040     
   3121867295.5081491     
   3276037629.5757990     
   3138189074.1554523     
   3255030360.6992722     
   3381275398.7692151     
   3516471782.5597038     
   3660175852.9621243     
   3624586832.6351576     
   3718617175.9948416     
   3823833994.8006644     
   3940193604.1705613     
   4067620817.7600069     
   2610304592.8368287     
   2679655098.4404531     
   2752993661.3714767     
   2829813065.2350550     
   2909747180.3727131     
   2922571168.6051183     
   2977518913.9750080     
   3034581940.7659359     
   3093087653.4668341     
   3152508260.1084495     
   3276037629.5757990     
   3321127931.7643104     
   3366672665.6801720     
   3411856668.8625789     
   3456012358.7973418     
   3660175852.9621243     
   3700429062.3453588     
   3739751412.2337289     
   3777232849.4458933     
   3812118076.0179186     
   4067620817.7600069     
   4108041726.4859648     
   4146435535.5314822     
   4181856214.0908051     
   4213527161.3683619     
   2909747180.3727131     
   2925101731.7002101     
   2941080985.4017711     
   2957624030.2690740     
   2974678355.2366939     
   3152508260.1084495     
   3152561729.6500549     
   3156637820.4223275     
   3164654175.6837478     
   3176595824.7155871     
   3456012358.7973418     
   3434805515.0654397     
   3420069822.6850533     
   3411670794.0191865     
   3409669933.5755501     
   3812118076.0179186     
   3763045134.0830002     
   3722101234.8689146     
   3689035670.9014797     
   3663981903.1423340     
   4213527161.3683619     
   4129627442.7627068     
   4054925507.6875391     
   3988955480.2301598     
   3931863567.2301574     
   2974678355.2366939     
   2935118220.5910959     
   2879238283.4826531     
   2807005773.6700201     
   2718543648.0443559     
   3176595824.7155871     
   3155518737.2555108     
   3130224791.9381523     
   3100718651.3511791     
   3067042165.9918766     
   3409669933.5755501     
   3394185214.9476137     
   3384540011.1416492     
   3380830756.5051184     
   3383218895.1082129     
   3663981903.1423340     
   3636626533.1196408     
   3623739029.2679334     
   3626106477.5210929     
   3644796011.6665568     
   3931863567.2301574     
   3872806095.4163837     
   3836225245.1597013     
   3824578482.9151673     
   3841018996.3550844     
   2718543648.0443559     
   2615357973.5736642     
   2524218534.5257444     
   2444943618.4673538     
   2377413089.5981717     
   3067042165.9918766     
   3005523915.6246696     
   2951495674.4760299     
   2905090471.1784234     
   2866490303.3141594     
   3383218895.1082129     
   3356850542.6088066     
   3335443934.9507508     
   3319282151.3738117     
   3308660590.6875286     
   3644796011.6665568     
   3652383666.5863619     
   3663749908.6057839     
   3679048984.3143649     
   3698440089.7447214     
   3841018996.3550844     
   3884672618.3903003     
   3931630822.4897566     
   3981647937.7938790     
   4034532846.5078526     
   2377413089.5981717     
   2265326139.8304329     
   2160765755.1721983     
   2063521952.6800687     
   1973478443.0279288     
   2866490303.3141594     
   2779253677.5968051     
   2699857886.3957415     
   2628520823.1330457     
   2565559608.9747772     
   3308660590.6875286     
   3245201303.1585364     
   3191145871.2732882     
   3147047919.3907094     
   3113518190.6216826     
   3698440089.7447214     
   3659776640.8548398     
   3633114835.0205865     
   3619202489.4646330     
   3618774226.0113935     
   4034532846.5078526     
   4023114109.3074722     
   4027178534.4032664     
   4047494126.7332082     
   4084729001.5823236     
   1973478443.0279288     
   1867431778.3704908     
   1743279914.2452815     
   1602006806.3904784     
   1445636431.4868550     
   2565559608.9747772     
   2520609757.1092486     
   2470825647.0417857     
   2416167646.5226941     
   2356615135.6452284     
   3113518190.6216826     
   3113785428.3856812     
   3124370564.5548477     
   3145720572.1156287     
   3178301522.0161915     
   3618774226.0113935     
   3650594899.4429140     
   3710544723.2131367     
   3800230671.2299333     
   3921173779.2930980     
   4084729001.5823236     
   4137766418.6707273     
   4240393928.4031200     
   4395609778.9706202     
   4605838855.7207537     
   1445636431.4868550     
   1249870690.2601390     
   1043444028.1255721     
   881037307.11552334     
   870822237.94988918     
   2356615135.6452284     
   2295506986.3295379     
   2221532936.7792158     
   2135183409.0384665     
   2037211292.8095429     
   3178301522.0161915     
   3221301728.7679238     
   3289000651.0568776     
   3385562202.1855707     
   3515917135.9236779     
   3921173779.2930980     
   4035444871.4918833     
   4223844586.1383843     
   4496689261.9109201     
   4864260474.0452490     
   4605838855.7207537     
   4770564081.6058636     
   5069318734.3556528     
   5516715297.4316168     
   6124972249.6779623     
   3624586832.6351576     
   3718617175.9948416     
   3823833994.8006644     
   3940193604.1705613     
   4067620817.7600069     
   4133273057.2723894     
   4222771507.8251996     
   4318111184.2070532     
   4417635369.6817265     
   4519889717.8003654     
   4642580091.5332336     
   4753831631.9451857     
   4866130285.9459658     
   4976823733.7665367     
   5083972144.8376102     
   5150963842.6274328     
   5309941436.3088264     
   5465493959.3867340     
   5614696765.1342497     
   5756061599.4576559     
   5658150900.6561403     
   5890243785.5281305     
   6114677927.7872744     
   6328959063.3484001     
   6532839992.5637360     
   4067620817.7600069     
   4108041726.4859648     
   4146435535.5314822     
   4181856214.0908051     
   4213527161.3683619     
   4519889717.8003654     
   4531526616.7743626     
   4547938350.3857117     
   4566636782.4940557     
   4585928173.6462784     
   5083972144.8376102     
   5045351049.7894363     
   5016979677.3079014     
   4993674271.8071766     
   4972283073.2071724     
   5756061599.4576559     
   5644186617.5881653     
   5547827918.8167295     
   5457981713.4988127     
   5369145762.3715906     
   6532839992.5637360     
   6323386475.8551521     
   6135542621.4931488     
   5955522623.7217379     
   5774359981.4776697     
   4213527161.3683619     
   4129627442.7627068     
   4054925507.6875391     
   3988955480.2301598     
   3931863567.2301574     
   4585928173.6462784     
   4470614711.1367283     
   4360844753.3142958     
   4256511000.3688760     
   4157794364.6360073     
   4972283073.2071724     
   4833039148.3666544     
   4697161213.9110336     
   4564684884.6877298     
   4435746771.9088669     
   5369145762.3715906     
   5213497267.5877190     
   5060345971.0808392     
   4909720488.1010189     
   4761682358.3132639     
   5774359981.4776697     
   5609530435.4391098     
   5447490348.1122923     
   5288121801.3531618     
   5131369336.2276592     
   3931863567.2301574     
   3872806095.4163837     
   3836225245.1597013     
   3824578482.9151673     
   3841018996.3550844     
   4157794364.6360073     
   4043979343.6604114     
   3943107520.3712564     
   3856730569.8563304     
   3786865240.1796589     
   4435746771.9088669     
   4285723738.9476423     
   4141028291.0006900     
   4002193087.8365068     
   3869903625.6531348     
   4761682358.3132639     
   4596440293.6521997     
   4431424346.1511240     
   4266677287.1548538     
   4102259992.2330551     
   5131369336.2276592     
   4972890068.5048323     
   4812176021.7223701     
   4649577116.4334793     
   4485663728.0331936     
   3841018996.3550844     
   3884672618.3903003     
   3931630822.4897566     
   3981647937.7938790     
   4034532846.5078526     
   3786865240.1796589     
   3773469481.5635505     
   3762454205.1929317     
   3754127373.1931314     
   3748849684.6972690     
   3869903625.6531348     
   3807927707.0602231     
   3747348391.8332019     
   3688489163.6245184     
   3631783745.6547780     
   4102259992.2330551     
   4003505950.9535227     
   3906107131.0455761     
   3809921454.7859654     
   3714945379.1381536     
   4485663728.0331936     
   4361731806.7989635     
   4240694462.4924021     
   4121699800.8990660     
   4004023652.0953841     
   4034532846.5078526     
   4023114109.3074722     
   4027178534.4032664     
   4047494126.7332082     
   4084729001.5823236     
   3748849684.6972690     
   3670926058.9538474     
   3604439548.4330096     
   3550372978.6950903     
   3509735147.2242975     
   3631783745.6547780     
   3498150528.6468439     
   3370840834.1092601     
   3250505398.1719952     
   3137927574.7445793     
   3714945379.1381536     
   3547048562.4488010     
   3381975222.0212932     
   3219775050.5053148     
   3060562057.1988039     
   4004023652.0953841     
   3828009282.6418700     
   3655182292.1165972     
   3485552459.2603064     
   3319171945.3032241     
   4084729001.5823236     
   4137766418.6707273     
   4240393928.4031200     
   4395609778.9706202     
   4605838855.7207537     
   3509735147.2242975     
   3443053124.8297048     
   3409905952.3130054     
   3414153766.3212075     
   3459350022.4683166     
   3137927574.7445793     
   2965666914.8086843     
   2806230616.2356148     
   2662236790.2978067     
   2536860300.9440837     
   3060562057.1988039     
   2835508248.6630225     
   2609320373.0755234     
   2382114093.4582491     
   2154084754.2260637     
   3319171945.3032241     
   3123517582.6232333     
   2936072880.9511809     
   2762167136.3293333     
   2608959268.6867285     
   4605838855.7207537     
   4770564081.6058636     
   5069318734.3556528     
   5516715297.4316168     
   6124972249.6779623     
   3459350022.4683166     
   3353498111.2862329     
   3338037477.7309384     
   3424486001.9252477     
   3619890508.1554370     
   2536860300.9440837     
   2197238809.1291876     
   1893145726.8013935     
   1644071117.4349227     
   1478038189.0809743     
   2154084754.2260637     
   1771940071.7264137     
   1451194505.8938775     
   1295299729.3540754     
   1429741235.0035086     
   2608959268.6867285     
   2502086672.7711949     
   2563811820.8173108     
   2861505810.2977924     
   3424762418.8648324     
   5658150900.6561403     
   5890243785.5281305     
   6114677927.7872744     
   6328959063.3484001     
   6532839992.5637360     
   6492378764.2333984     
   6587190454.8276272     
   6757191583.3177729     
   6960347835.3341656     
   7170019146.5298882     
   7982172807.1539297     
   7735315682.9200125     
   7669748505.9016294     
   7670390040.3243217     
   7667369167.4040794     
   10127993519.086910     
   9321473771.5970764     
   8827124649.2379360     
   8445573383.1402302     
   8039213104.0094414     
   12929934815.066442     
   11338407373.258623     
   10210509526.953119     
   9275561730.3766460     
   8309570071.7471666     
   6532839992.5637360     
   6323386475.8551521     
   6135542621.4931488     
   5955522623.7217379     
   5774359981.4776697     
   7170019146.5298882     
   6910600394.2687092     
   6658814742.4177713     
   6410823072.0785303     
   6163497027.7870007     
   7667369167.4040794     
   7384608197.4751444     
   7107095302.1478691     
   6834899870.3531055     
   6568199840.8284664     
   8039213104.0094414     
   7752851868.4572201     
   7481922576.9280453     
   7224531073.5695782     
   6980662241.4454670     
   8309570071.7471666     
   8027701598.8204613     
   7787327822.5183764     
   7578058823.4182758     
   7395019556.6886730     
   5774359981.4776697     
   5609530435.4391098     
   5447490348.1122923     
   5288121801.3531618     
   5131369336.2276592     
   6163497027.7870007     
   6005497848.2047081     
   5847875732.4137897     
   5690628973.7561207     
   5533756954.1666851     
   6568199840.8284664     
   6416644671.5045881     
   6263198661.0640078     
   6107811942.6869087     
   5950465222.2588358     
   6980662241.4454670     
   6836203506.4178286     
   6687720544.0395699     
   6534989945.0185509     
   6377926037.0482378     
   7395019556.6886730     
   7259060069.5012026     
   7117084980.2471313     
   6968606488.4668474     
   6813448927.3109522     
   5131369336.2276592     
   4972890068.5048323     
   4812176021.7223701     
   4649577116.4334793     
   4485663728.0331936     
   5533756954.1666851     
   5392493967.1323023     
   5251701585.3482304     
   5111490640.9756746     
   4972040515.0756512     
   5950465222.2588358     
   5813583063.2122641     
   5678816550.8572674     
   5546156191.6472120     
   5415634246.8869658     
   6377926037.0482378     
   6232246954.9658203     
   6089496847.4765987     
   5949719504.4462490     
   5813073364.3569422     
   6813448927.3109522     
   6645759063.5922613     
   6481138801.3851442     
   6319865899.8702593     
   6162493669.4175425     
   4485663728.0331936     
   4361731806.7989635     
   4240694462.4924021     
   4121699800.8990660     
   4004023652.0953841     
   4972040515.0756512     
   4839081923.1260080     
   4706572162.8303308     
   4574043970.8340178     
   4441124222.5200472     
   5415634246.8869658     
   5275250009.2224646     
   5133740427.7711382     
   4990874158.0624542     
   4846491075.9845934     
   5813073364.3569422     
   5667920439.4401464     
   5520679236.9101295     
   5371246333.2037964     
   5219577090.4437180     
   6162493669.4175425     
   6015838290.7980461     
   5866588511.0497808     
   5714686031.3712826     
   5560128426.6737623     
   4004023652.0953841     
   3828009282.6418700     
   3655182292.1165972     
   3485552459.2603064     
   3319171945.3032241     
   4441124222.5200472     
   4263148976.1250515     
   4087071554.2959447     
   3912859471.2164240     
   3740499498.0730166     
   4846491075.9845934     
   4665890920.0609093     
   4486360122.0921679     
   4307869353.7303247     
   4130397852.8960094     
   5219577090.4437180     
   5036050750.8483171     
   4853083423.3907452     
   4670669901.5653629     
   4488810128.2757559     
   5560128426.6737623     
   5373602064.4890003     
   5187347361.2438011     
   5001392506.7424507     
   4815772040.2183247     
   3319171945.3032241     
   3123517582.6232333     
   2936072880.9511809     
   2762167136.3293333     
   2608959268.6867285     
   3740499498.0730166     
   3565210564.8208370     
   3394531139.2350283     
   3230234257.8348703     
   3074589349.3115001     
   4130397852.8960094     
   3960976300.7534094     
   3794859936.0578680     
   3632343338.8388262     
   3473845142.0976253     
   4488810128.2757559     
   4310305942.6045170     
   4135394484.2240882     
   3964188374.6388245     
   3797056602.6365399     
   4815772040.2183247     
   4613045501.2405405     
   4415552115.4435892     
   4224281705.3010206     
   4040990600.8529196     
   2608959268.6867285     
   2502086672.7711949     
   2563811820.8173108     
   2861505810.2977924     
   3424762418.8648324     
   3074589349.3115001     
   2974543847.0221057     
   2905976549.7450523     
   2880867411.1916666     
   2912831935.5779176     
   3473845142.0976253     
   3343052430.0889578     
   3196014174.7574277     
   3034519709.1046128     
   2865555285.9572797     
   3797056602.6365399     
   3552950397.6832709     
   3274498131.3481660     
   2994404789.4001989     
   2797195127.2333550     
   4040990600.8529196     
   3583977795.6879478     
   3080426222.5222759     
   2626751989.8184466     
   2508837096.4250770     
 </DataArray>
 <DataArray  type="Float64" Name="strain" NumberOfComponents="3" format="ascii">
  0.20341577859399554        0.0000000000000000       0.12528259079712278     
  0.18662441022661530       -2.7305777101850393E-002   7.4306326757163560E-002
  0.16983304185923509       -4.4661830016652589E-002   3.5140709532038239E-002
  0.15304167349185488       -5.2068158744406595E-002   7.7857391217467792E-003
  0.13625030512447467       -4.9524763285112433E-002  -7.7585844737107085E-003
  0.15983999663863252        0.0000000000000000        9.6352754552271339E-002
  0.15318039619757617       -2.1829634992409554E-002   6.2633903764408999E-002
  0.14652079575651980       -3.6160473380981412E-002   3.7367942014360472E-002
  0.13986119531546343       -4.2992515165715596E-002   2.0554869302125842E-002
  0.13320159487440708       -4.2325760346612062E-002   1.2194685627704968E-002
  0.12647624642843344        0.0000000000000000        7.4124524208465992E-002
  0.12659065613668088       -1.6353492882968706E-002   5.5212159089490023E-002
  0.12670506584492836       -2.7659116745310231E-002   4.1394925231307854E-002
  0.12681947555317580       -3.3916871587024562E-002   3.2672822633919407E-002
  0.12693388526142318       -3.5126757408111720E-002   2.9045851297324767E-002
  0.10332452796339839        0.0000000000000000        5.8597899765706743E-002
  0.10685519004392954       -1.0877350773527862E-002   5.2041092732406674E-002
  0.11038585212446073       -1.9157760109639051E-002   4.7221659182880280E-002
  0.11391651420499188       -2.4841228008333542E-002   4.4139599117127566E-002
  0.11744717628552304       -2.7927754469611363E-002   4.2794912535148569E-002
   9.0384841243527289E-002   0.0000000000000000        4.9772881223993586E-002
   9.3973997919322122E-002  -5.4012086640870191E-003   5.3120704693158882E-002
   9.7563154595116955E-002  -1.0656403473967863E-002   5.4848143869077819E-002
  0.10115231127091176       -1.5765584429642526E-002   5.4955198751750367E-002
  0.10474146794670661       -2.0728751531111006E-002   5.3441869341176521E-002
  0.13625030512447467       -4.9524763285112433E-002  -7.7585844737107085E-003
  0.13305564502102354       -4.3040975035651491E-002  -3.4446237620665218E-003
  0.12986098491757245       -3.8626125392905289E-002  -5.0241906987321186E-004
  0.12666632481412135       -3.6280214356873758E-002   1.0680296028691312E-003
  0.12347166471067023       -3.6003241927556967E-002   1.2667222561605629E-003
  0.13320159487440708       -4.2325760346612062E-002   1.2194685627704968E-002
  0.12901149760836875       -3.8488958564456471E-002   1.2052145191072446E-002
  0.12482140034233037       -3.5810859460034275E-002   1.1290486448716323E-002
  0.12063130307629207       -3.4291463033345550E-002   9.9097094006367001E-003
  0.11644120581025366       -3.3930769284390316E-002   7.9098140468333994E-003
  0.12693388526142318       -3.5126757408111720E-002   2.9045851297324767E-002
  0.12250098854652497       -3.3936942093261382E-002   2.5357045641396753E-002
  0.11806809183162673       -3.2995593527163254E-002   2.1801759393472481E-002
  0.11363519511672852       -3.2302711709817314E-002   1.8379992553552070E-002
  0.10920229840183025       -3.1858296641223624E-002   1.5091745121635421E-002
  0.11744717628552304       -2.7927754469611363E-002   4.2794912535148569E-002
  0.11352411783549225       -2.9384925622066321E-002   3.6470077588906358E-002
  0.10960105938546146       -3.0180327594292237E-002   3.1031399764395340E-002
  0.10567800093543067       -3.0313960386289127E-002   2.6478879061615300E-002
  0.10175494248539986       -2.9785823998056939E-002   2.2812515480566488E-002
  0.10474146794670661       -2.0728751531111006E-002   5.3441869341176521E-002
  0.10208088547527058       -2.4832909150871278E-002   4.5391241033601308E-002
   9.9420303003834559E-002  -2.7365061661421226E-002   3.8979407561484623E-002
   9.6759720532398535E-002  -2.8325209062760901E-002   3.4206368924826390E-002
   9.4099138060962526E-002  -2.7713351354890281E-002   3.1072125123626601E-002
  0.12347166471067023       -3.6003241927556967E-002   1.2667222561605629E-003
  0.12093190781518853       -3.6513144297310104E-002   6.9581142844674093E-004
  0.11839215091970684       -3.6527857658488837E-002   7.7653885485307050E-005
  0.11585239402422513       -3.6047382011092595E-002  -5.8775037272355141E-004
  0.11331263712874345       -3.5071717355122045E-002  -1.3004013461799802E-003
  0.11644120581025366       -3.3930769284390316E-002   7.9098140468333994E-003
  0.11386299713497539       -3.3988823029736839E-002   7.5474479954156931E-003
  0.11128478845969710       -3.3725669085953661E-002   7.1554250996523974E-003
  0.10870657978441881       -3.3141307453040753E-002   6.7337453595432799E-003
  0.10612837110914047       -3.2235738130998004E-002   6.2824087750886215E-003
  0.10920229840183025       -3.1858296641223624E-002   1.5091745121635421E-002
  0.10660322781765716       -3.1464501762163553E-002   1.4763942527069113E-002
  0.10400415723348411       -3.0923480513418655E-002   1.4424072959058853E-002
  0.10140508664931103       -3.0235232894988754E-002   1.4072136417604736E-002
   9.8806016065137975E-002  -2.9399758906874129E-002   1.3708132902706824E-002
  0.10175494248539986       -2.9785823998056939E-002   2.2812515480566488E-002
   9.9152599863233826E-002  -2.8940180494590292E-002   2.2345295023406545E-002
   9.6550257241067819E-002  -2.8121291940883593E-002   2.1883597463704531E-002
   9.3947914618901771E-002  -2.7329158336936887E-002   2.1427422801460583E-002
   9.1345571996735792E-002  -2.6563779682750199E-002   2.0976771036674554E-002
   9.4099138060962526E-002  -2.7713351354890281E-002   3.1072125123626601E-002
   9.1511113271705399E-002  -2.6415859227016988E-002   3.0291505484428161E-002
   8.8923088482448259E-002  -2.5319103368348528E-002   2.9533998613589602E-002
   8.6335063693191133E-002  -2.4423083778884955E-002   2.8799604511110743E-002
   8.3747038903933979E-002  -2.3727800458626241E-002   2.8088323176991808E-002
  0.11331263712874345       -3.5071717355122045E-002  -1.3004013461799802E-003
  0.11058578592173285       -3.3961149828452608E-002  -9.2781283455922736E-004
  0.10785893471472224       -3.3075965568960211E-002  -9.2252641687273762E-005
  0.10513208350771164       -3.2416164576645340E-002   1.2062792324358945E-003
  0.10240523230070103       -3.1981746851507620E-002   2.9677827878099583E-003
  0.10612837110914047       -3.2235738130998004E-002   6.2824087750886215E-003
  0.10375849164395531       -3.1263846162900275E-002   6.2039354907857253E-003
  0.10138861217877015       -3.0480516591822035E-002   6.3764340088824922E-003
   9.9018732713584981E-002  -2.9885749417763310E-002   6.7999043293791514E-003
   9.6648853248399780E-002  -2.9479544640724165E-002   7.4743464522754322E-003
   9.8806016065137975E-002  -2.9399758906874129E-002   1.3708132902706824E-002
   9.6581108462926807E-002  -2.8566542497347996E-002   1.3215418692637884E-002
   9.4356200860715680E-002  -2.7885067614683630E-002   1.2761676406117341E-002
   9.2131293258504554E-002  -2.7355334258881162E-002   1.2346906043144923E-002
   8.9906385656293372E-002  -2.6977342429940682E-002   1.1971107603721262E-002
   9.1345571996735792E-002  -2.6563779682750199E-002   2.0976771036674554E-002
   8.9053636378647300E-002  -2.5869238831795607E-002   2.0106636770997322E-002
   8.6761700760558835E-002  -2.5289618637545228E-002   1.9063474550016897E-002
   8.4469765142470302E-002  -2.4824919099999100E-002   1.7847284373733577E-002
   8.2177829524381879E-002  -2.4475140219157268E-002   1.6458066242147188E-002
   8.3747038903933979E-002  -2.3727800458626241E-002   2.8088323176991808E-002
   8.1176075391116778E-002  -2.3171935166243357E-002   2.6877589725863779E-002
   7.8605111878299577E-002  -2.2694169660406861E-002   2.5281828440581272E-002
   7.6034148365482376E-002  -2.2294503941117046E-002   2.3301039321144502E-002
   7.3463184852665175E-002  -2.1972938008373799E-002   2.0935222367553297E-002
  0.10240523230070103       -3.1981746851507620E-002   2.9677827878099583E-003
   9.9883278863955705E-002  -3.1565698786281932E-002   2.7967457527704465E-003
   9.7361325427210349E-002  -3.0961006773702879E-002   2.6327724051114221E-003
   9.4839371990465007E-002  -3.0167670813770541E-002   2.4758627448333986E-003
   9.2317418553719666E-002  -2.9185690906485151E-002   2.3260167719358904E-003
   9.6648853248399780E-002  -2.9479544640724165E-002   7.4743464522754322E-003
   9.4180355313082414E-002  -2.9077483811373178E-002   6.5480719159763945E-003
   9.1711857377765021E-002  -2.8495148480378901E-002   5.7216446951524891E-003
   8.9243359442447601E-002  -2.7732538647741188E-002   4.9950647898036674E-003
   8.6774861507130263E-002  -2.6789654313460198E-002   4.3683321999302693E-003
   8.9906385656293372E-002  -2.6977342429940682E-002   1.1971107603721262E-002
   8.7584126850498475E-002  -2.6589268836464355E-002   1.0281226120452625E-002
   8.5261868044703537E-002  -2.6029290187054875E-002   8.7839755807535419E-003
   8.2939609238908668E-002  -2.5297406481711616E-002   7.4793559846244619E-003
   8.0617350433113744E-002  -2.4393617720435246E-002   6.3673673320648883E-003
   8.2177829524381879E-002  -2.4475140219157268E-002   1.6458066242147188E-002
   8.0094593476203998E-002  -2.4101053861555706E-002   1.3996208366199060E-002
   7.8011357428026035E-002  -2.3563431893730651E-002   1.1819765061915176E-002
   7.5928121379848112E-002  -2.2862274315682263E-002   9.9287363292955809E-003
   7.3844885331670190E-002  -2.1997581127410348E-002   8.3231221683402329E-003
   7.3463184852665175E-002  -2.1972938008373799E-002   2.0935222367553297E-002
   7.1711755190198817E-002  -2.1612838886647029E-002   1.7693018653215792E-002
   6.9960325527732431E-002  -2.1097573600406733E-002   1.4829013138637132E-002
   6.8208895865266059E-002  -2.0427142149652765E-002   1.2343205823817142E-002
   6.6457466202799714E-002  -1.9601544534385340E-002   1.0235596708756012E-002
   9.2317418553719666E-002  -2.9185690906485151E-002   2.3260167719358904E-003
   8.9237335253625538E-002  -2.8114995313429314E-002   2.7121701170038648E-003
   8.6157251953531466E-002  -2.7055512296185802E-002   3.1406028979176215E-003
   8.3077168653437394E-002  -2.6007241854755017E-002   3.6113151146769384E-003
   7.9997085353343267E-002  -2.4970183989136308E-002   4.1243067672815936E-003
   8.6774861507130263E-002  -2.6789654313460198E-002   4.3683321999302693E-003
   8.3743820117484602E-002  -2.5774334376830382E-002   4.1229860557951692E-003
   8.0712778727838941E-002  -2.4794417737146010E-002   3.9334442967114969E-003
   7.7681737338193238E-002  -2.3849904394407272E-002   3.7997069226792940E-003
   7.4650695948547674E-002  -2.2940794348613958E-002   3.7217739336984357E-003
   8.0617350433113744E-002  -2.4393617720435246E-002   6.3673673320648883E-003
   7.7648875903122389E-002  -2.3433673440231451E-002   5.4663309775937335E-003
   7.4680401373131089E-002  -2.2533323178106107E-002   4.6346239573797632E-003
   7.1711926843139706E-002  -2.1692566934059639E-002   3.8722462714229494E-003
   6.8743452313148407E-002  -2.0911404708091719E-002   3.1791979197235976E-003
   7.3844885331670190E-002  -2.1997581127410348E-002   8.3231221683402329E-003
   7.0952502610539037E-002  -2.1093012503632574E-002   6.7422048823997417E-003
   6.8060119889407827E-002  -2.0272228619066371E-002   5.2441418799223857E-003
   6.5167737168276646E-002  -1.9535229473711949E-002   3.8289331609080053E-003
   6.2275354447145409E-002  -1.8882015067569313E-002   2.4965787253566213E-003
   6.6457466202799714E-002  -1.9601544534385340E-002   1.0235596708756012E-002
   6.3654700239734491E-002  -1.8752351567033559E-002   7.9506077702135025E-003
   6.0851934276669253E-002  -1.8011134060026510E-002   5.7619980643394964E-003
   5.8049168313604023E-002  -1.7377892013364257E-002   3.6697675911343264E-003
   5.5246402350538792E-002  -1.6852625427046963E-002   1.6739163505981591E-003
   7.9997085353343267E-002  -2.4970183989136308E-002   4.1243067672815936E-003
   7.6578235402088968E-002  -2.4084827928739672E-002   4.3376630844675912E-003
   7.3159385450834724E-002  -2.3491662902974164E-002   5.1224545116899112E-003
   6.9740535499580425E-002  -2.3190688911839605E-002   6.4786810489481927E-003
   6.6321685548326181E-002  -2.3181905955336646E-002   8.4063426962432963E-003
   7.4650695948547674E-002  -2.2940794348613958E-002   3.7217739336984357E-003
   7.1662254016038429E-002  -2.2163352839690176E-002   2.9731865232776045E-003
   6.8673812083529240E-002  -2.1613845107559093E-002   2.5139800403106982E-003
   6.5685370151020078E-002  -2.1292271152220307E-002   2.3441544847970786E-003
   6.2696928218510806E-002  -2.1198630973674804E-002   2.4637098567382720E-003
   6.8743452313148407E-002  -2.0911404708091719E-002   3.1791979197235976E-003
   6.5903364216801957E-002  -2.0241877750640291E-002   1.5329240395339228E-003
   6.3063276120455425E-002  -1.9736027312143384E-002  -1.0602309578369717E-004
   6.0223188024108934E-002  -1.9393853392601017E-002  -1.7376434862300394E-003
   5.7383099927762415E-002  -1.9215355992013405E-002  -3.3619371318048263E-003
   6.2275354447145409E-002  -1.8882015067569313E-002   2.4965787253566213E-003
   5.9301566004379268E-002  -1.8320402661590601E-002   1.6875633237142806E-005
   5.6327777561613196E-002  -1.7858209516727994E-002  -2.7375548965931848E-003
   5.3353989118847027E-002  -1.7495435632981834E-002  -5.7667128641345662E-003
   5.0380200676080920E-002  -1.7232081010351785E-002  -9.0705982693866372E-003
   5.5246402350538792E-002  -1.6852625427046963E-002   1.6739163505981591E-003
   5.1856859378770659E-002  -1.6398927572540856E-002  -1.5749586956134154E-003
   4.8467316407002525E-002  -1.5980391721312701E-002  -5.3806153621182295E-003
   4.5077773435234419E-002  -1.5597017873362398E-002  -9.7430536489159503E-003
   4.1688230463466314E-002  -1.5248806028689943E-002  -1.4662273556006966E-002
   6.6321685548326181E-002  -2.3181905955336646E-002   8.4063426962432963E-003
   5.8689307068713004E-002  -2.1159815831459872E-002   6.6946598483992314E-003
   5.1056928589099937E-002  -1.4818920338204089E-002   9.4907412815887771E-003
   4.3424550109486731E-002  -4.1592194755696865E-003   1.6794586995811156E-002
   3.5792171629873692E-002   1.0819286756442725E-002   2.8606196991066923E-002
   6.2696928218510806E-002  -2.1198630973674804E-002   2.4637098567382720E-003
   5.8663562993697183E-002  -1.9883847272160693E-002   1.6487181177823329E-003
   5.4630197768883476E-002  -1.5898842747915920E-002   3.5239886073918925E-003
   5.0596832544069784E-002  -9.2436174009411093E-003   8.0895213255677001E-003
   4.6563467319256202E-002   8.1828768764058424E-005   1.5345316272309173E-002
   5.7383099927762415E-002  -1.9215355992013405E-002  -3.3619371318048263E-003
   5.5131245905280901E-002  -1.8607878712861736E-002  -4.9288223085217908E-003
   5.2879391882799373E-002  -1.6978765157627973E-002  -5.6229473091396615E-003
   5.0627537860317810E-002  -1.4328015326312088E-002  -5.4443121336589240E-003
   4.8375683837836303E-002  -1.0655629218914386E-002  -4.3929167820807580E-003
   5.0380200676080920E-002  -1.7232081010351785E-002  -9.0705982693866372E-003
   4.8092355803464167E-002  -1.7331910153562669E-002  -1.3037961430511863E-002
   4.5804510930847350E-002  -1.8058687567340026E-002  -1.7950066468006336E-002
   4.3516666058230721E-002  -1.9412413251683511E-002  -2.3806913381869313E-002
   4.1228821185613898E-002  -2.1393087206592831E-002  -3.0608502172101315E-002
   4.1688230463466314E-002  -1.5248806028689943E-002  -1.4662273556006966E-002
   3.7546892688247013E-002  -1.6055941594263712E-002  -2.2678699248189549E-002
   3.3405554913027713E-002  -1.9138609977051857E-002  -3.3457368869207860E-002
   2.9264217137808399E-002  -2.4496811177054600E-002  -4.6998282419062828E-002
   2.5122879362589168E-002  -3.2130545194271498E-002  -6.3301439897753609E-002
   9.0384841243527289E-002   0.0000000000000000        4.9772881223993586E-002
   9.3973997919322122E-002  -5.4012086640870191E-003   5.3120704693158882E-002
   9.7563154595116955E-002  -1.0656403473967863E-002   5.4848143869077819E-002
  0.10115231127091176       -1.5765584429642526E-002   5.4955198751750367E-002
  0.10474146794670661       -2.0728751531111006E-002   5.3441869341176521E-002
   8.2432243980682232E-002   0.0000000000000000        4.4723989181775156E-002
   8.4630124850873525E-002  -4.5652028046441473E-003   4.8194440923177082E-002
   8.6828005721064805E-002  -9.0136742320831090E-003   5.0502725346618309E-002
   8.9025886591256112E-002  -1.3345414282316873E-002   5.1648842452098824E-002
   9.1223767461447378E-002  -1.7560422955345448E-002   5.1632792239618627E-002
   7.4241793886725277E-002   0.0000000000000000        4.0525744237500098E-002
   7.5506615926598700E-002  -3.7291969452012790E-003   4.4089541774137632E-002
   7.6771437966472136E-002  -7.3709449901983529E-003   4.6949388968100157E-002
   7.8036260006345573E-002  -1.0925244134991222E-002   4.9105285819387653E-002
   7.9301082046218996E-002  -1.4392094379579886E-002   5.0557232328000169E-002
   6.5813490961656410E-002   0.0000000000000000        3.7178146391168398E-002
   6.6603471146497659E-002  -2.8931910857584097E-003   4.0806007246040575E-002
   6.7393451331338908E-002  -5.7282157483135995E-003   4.4188134733523420E-002
   6.8183431516180157E-002  -8.5050739876655693E-003   4.7324528853616925E-002
   6.8973411701021392E-002  -1.1223765803814321E-002   5.0215189606321105E-002
   5.7147335205475630E-002   0.0000000000000000        3.4681195642780056E-002
   5.7920690510570375E-002  -2.0571852263155388E-003   3.8343837338885897E-002
   5.8694045815665133E-002  -4.0854865064288426E-003   4.2218962642888082E-002
   5.9467401120759870E-002  -6.0849038403399201E-003   4.6306571554786596E-002
   6.0240756425854615E-002  -8.0554372280487608E-003   5.0606664074581462E-002
  0.10474146794670661       -2.0728751531111006E-002   5.3441869341176521E-002
  0.10208088547527058       -2.4832909150871278E-002   4.5391241033601308E-002
   9.9420303003834559E-002  -2.7365061661421226E-002   3.8979407561484623E-002
   9.6759720532398535E-002  -2.8325209062760901E-002   3.4206368924826390E-002
   9.4099138060962526E-002  -2.7713351354890281E-002   3.1072125123626601E-002
   9.1223767461447378E-002  -1.7560422955345448E-002   5.1632792239618627E-002
   8.9975136561307373E-002  -2.1101346222987767E-002   4.6352058009300617E-002
   8.8726505661167354E-002  -2.3410830057062702E-002   4.2256432086116208E-002
   8.7477874761027322E-002  -2.4488874457570316E-002   3.9345914470065274E-002
   8.6229243860887317E-002  -2.4335479424510573E-002   3.7620505161147899E-002
   7.9301082046218996E-002  -1.4392094379579886E-002   5.0557232328000169E-002
   7.9010716189050034E-002  -1.7369783295104246E-002   4.7705826499296403E-002
   7.8720350331881100E-002  -1.9456598452704189E-002   4.5585842449401247E-002
   7.8429984474712167E-002  -2.0652539852379720E-002   4.4197280178314771E-002
   7.8139618617543219E-002  -2.0957607494130864E-002   4.3540139686036865E-002
   6.8973411701021392E-002  -1.1223765803814321E-002   5.0215189606321105E-002
   6.9187624358498651E-002  -1.3638220367220729E-002   4.9452546503588629E-002
   6.9401837015975867E-002  -1.5502366848345661E-002   4.8967638651339872E-002
   6.9616049673453057E-002  -1.6816205247189148E-002   4.8760466049574784E-002
   6.9830262330930315E-002  -1.7579735563751163E-002   4.8831028698293491E-002
   6.0240756425854615E-002  -8.0554372280487608E-003   5.0606664074581462E-002
   6.0505861069653097E-002  -9.9066574393372256E-003   5.1592218022177366E-002
   6.0770965713451572E-002  -1.1548135243987142E-002   5.2401820691932006E-002
   6.1036070357250040E-002  -1.2979870641998537E-002   5.3035472083845528E-002
   6.1301175001048508E-002  -1.4201863633371448E-002   5.3493172197917743E-002
   9.4099138060962526E-002  -2.7713351354890281E-002   3.1072125123626601E-002
   9.1511113271705399E-002  -2.6415859227016988E-002   3.0291505484428161E-002
   8.8923088482448259E-002  -2.5319103368348528E-002   2.9533998613589602E-002
   8.6335063693191133E-002  -2.4423083778884955E-002   2.8799604511110743E-002
   8.3747038903933979E-002  -2.3727800458626241E-002   2.8088323176991808E-002
   8.6229243860887317E-002  -2.4335479424510573E-002   3.7620505161147899E-002
   8.3731236479523158E-002  -2.3597715607119169E-002   3.6555340051159388E-002
   8.1233229098159027E-002  -2.2922653654631850E-002   3.5647096988597048E-002
   7.8735221716794895E-002  -2.2310293567048532E-002   3.4895775973460968E-002
   7.6237214335430722E-002  -2.1760635344369256E-002   3.4301377005750963E-002
   7.8139618617543219E-002  -2.0957607494130864E-002   4.3540139686036865E-002
   7.5865437923138476E-002  -2.0779571987221392E-002   4.2328463509559044E-002
   7.3591257228733747E-002  -2.0526203940915144E-002   4.1407518659573886E-002
   7.1317076534329019E-002  -2.0197503355212081E-002   4.0777305136081250E-002
   6.9042895839924276E-002  -1.9793470230112228E-002   4.0437822939081207E-002
   6.9830262330930315E-002  -1.7579735563751163E-002   4.8831028698293491E-002
   6.7913717602551354E-002  -1.7961428367323600E-002   4.7610875859627241E-002
   6.5997172874172394E-002  -1.8129754227198459E-002   4.6815263626519957E-002
   6.4080628145793461E-002  -1.8084713143375650E-002   4.6444191998971707E-002
   6.2164083417414487E-002  -1.7826305115855222E-002   4.6497660976982415E-002
   6.1301175001048508E-002  -1.4201863633371448E-002   5.3493172197917743E-002
   5.9876075517761751E-002  -1.5143284747425802E-002   5.2402577101363902E-002
   5.8450976034474994E-002  -1.5733304513481754E-002   5.1870331889435420E-002
   5.7025876551188237E-002  -1.5971922931539199E-002   5.1896436562132324E-002
   5.5600777067901480E-002  -1.5859140001598188E-002   5.2480891119454642E-002
   8.3747038903933979E-002  -2.3727800458626241E-002   2.8088323176991808E-002
   8.1176075391116778E-002  -2.3171935166243357E-002   2.6877589725863779E-002
   7.8605111878299577E-002  -2.2694169660406861E-002   2.5281828440581272E-002
   7.6034148365482376E-002  -2.2294503941117046E-002   2.3301039321144502E-002
   7.3463184852665175E-002  -2.1972938008373799E-002   2.0935222367553297E-002
   7.6237214335430722E-002  -2.1760635344369256E-002   3.4301377005750963E-002
   7.3447828494380391E-002  -2.1270800095304646E-002   3.3505233199105047E-002
   7.0658442653330017E-002  -2.0837908928565435E-002   3.2657272570147181E-002
   6.7869056812279657E-002  -2.0461961844151492E-002   3.1757495118877571E-002
   6.5079670971229298E-002  -2.0142958842062880E-002   3.0805900845295775E-002
   6.9042895839924276E-002  -1.9793470230112228E-002   4.0437822939081207E-002
   6.6368298682483243E-002  -1.9369665024366003E-002   4.0077424481138546E-002
   6.3693701525042223E-002  -1.8981648196723922E-002   3.9998420212726482E-002
   6.1019104367601162E-002  -1.8629419747185866E-002   4.0200810133844980E-002
   5.8344507210160157E-002  -1.8312979675751934E-002   4.0684594244494193E-002
   6.2164083417414487E-002  -1.7826305115855222E-002   4.6497660976982415E-002
   5.9937485955425314E-002  -1.7468529953427382E-002   4.6594163571964241E-002
   5.7710888493436141E-002  -1.7125387464882451E-002   4.7305271368319322E-002
   5.5484291031446975E-002  -1.6796877650220251E-002   4.8630984366047375E-002
   5.3257693569457788E-002  -1.6483000509441043E-002   5.0571302565148420E-002
   5.5600777067901480E-002  -1.5859140001598188E-002   5.2480891119454642E-002
   5.4155390313206653E-002  -1.5567394882488664E-002   5.3055450471582263E-002
   5.2710003558511825E-002  -1.5269126733040969E-002   5.4577826036925431E-002
   5.1264616803816998E-002  -1.4964335553254642E-002   5.7048017815484284E-002
   4.9819230049122171E-002  -1.4653021343130096E-002   6.0466025807258822E-002
   7.3463184852665175E-002  -2.1972938008373799E-002   2.0935222367553297E-002
   7.1711755190198817E-002  -2.1612838886647029E-002   1.7693018653215792E-002
   6.9960325527732431E-002  -2.1097573600406733E-002   1.4829013138637132E-002
   6.8208895865266059E-002  -2.0427142149652765E-002   1.2343205823817142E-002
   6.6457466202799714E-002  -1.9601544534385340E-002   1.0235596708756012E-002
   6.5079670971229298E-002  -2.0142958842062880E-002   3.0805900845295775E-002
   6.3651233257624174E-002  -1.9777659899990849E-002   2.9309192063830328E-002
   6.2222795544019105E-002  -1.9262824995626655E-002   2.8080268980328629E-002
   6.0794357830413953E-002  -1.8598454128970238E-002   2.7119131594790694E-002
   5.9365920116808912E-002  -1.7784547300021714E-002   2.6425779907216396E-002
   5.8344507210160157E-002  -1.8312979675751934E-002   4.0684594244494193E-002
   5.7128648943621234E-002  -1.7942480913334682E-002   4.0927750193679356E-002
   5.5912790677082297E-002  -1.7428076390846578E-002   4.1328279339033241E-002
   5.4696932410543374E-002  -1.6769766108287770E-002   4.1886181680555780E-002
   5.3481074144004444E-002  -1.5967550065658198E-002   4.2601457218247013E-002
   5.3257693569457788E-002  -1.6483000509441043E-002   5.0571302565148420E-002
   5.2144002248189963E-002  -1.6107301926678551E-002   5.2548693042763037E-002
   5.1030310926922159E-002  -1.5593327786066612E-002   5.4573044214751149E-002
   4.9916619605654321E-002  -1.4941078087605355E-002   5.6644356081112686E-002
   4.8802928284386510E-002  -1.4150552831294655E-002   5.8762628641847975E-002
   4.9819230049122171E-002  -1.4653021343130096E-002   6.0466025807258822E-002
   4.8697293171330355E-002  -1.4272122940022364E-002   6.4172020611081237E-002
   4.7575356293538568E-002  -1.3758579181286514E-002   6.7814563607482045E-002
   4.6453419415746766E-002  -1.3112390066922728E-002   7.1393654796461564E-002
   4.5331482537954965E-002  -1.2333555596931056E-002   7.4909294178019392E-002
   6.6457466202799714E-002  -1.9601544534385340E-002   1.0235596708756012E-002
   6.3654700239734491E-002  -1.8752351567033559E-002   7.9506077702135025E-003
   6.0851934276669253E-002  -1.8011134060026510E-002   5.7619980643394964E-003
   5.8049168313604023E-002  -1.7377892013364257E-002   3.6697675911343264E-003
   5.5246402350538792E-002  -1.6852625427046963E-002   1.6739163505981591E-003
   5.9365920116808912E-002  -1.7784547300021714E-002   2.6425779907216396E-002
   5.6683519928005729E-002  -1.6942398729364039E-002   2.5270963653843737E-002
   5.4001119739202560E-002  -1.6193302637580217E-002   2.4260499716326420E-002
   5.1318719550399336E-002  -1.5537259024670149E-002   2.3394388094664494E-002
   4.8636319361596209E-002  -1.4974267890633886E-002   2.2672628788857674E-002
   5.3481074144004444E-002  -1.5967550065658198E-002   4.2601457218247013E-002
   5.0967012812649710E-002  -1.5132445891694643E-002   4.2591736631515761E-002
   4.8452951481294915E-002  -1.4375471215133877E-002   4.2774341443826115E-002
   4.5938890149940209E-002  -1.3696626035975932E-002   4.3149271655178040E-002
   4.3424828818585406E-002  -1.3095910354220835E-002   4.3716527265571528E-002
   4.8802928284386510E-002  -1.4150552831294655E-002   5.8762628641847975E-002
   4.6505178893666524E-002  -1.3322493054025157E-002   5.9912926703229064E-002
   4.4207429502946496E-002  -1.2557639792687560E-002   6.1303523246838035E-002
   4.1909680112226497E-002  -1.1855993047281771E-002   6.2934418272674791E-002
   3.9611930721506483E-002  -1.1217552817807716E-002   6.4805611780739653E-002
   4.5331482537954965E-002  -1.2333555596931056E-002   7.4909294178019392E-002
   4.3298018171056052E-002  -1.1512540216355754E-002   7.7234533868983685E-002
   4.1264553804157153E-002  -1.0739808370241216E-002   7.9848045125362255E-002
   3.9231089437258247E-002  -1.0015360058587462E-002   8.2749827947155158E-002
   3.7197625070359369E-002  -9.3391952813947077E-003   8.5939882334362228E-002
   5.5246402350538792E-002  -1.6852625427046963E-002   1.6739163505981591E-003
   5.1856859378770659E-002  -1.6398927572540856E-002  -1.5749586956134154E-003
   4.8467316407002525E-002  -1.5980391721312701E-002  -5.3806153621182295E-003
   4.5077773435234419E-002  -1.5597017873362398E-002  -9.7430536489159503E-003
   4.1688230463466314E-002  -1.5248806028689943E-002  -1.4662273556006966E-002
   4.8636319361596209E-002  -1.4974267890633886E-002   2.2672628788857674E-002
   4.4909447007573183E-002  -1.4448877994493792E-002   2.1033142426518103E-002
   4.1182574653550075E-002  -1.3905638095272024E-002   1.9275778919961545E-002
   3.7455702299527022E-002  -1.3344548192968795E-002   1.7400538269188623E-002
   3.3728829945503941E-002  -1.2765608287584052E-002   1.5407420474198963E-002
   4.3424828818585406E-002  -1.3095910354220835E-002   4.3716527265571528E-002
   3.9799531558383908E-002  -1.2498828416446589E-002   4.3739441593463282E-002
   3.6174234298182423E-002  -1.1830884469231355E-002   4.4083383253214682E-002
   3.2548937037980931E-002  -1.1092078512575194E-002   4.4748352244826040E-002
   2.8923639777779453E-002  -1.0282410546477827E-002   4.5734348568296918E-002
   3.9611930721506483E-002  -1.1217552817807716E-002   6.4805611780739653E-002
   3.6527113031203040E-002  -1.0548778838399317E-002   6.6543938805222233E-002
   3.3442295340899500E-002  -9.7561308431908488E-003   6.9042197637640884E-002
   3.0357477650596026E-002  -8.8396088321814267E-003   7.2300388277996008E-002
   2.7272659960292513E-002  -7.7992128053717691E-003   7.6318510726287300E-002
   3.7197625070359369E-002  -9.3391952813947077E-003   8.5939882334362228E-002
   3.5092191426030400E-002  -8.5987292603523224E-003   8.9446634061795038E-002
   3.2986757781701417E-002  -7.6813772171500094E-003   9.4152222073240532E-002
   3.0881324137372435E-002  -6.5871391517878797E-003  0.10005664636869877     
   2.8775890493043466E-002  -5.3160150642656001E-003  0.10715990694816979     
   4.1688230463466314E-002  -1.5248806028689943E-002  -1.4662273556006966E-002
   3.7546892688247013E-002  -1.6055941594263712E-002  -2.2678699248189549E-002
   3.3405554913027713E-002  -1.9138609977051857E-002  -3.3457368869207860E-002
   2.9264217137808399E-002  -2.4496811177054600E-002  -4.6998282419062828E-002
   2.5122879362589168E-002  -3.2130545194271498E-002  -6.3301439897753609E-002
   3.3728829945503941E-002  -1.2765608287584052E-002   1.5407420474198963E-002
   2.7524405593310153E-002  -1.2799945498660398E-002   9.4843939575067759E-003
   2.1319981241116295E-002  -1.4078686945741103E-002   2.1974382157011751E-003
   1.5115556888922473E-002  -1.6601832628826224E-002  -6.4534467512168403E-003
   8.9111325367286498E-003  -2.0369382547915538E-002  -1.6468260943248048E-002
   2.8923639777779453E-002  -1.0282410546477827E-002   4.5734348568296918E-002
   2.2054443552334185E-002  -9.5439494030570837E-003   4.2935849808304782E-002
   1.5185247326889070E-002  -9.0187639144304610E-003   4.0171736526922963E-002
   8.3160511014438547E-003  -8.7068540805978478E-003   3.7442008724151404E-002
   1.4468548759986322E-003  -8.6082199015594663E-003   3.4746666399990078E-002
   2.7272659960292513E-002  -7.7992128053717691E-003   7.6318510726287300E-002
   2.1137006565319284E-002  -6.2879533074538252E-003   7.7675668304205664E-002
   1.5001353170346001E-002  -3.9588408831197630E-003   8.0465526064457185E-002
   8.8656997753727255E-003  -8.1187553236974908E-004   8.4688084007042294E-002
   2.7300463803995381E-003   3.1529427447965497E-003   9.0343342131961241E-002
   2.8775890493043466E-002  -5.3160150642656001E-003  0.10715990694816979     
   2.4772094632265318E-002  -3.0319572118504001E-003  0.11370384944520839     
   2.0768298771487156E-002   1.1010821481910182E-003  0.12307880682830380     
   1.6764502910708981E-002   7.0831030158587591E-003  0.13528477909745576     
   1.2760707049930820E-002   1.4914105391152566E-002  0.15032176625266480     
   5.7147335205475630E-002   0.0000000000000000        3.4681195642780056E-002
   5.7920690510570375E-002  -2.0571852263155388E-003   3.8343837338885897E-002
   5.8694045815665133E-002  -4.0854865064288426E-003   4.2218962642888082E-002
   5.9467401120759870E-002  -6.0849038403399201E-003   4.6306571554786596E-002
   6.0240756425854615E-002  -8.0554372280487608E-003   5.0606664074581462E-002
   4.8650900026697239E-002   0.0000000000000000        3.2805659749009272E-002
   4.9572392205174891E-002  -1.6870657289098506E-003   3.6988069528834558E-002
   5.0493884383652557E-002  -3.3893737393895559E-003   4.1254269447529336E-002
   5.1415376562130216E-002  -5.1069240314391175E-003   4.5604259505093572E-002
   5.2336868740607882E-002  -6.8397166050585302E-003   5.0038039701527308E-002
   4.0731758833835535E-002   0.0000000000000000        3.1322306466530211E-002
   4.1672694416669244E-002  -1.3169462315041616E-003   3.5980358102302865E-002
   4.2613629999502946E-002  -2.6932609723502657E-003   4.0593506407918131E-002
   4.3554565582336655E-002  -4.1289442225383175E-003   4.5161751383376018E-002
   4.4495501165170363E-002  -5.6239959820683092E-003   4.9685093028676526E-002
   3.3389911626890527E-002   0.0000000000000000        3.0231135795342891E-002
   3.4221597145053427E-002  -9.4682673409847299E-004   3.5320703059290831E-002
   3.5053282663216320E-002  -1.9971482053109781E-003   4.0236673524054495E-002
   3.5884968181379207E-002  -3.1509644136375127E-003   4.4979047189633928E-002
   3.6716653699542107E-002  -4.4082753590780864E-003   4.9547824056029109E-002
   2.6625358405862214E-002   0.0000000000000000        2.9532147735447302E-002
   2.7219100390327430E-002  -5.7670723669278352E-004   3.5009104399798409E-002
   2.7812842374792649E-002  -1.3010354382716870E-003   4.0183770795938413E-002
   2.8406584359257865E-002  -2.1729846047367149E-003   4.5056146923867307E-002
   2.9000326343723078E-002  -3.1925547360878602E-003   4.9626232783585106E-002
   6.0240756425854615E-002  -8.0554372280487608E-003   5.0606664074581462E-002
   6.0505861069653097E-002  -9.9066574393372256E-003   5.1592218022177366E-002
   6.0770965713451572E-002  -1.1548135243987142E-002   5.2401820691932006E-002
   6.1036070357250040E-002  -1.2979870641998537E-002   5.3035472083845528E-002
   6.1301175001048508E-002  -1.4201863633371448E-002   5.3493172197917743E-002
   5.2336868740607882E-002  -6.8397166050585302E-003   5.0038039701527308E-002
   5.2458054962102318E-002  -8.4814722069879514E-003   5.1321675930263808E-002
   5.2579241183596748E-002  -9.9259115839675331E-003   5.2493426592233446E-002
   5.2700427405091198E-002  -1.1173034735997227E-002   5.3553291687436208E-002
   5.2821613626585620E-002  -1.2222841663077098E-002   5.4501271215872109E-002
   4.4495501165170363E-002  -5.6239959820683092E-003   4.9685093028676526E-002
   4.4536834675435115E-002  -7.0562869746386807E-003   5.1254385356864954E-002
   4.4578168185699873E-002  -8.3036879239478910E-003   5.2775857829360839E-002
   4.4619501695964632E-002  -9.3661988299959080E-003   5.4249510446164252E-002
   4.4660835206229377E-002  -1.0243819692782749E-002   5.5675343207275123E-002
   3.6716653699542107E-002  -4.4082753590780864E-003   4.9547824056029109E-002
   3.6742200209651521E-002  -5.6311017422894152E-003   5.1390346301980812E-002
   3.6767746719760935E-002  -6.6814642639282506E-003   5.3249114403314299E-002
   3.6793293229870350E-002  -7.5593629239945875E-003   5.5124128360029695E-002
   3.6818839739979771E-002  -8.2647977224884137E-003   5.7015388172126862E-002
   2.9000326343723078E-002  -3.1925547360878602E-003   4.9626232783585106E-002
   2.9074151564751509E-002  -4.2059165099401427E-003   5.1729558765611354E-002
   2.9147976785779937E-002  -5.0592406039086197E-003   5.3913196314093817E-002
   2.9221802006808375E-002  -5.7525270179932557E-003   5.6177145429032425E-002
   2.9295627227836803E-002  -6.2857757521940505E-003   5.8521406110427249E-002
   6.1301175001048508E-002  -1.4201863633371448E-002   5.3493172197917743E-002
   5.9876075517761751E-002  -1.5143284747425802E-002   5.2402577101363902E-002
   5.8450976034474994E-002  -1.5733304513481754E-002   5.1870331889435420E-002
   5.7025876551188237E-002  -1.5971922931539199E-002   5.1896436562132324E-002
   5.5600777067901480E-002  -1.5859140001598188E-002   5.2480891119454642E-002
   5.2821613626585620E-002  -1.2222841663077098E-002   5.4501271215872109E-002
   5.1886512929946504E-002  -1.3036525521393800E-002   5.3974273605734618E-002
   5.0951412233307382E-002  -1.3575279467134079E-002   5.3868923684266989E-002
   5.0016311536668259E-002  -1.3839103500297822E-002   5.4185221451469201E-002
   4.9081210840029137E-002  -1.3827997620885171E-002   5.4923166907341406E-002
   4.4660835206229377E-002  -1.0243819692782749E-002   5.5675343207275123E-002
   4.4079031100282398E-002  -1.0929766295361774E-002   5.5635471648131984E-002
   4.3497226994335385E-002  -1.1417254420786376E-002   5.5880545581703203E-002
   4.2915422888388385E-002  -1.1706284069056491E-002   5.6410565007988779E-002
   4.2333618782441393E-002  -1.1796855240172197E-002   5.7225529926988775E-002
   3.6818839739979771E-002  -8.2647977224884137E-003   5.7015388172126862E-002
   3.6453630028769390E-002  -8.8230070693297597E-003   5.7386171228556063E-002
   3.6088420317559031E-002  -9.2592293744386597E-003   5.7905197581744068E-002
   3.5723210606348671E-002  -9.5734646378151499E-003   5.8572467231690968E-002
   3.5358000895138290E-002  -9.7657128594591733E-003   5.9387980178396790E-002
   2.9295627227836803E-002  -6.2857757521940505E-003   5.8521406110427249E-002
   2.9010309715407544E-002  -6.7162478432977457E-003   5.9226372347006770E-002
   2.8724992202978299E-002  -7.1012043280909987E-003   5.9942879684389605E-002
   2.8439674690549040E-002  -7.4406452065737816E-003   6.0670928122575851E-002
   2.8154357178119795E-002  -7.7345704787462055E-003   6.1410517661565439E-002
   5.5600777067901480E-002  -1.5859140001598188E-002   5.2480891119454642E-002
   5.4155390313206653E-002  -1.5567394882488664E-002   5.3055450471582263E-002
   5.2710003558511825E-002  -1.5269126733040969E-002   5.4577826036925431E-002
   5.1264616803816998E-002  -1.4964335553254642E-002   5.7048017815484284E-002
   4.9819230049122171E-002  -1.4653021343130096E-002   6.0466025807258822E-002
   4.9081210840029137E-002  -1.3827997620885171E-002   5.4923166907341406E-002
   4.8406478928581041E-002  -1.3660570563546991E-002   5.5114656796591145E-002
   4.7731747017132953E-002  -1.3455431062934346E-002   5.5899640159118878E-002
   4.7057015105684864E-002  -1.3212579119047038E-002   5.7278116994924397E-002
   4.6382283194236776E-002  -1.2932014731885294E-002   5.9250087304007798E-002
   4.2333618782441393E-002  -1.1796855240172197E-002   5.7225529926988775E-002
   4.2075218974302303E-002  -1.1753746244605269E-002   5.7065139766296943E-002
   4.1816819166163199E-002  -1.1641735392827722E-002   5.7143920338945227E-002
   4.1558419358024096E-002  -1.1460822684839394E-002   5.7461871644933660E-002
   4.1300019549885006E-002  -1.1211008120640423E-002   5.8018993684262214E-002
   3.5358000895138290E-002  -9.7657128594591733E-003   5.9387980178396790E-002
   3.5161610450370445E-002  -9.8469219256635439E-003   5.8906899380699471E-002
   3.4965220005602593E-002  -9.8280397227211262E-003   5.8310666576404602E-002
   3.4768829560834741E-002  -9.7090662506317572E-003   5.7599281765511989E-002
   3.4572439116066889E-002  -9.4900015093956000E-003   5.6772744948021932E-002
   2.8154357178119795E-002  -7.7345704787462055E-003   6.1410517661565439E-002
   2.7665653356785454E-002  -7.9400976067218326E-003   6.0639935639798831E-002
   2.7176949535451102E-002  -8.0143440526144680E-003   5.9399878871496836E-002
   2.6688245714116758E-002  -7.9573098164240890E-003   5.7690347356659462E-002
   2.6199541892782424E-002  -7.7689948981507218E-003   5.5511341095286743E-002
   4.9819230049122171E-002  -1.4653021343130096E-002   6.0466025807258822E-002
   4.8697293171330355E-002  -1.4272122940022364E-002   6.4172020611081237E-002
   4.7575356293538568E-002  -1.3758579181286514E-002   6.7814563607482045E-002
   4.6453419415746766E-002  -1.3112390066922728E-002   7.1393654796461564E-002
   4.5331482537954965E-002  -1.2333555596931056E-002   7.4909294178019392E-002
   4.6382283194236776E-002  -1.2932014731885294E-002   5.9250087304007798E-002
   4.5247849567826855E-002  -1.2592616012808991E-002   6.1468021165258555E-002
   4.4113415941416954E-002  -1.2173261073178149E-002   6.3724413336694638E-002
   4.2978982315007033E-002  -1.1673949912992886E-002   6.6019263818316104E-002
   4.1844548688597105E-002  -1.1094682532253014E-002   6.8352572610122675E-002
   4.1300019549885006E-002  -1.1211008120640423E-002   5.8018993684262214E-002
   4.0254999292463831E-002  -1.0913109085595576E-002   5.8696177467867816E-002
   3.9209979035042662E-002  -1.0587942965069753E-002   5.9513729679265506E-002
   3.8164958777621494E-002  -1.0235509759062875E-002   6.0471650318455493E-002
   3.7119938520200312E-002  -9.8558094675749719E-003   6.1569939385437450E-002
   3.4572439116066889E-002  -9.4900015093956000E-003   5.6772744948021932E-002
   3.3718742345241297E-002  -9.2336021583822661E-003   5.5856489518908779E-002
   3.2865045574415691E-002  -9.0026248569612891E-003   5.5182512635194685E-002
   3.2011348803590092E-002  -8.7970696051328946E-003   5.4750814296879564E-002
   3.1157652032764493E-002  -8.6169364028969853E-003   5.4561394503963502E-002
   2.6199541892782424E-002  -7.7689948981507218E-003   5.5511341095286743E-002
   2.5639078726159240E-002  -7.5540952311687892E-003   5.2948957318381507E-002
   2.5078615559536048E-002  -7.4173067488529573E-003   5.0730762204482180E-002
   2.4518152392912881E-002  -7.3586294512029884E-003   4.8856755753588561E-002
   2.3957689226289686E-002  -7.3780633382188876E-003   4.7326937965700866E-002
   4.5331482537954965E-002  -1.2333555596931056E-002   7.4909294178019392E-002
   4.3298018171056052E-002  -1.1512540216355754E-002   7.7234533868983685E-002
   4.1264553804157153E-002  -1.0739808370241216E-002   7.9848045125362255E-002
   3.9231089437258247E-002  -1.0015360058587462E-002   8.2749827947155158E-002
   3.7197625070359369E-002  -9.3391952813947077E-003   8.5939882334362228E-002
   4.1844548688597105E-002  -1.1094682532253014E-002   6.8352572610122675E-002
   4.0095748025230984E-002  -1.0480759593012021E-002   6.9407063801160171E-002
   3.8346947361864850E-002  -9.8774817573233434E-003   7.0742610833848626E-002
   3.6598146698498708E-002  -9.2848490251866995E-003   7.2359213708188430E-002
   3.4849346035132581E-002  -8.7028613966024793E-003   7.4256872424179499E-002
   3.7119938520200312E-002  -9.8558094675749719E-003   6.1569939385437450E-002
   3.5648585836603915E-002  -9.4489789696684118E-003   6.1391320507456264E-002
   3.4177233153007497E-002  -9.0151551444053596E-003   6.1486541747363441E-002
   3.2705880469411072E-002  -8.5543379917860478E-003   6.1855603105158731E-002
   3.1234527785814689E-002  -8.0665275118101953E-003   6.2498504580842329E-002
   3.1157652032764493E-002  -8.6169364028969853E-003   5.4561394503963502E-002
   2.9956531605174780E-002  -8.4171983463247127E-003   5.3187303987872581E-002
   2.8755411177585073E-002  -8.1528285314875146E-003   5.2079837865906808E-002
   2.7554290749995363E-002  -7.8238269583852851E-003   5.1238996138066269E-002
   2.6353170322405653E-002  -7.4301936270179947E-003   5.0664778804350885E-002
   2.3957689226289686E-002  -7.3780633382188876E-003   4.7326937965700866E-002
   2.3019585330943643E-002  -7.3854177229810691E-003   4.4795014242408837E-002
   2.2081481435597593E-002  -7.2905019185695030E-003   4.2522499189478841E-002
   2.1143377540251560E-002  -7.0933159249845223E-003   4.0509392806911002E-002
   2.0205273644905514E-002  -6.7938597422257385E-003   3.8755695094705445E-002
   3.7197625070359369E-002  -9.3391952813947077E-003   8.5939882334362228E-002
   3.5092191426030400E-002  -8.5987292603523224E-003   8.9446634061795038E-002
   3.2986757781701417E-002  -7.6813772171500094E-003   9.4152222073240532E-002
   3.0881324137372435E-002  -6.5871391517878797E-003  0.10005664636869877     
   2.8775890493043466E-002  -5.3160150642656001E-003  0.10715990694816979     
   3.4849346035132581E-002  -8.7028613966024793E-003   7.4256872424179499E-002
   3.3716320369100133E-002  -8.0695905441522109E-003   7.6415705418526714E-002
   3.2583294703067721E-002  -7.3231081404180332E-003   7.9320518085454372E-002
   3.1450269037035267E-002  -6.4634141853997240E-003   8.2971310424962530E-002
   3.0317243371002861E-002  -5.4905086790974500E-003   8.7368082437050965E-002
   3.1234527785814689E-002  -8.0665275118101953E-003   6.2498504580842329E-002
   3.0621053486646385E-002  -7.5404518279521549E-003   6.3245744371228457E-002
   3.0007579187478081E-002  -6.9648390636860569E-003   6.4286107222762429E-002
   2.9394104888309756E-002  -6.3396892190116794E-003   6.5619593135444382E-002
   2.8780630589141473E-002  -5.6650022939292444E-003   6.7246202109274289E-002
   2.6353170322405653E-002  -7.4301936270179947E-003   5.0664778804350885E-002
   2.5806390778669103E-002  -7.0113131117520155E-003   4.9936750919899783E-002
   2.5259611234932512E-002  -6.6065699869540806E-003   4.9048989485164354E-002
   2.4712831691195949E-002  -6.2159642526236347E-003   4.8001494500144334E-002
   2.4166052147459375E-002  -5.8394959087610665E-003   4.6794265964839855E-002
   2.0205273644905514E-002  -6.7938597422257385E-003   3.8755695094705445E-002
   1.9272332245168250E-002  -6.4821743955519595E-003   3.6488725064541316E-002
   1.8339390845431014E-002  -6.2483009102220766E-003   3.3609164872660247E-002
   1.7406449445693757E-002  -6.0922392862356109E-003   3.0117014519062540E-002
   1.6473508045956514E-002  -6.0139895235928331E-003   2.6012274003747671E-002
   2.8775890493043466E-002  -5.3160150642656001E-003  0.10715990694816979     
   2.4772094632265318E-002  -3.0319572118504001E-003  0.11370384944520839     
   2.0768298771487156E-002   1.1010821481910182E-003  0.12307880682830380     
   1.6764502910708981E-002   7.0831030158587591E-003  0.13528477909745576     
   1.2760707049930820E-002   1.4914105391152566E-002  0.15032176625266480     
   3.0317243371002861E-002  -5.4905086790974500E-003   8.7368082437050965E-002
   2.8604444501332094E-002  -3.8349576769161065E-003   9.1844571853369583E-002
   2.6891645631661340E-002  -9.2732723426053321E-004   9.8072040365846574E-002
   2.5178846761990580E-002   3.2323826488693114E-003  0.10605048797448131     
   2.3466047892319791E-002   8.6441719724730248E-003  0.11577991467927440     
   2.8780630589141473E-002  -5.6650022939292444E-003   6.7246202109274289E-002
   2.8278792920679433E-002  -4.6379581419817295E-003   6.9058336377721241E-002
   2.7776955252217357E-002  -2.9557366167120708E-003   7.1541413952427510E-002
   2.7275117583755299E-002  -6.1833771812021612E-004   7.4695434833393026E-002
   2.6773279915293283E-002   2.3742385537938171E-003   7.8520399020618026E-002
   2.4166052147459375E-002  -5.8394959087610665E-003   4.6794265964839855E-002
   2.3795139890307303E-002  -5.4409586070472832E-003   4.5345143018262660E-002
   2.3424227633155215E-002  -4.9841459991635043E-003   4.3486927588046329E-002
   2.3053315376003154E-002  -4.4690580851097037E-003   4.1219619674190612E-002
   2.2682403118851089E-002  -3.8956948648855572E-003   3.8543219276695129E-002
   1.6473508045956514E-002  -6.0139895235928331E-003   2.6012274003747671E-002
   1.5153485410215731E-002  -6.2439590721130034E-003   2.0704991774994574E-002
   1.3833462774474933E-002  -7.0125553816151459E-003   1.3908581272703197E-002
   1.2513440138734164E-002  -8.3197784520990768E-003   5.6230424968738563E-003
   1.1193417502993352E-002  -1.0165628283564931E-002  -4.1516245524930717E-003
   2.6625358405862214E-002   0.0000000000000000        2.9532147735447302E-002
   2.7219100390327430E-002  -5.7670723669278352E-004   3.5009104399798409E-002
   2.7812842374792649E-002  -1.3010354382716870E-003   4.0183770795938413E-002
   2.8406584359257865E-002  -2.1729846047367149E-003   4.5056146923867307E-002
   2.9000326343723078E-002  -3.1925547360878602E-003   4.9626232783585106E-002
   2.0104343834467565E-002   0.0000000000000000        2.9092113075465335E-002
   2.0434259243748205E-002  -4.3253042754345071E-004   3.4388148401921316E-002
   2.0764174653028853E-002  -9.7577657874538780E-004   3.9458820846219267E-002
   2.1094090062309494E-002  -1.6297384536058095E-003   4.4304130408359184E-002
   2.1424005471590138E-002  -2.3944160521247176E-003   4.8924077088341039E-002
   1.3493112576423563E-002   0.0000000000000000        2.8777802604018885E-002
   1.3636128796572701E-002  -2.8835361839411834E-004   3.3929821833807383E-002
   1.3779145016721841E-002  -6.5051771921908769E-004   3.8933405567490906E-002
   1.3922161236870980E-002  -1.0864923024749042E-003   4.3788553805069463E-002
   1.4065177457020123E-002  -1.5962773681615790E-003   4.8495266546543042E-002
   6.7916646317302048E-003   0.0000000000000000        2.8589216321107950E-002
   6.8247090488009069E-003  -1.4417680924478531E-004   3.3634124695456590E-002
   6.8577534658716133E-003  -3.2525885969278889E-004   3.8607524959753330E-002
   6.8907978829423179E-003  -5.4324615134400400E-004   4.3509417113998167E-002
   6.9238423000130217E-003  -7.9813868419843672E-004   4.8339801158191115E-002
   3.8748865227589135E-013   0.0000000000000000        2.8526354226732532E-002
   4.3282651768228320E-013  -9.5453159265623810E-014   3.3501056986868949E-002
   4.7816503360997853E-013  -1.6648835088339808E-013   3.8481179023006538E-002
   5.2350279059615312E-013  -2.1309690123594294E-013   4.3466720335145294E-002
   5.6884228230580369E-013  -2.3529875964323210E-013   4.8457680923285222E-002
   2.9000326343723078E-002  -3.1925547360878602E-003   4.9626232783585106E-002
   2.9074151564751509E-002  -4.2059165099401427E-003   5.1729558765611354E-002
   2.9147976785779937E-002  -5.0592406039086197E-003   5.3913196314093817E-002
   2.9221802006808375E-002  -5.7525270179932557E-003   5.6177145429032425E-002
   2.9295627227836803E-002  -6.2857757521940505E-003   5.8521406110427249E-002
   2.1424005471590138E-002  -2.3944160521247176E-003   4.8924077088341039E-002
   2.1553450291146817E-002  -3.1544373825140217E-003   5.1360236929903054E-002
   2.1682895110703492E-002  -3.7944304529856365E-003   5.3827324402065335E-002
   2.1812339930260168E-002  -4.3143952635395760E-003   5.6325339504827938E-002
   2.1941784749816846E-002  -4.7143318141758261E-003   5.8854282238190864E-002
   1.4065177457020123E-002  -1.5962773681615790E-003   4.8495266546543042E-002
   1.4200857939249162E-002  -2.1029582550879007E-003   5.1224250827674643E-002
   1.4336538421478204E-002  -2.5296203020626815E-003   5.3934778803550652E-002
   1.4472218903707245E-002  -2.8762635090859175E-003   5.6626850474171091E-002
   1.4607899385936284E-002  -3.1428878761576018E-003   5.9300465839535979E-002
   6.9238423000130217E-003  -7.9813868419843672E-004   4.8339801158191115E-002
   7.0163745090585459E-003  -1.0514791276617693E-003   5.1321600458926163E-002
   7.1089067181040648E-003  -1.2648101511397124E-003   5.4235559518549754E-002
   7.2014389271495907E-003  -1.4381317546322242E-003   5.7081678337061861E-002
   7.2939711361951123E-003  -1.5714439381393636E-003   5.9859956914462553E-002
   5.6884228230580369E-013  -2.3529875964323210E-013   4.8457680923285222E-002
   5.7496455513339484E-013  -2.3563876544452356E-013   5.1652285823657565E-002
   5.8108747848228948E-013  -2.1673136375854885E-013   5.4729666547062593E-002
   5.8721051025140136E-013  -1.7857639195498209E-013   5.7689823093500264E-002
   5.9333267465877526E-013  -1.2113920977441239E-013   6.0532755462970614E-002
   2.9295627227836803E-002  -6.2857757521940505E-003   5.8521406110427249E-002
   2.9010309715407544E-002  -6.7162478432977457E-003   5.9226372347006770E-002
   2.8724992202978299E-002  -7.1012043280909987E-003   5.9942879684389605E-002
   2.8439674690549040E-002  -7.4406452065737816E-003   6.0670928122575851E-002
   2.8154357178119795E-002  -7.7345704787462055E-003   6.1410517661565439E-002
   2.1941784749816846E-002  -4.7143318141758261E-003   5.8854282238190864E-002
   2.1682955407509544E-002  -5.0371858824766122E-003   5.9633978813760181E-002
   2.1424126065202248E-002  -5.3259032460242217E-003   6.0455110628770001E-002
   2.1165296722894949E-002  -5.5804839048186269E-003   6.1317677683220363E-002
   2.0906467380587650E-002  -5.8009278588598001E-003   6.2221679977111241E-002
   1.4607899385936284E-002  -3.1428878761576018E-003   5.9300465839535979E-002
   1.4405452352388106E-002  -3.3581239216555342E-003   6.0143513852537842E-002
   1.4203005318839928E-002  -3.5506021639574586E-003   6.1057891243617435E-002
   1.4000558285291757E-002  -3.7203226030634445E-003   6.2043598012774689E-002
   1.3798111251743574E-002  -3.8672852389734225E-003   6.3100634160009689E-002
   7.2939711361951123E-003  -1.5714439381393636E-003   5.9859956914462553E-002
   7.1778005500432313E-003  -1.6790619608344076E-003   6.0754977463339750E-002
   7.0616299638913528E-003  -1.7753010818907233E-003   6.1751221528931852E-002
   6.9454593777394710E-003  -1.8601613013082413E-003   6.2848689111238809E-002
   6.8292887915875934E-003  -1.9336426190870448E-003   6.4047380210260671E-002
   5.9333267465877526E-013  -1.2113920977441239E-013   6.0532755462970614E-002
   4.7492305227381237E-013  -1.3312267954646018E-014   6.1468369646165949E-002
   3.5651082780363552E-013   1.7607096336469397E-013   6.2535101484713307E-002
   2.3809816965258968E-013   4.4689685979593108E-013   6.3732950978612798E-002
   1.1968898094849578E-013   7.9933282215449708E-013   6.5061918127864271E-002
   2.8154357178119795E-002  -7.7345704787462055E-003   6.1410517661565439E-002
   2.7665653356785454E-002  -7.9400976067218326E-003   6.0639935639798831E-002
   2.7176949535451102E-002  -8.0143440526144680E-003   5.9399878871496836E-002
   2.6688245714116758E-002  -7.9573098164240890E-003   5.7690347356659462E-002
   2.6199541892782424E-002  -7.7689948981507218E-003   5.5511341095286743E-002
   2.0906467380587650E-002  -5.8009278588598001E-003   6.2221679977111241E-002
   2.0096201488158248E-002  -5.9550732047469884E-003   6.1853414896291953E-002
   1.9285935595728856E-002  -6.0107580390794599E-003   6.1311500419817831E-002
   1.8475669703299460E-002  -5.9679823618570532E-003   6.0595936547688981E-002
   1.7665403810870069E-002  -5.8267461730800441E-003   5.9706723279905421E-002
   1.3798111251743574E-002  -3.8672852389734225E-003   6.3100634160009689E-002
   1.2962108639099761E-002  -3.9700488027721373E-003   6.3101865849609390E-002
   1.2126106026455939E-002  -4.0071720255443720E-003   6.3225273494434894E-002
   1.1290103413812118E-002  -3.9786549072900875E-003   6.3470857094486410E-002
   1.0454100801168299E-002  -3.8844974480093247E-003   6.3838616649763702E-002
   6.8292887915875934E-003  -1.9336426190870448E-003   6.4047380210260671E-002
   6.2633748096099749E-003  -1.9850244007972619E-003   6.4385288499751156E-002
   5.6974608276323599E-003  -2.0035860120093518E-003   6.5141198095348143E-002
   5.1315468456547353E-003  -1.9893274527231285E-003   6.6315108997051564E-002
   4.5656328636771203E-003  -1.9422487229385846E-003   6.7907021204861667E-002
   1.1968898094849578E-013   7.9933282215449708E-013   6.5061918127864271E-002
  -3.1110183873472863E-013   1.1775788677503840E-012   6.5703682846717265E-002
  -7.4189439314142902E-013   1.5256962360155057E-012   6.7059274222557363E-002
  -1.1726878149098674E-012   1.8439347271304030E-012   6.9128692255384594E-002
  -1.6034777672313538E-012   2.1321000520657662E-012   7.1911936945199012E-002
   2.6199541892782424E-002  -7.7689948981507218E-003   5.5511341095286743E-002
   2.5639078726159240E-002  -7.5540952311687892E-003   5.2948957318381507E-002
   2.5078615559536048E-002  -7.4173067488529573E-003   5.0730762204482180E-002
   2.4518152392912881E-002  -7.3586294512029884E-003   4.8856755753588561E-002
   2.3957689226289686E-002  -7.3780633382188876E-003   4.7326937965700866E-002
   1.7665403810870069E-002  -5.8267461730800441E-003   5.9706723279905421E-002
   1.7398111089389080E-002  -5.6655714227890341E-003   5.8347809070750739E-002
   1.7130818367908095E-002  -5.5629800610251245E-003   5.7231047088874498E-002
   1.6863525646427110E-002  -5.5189720877882598E-003   5.6356437334276796E-002
   1.6596232924946122E-002  -5.5335475030783288E-003   5.5723979806957757E-002
   1.0454100801168299E-002  -3.8844974480093247E-003   6.3838616649763702E-002
   1.0377942089102234E-002  -3.7770476144092791E-003   6.3702699804498386E-002
   1.0301783377036173E-002  -3.7086533731973507E-003   6.3706898750784280E-002
   1.0225624664970113E-002  -3.6793147243735320E-003   6.3851213488621467E-002
   1.0149465952904047E-002  -3.6890316679377144E-003   6.4135644018010030E-002
   4.5656328636771203E-003  -1.9422487229385846E-003   6.7907021204861667E-002
   4.5785717252987031E-003  -1.8885238060295656E-003   6.9013629519624600E-002
   4.5915105869202798E-003  -1.8543266853695197E-003   7.0158317190211580E-002
   4.6044494485418643E-003  -1.8396573609588038E-003   7.1341084216622511E-002
   4.6173883101634393E-003  -1.8445158327971001E-003   7.2561930598857599E-002
  -1.6034777672313538E-012   2.1321000520657662E-012   7.1911936945199012E-002
  -2.0215253082600526E-012   2.3502588764046095E-012   7.4280598216129312E-002
  -2.4395745840122274E-012   2.4582766378067333E-012   7.6585302407156372E-002
  -2.8576186555939742E-012   2.4559156791559289E-012   7.8826049518280067E-002
  -3.2756714007931009E-012   2.3435142715300117E-012   8.1002839549500605E-002
   2.3957689226289686E-002  -7.3780633382188876E-003   4.7326937965700866E-002
   2.3019585330943643E-002  -7.3854177229810691E-003   4.4795014242408837E-002
   2.2081481435597593E-002  -7.2905019185695030E-003   4.2522499189478841E-002
   2.1143377540251560E-002  -7.0933159249845223E-003   4.0509392806911002E-002
   2.0205273644905514E-002  -6.7938597422257385E-003   3.8755695094705445E-002
   1.6596232924946122E-002  -5.5335475030783288E-003   5.5723979806957757E-002
   1.5911317025804762E-002  -5.5390632917049765E-003   5.4190011154323453E-002
   1.5226401126663396E-002  -5.4678764384780698E-003   5.2903009823736219E-002
   1.4541485227522032E-002  -5.3199869433971092E-003   5.1862975815196236E-002
   1.3856569328380683E-002  -5.0953948064624277E-003   5.1069909128703489E-002
   1.0149465952904047E-002  -3.6890316679377144E-003   6.4135644018010030E-002
   9.7052967016524293E-003  -3.6927088604289948E-003   6.3574062888713478E-002
   9.2611274504008131E-003  -3.6452509583863035E-003   6.3247007733149271E-002
   8.8169581991491934E-003  -3.5466579618098071E-003   6.3154478551317283E-002
   8.3727889478975789E-003  -3.3969298706993112E-003   6.3296475343217667E-002
   4.6173883101634393E-003  -1.8445158327971001E-003   7.2561930598857599E-002
   4.4015243584866392E-003  -1.8463544291529577E-003   7.2947169445579108E-002
   4.1856604068098349E-003  -1.8226254782947038E-003   7.3554492917717915E-002
   3.9697964551330340E-003  -1.7733289802223939E-003   7.4383901015274159E-002
   3.7539325034562313E-003  -1.6984649349361530E-003   7.5435393738247647E-002
  -3.2756714007931009E-012   2.3435142715300117E-012   8.1002839549500605E-002
  -3.6925983104563187E-012   2.1230794899906869E-012   8.2309330824920257E-002
  -4.1095217506725845E-012   1.7970208654460862E-012   8.3825465377442288E-002
  -4.5264443235271123E-012   1.3648839003455038E-012   8.5551243207066710E-002
  -4.9433721005520681E-012   8.2711615334574162E-013   8.7486664313793649E-002
   2.0205273644905514E-002  -6.7938597422257385E-003   3.8755695094705445E-002
   1.9272332245168250E-002  -6.4821743955519595E-003   3.6488725064541316E-002
   1.8339390845431014E-002  -6.2483009102220766E-003   3.3609164872660247E-002
   1.7406449445693757E-002  -6.0922392862356109E-003   3.0117014519062540E-002
   1.6473508045956514E-002  -6.0139895235928331E-003   2.6012274003747671E-002
   1.3856569328380683E-002  -5.0953948064624277E-003   5.1069909128703489E-002
   1.2522494144827062E-002  -4.8616307966592720E-003   4.9811234033751622E-002
   1.1188418961273462E-002  -4.6862256829723337E-003   4.8362881532883942E-002
   9.8543437777198449E-003  -4.5691794654017098E-003   4.6724851626100301E-002
   8.5202685941662554E-003  -4.5104921439477197E-003   4.4897144313400972E-002
   8.3727889478975789E-003  -3.3969298706993112E-003   6.3296475343217667E-002
   7.0604927363286593E-003  -3.2410871977663763E-003   6.3065548148705380E-002
   5.7481965247597328E-003  -3.1241504557226601E-003   6.3067856304078088E-002
   4.4359003131908079E-003  -3.0461196445679788E-003   6.3303399809336081E-002
   3.1236041016218866E-003  -3.0069947643025230E-003   6.3772178664479304E-002
   3.7539325034562313E-003  -1.6984649349361530E-003   7.5435393738247647E-002
   2.8863280196730276E-003  -1.6205435988736125E-003   7.6251667409402146E-002
   2.0187235358898378E-003  -1.5620752284730630E-003   7.7724089186242643E-002
   1.1511190521066336E-003  -1.5230598237343292E-003   7.9852659068769580E-002
   2.8351456832344420E-004  -1.5034973846574234E-003   8.2637377056982611E-002
  -4.9433721005520681E-012   8.2711615334574162E-013   8.7486664313793649E-002
  -5.1398121869716817E-012   1.9206858326015208E-014   8.9369591815842087E-002
  -5.3362418650504395E-012  -1.2234102619856912E-012   9.2331580179377815E-002
  -5.5326767472996252E-012  -2.9004715296210293E-012   9.6372629404400834E-002
  -5.7291116295488109E-012  -5.0122128669727317E-012  0.10149273949091109     
   1.6473508045956514E-002  -6.0139895235928331E-003   2.6012274003747671E-002
   1.5153485410215731E-002  -6.2439590721130034E-003   2.0704991774994574E-002
   1.3833462774474933E-002  -7.0125553816151459E-003   1.3908581272703197E-002
   1.2513440138734164E-002  -8.3197784520990768E-003   5.6230424968738563E-003
   1.1193417502993352E-002  -1.0165628283564931E-002  -4.1516245524930717E-003
   8.5202685941662554E-003  -4.5104921439477197E-003   4.4897144313400972E-002
   6.1659011680853248E-003  -4.6829693060533584E-003   4.2129922111099144E-002
   3.8115337420044013E-003  -5.2594165391621622E-003   3.8783138601655137E-002
   1.4571663159234534E-003  -6.2398338432742527E-003   3.4856793785068813E-002
  -8.9720111015745285E-004  -7.6242212183895708E-003   3.0350887661340420E-002
   3.1236041016218866E-003  -3.0069947643025230E-003   6.3772178664479304E-002
   6.4445885159665137E-004  -3.1219795399937966E-003   6.3679673178607524E-002
  -1.8346863984285873E-003  -3.5062776967095186E-003   6.3917173351989237E-002
  -4.3138316484538052E-003  -4.1598892344497079E-003   6.4484679184624527E-002
  -6.7929768984790473E-003  -5.0828141532142102E-003   6.5382190676513741E-002
   2.8351456832344420E-004  -1.5034973846574234E-003   8.2637377056982611E-002
  -1.4108415392502576E-003  -1.5609897739343043E-003   8.5354244977519617E-002
  -3.1051976468239586E-003  -1.7531388542568159E-003   8.9310685523705982E-002
  -4.7995537543976475E-003  -2.0799446256249679E-003   9.4506698695542124E-002
  -6.4939098619713545E-003  -2.5414070880388495E-003  0.10094228449302747     
  -5.7291116295488109E-012  -5.0122128669727317E-012  0.10149273949091109     
  -4.4554325506762638E-012  -7.8745898690613103E-012  0.10715363750783558     
  -3.1817500023567646E-012  -1.1804057731268358E-011  0.11496367511680539     
  -1.9080726582076935E-012  -1.6800352775625527E-011  0.12492285231782035     
  -6.3438143627081445E-013  -2.2863488879920624E-011  0.13703116911088076     
   3.8748865227589135E-013   0.0000000000000000        2.8526354226732532E-002
   4.3282651768228320E-013  -9.5453159265623810E-014   3.3501056986868949E-002
   4.7816503360997853E-013  -1.6648835088339808E-013   3.8481179023006538E-002
   5.2350279059615312E-013  -2.1309690123594294E-013   4.3466720335145294E-002
   5.6884228230580369E-013  -2.3529875964323210E-013   4.8457680923285222E-002
  -6.7916646309676559E-003   0.0000000000000000        2.8589216320896130E-002
  -6.8247090479468028E-003   1.4417680905801349E-004   3.3634124695266762E-002
  -6.8577534649259479E-003   3.2525885936234185E-004   3.8607524959587261E-002
  -6.8907978819050912E-003   5.4324615091298767E-004   4.3509417113857619E-002
  -6.9238422988842363E-003   7.9813868370994748E-004   4.8339801158077837E-002
  -1.3493112575698303E-002   0.0000000000000000        2.8777802603602243E-002
  -1.3636128795753235E-002   2.8835361821147928E-004   3.3929821833428984E-002
  -1.3779145015808170E-002   6.5051771889116858E-004   3.8933405567154279E-002
  -1.3922161235863100E-002   1.0864923020390705E-003   4.3788553804778141E-002
  -1.4065177455918031E-002   1.5962773676551803E-003   4.8495266546300583E-002
  -2.0104343833804456E-002   0.0000000000000000        2.9092113074850875E-002
  -2.0434259242986478E-002   4.3253042736494550E-004   3.4388148401355623E-002
  -2.0764174652168496E-002   9.7577657841999704E-004   3.9458820845707621E-002
  -2.1094090061350521E-002   1.6297384531651507E-003   4.4304130407906879E-002
  -2.1424005470532539E-002   2.3944160516004200E-003   4.8924077087953398E-002
  -2.6625358405286109E-002   0.0000000000000000        2.9532147734642026E-002
  -2.7219100389646523E-002   5.7670723651841171E-004   3.5009104399046670E-002
  -2.7812842374006937E-002   1.3010354379488255E-003   4.0183770795247271E-002
  -2.8406584358367352E-002   2.1729846042912414E-003   4.5056146923243827E-002
  -2.9000326342727770E-002   3.1925547355456576E-003   4.9626232783036330E-002
   5.6884228230580369E-013  -2.3529875964323210E-013   4.8457680923285222E-002
   5.7496455513339484E-013  -2.3563876544452356E-013   5.1652285823657565E-002
   5.8108747848228948E-013  -2.1673136375854885E-013   5.4729666547062593E-002
   5.8721051025140136E-013  -1.7857639195498209E-013   5.7689823093500264E-002
   5.9333267465877526E-013  -1.2113920977441239E-013   6.0532755462970614E-002
  -6.9238422988842363E-003   7.9813868370994748E-004   4.8339801158077837E-002
  -7.0163745079138626E-003   1.0514791271568286E-003   5.1321600458837463E-002
  -7.1089067169434854E-003   1.2648101506572437E-003   5.4235559518492966E-002
  -7.2014389259731091E-003   1.4381317542112204E-003   5.7081678337044285E-002
  -7.2939711350027353E-003   1.5714439378187312E-003   5.9859956914491474E-002
  -1.4065177455918031E-002   1.5962773676551803E-003   4.8495266546300583E-002
  -1.4200857938120221E-002   2.1029582545493172E-003   5.1224250827481763E-002
  -1.4336538420322401E-002   2.5296203015312537E-003   5.3934778803421984E-002
  -1.4472218902524587E-002   2.8762635086010033E-003   5.6626850474121256E-002
  -1.4607899384726774E-002   3.1428878757585946E-003   5.9300465839579528E-002
  -2.1424005470532539E-002   2.3944160516004200E-003   4.8924077087953398E-002
  -2.1553450290044102E-002   3.1544373819417885E-003   5.1360236929590422E-002
  -2.1682895109555660E-002   3.7944304524052462E-003   5.3827324401849674E-002
  -2.1812339929067226E-002   4.3143952629908179E-003   5.6325339504731134E-002
  -2.1941784748578781E-002   4.7143318136984615E-003   5.8854282238234815E-002
  -2.9000326342727770E-002   3.1925547355456576E-003   4.9626232783036330E-002
  -2.9074151563685518E-002   4.2059165093342767E-003   5.1729558765163469E-002
  -2.9147976784643263E-002   5.0592406032792438E-003   5.3913196313776009E-002
  -2.9221802005601011E-002   5.7525270173805704E-003   5.6177145428873969E-002
  -2.9295627226558759E-002   6.2857757516383284E-003   5.8521406110457308E-002
   5.9333267465877526E-013  -1.2113920977441239E-013   6.0532755462970614E-002
   4.7492305227381237E-013  -1.3312267954646018E-014   6.1468369646165949E-002
   3.5651082780363552E-013   1.7607096336469397E-013   6.2535101484713307E-002
   2.3809816965258968E-013   4.4689685979593108E-013   6.3732950978612798E-002
   1.1968898094849578E-013   7.9933282215449708E-013   6.5061918127864271E-002
  -7.2939711350027353E-003   1.5714439378187312E-003   5.9859956914491474E-002
  -7.1778005490711174E-003   1.6790619606967330E-003   6.0754977463541283E-002
  -7.0616299631394968E-003   1.7753010820622250E-003   6.1751221529339158E-002
  -6.9454593772078780E-003   1.8601613019151413E-003   6.2848689111884987E-002
  -6.8292887912762609E-003   1.9336426202555268E-003   6.4047380211178839E-002
  -1.4607899384726774E-002   3.1428878757585946E-003   5.9300465839579528E-002
  -1.4405452351349178E-002   3.3581239214067662E-003   6.0143513852889810E-002
  -1.4203005317971577E-002   3.5506021639483635E-003   6.1057891244344013E-002
  -1.4000558284593978E-002   3.7203226033833158E-003   6.2043598013942221E-002
  -1.3798111251216383E-002   3.8672852397116791E-003   6.3100634161684321E-002
  -2.1941784748578781E-002   4.7143318136984615E-003   5.8854282238234815E-002
  -2.1682955406359256E-002   5.0371858821168123E-003   5.9633978814211452E-002
  -2.1424126064139726E-002   5.3259032458345098E-003   6.0455110629727978E-002
  -2.1165296721920201E-002   5.5804839048515112E-003   6.1317677684784459E-002
  -2.0906467379700668E-002   5.8009278591678246E-003   6.2221679979380766E-002
  -2.9295627226558759E-002   6.2857757516383284E-003   5.8521406110457308E-002
  -2.9010309714101356E-002   6.7162478428268446E-003   5.9226372347506238E-002
  -2.8724992201643949E-002   7.1012043277206630E-003   5.9942879685491030E-002
  -2.8439674689186546E-002   7.4406452063197227E-003   6.0670928124411654E-002
  -2.8154357176729136E-002   7.7345704786239977E-003   6.1410517664268138E-002
   1.1968898094849578E-013   7.9933282215449708E-013   6.5061918127864271E-002
  -3.1110183873472863E-013   1.1775788677503840E-012   6.5703682846717265E-002
  -7.4189439314142902E-013   1.5256962360155057E-012   6.7059274222557363E-002
  -1.1726878149098674E-012   1.8439347271304030E-012   6.9128692255384594E-002
  -1.6034777672313538E-012   2.1321000520657662E-012   7.1911936945199012E-002
  -6.8292887912762609E-003   1.9336426202555268E-003   6.4047380211178839E-002
  -6.2633748101063123E-003   1.9850244025871530E-003   6.4385288500833776E-002
  -5.6974608289363628E-003   2.0035860144138398E-003   6.5141198096703060E-002
  -5.1315468477664168E-003   1.9893274557354432E-003   6.6315108998786607E-002
  -4.5656328665964648E-003   1.9422487265521871E-003   6.7907021207084556E-002
  -1.3798111251216383E-002   3.8672852397116791E-003   6.3100634161684321E-002
  -1.2962108639218498E-002   3.9700488039967723E-003   6.3101865851666189E-002
  -1.2126106027220609E-002   4.0071720273018724E-003   6.3225273497089646E-002
  -1.1290103415222717E-002   3.9786549096270211E-003   6.3470857097954608E-002
  -1.0454100803224835E-002   3.8844974509722324E-003   6.3838616654261132E-002
  -2.0906467379700668E-002   5.8009278591678246E-003   6.2221679979380766E-002
  -2.0096201487647649E-002   5.9550732054063828E-003   6.1853414899214594E-002
  -1.9285935595594630E-002   6.0107580401899049E-003   6.1311500423717233E-002
  -1.8475669703541604E-002   5.9679823635186060E-003   6.0595936552888550E-002
  -1.7665403811488584E-002   5.8267461753922709E-003   5.9706723286728595E-002
  -2.8154357176729136E-002   7.7345704786239977E-003   6.1410517664268138E-002
  -2.7665653355393775E-002   7.9400976068159934E-003   6.0639935643478957E-002
  -2.7176949534058421E-002   8.0143440530780624E-003   5.9399878876585779E-002
  -2.6688245712723067E-002   7.9573098174101110E-003   5.7690347363588509E-002
  -2.6199541891387703E-002   7.7689948998123370E-003   5.5511341104487161E-002
  -1.6034777672313538E-012   2.1321000520657662E-012   7.1911936945199012E-002
  -2.0215253082600526E-012   2.3502588764046095E-012   7.4280598216129312E-002
  -2.4395745840122274E-012   2.4582766378067333E-012   7.6585302407156372E-002
  -2.8576186555939742E-012   2.4559156791559289E-012   7.8826049518280067E-002
  -3.2756714007931009E-012   2.3435142715300117E-012   8.1002839549500605E-002
  -4.5656328665964648E-003   1.9422487265521871E-003   6.7907021207084556E-002
  -4.5785717290501848E-003   1.8885238101408464E-003   6.9013629522216319E-002
  -4.5915105915038997E-003   1.8543266897781685E-003   7.0158317193180067E-002
  -4.6044494539576137E-003   1.8396573654642298E-003   7.1341084219975703E-002
  -4.6173883164113277E-003   1.8445158371991344E-003   7.2561930602603325E-002
  -1.0454100803224835E-002   3.8844974509722324E-003   6.3838616654261132E-002
  -1.0377942091979009E-002   3.7770476179313089E-003   6.3702699809753349E-002
  -1.0301783380733183E-002   3.7086533770980916E-003   6.3706898756812749E-002
  -1.0225624669487359E-002   3.6793147284725448E-003   6.3851213495439346E-002
  -1.0149465958241535E-002   3.6890316720548377E-003   6.4135644025633029E-002
  -1.7665403811488584E-002   5.8267461753922709E-003   5.9706723286728595E-002
  -1.7398111090808015E-002   5.6655714257218617E-003   5.8347809078740286E-002
  -1.7130818370127442E-002   5.5629800644180546E-003   5.7231047098054315E-002
  -1.6863525649446869E-002   5.5189720914808598E-003   5.6356437344670711E-002
  -1.6596232928766306E-002   5.5335475069105272E-003   5.5723979818589425E-002
  -2.6199541891387703E-002   7.7689948998123370E-003   5.5511341104487161E-002
  -2.5639078725537175E-002   7.5540952335123868E-003   5.2948957329177176E-002
  -2.5078615559686664E-002   7.4173067517379412E-003   5.0730762216904771E-002
  -2.4518152393836135E-002   7.3586294544891826E-003   4.8856755767669978E-002
  -2.3957689227985617E-002   7.3780633417661612E-003   4.7326937981472694E-002
  -3.2756714007931009E-012   2.3435142715300117E-012   8.1002839549500605E-002
  -3.6925983104563187E-012   2.1230794899906869E-012   8.2309330824920257E-002
  -4.1095217506725845E-012   1.7970208654460862E-012   8.3825465377442288E-002
  -4.5264443235271123E-012   1.3648839003455038E-012   8.5551243207066710E-002
  -4.9433721005520681E-012   8.2711615334574162E-013   8.7486664313793649E-002
  -4.6173883164113277E-003   1.8445158371991344E-003   7.2561930602603325E-002
  -4.4015243655412028E-003   1.8463544331978332E-003   7.2947169449699673E-002
  -4.1856604146710778E-003   1.8226254816754300E-003   7.3554492922267650E-002
  -3.9697964638009536E-003   1.7733289826318381E-003   7.4383901020307230E-002
  -3.7539325129308278E-003   1.6984649360669568E-003   7.5435393743818635E-002
  -1.0149465958241535E-002   3.6890316720548377E-003   6.4135644025633029E-002
  -9.7052967077150866E-003   3.6927088642725869E-003   6.3574062896990510E-002
  -9.2611274571886403E-003   3.6452509615538878E-003   6.3247007742188971E-002
  -8.8169582066621958E-003   3.5466579638986240E-003   6.3154478561228439E-002
  -8.3727889561357530E-003   3.3969298713067975E-003   6.3296475354108789E-002
  -1.6596232928766306E-002   5.5335475069105272E-003   5.5723979818589425E-002
  -1.5911317030214259E-002   5.5390632953473129E-003   5.4190011166792840E-002
  -1.5226401131662216E-002   5.4678764414323212E-003   5.2903009837206395E-002
  -1.4541485233110161E-002   5.3199869451654386E-003   5.1862975829830182E-002
  -1.3856569334558120E-002   5.0953948065466104E-003   5.1069909144664374E-002
  -2.3957689227985617E-002   7.3780633417661612E-003   4.7326937981472694E-002
  -2.3019585333038699E-002   7.3854177264221499E-003   4.4795014259106508E-002
  -2.2081481438091785E-002   7.2905019213109074E-003   4.2522499207319847E-002
  -2.1143377543144871E-002   7.0933159264323468E-003   4.0509392826112656E-002
  -2.0205273648197956E-002   6.7938597417864233E-003   3.8755695115485100E-002
  -4.9433721005520681E-012   8.2711615334574162E-013   8.7486664313793649E-002
  -5.1398121869716817E-012   1.9206858326015208E-014   8.9369591815842087E-002
  -5.3362418650504395E-012  -1.2234102619856912E-012   9.2331580179377815E-002
  -5.5326767472996252E-012  -2.9004715296210293E-012   9.6372629404400834E-002
  -5.7291116295488109E-012  -5.0122128669727317E-012  0.10149273949091109     
  -3.7539325129308278E-003   1.6984649360669568E-003   7.5435393743818635E-002
  -2.8863280294512302E-003   1.6205435981855032E-003   7.6251667415064811E-002
  -2.0187235459716221E-003   1.5620752251912090E-003   7.7724089192175716E-002
  -1.1511190624920228E-003   1.5230598170848271E-003   7.9852659075151378E-002
  -2.8351457901241647E-004   1.5034973738656809E-003   8.2637377063992046E-002
  -8.3727889561357530E-003   3.3969298713067975E-003   6.3296475354108789E-002
  -7.0604927446025999E-003   3.2410871963515775E-003   6.3065548159874765E-002
  -5.7481965330694529E-003   3.1241504516058838E-003   6.3067856315883131E-002
  -4.4359003215362989E-003   3.0461196370697372E-003   6.3303399822133802E-002
  -3.1236041100031527E-003   3.0069947527433527E-003   6.3772178678626612E-002
  -1.3856569334558120E-002   5.0953948065466104E-003   5.1069909144664374E-002
  -1.2522494150593927E-002   4.8616307945177351E-003   4.9811234050272310E-002
  -1.1188418966629714E-002   4.6862256780205308E-003   4.8362881550500052E-002
  -9.8543437826655259E-003   4.5691794570549525E-003   4.6724851645347454E-002
  -8.5202685987013152E-003   4.5104921316210800E-003   4.4897144334814870E-002
  -2.0205273648197956E-002   6.7938597417864233E-003   3.8755695115485100E-002
  -1.9272332247425202E-002   6.4821743926839204E-003   3.6488725086257057E-002
  -1.8339390846652443E-002   6.2483009044350807E-003   3.3609164896026389E-002
  -1.7406449445879678E-002   6.0922392770400048E-003   3.0117014544793055E-002
  -1.6473508045106923E-002   6.0139895104989183E-003   2.6012274032556904E-002
  -5.7291116295488109E-012  -5.0122128669727317E-012  0.10149273949091109     
  -4.4554325506762638E-012  -7.8745898690613103E-012  0.10715363750783558     
  -3.1817500023567646E-012  -1.1804057731268358E-011  0.11496367511680539     
  -1.9080726582076935E-012  -1.6800352775625527E-011  0.12492285231782035     
  -6.3438143627081445E-013  -2.2863488879920624E-011  0.13703116911088076     
  -2.8351457901241647E-004   1.5034973738656809E-003   8.2637377063992046E-002
   1.4108415310566738E-003   1.5609897575675213E-003   8.5354244983903316E-002
   3.1051976411257624E-003   1.7531388302246126E-003   8.9310685529359862E-002
   4.7995537511948501E-003   2.0799445918368749E-003   9.4506698700362046E-002
   6.4939098612639481E-003   2.5414070424037982E-003  0.10094228449691012     
  -3.1236041100031527E-003   3.0069947527433527E-003   6.3772178678626612E-002
  -6.4445885763842088E-004   3.1219795230099656E-003   6.3679673191546396E-002
   1.8346863947263084E-003   3.5062776722534494E-003   6.3917173363511964E-002
   4.3138316470910341E-003   4.1598892004738250E-003   6.4484679194523206E-002
   6.7929768994557695E-003   5.0828141076709743E-003   6.5382190684580288E-002
  -8.5202685987013152E-003   4.5104921316210800E-003   4.4897144334814870E-002
  -6.1659011705407114E-003   4.6829692884524654E-003   4.2129922130765163E-002
  -3.8115337423801120E-003   5.2594165142824251E-003   3.8783138619261359E-002
  -1.4571663142195126E-003   6.2398338091108584E-003   3.4856793800303543E-002
   8.9720111394109032E-004   7.6242211729381504E-003   3.0350887673891491E-002
  -1.6473508045106923E-002   6.0139895104989183E-003   2.6012274032556904E-002
  -1.5153485407650217E-002   6.2439590538945211E-003   2.0704991801559380E-002
  -1.3833462770193504E-002   7.0125553563109844E-003   1.3908581296608047E-002
  -1.2513440132736812E-002   8.3197784177480097E-003   5.6230425177028753E-003
  -1.1193417495280092E-002   1.0165628238205437E-002  -4.1516245351560510E-003
  -2.6625358405286109E-002   0.0000000000000000        2.9532147734642026E-002
  -2.7219100389646523E-002   5.7670723651841171E-004   3.5009104399046670E-002
  -2.7812842374006937E-002   1.3010354379488255E-003   4.0183770795247271E-002
  -2.8406584358367352E-002   2.1729846042912414E-003   4.5056146923243827E-002
  -2.9000326342727770E-002   3.1925547355456576E-003   4.9626232783036330E-002
  -3.3389911626422325E-002   0.0000000000000000        3.0231135794361125E-002
  -3.4221597144477534E-002   9.4682673394259637E-004   3.5320703058364211E-002
  -3.5053282662532742E-002   1.9971482050188142E-003   4.0236673523181749E-002
  -3.5884968180587958E-002   3.1509644132286518E-003   4.4979047188813751E-002
  -3.6716653698643159E-002   4.4082753585721127E-003   4.9547824055260203E-002
  -4.0731758833492157E-002   0.0000000000000000        3.1322306465393600E-002
  -4.1672694416223656E-002   1.3169462313667819E-003   3.5980358101216747E-002
  -4.2613629998955162E-002   2.6932609720888030E-003   4.0593506406872856E-002
  -4.3554565581686668E-002   4.1289442221660640E-003   4.5161751382361906E-002
  -4.4495501164418173E-002   5.6239959815985686E-003   4.9685093027683938E-002
  -4.8650900026495608E-002   0.0000000000000000        3.2805659747739448E-002
  -4.9572392204884901E-002   1.6870657287909674E-003   3.6988069527604278E-002
  -5.0493884383274200E-002   3.3893737391587917E-003   4.1254269446320560E-002
  -5.1415376561663506E-002   5.1069240311034806E-003   4.5604259503888293E-002
  -5.2336868740052798E-002   6.8397166046250246E-003   5.0038039700307499E-002
  -5.7147335205432678E-002   0.0000000000000000        3.4681195641398675E-002
  -5.7920690510461267E-002   2.0571852262151521E-003   3.8343837337526804E-002
  -5.8694045815489863E-002   4.0854865062287804E-003   4.2218962641524888E-002
  -5.9467401120518452E-002   6.0849038400408884E-003   4.6306571553392933E-002
  -6.0240756425547048E-002   8.0554372276514796E-003   5.0606664073130921E-002
  -2.9000326342727770E-002   3.1925547355456576E-003   4.9626232783036330E-002
  -2.9074151563685518E-002   4.2059165093342767E-003   5.1729558765163469E-002
  -2.9147976784643263E-002   5.0592406032792438E-003   5.3913196313776009E-002
  -2.9221802005601011E-002   5.7525270173805704E-003   5.6177145428873969E-002
  -2.9295627226558759E-002   6.2857757516383284E-003   5.8521406110457308E-002
  -3.6716653698643159E-002   4.4082753585721127E-003   4.9547824055260203E-002
  -3.6742200208656713E-002   5.6311017417114834E-003   5.1390346301293813E-002
  -3.6767746718670259E-002   6.6814642633090775E-003   5.3249114402730419E-002
  -3.6793293228683813E-002   7.5593629233648698E-003   5.5124128359570028E-002
  -3.6818839738697359E-002   8.2647977218789012E-003   5.7015388171812620E-002
  -4.4495501164418173E-002   5.6239959815985686E-003   4.9685093027683938E-002
  -4.4536834674569925E-002   7.0562869740887161E-003   5.1254385355925844E-002
  -4.4578168184721684E-002   8.3036879233389180E-003   5.2775857828488357E-002
  -4.4619501694873442E-002   9.3661988293491615E-003   5.4249510445371442E-002
  -4.4660835205025187E-002   1.0243819692119488E-002   5.5675343206575141E-002
  -5.2336868740052798E-002   6.8397166046250246E-003   5.0038039700307499E-002
  -5.2458054961425166E-002   8.4814722064659349E-003   5.1321675929059563E-002
  -5.2579241182797554E-002   9.9259115833687534E-003   5.2493426591049823E-002
  -5.2700427404169928E-002   1.1173034735333471E-002   5.3553291686278232E-002
  -5.2821613625542302E-002   1.2222841662360075E-002   5.4501271214744865E-002
  -6.0240756425547048E-002   8.0554372276514796E-003   5.0606664073130921E-002
  -6.0505861069222448E-002   9.9066574388431625E-003   5.1592218020695003E-002
  -6.0770965712897848E-002   1.1548135243398596E-002   5.2401820690414824E-002
  -6.1036070356573234E-002   1.2979870641317729E-002   5.3035472082290425E-002
  -6.1301175000248648E-002   1.4201863632600654E-002   5.3493172196321805E-002
  -2.9295627226558759E-002   6.2857757516383284E-003   5.8521406110457308E-002
  -2.9010309714101356E-002   6.7162478428268446E-003   5.9226372347506238E-002
  -2.8724992201643949E-002   7.1012043277206630E-003   5.9942879685491030E-002
  -2.8439674689186546E-002   7.4406452063197227E-003   6.0670928124411654E-002
  -2.8154357176729136E-002   7.7345704786239977E-003   6.1410517664268138E-002
  -3.6818839738697359E-002   8.2647977218789012E-003   5.7015388171812620E-002
  -3.6453630027345772E-002   8.8230070687603732E-003   5.7386171228621614E-002
  -3.6088420315994185E-002   9.2592293739185896E-003   5.7905197582283088E-002
  -3.5723210604642598E-002   9.5734646373535053E-003   5.8572467232797111E-002
  -3.5358000893291025E-002   9.7657128590651759E-003   5.9387980180163585E-002
  -4.4660835205025187E-002   1.0243819692119488E-002   5.5675343206575141E-002
  -4.4079031098862770E-002   1.0929766294693916E-002   5.5635471647715658E-002
  -4.3497226992700373E-002   1.1417254420116544E-002   5.5880545581625293E-002
  -4.2915422886537942E-002   1.1706284068387342E-002   5.6410565008304110E-002
  -4.2333618780375545E-002   1.1796855239506340E-002   5.7225529927752095E-002
  -5.2821613625542302E-002   1.2222841662360075E-002   5.4501271214744865E-002
  -5.1886512928652394E-002   1.3036525520627437E-002   5.3974273604788382E-002
  -5.0951412231762520E-002   1.3575279466314457E-002   5.3868923683517665E-002
  -5.0016311534872619E-002   1.3839103499421166E-002   5.4185221450932769E-002
  -4.9081210837982725E-002   1.3827997619947512E-002   5.4923166907033735E-002
  -6.1301175000248648E-002   1.4201863632600654E-002   5.3493172196321805E-002
  -5.9876075516714630E-002   1.5143284746560983E-002   5.2402577099839767E-002
  -5.8450976033180599E-002   1.5733304512512432E-002   5.1870331887960183E-002
  -5.7025876549646567E-002   1.5971922930454976E-002   5.1896436560683053E-002
  -5.5600777066112564E-002   1.5859140000388669E-002   5.2480891118008369E-002
  -2.8154357176729136E-002   7.7345704786239977E-003   6.1410517664268138E-002
  -2.7665653355393775E-002   7.9400976068159934E-003   6.0639935643478957E-002
  -2.7176949534058421E-002   8.0143440530780624E-003   5.9399878876585779E-002
  -2.6688245712723067E-002   7.9573098174101110E-003   5.7690347363588509E-002
  -2.6199541891387703E-002   7.7689948998123370E-003   5.5511341104487161E-002
  -3.5358000893291025E-002   9.7657128590651759E-003   5.9387980180163585E-002
  -3.5161610448164231E-002   9.8469219254079254E-003   5.8906899383275049E-002
  -3.4965220003037423E-002   9.8280397227361975E-003   5.8310666580073472E-002
  -3.4768829557910635E-002   9.7090662510500129E-003   5.7599281770558799E-002
  -3.4572439112783827E-002   9.4900015103492330E-003   5.6772744954731030E-002
  -4.2333618780375545E-002   1.1796855239506340E-002   5.7225529927752095E-002
  -4.2075218971666328E-002   1.1753746243999899E-002   5.7065139767679671E-002
  -4.1816819162957111E-002   1.1641735392394416E-002   5.7143920341085126E-002
  -4.1558419354247894E-002   1.1460822684689816E-002   5.7461871647968468E-002
  -4.1300019545538677E-002   1.1211008120886198E-002   5.8018993688329822E-002
  -4.9081210837982725E-002   1.3827997619947512E-002   5.4923166907033735E-002
  -4.8406478925900095E-002   1.3660570562591838E-002   5.5114656796692758E-002
  -4.7731747013817438E-002   1.3455431062052579E-002   5.5899640159620699E-002
  -4.7057015101734802E-002   1.3212579118329654E-002   5.7278116995817571E-002
  -4.6382283189652165E-002   1.2932014731423129E-002   5.9250087305283340E-002
  -5.5600777066112564E-002   1.5859140000388669E-002   5.2480891118008369E-002
  -5.4155390310865498E-002   1.5567394881183791E-002   5.3055450470314333E-002
  -5.2710003555618459E-002   1.5269126731710794E-002   5.4577826035680239E-002
  -5.1264616800371407E-002   1.4964335551969458E-002   5.7048017814106039E-002
  -4.9819230045124341E-002   1.4653021341960060E-002   6.0466025805591739E-002
  -2.6199541891387703E-002   7.7689948998123370E-003   5.5511341104487161E-002
  -2.5639078725537175E-002   7.5540952335123868E-003   5.2948957329177176E-002
  -2.5078615559686664E-002   7.4173067517379412E-003   5.0730762216904771E-002
  -2.4518152393836135E-002   7.3586294544891826E-003   4.8856755767669978E-002
  -2.3957689227985617E-002   7.3780633417661612E-003   4.7326937981472694E-002
  -3.4572439112783827E-002   9.4900015103492330E-003   5.6772744954731030E-002
  -3.3718742342695493E-002   9.2336021598897061E-003   5.5856489526273881E-002
  -3.2865045572607138E-002   9.0026248589267499E-003   5.5182512643254841E-002
  -3.2011348802518796E-002   8.7970696074605656E-003   5.4750814305673863E-002
  -3.1157652032430438E-002   8.6169364054911601E-003   5.4561394513531036E-002
  -4.1300019545538677E-002   1.1211008120886198E-002   5.8018993688329822E-002
  -4.0254999288811946E-002   1.0913109086266928E-002   5.8696177471696573E-002
  -3.9209979032085195E-002   1.0587942966115500E-002   5.9513729682901903E-002
  -3.8164958775358457E-002   1.0235509760431975E-002   6.0471650321945881E-002
  -3.7119938518631712E-002   9.8558094692162146E-003   6.1569939388828612E-002
  -4.6382283189652165E-002   1.2932014731423129E-002   5.9250087305283340E-002
  -4.5247849563886486E-002   1.2592616012644296E-002   6.1468021165445079E-002
  -4.4113415938120785E-002   1.2173261073304307E-002   6.3724413335846025E-002
  -4.2978982312355120E-002   1.1673949913403260E-002   6.6019263816486123E-002
  -4.1844548686589440E-002   1.1094682532941297E-002   6.8352572607365561E-002
  -4.9819230045124341E-002   1.4653021341960060E-002   6.0466025805591739E-002
  -4.8697293167919167E-002   1.4272122939021498E-002   6.4172020607519503E-002
  -4.7575356290713980E-002   1.3758579180493030E-002   6.7814563602087097E-002
  -4.6453419413508792E-002   1.3112390066374678E-002   7.1393654789294478E-002
  -4.5331482536303605E-002   1.2333555596666324E-002   7.4909294169141605E-002
  -2.3957689227985617E-002   7.3780633417661612E-003   4.7326937981472694E-002
  -2.3019585333038699E-002   7.3854177264221499E-003   4.4795014259106508E-002
  -2.2081481438091785E-002   7.2905019213109074E-003   4.2522499207319847E-002
  -2.1143377543144871E-002   7.0933159264323468E-003   4.0509392826112656E-002
  -2.0205273648197956E-002   6.7938597417864233E-003   3.8755695115485100E-002
  -3.1157652032430438E-002   8.6169364054911601E-003   5.4561394513531036E-002
  -2.9956531605054036E-002   8.4171983488909030E-003   5.3187303996995533E-002
  -2.8755411177677687E-002   8.1528285335323858E-003   5.2079837874739493E-002
  -2.7554290750301327E-002   7.8238269594153170E-003   5.1238996146762833E-002
  -2.6353170322924935E-002   7.4301936265401269E-003   5.0664778813065608E-002
  -3.7119938518631712E-002   9.8558094692162146E-003   6.1569939388828612E-002
  -3.5648585835125972E-002   9.4489789713596839E-003   6.1391320509132763E-002
  -3.4177233151620239E-002   9.0151551457537046E-003   6.1486541747416142E-002
  -3.2705880468114526E-002   8.5543379923983445E-003   6.1855603103678922E-002
  -3.1234527784608765E-002   8.0665275112935253E-003   6.2498504577920957E-002
  -4.1844548686589440E-002   1.1094682532941297E-002   6.8352572607365561E-002
  -4.0095748023254447E-002   1.0480759593828506E-002   6.9407063795518212E-002
  -3.8346947359919434E-002   9.8774817579752698E-003   7.0742610825350036E-002
  -3.6598146696584448E-002   9.2848490253813441E-003   7.2359213696861102E-002
  -3.4849346033249448E-002   8.7028613960469098E-003   7.4256872410051467E-002
  -4.5331482536303605E-002   1.2333555596666324E-002   7.4909294169141605E-002
  -4.3298018169439456E-002   1.1512540216297190E-002   7.7234533856151699E-002
  -4.1264553802575286E-002   1.0739808370196488E-002   7.9848045108541016E-002
  -3.9231089435711117E-002   1.0015360058364339E-002   8.2749827926309263E-002
  -3.7197625068846968E-002   9.3391952808005718E-003   8.5939882309456817E-002
  -2.0205273648197956E-002   6.7938597417864233E-003   3.8755695115485100E-002
  -1.9272332247425202E-002   6.4821743926839204E-003   3.6488725086257057E-002
  -1.8339390846652443E-002   6.2483009044350807E-003   3.3609164896026389E-002
  -1.7406449445879678E-002   6.0922392770400048E-003   3.0117014544793055E-002
  -1.6473508045106923E-002   6.0139895104989183E-003   2.6012274032556904E-002
  -2.6353170322924935E-002   7.4301936265401269E-003   5.0664778813065608E-002
  -2.5806390777566277E-002   7.0113131093829106E-003   4.9936750927993601E-002
  -2.5259611232207657E-002   6.6065699824204432E-003   4.9048989493096065E-002
  -2.4712831686849020E-002   6.2159642456528948E-003   4.8001494508372843E-002
  -2.4166052141490379E-002   5.8394958990799495E-003   4.6794265973824190E-002
  -3.1234527784608765E-002   8.0665275112935253E-003   6.2498504577920957E-002
  -3.0621053483487086E-002   7.5404518260818593E-003   6.3245744366345905E-002
  -3.0007579182365414E-002   6.9648390604057989E-003   6.4286107216122435E-002
  -2.9394104881243735E-002   6.3396892142655609E-003   6.5619593127250533E-002
  -2.8780630580122073E-002   5.6650022876609807E-003   6.7246202099730423E-002
  -3.4849346033249448E-002   8.7028613960469098E-003   7.4256872410051467E-002
  -3.3716320365187583E-002   8.0695905427807454E-003   7.6415705401314302E-002
  -3.2583294697125738E-002   7.3231081383913800E-003   7.9320518065105899E-002
  -3.1450269029063872E-002   6.4634141828783390E-003   8.2971310401426204E-002
  -3.0317243361002052E-002   5.4905086762420674E-003   8.7368082410275494E-002
  -3.7197625068846968E-002   9.3391952808005718E-003   8.5939882309456817E-002
  -3.5092191422667798E-002   8.5987292594798259E-003   8.9446634032898431E-002
  -3.2986757776488587E-002   7.6813772163764893E-003   9.4152222040046196E-002
  -3.0881324130309390E-002   6.5871391514910824E-003  0.10005664633089967     
  -2.8775890484130207E-002   5.3160150648230986E-003  0.10715990690545923     
  -1.6473508045106923E-002   6.0139895104989183E-003   2.6012274032556904E-002
  -1.5153485407650217E-002   6.2439590538945211E-003   2.0704991801559380E-002
  -1.3833462770193504E-002   7.0125553563109844E-003   1.3908581296608047E-002
  -1.2513440132736812E-002   8.3197784177480097E-003   5.6230425177028753E-003
  -1.1193417495280092E-002   1.0165628238205437E-002  -4.1516245351560510E-003
  -2.4166052141490379E-002   5.8394958990799495E-003   4.6794265973824190E-002
  -2.3795139883003344E-002   5.4409585946615657E-003   4.5345143022129858E-002
  -2.3424227624516340E-002   4.9841459843572300E-003   4.3486927586449980E-002
  -2.3053315366029333E-002   4.4690580681675460E-003   4.1219619666784599E-002
  -2.2682403107542284E-002   3.8956948460918683E-003   3.8543219263132977E-002
  -2.8780630580122073E-002   5.6650022876609807E-003   6.7246202099730423E-002
  -2.8278792910636522E-002   4.6379581354282218E-003   6.9058336362432943E-002
  -2.7776955241150994E-002   2.9557366124035728E-003   7.1541413931118167E-002
  -2.7275117571665453E-002   6.1833771858688449E-004   7.4695434805785860E-002
  -2.6773279902179970E-002  -2.3742385460218118E-003   7.8520398986436368E-002
  -3.0317243361002052E-002   5.4905086762420674E-003   8.7368082410275494E-002
  -2.8604444490549764E-002   3.8349576761950166E-003   9.1844571822468746E-002
  -2.6891645620097545E-002   9.2732724044986697E-004   9.8072040330612772E-002
  -2.5178846749645344E-002  -3.2323826309936226E-003  0.10605048793470813     
  -2.3466047879193066E-002  -8.6441719381353810E-003  0.11577991463475336     
  -2.8775890484130207E-002   5.3160150648230986E-003  0.10715990690545923     
  -2.4772094622743074E-002   3.0319572169617004E-003  0.11370384940223693     
  -2.0768298761355941E-002  -1.1010821315040470E-003  0.12307880678493380     
  -1.6764502899968808E-002  -7.0831029805742650E-003  0.13528477905354946     
  -1.2760707038581676E-002  -1.4914105330249061E-002  0.15032176620808446     
  -5.7147335205432678E-002   0.0000000000000000        3.4681195641398675E-002
  -5.7920690510461267E-002   2.0571852262151521E-003   3.8343837337526804E-002
  -5.8694045815489863E-002   4.0854865062287804E-003   4.2218962641524888E-002
  -5.9467401120518452E-002   6.0849038400408884E-003   4.6306571553392933E-002
  -6.0240756425547048E-002   8.0554372276514796E-003   5.0606664073130921E-002
  -6.5813490961785098E-002   0.0000000000000000        3.7178146389715117E-002
  -6.6603471146586435E-002   2.8931910857106788E-003   4.0806007244596418E-002
  -6.7393451331387744E-002   5.7282157482087953E-003   4.4188134732062304E-002
  -6.8183431516189066E-002   8.5050739874943625E-003   4.7324528852112795E-002
  -6.8973411700990389E-002   1.1223765803567346E-002   5.0215189604747856E-002
  -7.4241793887034627E-002   0.0000000000000000        4.0525744236032599E-002
  -7.5506615926894047E-002   3.7291969452062038E-003   4.4089541772656046E-002
  -7.6771437966753453E-002   7.3709449901888111E-003   4.6949388966578721E-002
  -7.8036260006612887E-002   1.0925244134947817E-002   4.9105285817800583E-002
  -7.9301082046472335E-002   1.4392094379483231E-002   5.0557232326321679E-002
  -8.2432243981181236E-002   0.0000000000000000        4.4723989180351122E-002
  -8.4630124851384131E-002   4.5652028047017297E-003   4.8194440921705675E-002
  -8.6828005721587026E-002   9.0136742321688251E-003   5.0502725345074072E-002
  -8.9025886591789907E-002   1.3345414282401283E-002   5.1648842450456318E-002
  -9.1223767461992816E-002   1.7560422955399113E-002   5.1632792237852401E-002
  -9.0384841244224939E-002   0.0000000000000000        4.9772881222670685E-002
  -9.3973997920056673E-002   5.4012086641972556E-003   5.3120704691745312E-002
  -9.7563154595888421E-002   1.0656403474148840E-002   5.4848143867548417E-002
 -0.10115231127172017        1.5765584429854748E-002   5.4955198750079967E-002
 -0.10474146794755190        2.0728751531314985E-002   5.3441869339340017E-002
  -6.0240756425547048E-002   8.0554372276514796E-003   5.0606664073130921E-002
  -6.0505861069222448E-002   9.9066574388431625E-003   5.1592218020695003E-002
  -6.0770965712897848E-002   1.1548135243398596E-002   5.2401820690414824E-002
  -6.1036070356573234E-002   1.2979870641317729E-002   5.3035472082290425E-002
  -6.1301175000248648E-002   1.4201863632600654E-002   5.3493172196321805E-002
  -6.8973411700990389E-002   1.1223765803567346E-002   5.0215189604747856E-002
  -6.9187624358357222E-002   1.3638220366892871E-002   4.9452546501966788E-002
  -6.9401837015724055E-002   1.5502366847935952E-002   4.8967638649647108E-002
  -6.9616049673090902E-002   1.6816205246696629E-002   4.8760466047788775E-002
  -6.9830262330457721E-002   1.7579735563174881E-002   4.8831028696391790E-002
  -7.9301082046472335E-002   1.4392094379483231E-002   5.0557232326321679E-002
  -7.9010716189224978E-002   1.7369783294942553E-002   4.7705826497549349E-002
  -7.8720350331977690E-002   1.9456598452473321E-002   4.5585842447543955E-002
  -7.8429984474730347E-002   2.0652539852075522E-002   4.4197280176305552E-002
  -7.8139618617483017E-002   2.0957607493749145E-002   4.3540139683834071E-002
  -9.1223767461992816E-002   1.7560422955399113E-002   5.1632792237852401E-002
  -8.9975136561825736E-002   2.1101346222992257E-002   4.6352058007442611E-002
  -8.8726505661658669E-002   2.3410830057010678E-002   4.2256432084105434E-002
  -8.7477874761491575E-002   2.4488874457454398E-002   3.9345914467840797E-002
  -8.6229243861324495E-002   2.4335479424323410E-002   3.7620505158648627E-002
 -0.10474146794755190        2.0728751531314985E-002   5.3441869339340017E-002
 -0.10208088547615948        2.4832909151041943E-002   4.5391241031646656E-002
  -9.9420303004767063E-002   2.7365061661548052E-002   3.8979407559331485E-002
  -9.6759720533374644E-002   2.8325209062833291E-002   3.4206368922394405E-002
  -9.4099138061982224E-002   2.7713351354897643E-002   3.1072125120835535E-002
  -6.1301175000248648E-002   1.4201863632600654E-002   5.3493172196321805E-002
  -5.9876075516714630E-002   1.5143284746560983E-002   5.2402577099839767E-002
  -5.8450976033180599E-002   1.5733304512512432E-002   5.1870331887960183E-002
  -5.7025876549646567E-002   1.5971922930454976E-002   5.1896436560683053E-002
  -5.5600777066112564E-002   1.5859140000388669E-002   5.2480891118008369E-002
  -6.9830262330457721E-002   1.7579735563174881E-002   4.8831028696391790E-002
  -6.7913717601862197E-002   1.7961428366665394E-002   4.7610875857701601E-002
  -6.5997172873266688E-002   1.8129754226462808E-002   4.6815263624531936E-002
  -6.4080628144671178E-002   1.8084713142567117E-002   4.6444191996882885E-002
  -6.2164083416075669E-002   1.7826305114978278E-002   4.6497660974754315E-002
  -7.8139618617483017E-002   2.0957607493749145E-002   4.3540139683834071E-002
  -7.5865437922907911E-002   2.0779571986769829E-002   4.2328463507251488E-002
  -7.3591257228332763E-002   2.0526203940413160E-002   4.1407518657107546E-002
  -7.1317076533757656E-002   2.0197503354679215E-002   4.0777305133402275E-002
  -6.9042895839182550E-002   1.9793470229567893E-002   4.0437822936135598E-002
  -8.6229243861324495E-002   2.4335479424323410E-002   3.7620505158648627E-002
  -8.3731236479851714E-002   2.3597715606874251E-002   3.6555340048489468E-002
  -8.1233229098378920E-002   2.2922653654363544E-002   3.5647096985687042E-002
  -7.8735221716906140E-002   2.2310293566791307E-002   3.4895775970241301E-002
  -7.6237214335433304E-002   2.1760635344157505E-002   3.4301377002152356E-002
  -9.4099138061982224E-002   2.7713351354897643E-002   3.1072125120835535E-002
  -9.1511113272693623E-002   2.6415859226978686E-002   3.0291505481415466E-002
  -8.8923088483405049E-002   2.5319103368313903E-002   2.9533998610270323E-002
  -8.6335063694116476E-002   2.4423083778903471E-002   2.8799604507399976E-002
  -8.3747038904827889E-002   2.3727800458747131E-002   2.8088323172804450E-002
  -5.5600777066112564E-002   1.5859140000388669E-002   5.2480891118008369E-002
  -5.4155390310865498E-002   1.5567394881183791E-002   5.3055450470314333E-002
  -5.2710003555618459E-002   1.5269126731710794E-002   5.4577826035680239E-002
  -5.1264616800371407E-002   1.4964335551969458E-002   5.7048017814106039E-002
  -4.9819230045124341E-002   1.4653021341960060E-002   6.0466025805591739E-002
  -6.2164083416075669E-002   1.7826305114978278E-002   4.6497660974754315E-002
  -5.9937485953709471E-002   1.7468529952547926E-002   4.6594163569846553E-002
  -5.7710888491343329E-002   1.7125387464127648E-002   4.7305271366117112E-002
  -5.5484291028977124E-002   1.6796877649717219E-002   4.8630984363566027E-002
  -5.3257693566610989E-002   1.6483000509317086E-002   5.0571302562193138E-002
  -6.9042895839182550E-002   1.9793470229567893E-002   4.0437822936135598E-002
  -6.6368298681578855E-002   1.9369665023912040E-002   4.0077424478292378E-002
  -6.3693701523975216E-002   1.8981648196544479E-002   3.9998420209745859E-002
  -6.1019104366371563E-002   1.8629419747465095E-002   4.0200810130496041E-002
  -5.8344507208767854E-002   1.8312979676674085E-002   4.0684594240542965E-002
  -7.6237214335433304E-002   2.1760635344157505E-002   3.4301377002152356E-002
  -7.3447828494473719E-002   2.1270800095276179E-002   3.3505233195651810E-002
  -7.0658442653514161E-002   2.0837908928961334E-002   3.2657272566566441E-002
  -6.7869056812554548E-002   2.0461961845212994E-002   3.1757495114896200E-002
  -6.5079670971594963E-002   2.0142958844031070E-002   3.0805900840640971E-002
  -8.3747038904827889E-002   2.3727800458747131E-002   2.8088323172804450E-002
  -8.1176075392394020E-002   2.3171935166640290E-002   2.6877589721924916E-002
  -7.8605111879960138E-002   2.2694169661378185E-002   2.5281828436578842E-002
  -7.6034148367526228E-002   2.2294503942960738E-002   2.3301039316766390E-002
  -7.3463184855092345E-002   2.1972938011388138E-002   2.0935222362487321E-002
  -4.9819230045124341E-002   1.4653021341960060E-002   6.0466025805591739E-002
  -4.8697293167919167E-002   1.4272122939021498E-002   6.4172020607519503E-002
  -4.7575356290713980E-002   1.3758579180493030E-002   6.7814563602087097E-002
  -4.6453419413508792E-002   1.3112390066374678E-002   7.1393654789294478E-002
  -4.5331482536303605E-002   1.2333555596666324E-002   7.4909294169141605E-002
  -5.3257693566610989E-002   1.6483000509317086E-002   5.0571302562193138E-002
  -5.2144002245862554E-002   1.6107301926981163E-002   5.2548693037618568E-002
  -5.1030310925114099E-002   1.5593327786763984E-002   5.4573044207490748E-002
  -4.9916619604365664E-002   1.4941078088665545E-002   5.6644356071809669E-002
  -4.8802928283617229E-002   1.4150552832685792E-002   5.8762628630575187E-002
  -5.8344507208767854E-002   1.8312979676674085E-002   4.0684594240542965E-002
  -5.7128648942669211E-002   1.7942480914940870E-002   4.0927750187174629E-002
  -5.5912790676570574E-002   1.7428076393034939E-002   4.1328279330060017E-002
  -5.4696932410471952E-002   1.6769766110956440E-002   4.1886181669199100E-002
  -5.3481074144373295E-002   1.5967550068705344E-002   4.2601457204591783E-002
  -6.5079670971594963E-002   2.0142958844031070E-002   3.0805900840640971E-002
  -6.3651233258339157E-002   1.9777659902900528E-002   2.9309192056187608E-002
  -6.2222795545083413E-002   1.9262824999305921E-002   2.8080268969794871E-002
  -6.0794357831827621E-002   1.8598454133247379E-002   2.7119131581462882E-002
  -5.9365920118571835E-002   1.7784547304724910E-002   2.6425779891191322E-002
  -7.3463184855092345E-002   2.1972938011388138E-002   2.0935222362487321E-002
  -7.1711755192872484E-002   2.1612838890860173E-002   1.7693018644657610E-002
  -6.9960325530652581E-002   2.1097573605576826E-002   1.4829013126695448E-002
  -6.8208895868432678E-002   2.0427142155538223E-002   1.2343205808600814E-002
  -6.6457466206212790E-002   1.9601544540744364E-002   1.0235596690373772E-002
  -4.5331482536303605E-002   1.2333555596666324E-002   7.4909294169141605E-002
  -4.3298018169439456E-002   1.1512540216297190E-002   7.7234533856151699E-002
  -4.1264553802575286E-002   1.0739808370196488E-002   7.9848045108541016E-002
  -3.9231089435711117E-002   1.0015360058364339E-002   8.2749827926309263E-002
  -3.7197625068846968E-002   9.3391952808005718E-003   8.5939882309456817E-002
  -4.8802928283617229E-002   1.4150552832685792E-002   5.8762628630575187E-002
  -4.6505178892948376E-002   1.3322493055596657E-002   5.9912926687533757E-002
  -4.4207429502279502E-002   1.2557639794169559E-002   6.1303523226722792E-002
  -4.1909680111610628E-002   1.1855993048404619E-002   6.2934418248141860E-002
  -3.9611930720941768E-002   1.1217552818302001E-002   6.4805611751791531E-002
  -5.3481074144373295E-002   1.5967550068705344E-002   4.2601457204591783E-002
  -5.0967012813048503E-002   1.5132445894895916E-002   4.2591736612892589E-002
  -4.8452951481723759E-002   1.4375471218142415E-002   4.2774341420274940E-002
  -4.5938890150398995E-002   1.3696626038445013E-002   4.3149271626738761E-002
  -4.3424828819074279E-002   1.3095910355803458E-002   4.3716527232284058E-002
  -5.9365920118571835E-002   1.7784547304724910E-002   2.6425779891191322E-002
  -5.6683519929739974E-002   1.6942398734195195E-002   2.5270963632228149E-002
  -5.4001119740908154E-002   1.6193302642115295E-002   2.4260499689197738E-002
  -5.1318719552076252E-002   1.5537259028485351E-002   2.3394388062099789E-002
  -4.8636319363244418E-002   1.4974267893304902E-002   2.2672628750934835E-002
  -6.6457466206212790E-002   1.9601544540744364E-002   1.0235596690373772E-002
  -6.3654700243022666E-002   1.8752351573494586E-002   7.9506077455404334E-003
  -6.0851934279832529E-002   1.8011134066088369E-002   5.7619980334908116E-003
  -5.8049168316642398E-002   1.7377892018525805E-002   3.6697675542251978E-003
  -5.5246402353452267E-002   1.6852625430806401E-002   1.6739163077434949E-003
  -3.7197625068846968E-002   9.3391952808005718E-003   8.5939882309456817E-002
  -3.5092191422667798E-002   8.5987292594798259E-003   8.9446634032898431E-002
  -3.2986757776488587E-002   7.6813772163764893E-003   9.4152222040046196E-002
  -3.0881324130309390E-002   6.5871391514910824E-003  0.10005664633089967     
  -2.8775890484130207E-002   5.3160150648230986E-003  0.10715990690545923     
  -3.9611930720941768E-002   1.1217552818302001E-002   6.4805611751791531E-002
  -3.6527113029145804E-002   1.0548778838173983E-002   6.6543938772358646E-002
  -3.3442295337349839E-002   9.7561308423327331E-003   6.9042197600453450E-002
  -3.0357477645553826E-002   8.8396088307788334E-003   7.2300388236075930E-002
  -2.7272659953757855E-002   7.7992128035115349E-003   7.6318510679226015E-002
  -4.3424828819074279E-002   1.3095910355803458E-002   4.3716527232284058E-002
  -3.9799531557839753E-002   1.2498828416868127E-002   4.3739441556046088E-002
  -3.6174234296605288E-002   1.1830884468289102E-002   4.4083383211157512E-002
  -3.2548937035370824E-002   1.1092078510066421E-002   4.4748352197618406E-002
  -2.8923639774136353E-002   1.0282410542199943E-002   4.5734348515428555E-002
  -4.8636319363244418E-002   1.4974267893304902E-002   2.2672628750934835E-002
  -4.4909447008749707E-002   1.4448877995562416E-002   2.1033142383961041E-002
  -4.1182574654254928E-002   1.3905638094245297E-002   1.9275778872158287E-002
  -3.7455702299760155E-002   1.3344548189353924E-002   1.7400538215526624E-002
  -3.3728829945265389E-002   1.2765608280888366E-002   1.5407420414066276E-002
  -5.5246402353452267E-002   1.6852625430806401E-002   1.6739163077434949E-003
  -5.1856859381875564E-002   1.6398927574256428E-002  -1.5749587438968482E-003
  -4.8467316410298805E-002   1.5980391720201659E-002  -5.3806154165442210E-003
  -4.5077773438722046E-002   1.5597017868641663E-002  -9.7430537101986375E-003
  -4.1688230467145315E-002   1.5248806019576733E-002  -1.4662273624860556E-002
  -2.8775890484130207E-002   5.3160150648230986E-003  0.10715990690545923     
  -2.4772094622743074E-002   3.0319572169617004E-003  0.11370384940223693     
  -2.0768298761355941E-002  -1.1010821315040470E-003  0.12307880678493380     
  -1.6764502899968808E-002  -7.0831029805742650E-003  0.13528477905354946     
  -1.2760707038581676E-002  -1.4914105330249061E-002  0.15032176620808446     
  -2.7272659953757855E-002   7.7992128035115349E-003   7.6318510679226015E-002
  -2.1137006558229011E-002   6.2879533071052152E-003   7.7675668261891179E-002
  -1.5001353162700112E-002   3.9588408881340714E-003   8.0465526026920670E-002
  -8.8656997671712340E-003   8.1187554659768388E-004   8.4688083974315043E-002
  -2.7300463716422585E-003  -3.1529427175036595E-003   9.0343342104073465E-002
  -2.8923639774136353E-002   1.0282410542199943E-002   4.5734348515428555E-002
  -2.2054443548020171E-002   9.5439493972487854E-003   4.2935849762020264E-002
  -1.5185247321903982E-002   9.0187639077721274E-003   4.0171736487421998E-002
  -8.3160510957878894E-003   8.7068540737697975E-003   3.7442008691633694E-002
  -1.4468548696716654E-003   8.6082198952416311E-003   3.4746666374655621E-002
  -3.3728829945265389E-002   1.2765608280888366E-002   1.5407420414066276E-002
  -2.7524405592116531E-002   1.2799945487392328E-002   9.4843939026241324E-003
  -2.1319981238967559E-002   1.4078686927410159E-002   2.1974381664374241E-003
  -1.5115556885818662E-002   1.6601832600941717E-002  -6.4534467944934041E-003
  -8.9111325326696744E-003   2.0369382507986866E-002  -1.6468260980169278E-002
  -4.1688230467145315E-002   1.5248806019576733E-002  -1.4662273624860556E-002
  -3.7546892690518113E-002   1.6055941577535704E-002  -2.2678699316297235E-002
  -3.3405554913890925E-002   1.9138609947048371E-002  -3.3457368936032850E-002
  -2.9264217137263661E-002   2.4496811128113822E-002  -4.6998282484067511E-002
  -2.5122879360636508E-002   3.2130545120732323E-002  -6.3301439960401051E-002
  -9.0384841244224939E-002   0.0000000000000000        4.9772881222670685E-002
  -9.3973997920056673E-002   5.4012086641972556E-003   5.3120704691745312E-002
  -9.7563154595888421E-002   1.0656403474148840E-002   5.4848143867548417E-002
 -0.10115231127172017        1.5765584429854748E-002   5.4955198750079967E-002
 -0.10474146794755190        2.0728751531314985E-002   5.3441869339340017E-002
 -0.10332452796423004        0.0000000000000000        5.8597899764527062E-002
 -0.10685519004483564        1.0877350773664338E-002   5.2041092731222489E-002
 -0.11038585212544119        1.9157760109872028E-002   4.7221659181641784E-002
 -0.11391651420604677        2.4841228008623074E-002   4.4139599115784946E-002
 -0.11744717628665235        2.7927754469917479E-002   4.2794912533651974E-002
 -0.12647624642926089        0.0000000000000000        7.4124524207456008E-002
 -0.12659065613764492        1.6353492883131416E-002   5.5212159088561252E-002
 -0.12670506584602892        2.7659116745595208E-002   4.1394925230385786E-002
 -0.12681947555441295        3.3916871587391401E-002   3.2672822632929553E-002
 -0.12693388526279695        3.5126757408519955E-002   2.9045851296192627E-002
 -0.15983999663931753        0.0000000000000000        9.6352754551457517E-002
 -0.15318039619848456        2.1829634992598494E-002   6.2633903763761614E-002
 -0.14652079575765159        3.6160473381318392E-002   3.7367942013780381E-002
 -0.13986119531681865        4.2992515166159692E-002   2.0554869301513824E-002
 -0.13320159487598565        4.2325760347122425E-002   1.2194685626961920E-002
 -0.20341577859439985        0.0000000000000000       0.12528259079653159     
 -0.18662441022735451        2.7305777102065585E-002   7.4306326756823582E-002
 -0.16983304186030918        4.4661830017041590E-002   3.5140709531825624E-002
 -0.15304167349326386        5.2068158744928053E-002   7.7857391215377381E-003
 -0.13625030512621852        4.9524763285724915E-002  -7.7585844740400700E-003
 -0.10474146794755190        2.0728751531314985E-002   5.3441869339340017E-002
 -0.10208088547615948        2.4832909151041943E-002   4.5391241031646656E-002
  -9.9420303004767063E-002   2.7365061661548052E-002   3.8979407559331485E-002
  -9.6759720533374644E-002   2.8325209062833291E-002   3.4206368922394405E-002
  -9.4099138061982224E-002   2.7713351354897643E-002   3.1072125120835535E-002
 -0.11744717628665235        2.7927754469917479E-002   4.2794912533651974E-002
 -0.11352411783674028        2.9384925622366019E-002   3.6470077587328058E-002
 -0.10960105938682824        3.0180327594579569E-002   3.1031399762665279E-002
 -0.10567800093691614        3.0313960386558123E-002   2.6478879059663705E-002
 -0.10175494248700412        2.9785823998301618E-002   2.2812515478323254E-002
 -0.12693388526279695        3.5126757408519955E-002   2.9045851296192627E-002
 -0.12250098854808218        3.3936942093690116E-002   2.5357045640223962E-002
 -0.11806809183336747        3.2995593527611104E-002   2.1801759392199530E-002
 -0.11363519511865276        3.2302711710282948E-002   1.8379992552119195E-002
 -0.10920229840393800        3.1858296641705586E-002   1.5091745119983088E-002
 -0.13320159487598565        4.2325760347122425E-002   1.2194685626961920E-002
 -0.12901149761018524        3.8488958565014185E-002   1.2052145190334439E-002
 -0.12482140034438485        3.5810859460642643E-002   1.1290486447934166E-002
 -0.12063130307858441        3.4291463034007784E-002   9.9097093997609371E-003
 -0.11644120581278403        3.3930769285109560E-002   7.9098140458150057E-003
 -0.13625030512621852        4.9524763285724915E-002  -7.7585844740400700E-003
 -0.13305564502304940        4.3040975036338261E-002  -3.4446237623406359E-003
 -0.12986098491988032        3.8626125393674146E-002  -5.0241907013095360E-004
 -0.12666632481671125        3.6280214357732612E-002   1.0680296025888606E-003
 -0.12347166471354212        3.6003241928513563E-002   1.2667222558190028E-003
  -9.4099138061982224E-002   2.7713351354897643E-002   3.1072125120835535E-002
  -9.1511113272693623E-002   2.6415859226978686E-002   3.0291505481415466E-002
  -8.8923088483405049E-002   2.5319103368313903E-002   2.9533998610270323E-002
  -8.6335063694116476E-002   2.4423083778903471E-002   2.8799604507399976E-002
  -8.3747038904827889E-002   2.3727800458747131E-002   2.8088323172804450E-002
 -0.10175494248700412        2.9785823998301618E-002   2.2812515478323254E-002
  -9.9152599864918534E-002   2.8940180494832626E-002   2.2345295021045399E-002
  -9.6550257242832949E-002   2.8121291941173542E-002   2.1883597461086701E-002
  -9.3947914620747391E-002   2.7329158337324473E-002   2.1427422798447164E-002
  -9.1345571998661779E-002   2.6563779683285341E-002   2.0976771033126715E-002
 -0.10920229840393800        3.1858296641705586E-002   1.5091745119983088E-002
 -0.10660322782001118        3.1464501762686524E-002   1.4763942525403190E-002
 -0.10400415723608432        3.0923480514033132E-002   1.4424072957186639E-002
 -0.10140508665215749        3.0235232895745458E-002   1.4072136415333593E-002
  -9.8806016068230626E-002   2.9399758907823544E-002   1.3708132899843985E-002
 -0.11644120581278403        3.3930769285109560E-002   7.9098140458150057E-003
 -0.11386299713797159        3.3988823030540488E-002   7.5474479944888321E-003
 -0.11128478846315910        3.3725669086892777E-002   7.1554250985702336E-003
 -0.10870657978834670        3.3141307454166540E-002   6.7337453580594625E-003
 -0.10612837111353424        3.2235738132361746E-002   6.2824087729562933E-003
 -0.12347166471354212        3.6003241928513563E-002   1.2667222558190028E-003
 -0.12093190781879981        3.6513144298394404E-002   6.9581142830207887E-004
 -0.11839215092405743        3.6527857659752402E-002   7.7653885237165265E-005
 -0.11585239402931510        3.6047382012587573E-002  -5.8775037337556631E-004
 -0.11331263713457274        3.5071717356899956E-002  -1.3004013475363951E-003
  -8.3747038904827889E-002   2.3727800458747131E-002   2.8088323172804450E-002
  -8.1176075392394020E-002   2.3171935166640290E-002   2.6877589721924916E-002
  -7.8605111879960138E-002   2.2694169661378185E-002   2.5281828436578842E-002
  -7.6034148367526228E-002   2.2294503942960738E-002   2.3301039316766390E-002
  -7.3463184855092345E-002   2.1972938011388138E-002   2.0935222362487321E-002
  -9.1345571998661779E-002   2.6563779683285341E-002   2.0976771033126715E-002
  -8.9053636381173890E-002   2.5869238832601699E-002   2.0106636767905722E-002
  -8.6761700763685959E-002   2.5289618638819057E-002   1.9063474547259374E-002
  -8.4469765146198014E-002   2.4824919101937615E-002   1.7847284371187606E-002
  -8.2177829528710084E-002   2.4475140221957153E-002   1.6458066239690358E-002
  -9.8806016068230626E-002   2.9399758907823544E-002   1.3708132899843985E-002
  -9.6581108466647511E-002   2.8566542498563080E-002   1.3215418690337936E-002
  -9.4356200865064466E-002   2.7885067616260098E-002   1.2761676404447522E-002
  -9.2131293263481379E-002   2.7355334260914414E-002   1.2346906042172881E-002
  -8.9906385661898319E-002   2.6977342432526100E-002   1.1971107603513810E-002
 -0.10612837111353424        3.2235738132361746E-002   6.2824087729562933E-003
 -0.10375849164881494        3.1263846164524475E-002   6.2039354892214635E-003
 -0.10138861218409567        3.0480516593700969E-002   6.3764340081433821E-003
  -9.9018732719376404E-002   2.9885749419891153E-002   6.7999043297220611E-003
  -9.6648853254657136E-002   2.9479544643094997E-002   7.4743464539575050E-003
 -0.11331263713457274        3.5071717356899956E-002  -1.3004013475363951E-003
 -0.11058578592767609        3.3961149830485926E-002  -9.2781283544357551E-004
 -0.10785893472077956        3.3075965571141855E-002  -9.2252641653065015E-005
 -0.10513208351388295        3.2416164578867937E-002   1.2062792338353341E-003
 -0.10240523230698639        3.1981746853664117E-002   2.9677827910216115E-003
  -7.3463184855092345E-002   2.1972938011388138E-002   2.0935222362487321E-002
  -7.1711755192872484E-002   2.1612838890860173E-002   1.7693018644657610E-002
  -6.9960325530652581E-002   2.1097573605576826E-002   1.4829013126695448E-002
  -6.8208895868432678E-002   2.0427142155538223E-002   1.2343205808600814E-002
  -6.6457466206212790E-002   1.9601544540744364E-002   1.0235596690373772E-002
  -8.2177829528710084E-002   2.4475140221957153E-002   1.6458066239690358E-002
  -8.0094593480559473E-002   2.4101053865210276E-002   1.3996208360758738E-002
  -7.8011357432408876E-002   2.3563431898029744E-002   1.1819765053821034E-002
  -7.5928121384258224E-002   2.2862274320415574E-002   9.9287363188770676E-003
  -7.3844885336107668E-002   2.1997581132367633E-002   8.3231221559271762E-003
  -8.9906385661898319E-002   2.6977342432526100E-002   1.1971107603513810E-002
  -8.7584126855690753E-002   2.6589268839560358E-002   1.0281226117802023E-002
  -8.5261868049483103E-002   2.6029290190482630E-002   8.7839755762102630E-003
  -8.2939609243275508E-002   2.5297406485292839E-002   7.4793559787387515E-003
  -8.0617350437067886E-002   2.4393617723991012E-002   6.3673673253872715E-003
  -9.6648853254657136E-002   2.9479544643094997E-002   7.4743464539575050E-003
  -9.4180355318266157E-002   2.9077483813910534E-002   6.5480719157870043E-003
  -9.1711857381875247E-002   2.8495148482935613E-002   5.7216446938630787E-003
  -8.9243359445484283E-002   2.7732538650170176E-002   4.9950647881854115E-003
  -8.6774861509093387E-002   2.6789654315614614E-002   4.3683321987542933E-003
 -0.10240523230698639        3.1981746853664117E-002   2.9677827910216115E-003
  -9.9883278868285852E-002   3.1565698788260738E-002   2.7967457547140862E-003
  -9.7361325429585310E-002   3.0961006775388530E-002   2.6327724067794350E-003
  -9.4839371990884797E-002   3.0167670815047575E-002   2.4758627472176824E-003
  -9.2317418552184227E-002   2.9185690907237660E-002   2.3260167760282280E-003
  -6.6457466206212790E-002   1.9601544540744364E-002   1.0235596690373772E-002
  -6.3654700243022666E-002   1.8752351573494586E-002   7.9506077455404334E-003
  -6.0851934279832529E-002   1.8011134066088369E-002   5.7619980334908116E-003
  -5.8049168316642398E-002   1.7377892018525805E-002   3.6697675542251978E-003
  -5.5246402353452267E-002   1.6852625430806401E-002   1.6739163077434949E-003
  -7.3844885336107668E-002   2.1997581132367633E-002   8.3231221559271762E-003
  -7.0952502614712754E-002   2.1093012508537498E-002   6.7422048648055760E-003
  -6.8060119893317769E-002   2.0272228623576326E-002   5.2441418573098419E-003
  -6.5167737171922813E-002   1.9535229477483991E-002   3.8289331334398075E-003
  -6.2275354450527884E-002   1.8882015070260716E-002   2.4965786931954725E-003
  -8.0617350437067886E-002   2.4393617723991012E-002   6.3673673253872715E-003
  -7.7648875906626225E-002   2.3433673443580355E-002   5.4663309670031843E-003
  -7.4680401376184619E-002   2.2533323181064227E-002   4.6346239430865299E-003
  -7.1711926845742943E-002   2.1692566936442340E-002   3.8722462536374853E-003
  -6.8743452315301365E-002   2.0911404709715004E-002   3.1791978986561720E-003
  -8.6774861509093387E-002   2.6789654315614614E-002   4.3683321987542933E-003
  -8.3743820118763218E-002   2.5774334378623379E-002   4.1229860521328193E-003
  -8.0712778728433049E-002   2.4794417738551851E-002   3.9334442908209397E-003
  -7.7681737338102949E-002   2.3849904395400884E-002   3.7997069148183321E-003
  -7.4650695947772711E-002   2.2940794349169361E-002   3.7217739241255966E-003
  -9.2317418552184227E-002   2.9185690907237660E-002   2.3260167760282280E-003
  -8.9237335251123651E-002   2.8114995313666069E-002   2.7121701201947013E-003
  -8.6157251950063074E-002   2.7055512296040002E-002   3.1406029005129482E-003
  -8.3077168649002470E-002   2.6007241854358966E-002   3.6113151169825837E-003
  -7.9997085347941921E-002   2.4970183988623496E-002   4.1243067696032920E-003
  -5.5246402353452267E-002   1.6852625430806401E-002   1.6739163077434949E-003
  -5.1856859381875564E-002   1.6398927574256428E-002  -1.5749587438968482E-003
  -4.8467316410298805E-002   1.5980391720201659E-002  -5.3806154165442210E-003
  -4.5077773438722046E-002   1.5597017868641663E-002  -9.7430537101986375E-003
  -4.1688230467145315E-002   1.5248806019576733E-002  -1.4662273624860556E-002
  -6.2275354450527884E-002   1.8882015070260716E-002   2.4965786931954725E-003
  -5.9301566008496467E-002   1.8320402662726137E-002   1.6875596820870031E-005
  -5.6327777566464989E-002   1.7858209515699539E-002  -2.7375549376373876E-003
  -5.3353989124433496E-002   1.7495435629181221E-002  -5.7667129101789880E-003
  -5.0380200682402093E-002   1.7232081003171085E-002  -9.0705983208038687E-003
  -6.8743452315301365E-002   2.0911404709715004E-002   3.1791978986561720E-003
  -6.5903364219891500E-002   2.0241877751195569E-002   1.5329240155602664E-003
  -6.3063276124481621E-002   1.9736027311197585E-002  -1.0602312269537145E-004
  -6.0223188029071714E-002   1.9393853389720613E-002  -1.7376435161108039E-003
  -5.7383099933661870E-002   1.9215355986765464E-002  -3.3619371646859408E-003
  -7.4650695947772711E-002   2.2940794349169361E-002   3.7217739241255966E-003
  -7.1662254016060745E-002   2.2163352839664835E-002   2.9731865123214900E-003
  -6.8673812084348709E-002   2.1613845106695548E-002   2.5139800282814630E-003
  -6.5685370152636702E-002   2.1292271150260198E-002   2.3441544720056162E-003
  -6.2696928220924694E-002   2.1198630970359941E-002   2.4637098434935299E-003
  -7.9997085347941921E-002   2.4970183988623496E-002   4.1243067696032920E-003
  -7.6578235397004035E-002   2.4084827928134656E-002   4.3376630871043154E-003
  -7.3159385446066261E-002   2.3491662902193483E-002   5.1224545152934176E-003
  -6.9740535495128403E-002   2.3190688910799777E-002   6.4786810541699741E-003
  -6.6321685544190601E-002   2.3181905953954196E-002   8.4063427037343041E-003
  -4.1688230467145315E-002   1.5248806019576733E-002  -1.4662273624860556E-002
  -3.7546892690518113E-002   1.6055941577535704E-002  -2.2678699316297235E-002
  -3.3405554913890925E-002   1.9138609947048371E-002  -3.3457368936032850E-002
  -2.9264217137263661E-002   2.4496811128113822E-002  -4.6998282484067511E-002
  -2.5122879360636508E-002   3.2130545120732323E-002  -6.3301439960401051E-002
  -5.0380200682402093E-002   1.7232081003171085E-002  -9.0705983208038687E-003
  -4.8092355808138226E-002   1.7331910140305662E-002  -1.3037961483640947E-002
  -4.5804510933874373E-002   1.8058687543221430E-002  -1.7950066522905733E-002
  -4.3516666059610486E-002   1.9412413211918014E-002  -2.3806913438597997E-002
  -4.1228821185346681E-002   2.1393087146395873E-002  -3.0608502230718426E-002
  -5.7383099933661870E-002   1.9215355986765464E-002  -3.3619371646859408E-003
  -5.5131245909890270E-002   1.8607878703075481E-002  -4.9288223446951884E-003
  -5.2879391886118565E-002   1.6978765139394482E-002  -5.6229473492611023E-003
  -5.0627537862346923E-002   1.4328015295722233E-002  -5.4443121783836340E-003
  -4.8375683838575309E-002   1.0655629172059533E-002  -4.3929168320629430E-003
  -6.2696928220924694E-002   2.1198630970359941E-002   2.4637098434935299E-003
  -5.8663562995774014E-002   1.9883847265845481E-002   1.6487181005398338E-003
  -5.4630197770623466E-002   1.5898842735567426E-002   3.5239885849007186E-003
  -5.0596832545472800E-002   9.2436173795266592E-003   8.0895212965756552E-003
  -4.6563467320322252E-002  -8.1828802276862067E-005   1.5345316235565939E-002
  -6.6321685544190601E-002   2.3181905953954196E-002   8.4063427037343041E-003
  -5.8689307065789786E-002   2.1159815828615258E-002   6.6946598520641887E-003
  -5.1056928587388972E-002   1.4818920331740815E-002   9.4907412795797175E-003
  -4.3424550108988186E-002   4.1592194633308655E-003   1.6794586986281196E-002
  -3.5792171630587344E-002  -1.0819286776613257E-002   2.8606196972167819E-002
 </DataArray>
 </PointData>
 </Piece>
 <Piece  NumberOfPoints="          1600 "  NumberOfCells="         1024 ">
 <Points>
 <DataArray  type="Float64" NumberOfComponents="3"  format="ascii" >
  0.50000000000000000        0.0000000000000000        0.0000000000000000     
  0.53125000000000000        0.0000000000000000        0.0000000000000000     
  0.56250000000000000        0.0000000000000000        0.0000000000000000     
  0.59375000000000000        0.0000000000000000        0.0000000000000000     
  0.62500000000000000        0.0000000000000000        0.0000000000000000     
  0.50000000000000000        3.1250000000000000E-002   0.0000000000000000     
  0.53125000000000000        3.1250000000000000E-002   0.0000000000000000     
  0.56250000000000000        3.1250000000000000E-002   0.0000000000000000     
  0.59375000000000000        3.1250000000000000E-002   0.0000000000000000     
  0.62500000000000000        3.1250000000000000E-002   0.0000000000000000     
  0.50000000000000000        6.2500000000000000E-002   0.0000000000000000     
  0.53125000000000000        6.2500000000000000E-002   0.0000000000000000     
  0.56250000000000000        6.2500000000000000E-002   0.0000000000000000     
  0.59375000000000000        6.2500000000000000E-002   0.0000000000000000     
  0.62500000000000000        6.2500000000000000E-002   0.0000000000000000     
  0.50000000000000000        9.3750000000000000E-002   0.0000000000000000     
  0.53125000000000000        9.3750000000000000E-002   0.0000000000000000     
  0.56250000000000000        9.3750000000000000E-002   0.0000000000000000     
  0.59375000000000000        9.3750000000000000E-002   0.0000000000000000     
  0.62500000000000000        9.3750000000000000E-002   0.0000000000000000     
  0.50000000000000000       0.12500000000000000        0.0000000000000000     
  0.53125000000000000       0.12500000000000000        0.0000000000000000     
  0.56250000000000000       0.12500000000000000        0.0000000000000000     
  0.59375000000000000       0.12500000000000000        0.0000000000000000     
  0.62500000000000000       0.12500000000000000        0.0000000000000000     
  0.62500000000000000        0.0000000000000000        0.0000000000000000     
  0.65625000000000000        0.0000000000000000        0.0000000000000000     
  0.68750000000000000        0.0000000000000000        0.0000000000000000     
  0.71875000000000000        0.0000000000000000        0.0000000000000000     
  0.75000000000000000        0.0000000000000000        0.0000000000000000     
  0.62500000000000000        3.1250000000000000E-002   0.0000000000000000     
  0.65625000000000000        3.1250000000000000E-002   0.0000000000000000     
  0.68750000000000000        3.1250000000000000E-002   0.0000000000000000     
  0.71875000000000000        3.1250000000000000E-002   0.0000000000000000     
  0.75000000000000000        3.1250000000000000E-002   0.0000000000000000     
  0.62500000000000000        6.2500000000000000E-002   0.0000000000000000     
  0.65625000000000000        6.2500000000000000E-002   0.0000000000000000     
  0.68750000000000000        6.2500000000000000E-002   0.0000000000000000     
  0.71875000000000000        6.2500000000000000E-002   0.0000000000000000     
  0.75000000000000000        6.2500000000000000E-002   0.0000000000000000     
  0.62500000000000000        9.3750000000000000E-002   0.0000000000000000     
  0.65625000000000000        9.3750000000000000E-002   0.0000000000000000     
  0.68750000000000000        9.3750000000000000E-002   0.0000000000000000     
  0.71875000000000000        9.3750000000000000E-002   0.0000000000000000     
  0.75000000000000000        9.3750000000000000E-002   0.0000000000000000     
  0.62500000000000000       0.12500000000000000        0.0000000000000000     
  0.65625000000000000       0.12500000000000000        0.0000000000000000     
  0.68750000000000000       0.12500000000000000        0.0000000000000000     
  0.71875000000000000       0.12500000000000000        0.0000000000000000     
  0.75000000000000000       0.12500000000000000        0.0000000000000000     
  0.75000000000000000        0.0000000000000000        0.0000000000000000     
  0.78125000000000000        0.0000000000000000        0.0000000000000000     
  0.81250000000000000        0.0000000000000000        0.0000000000000000     
  0.84375000000000000        0.0000000000000000        0.0000000000000000     
  0.87500000000000000        0.0000000000000000        0.0000000000000000     
  0.75000000000000000        3.1250000000000000E-002   0.0000000000000000     
  0.78125000000000000        3.1250000000000000E-002   0.0000000000000000     
  0.81250000000000000        3.1250000000000000E-002   0.0000000000000000     
  0.84375000000000000        3.1250000000000000E-002   0.0000000000000000     
  0.87500000000000000        3.1250000000000000E-002   0.0000000000000000     
  0.75000000000000000        6.2500000000000000E-002   0.0000000000000000     
  0.78125000000000000        6.2500000000000000E-002   0.0000000000000000     
  0.81250000000000000        6.2500000000000000E-002   0.0000000000000000     
  0.84375000000000000        6.2500000000000000E-002   0.0000000000000000     
  0.87500000000000000        6.2500000000000000E-002   0.0000000000000000     
  0.75000000000000000        9.3750000000000000E-002   0.0000000000000000     
  0.78125000000000000        9.3750000000000000E-002   0.0000000000000000     
  0.81250000000000000        9.3750000000000000E-002   0.0000000000000000     
  0.84375000000000000        9.3750000000000000E-002   0.0000000000000000     
  0.87500000000000000        9.3750000000000000E-002   0.0000000000000000     
  0.75000000000000000       0.12500000000000000        0.0000000000000000     
  0.78125000000000000       0.12500000000000000        0.0000000000000000     
  0.81250000000000000       0.12500000000000000        0.0000000000000000     
  0.84375000000000000       0.12500000000000000        0.0000000000000000     
  0.87500000000000000       0.12500000000000000        0.0000000000000000     
  0.87500000000000000        0.0000000000000000        0.0000000000000000     
  0.90625000000000000        0.0000000000000000        0.0000000000000000     
  0.93750000000000000        0.0000000000000000        0.0000000000000000     
  0.96875000000000000        0.0000000000000000        0.0000000000000000     
   1.0000000000000000        0.0000000000000000        0.0000000000000000     
  0.87500000000000000        3.1250000000000000E-002   0.0000000000000000     
  0.90625000000000000        3.1250000000000000E-002   0.0000000000000000     
  0.93750000000000000        3.1250000000000000E-002   0.0000000000000000     
  0.96875000000000000        3.1250000000000000E-002   0.0000000000000000     
   1.0000000000000000        3.1250000000000000E-002   0.0000000000000000     
  0.87500000000000000        6.2500000000000000E-002   0.0000000000000000     
  0.90625000000000000        6.2500000000000000E-002   0.0000000000000000     
  0.93750000000000000        6.2500000000000000E-002   0.0000000000000000     
  0.96875000000000000        6.2500000000000000E-002   0.0000000000000000     
   1.0000000000000000        6.2500000000000000E-002   0.0000000000000000     
  0.87500000000000000        9.3750000000000000E-002   0.0000000000000000     
  0.90625000000000000        9.3750000000000000E-002   0.0000000000000000     
  0.93750000000000000        9.3750000000000000E-002   0.0000000000000000     
  0.96875000000000000        9.3750000000000000E-002   0.0000000000000000     
   1.0000000000000000        9.3750000000000000E-002   0.0000000000000000     
  0.87500000000000000       0.12500000000000000        0.0000000000000000     
  0.90625000000000000       0.12500000000000000        0.0000000000000000     
  0.93750000000000000       0.12500000000000000        0.0000000000000000     
  0.96875000000000000       0.12500000000000000        0.0000000000000000     
   1.0000000000000000       0.12500000000000000        0.0000000000000000     
   1.0000000000000000        0.0000000000000000        0.0000000000000000     
   1.0312500000000000        0.0000000000000000        0.0000000000000000     
   1.0625000000000000        0.0000000000000000        0.0000000000000000     
   1.0937500000000000        0.0000000000000000        0.0000000000000000     
   1.1250000000000000        0.0000000000000000        0.0000000000000000     
   1.0000000000000000        3.1250000000000000E-002   0.0000000000000000     
   1.0312500000000000        3.1250000000000000E-002   0.0000000000000000     
   1.0625000000000000        3.1250000000000000E-002   0.0000000000000000     
   1.0937500000000000        3.1250000000000000E-002   0.0000000000000000     
   1.1250000000000000        3.1250000000000000E-002   0.0000000000000000     
   1.0000000000000000        6.2500000000000000E-002   0.0000000000000000     
   1.0312500000000000        6.2500000000000000E-002   0.0000000000000000     
   1.0625000000000000        6.2500000000000000E-002   0.0000000000000000     
   1.0937500000000000        6.2500000000000000E-002   0.0000000000000000     
   1.1250000000000000        6.2500000000000000E-002   0.0000000000000000     
   1.0000000000000000        9.3750000000000000E-002   0.0000000000000000     
   1.0312500000000000        9.3750000000000000E-002   0.0000000000000000     
   1.0625000000000000        9.3750000000000000E-002   0.0000000000000000     
   1.0937500000000000        9.3750000000000000E-002   0.0000000000000000     
   1.1250000000000000        9.3750000000000000E-002   0.0000000000000000     
   1.0000000000000000       0.12500000000000000        0.0000000000000000     
   1.0312500000000000       0.12500000000000000        0.0000000000000000     
   1.0625000000000000       0.12500000000000000        0.0000000000000000     
   1.0937500000000000       0.12500000000000000        0.0000000000000000     
   1.1250000000000000       0.12500000000000000        0.0000000000000000     
   1.1250000000000000        0.0000000000000000        0.0000000000000000     
   1.1562500000000000        0.0000000000000000        0.0000000000000000     
   1.1875000000000000        0.0000000000000000        0.0000000000000000     
   1.2187500000000000        0.0000000000000000        0.0000000000000000     
   1.2500000000000000        0.0000000000000000        0.0000000000000000     
   1.1250000000000000        3.1250000000000000E-002   0.0000000000000000     
   1.1562500000000000        3.1250000000000000E-002   0.0000000000000000     
   1.1875000000000000        3.1250000000000000E-002   0.0000000000000000     
   1.2187500000000000        3.1250000000000000E-002   0.0000000000000000     
   1.2500000000000000        3.1250000000000000E-002   0.0000000000000000     
   1.1250000000000000        6.2500000000000000E-002   0.0000000000000000     
   1.1562500000000000        6.2500000000000000E-002   0.0000000000000000     
   1.1875000000000000        6.2500000000000000E-002   0.0000000000000000     
   1.2187500000000000        6.2500000000000000E-002   0.0000000000000000     
   1.2500000000000000        6.2500000000000000E-002   0.0000000000000000     
   1.1250000000000000        9.3750000000000000E-002   0.0000000000000000     
   1.1562500000000000        9.3750000000000000E-002   0.0000000000000000     
   1.1875000000000000        9.3750000000000000E-002   0.0000000000000000     
   1.2187500000000000        9.3750000000000000E-002   0.0000000000000000     
   1.2500000000000000        9.3750000000000000E-002   0.0000000000000000     
   1.1250000000000000       0.12500000000000000        0.0000000000000000     
   1.1562500000000000       0.12500000000000000        0.0000000000000000     
   1.1875000000000000       0.12500000000000000        0.0000000000000000     
   1.2187500000000000       0.12500000000000000        0.0000000000000000     
   1.2500000000000000       0.12500000000000000        0.0000000000000000     
   1.2500000000000000        0.0000000000000000        0.0000000000000000     
   1.2812500000000000        0.0000000000000000        0.0000000000000000     
   1.3125000000000000        0.0000000000000000        0.0000000000000000     
   1.3437500000000000        0.0000000000000000        0.0000000000000000     
   1.3750000000000000        0.0000000000000000        0.0000000000000000     
   1.2500000000000000        3.1250000000000000E-002   0.0000000000000000     
   1.2812500000000000        3.1250000000000000E-002   0.0000000000000000     
   1.3125000000000000        3.1250000000000000E-002   0.0000000000000000     
   1.3437500000000000        3.1250000000000000E-002   0.0000000000000000     
   1.3750000000000000        3.1250000000000000E-002   0.0000000000000000     
   1.2500000000000000        6.2500000000000000E-002   0.0000000000000000     
   1.2812500000000000        6.2500000000000000E-002   0.0000000000000000     
   1.3125000000000000        6.2500000000000000E-002   0.0000000000000000     
   1.3437500000000000        6.2500000000000000E-002   0.0000000000000000     
   1.3750000000000000        6.2500000000000000E-002   0.0000000000000000     
   1.2500000000000000        9.3750000000000000E-002   0.0000000000000000     
   1.2812500000000000        9.3750000000000000E-002   0.0000000000000000     
   1.3125000000000000        9.3750000000000000E-002   0.0000000000000000     
   1.3437500000000000        9.3750000000000000E-002   0.0000000000000000     
   1.3750000000000000        9.3750000000000000E-002   0.0000000000000000     
   1.2500000000000000       0.12500000000000000        0.0000000000000000     
   1.2812500000000000       0.12500000000000000        0.0000000000000000     
   1.3125000000000000       0.12500000000000000        0.0000000000000000     
   1.3437500000000000       0.12500000000000000        0.0000000000000000     
   1.3750000000000000       0.12500000000000000        0.0000000000000000     
   1.3750000000000000        0.0000000000000000        0.0000000000000000     
   1.4062500000000000        0.0000000000000000        0.0000000000000000     
   1.4375000000000000        0.0000000000000000        0.0000000000000000     
   1.4687500000000000        0.0000000000000000        0.0000000000000000     
   1.5000000000000000        0.0000000000000000        0.0000000000000000     
   1.3750000000000000        3.1250000000000000E-002   0.0000000000000000     
   1.4062500000000000        3.1250000000000000E-002   0.0000000000000000     
   1.4375000000000000        3.1250000000000000E-002   0.0000000000000000     
   1.4687500000000000        3.1250000000000000E-002   0.0000000000000000     
   1.5000000000000000        3.1250000000000000E-002   0.0000000000000000     
   1.3750000000000000        6.2500000000000000E-002   0.0000000000000000     
   1.4062500000000000        6.2500000000000000E-002   0.0000000000000000     
   1.4375000000000000        6.2500000000000000E-002   0.0000000000000000     
   1.4687500000000000        6.2500000000000000E-002   0.0000000000000000     
   1.5000000000000000        6.2500000000000000E-002   0.0000000000000000     
   1.3750000000000000        9.3750000000000000E-002   0.0000000000000000     
   1.4062500000000000        9.3750000000000000E-002   0.0000000000000000     
   1.4375000000000000        9.3750000000000000E-002   0.0000000000000000     
   1.4687500000000000        9.3750000000000000E-002   0.0000000000000000     
   1.5000000000000000        9.3750000000000000E-002   0.0000000000000000     
   1.3750000000000000       0.12500000000000000        0.0000000000000000     
   1.4062500000000000       0.12500000000000000        0.0000000000000000     
   1.4375000000000000       0.12500000000000000        0.0000000000000000     
   1.4687500000000000       0.12500000000000000        0.0000000000000000     
   1.5000000000000000       0.12500000000000000        0.0000000000000000     
  0.50000000000000000       0.12500000000000000        0.0000000000000000     
  0.53125000000000000       0.12500000000000000        0.0000000000000000     
  0.56250000000000000       0.12500000000000000        0.0000000000000000     
  0.59375000000000000       0.12500000000000000        0.0000000000000000     
  0.62500000000000000       0.12500000000000000        0.0000000000000000     
  0.50000000000000000       0.15625000000000000        0.0000000000000000     
  0.53125000000000000       0.15625000000000000        0.0000000000000000     
  0.56250000000000000       0.15625000000000000        0.0000000000000000     
  0.59375000000000000       0.15625000000000000        0.0000000000000000     
  0.62500000000000000       0.15625000000000000        0.0000000000000000     
  0.50000000000000000       0.18750000000000000        0.0000000000000000     
  0.53125000000000000       0.18750000000000000        0.0000000000000000     
  0.56250000000000000       0.18750000000000000        0.0000000000000000     
  0.59375000000000000       0.18750000000000000        0.0000000000000000     
  0.62500000000000000       0.18750000000000000        0.0000000000000000     
  0.50000000000000000       0.21875000000000000        0.0000000000000000     
  0.53125000000000000       0.21875000000000000        0.0000000000000000     
  0.56250000000000000       0.21875000000000000        0.0000000000000000     
  0.59375000000000000       0.21875000000000000        0.0000000000000000     
  0.62500000000000000       0.21875000000000000        0.0000000000000000     
  0.50000000000000000       0.25000000000000000        0.0000000000000000     
  0.53125000000000000       0.25000000000000000        0.0000000000000000     
  0.56250000000000000       0.25000000000000000        0.0000000000000000     
  0.59375000000000000       0.25000000000000000        0.0000000000000000     
  0.62500000000000000       0.25000000000000000        0.0000000000000000     
  0.62500000000000000       0.12500000000000000        0.0000000000000000     
  0.65625000000000000       0.12500000000000000        0.0000000000000000     
  0.68750000000000000       0.12500000000000000        0.0000000000000000     
  0.71875000000000000       0.12500000000000000        0.0000000000000000     
  0.75000000000000000       0.12500000000000000        0.0000000000000000     
  0.62500000000000000       0.15625000000000000        0.0000000000000000     
  0.65625000000000000       0.15625000000000000        0.0000000000000000     
  0.68750000000000000       0.15625000000000000        0.0000000000000000     
  0.71875000000000000       0.15625000000000000        0.0000000000000000     
  0.75000000000000000       0.15625000000000000        0.0000000000000000     
  0.62500000000000000       0.18750000000000000        0.0000000000000000     
  0.65625000000000000       0.18750000000000000        0.0000000000000000     
  0.68750000000000000       0.18750000000000000        0.0000000000000000     
  0.71875000000000000       0.18750000000000000        0.0000000000000000     
  0.75000000000000000       0.18750000000000000        0.0000000000000000     
  0.62500000000000000       0.21875000000000000        0.0000000000000000     
  0.65625000000000000       0.21875000000000000        0.0000000000000000     
  0.68750000000000000       0.21875000000000000        0.0000000000000000     
  0.71875000000000000       0.21875000000000000        0.0000000000000000     
  0.75000000000000000       0.21875000000000000        0.0000000000000000     
  0.62500000000000000       0.25000000000000000        0.0000000000000000     
  0.65625000000000000       0.25000000000000000        0.0000000000000000     
  0.68750000000000000       0.25000000000000000        0.0000000000000000     
  0.71875000000000000       0.25000000000000000        0.0000000000000000     
  0.75000000000000000       0.25000000000000000        0.0000000000000000     
  0.75000000000000000       0.12500000000000000        0.0000000000000000     
  0.78125000000000000       0.12500000000000000        0.0000000000000000     
  0.81250000000000000       0.12500000000000000        0.0000000000000000     
  0.84375000000000000       0.12500000000000000        0.0000000000000000     
  0.87500000000000000       0.12500000000000000        0.0000000000000000     
  0.75000000000000000       0.15625000000000000        0.0000000000000000     
  0.78125000000000000       0.15625000000000000        0.0000000000000000     
  0.81250000000000000       0.15625000000000000        0.0000000000000000     
  0.84375000000000000       0.15625000000000000        0.0000000000000000     
  0.87500000000000000       0.15625000000000000        0.0000000000000000     
  0.75000000000000000       0.18750000000000000        0.0000000000000000     
  0.78125000000000000       0.18750000000000000        0.0000000000000000     
  0.81250000000000000       0.18750000000000000        0.0000000000000000     
  0.84375000000000000       0.18750000000000000        0.0000000000000000     
  0.87500000000000000       0.18750000000000000        0.0000000000000000     
  0.75000000000000000       0.21875000000000000        0.0000000000000000     
  0.78125000000000000       0.21875000000000000        0.0000000000000000     
  0.81250000000000000       0.21875000000000000        0.0000000000000000     
  0.84375000000000000       0.21875000000000000        0.0000000000000000     
  0.87500000000000000       0.21875000000000000        0.0000000000000000     
  0.75000000000000000       0.25000000000000000        0.0000000000000000     
  0.78125000000000000       0.25000000000000000        0.0000000000000000     
  0.81250000000000000       0.25000000000000000        0.0000000000000000     
  0.84375000000000000       0.25000000000000000        0.0000000000000000     
  0.87500000000000000       0.25000000000000000        0.0000000000000000     
  0.87500000000000000       0.12500000000000000        0.0000000000000000     
  0.90625000000000000       0.12500000000000000        0.0000000000000000     
  0.93750000000000000       0.12500000000000000        0.0000000000000000     
  0.96875000000000000       0.12500000000000000        0.0000000000000000     
   1.0000000000000000       0.12500000000000000        0.0000000000000000     
  0.87500000000000000       0.15625000000000000        0.0000000000000000     
  0.90625000000000000       0.15625000000000000        0.0000000000000000     
  0.93750000000000000       0.15625000000000000        0.0000000000000000     
  0.96875000000000000       0.15625000000000000        0.0000000000000000     
   1.0000000000000000       0.15625000000000000        0.0000000000000000     
  0.87500000000000000       0.18750000000000000        0.0000000000000000     
  0.90625000000000000       0.18750000000000000        0.0000000000000000     
  0.93750000000000000       0.18750000000000000        0.0000000000000000     
  0.96875000000000000       0.18750000000000000        0.0000000000000000     
   1.0000000000000000       0.18750000000000000        0.0000000000000000     
  0.87500000000000000       0.21875000000000000        0.0000000000000000     
  0.90625000000000000       0.21875000000000000        0.0000000000000000     
  0.93750000000000000       0.21875000000000000        0.0000000000000000     
  0.96875000000000000       0.21875000000000000        0.0000000000000000     
   1.0000000000000000       0.21875000000000000        0.0000000000000000     
  0.87500000000000000       0.25000000000000000        0.0000000000000000     
  0.90625000000000000       0.25000000000000000        0.0000000000000000     
  0.93750000000000000       0.25000000000000000        0.0000000000000000     
  0.96875000000000000       0.25000000000000000        0.0000000000000000     
   1.0000000000000000       0.25000000000000000        0.0000000000000000     
   1.0000000000000000       0.12500000000000000        0.0000000000000000     
   1.0312500000000000       0.12500000000000000        0.0000000000000000     
   1.0625000000000000       0.12500000000000000        0.0000000000000000     
   1.0937500000000000       0.12500000000000000        0.0000000000000000     
   1.1250000000000000       0.12500000000000000        0.0000000000000000     
   1.0000000000000000       0.15625000000000000        0.0000000000000000     
   1.0312500000000000       0.15625000000000000        0.0000000000000000     
   1.0625000000000000       0.15625000000000000        0.0000000000000000     
   1.0937500000000000       0.15625000000000000        0.0000000000000000     
   1.1250000000000000       0.15625000000000000        0.0000000000000000     
   1.0000000000000000       0.18750000000000000        0.0000000000000000     
   1.0312500000000000       0.18750000000000000        0.0000000000000000     
   1.0625000000000000       0.18750000000000000        0.0000000000000000     
   1.0937500000000000       0.18750000000000000        0.0000000000000000     
   1.1250000000000000       0.18750000000000000        0.0000000000000000     
   1.0000000000000000       0.21875000000000000        0.0000000000000000     
   1.0312500000000000       0.21875000000000000        0.0000000000000000     
   1.0625000000000000       0.21875000000000000        0.0000000000000000     
   1.0937500000000000       0.21875000000000000        0.0000000000000000     
   1.1250000000000000       0.21875000000000000        0.0000000000000000     
   1.0000000000000000       0.25000000000000000        0.0000000000000000     
   1.0312500000000000       0.25000000000000000        0.0000000000000000     
   1.0625000000000000       0.25000000000000000        0.0000000000000000     
   1.0937500000000000       0.25000000000000000        0.0000000000000000     
   1.1250000000000000       0.25000000000000000        0.0000000000000000     
   1.1250000000000000       0.12500000000000000        0.0000000000000000     
   1.1562500000000000       0.12500000000000000        0.0000000000000000     
   1.1875000000000000       0.12500000000000000        0.0000000000000000     
   1.2187500000000000       0.12500000000000000        0.0000000000000000     
   1.2500000000000000       0.12500000000000000        0.0000000000000000     
   1.1250000000000000       0.15625000000000000        0.0000000000000000     
   1.1562500000000000       0.15625000000000000        0.0000000000000000     
   1.1875000000000000       0.15625000000000000        0.0000000000000000     
   1.2187500000000000       0.15625000000000000        0.0000000000000000     
   1.2500000000000000       0.15625000000000000        0.0000000000000000     
   1.1250000000000000       0.18750000000000000        0.0000000000000000     
   1.1562500000000000       0.18750000000000000        0.0000000000000000     
   1.1875000000000000       0.18750000000000000        0.0000000000000000     
   1.2187500000000000       0.18750000000000000        0.0000000000000000     
   1.2500000000000000       0.18750000000000000        0.0000000000000000     
   1.1250000000000000       0.21875000000000000        0.0000000000000000     
   1.1562500000000000       0.21875000000000000        0.0000000000000000     
   1.1875000000000000       0.21875000000000000        0.0000000000000000     
   1.2187500000000000       0.21875000000000000        0.0000000000000000     
   1.2500000000000000       0.21875000000000000        0.0000000000000000     
   1.1250000000000000       0.25000000000000000        0.0000000000000000     
   1.1562500000000000       0.25000000000000000        0.0000000000000000     
   1.1875000000000000       0.25000000000000000        0.0000000000000000     
   1.2187500000000000       0.25000000000000000        0.0000000000000000     
   1.2500000000000000       0.25000000000000000        0.0000000000000000     
   1.2500000000000000       0.12500000000000000        0.0000000000000000     
   1.2812500000000000       0.12500000000000000        0.0000000000000000     
   1.3125000000000000       0.12500000000000000        0.0000000000000000     
   1.3437500000000000       0.12500000000000000        0.0000000000000000     
   1.3750000000000000       0.12500000000000000        0.0000000000000000     
   1.2500000000000000       0.15625000000000000        0.0000000000000000     
   1.2812500000000000       0.15625000000000000        0.0000000000000000     
   1.3125000000000000       0.15625000000000000        0.0000000000000000     
   1.3437500000000000       0.15625000000000000        0.0000000000000000     
   1.3750000000000000       0.15625000000000000        0.0000000000000000     
   1.2500000000000000       0.18750000000000000        0.0000000000000000     
   1.2812500000000000       0.18750000000000000        0.0000000000000000     
   1.3125000000000000       0.18750000000000000        0.0000000000000000     
   1.3437500000000000       0.18750000000000000        0.0000000000000000     
   1.3750000000000000       0.18750000000000000        0.0000000000000000     
   1.2500000000000000       0.21875000000000000        0.0000000000000000     
   1.2812500000000000       0.21875000000000000        0.0000000000000000     
   1.3125000000000000       0.21875000000000000        0.0000000000000000     
   1.3437500000000000       0.21875000000000000        0.0000000000000000     
   1.3750000000000000       0.21875000000000000        0.0000000000000000     
   1.2500000000000000       0.25000000000000000        0.0000000000000000     
   1.2812500000000000       0.25000000000000000        0.0000000000000000     
   1.3125000000000000       0.25000000000000000        0.0000000000000000     
   1.3437500000000000       0.25000000000000000        0.0000000000000000     
   1.3750000000000000       0.25000000000000000        0.0000000000000000     
   1.3750000000000000       0.12500000000000000        0.0000000000000000     
   1.4062500000000000       0.12500000000000000        0.0000000000000000     
   1.4375000000000000       0.12500000000000000        0.0000000000000000     
   1.4687500000000000       0.12500000000000000        0.0000000000000000     
   1.5000000000000000       0.12500000000000000        0.0000000000000000     
   1.3750000000000000       0.15625000000000000        0.0000000000000000     
   1.4062500000000000       0.15625000000000000        0.0000000000000000     
   1.4375000000000000       0.15625000000000000        0.0000000000000000     
   1.4687500000000000       0.15625000000000000        0.0000000000000000     
   1.5000000000000000       0.15625000000000000        0.0000000000000000     
   1.3750000000000000       0.18750000000000000        0.0000000000000000     
   1.4062500000000000       0.18750000000000000        0.0000000000000000     
   1.4375000000000000       0.18750000000000000        0.0000000000000000     
   1.4687500000000000       0.18750000000000000        0.0000000000000000     
   1.5000000000000000       0.18750000000000000        0.0000000000000000     
   1.3750000000000000       0.21875000000000000        0.0000000000000000     
   1.4062500000000000       0.21875000000000000        0.0000000000000000     
   1.4375000000000000       0.21875000000000000        0.0000000000000000     
   1.4687500000000000       0.21875000000000000        0.0000000000000000     
   1.5000000000000000       0.21875000000000000        0.0000000000000000     
   1.3750000000000000       0.25000000000000000        0.0000000000000000     
   1.4062500000000000       0.25000000000000000        0.0000000000000000     
   1.4375000000000000       0.25000000000000000        0.0000000000000000     
   1.4687500000000000       0.25000000000000000        0.0000000000000000     
   1.5000000000000000       0.25000000000000000        0.0000000000000000     
  0.50000000000000000       0.25000000000000000        0.0000000000000000     
  0.53125000000000000       0.25000000000000000        0.0000000000000000     
  0.56250000000000000       0.25000000000000000        0.0000000000000000     
  0.59375000000000000       0.25000000000000000        0.0000000000000000     
  0.62500000000000000       0.25000000000000000        0.0000000000000000     
  0.50000000000000000       0.28125000000000000        0.0000000000000000     
  0.53125000000000000       0.28125000000000000        0.0000000000000000     
  0.56250000000000000       0.28125000000000000        0.0000000000000000     
  0.59375000000000000       0.28125000000000000        0.0000000000000000     
  0.62500000000000000       0.28125000000000000        0.0000000000000000     
  0.50000000000000000       0.31250000000000000        0.0000000000000000     
  0.53125000000000000       0.31250000000000000        0.0000000000000000     
  0.56250000000000000       0.31250000000000000        0.0000000000000000     
  0.59375000000000000       0.31250000000000000        0.0000000000000000     
  0.62500000000000000       0.31250000000000000        0.0000000000000000     
  0.50000000000000000       0.34375000000000000        0.0000000000000000     
  0.53125000000000000       0.34375000000000000        0.0000000000000000     
  0.56250000000000000       0.34375000000000000        0.0000000000000000     
  0.59375000000000000       0.34375000000000000        0.0000000000000000     
  0.62500000000000000       0.34375000000000000        0.0000000000000000     
  0.50000000000000000       0.37500000000000000        0.0000000000000000     
  0.53125000000000000       0.37500000000000000        0.0000000000000000     
  0.56250000000000000       0.37500000000000000        0.0000000000000000     
  0.59375000000000000       0.37500000000000000        0.0000000000000000     
  0.62500000000000000       0.37500000000000000        0.0000000000000000     
  0.62500000000000000       0.25000000000000000        0.0000000000000000     
  0.65625000000000000       0.25000000000000000        0.0000000000000000     
  0.68750000000000000       0.25000000000000000        0.0000000000000000     
  0.71875000000000000       0.25000000000000000        0.0000000000000000     
  0.75000000000000000       0.25000000000000000        0.0000000000000000     
  0.62500000000000000       0.28125000000000000        0.0000000000000000     
  0.65625000000000000       0.28125000000000000        0.0000000000000000     
  0.68750000000000000       0.28125000000000000        0.0000000000000000     
  0.71875000000000000       0.28125000000000000        0.0000000000000000     
  0.75000000000000000       0.28125000000000000        0.0000000000000000     
  0.62500000000000000       0.31250000000000000        0.0000000000000000     
  0.65625000000000000       0.31250000000000000        0.0000000000000000     
  0.68750000000000000       0.31250000000000000        0.0000000000000000     
  0.71875000000000000       0.31250000000000000        0.0000000000000000     
  0.75000000000000000       0.31250000000000000        0.0000000000000000     
  0.62500000000000000       0.34375000000000000        0.0000000000000000     
  0.65625000000000000       0.34375000000000000        0.0000000000000000     
  0.68750000000000000       0.34375000000000000        0.0000000000000000     
  0.71875000000000000       0.34375000000000000        0.0000000000000000     
  0.75000000000000000       0.34375000000000000        0.0000000000000000     
  0.62500000000000000       0.37500000000000000        0.0000000000000000     
  0.65625000000000000       0.37500000000000000        0.0000000000000000     
  0.68750000000000000       0.37500000000000000        0.0000000000000000     
  0.71875000000000000       0.37500000000000000        0.0000000000000000     
  0.75000000000000000       0.37500000000000000        0.0000000000000000     
  0.75000000000000000       0.25000000000000000        0.0000000000000000     
  0.78125000000000000       0.25000000000000000        0.0000000000000000     
  0.81250000000000000       0.25000000000000000        0.0000000000000000     
  0.84375000000000000       0.25000000000000000        0.0000000000000000     
  0.87500000000000000       0.25000000000000000        0.0000000000000000     
  0.75000000000000000       0.28125000000000000        0.0000000000000000     
  0.78125000000000000       0.28125000000000000        0.0000000000000000     
  0.81250000000000000       0.28125000000000000        0.0000000000000000     
  0.84375000000000000       0.28125000000000000        0.0000000000000000     
  0.87500000000000000       0.28125000000000000        0.0000000000000000     
  0.75000000000000000       0.31250000000000000        0.0000000000000000     
  0.78125000000000000       0.31250000000000000        0.0000000000000000     
  0.81250000000000000       0.31250000000000000        0.0000000000000000     
  0.84375000000000000       0.31250000000000000        0.0000000000000000     
  0.87500000000000000       0.31250000000000000        0.0000000000000000     
  0.75000000000000000       0.34375000000000000        0.0000000000000000     
  0.78125000000000000       0.34375000000000000        0.0000000000000000     
  0.81250000000000000       0.34375000000000000        0.0000000000000000     
  0.84375000000000000       0.34375000000000000        0.0000000000000000     
  0.87500000000000000       0.34375000000000000        0.0000000000000000     
  0.75000000000000000       0.37500000000000000        0.0000000000000000     
  0.78125000000000000       0.37500000000000000        0.0000000000000000     
  0.81250000000000000       0.37500000000000000        0.0000000000000000     
  0.84375000000000000       0.37500000000000000        0.0000000000000000     
  0.87500000000000000       0.37500000000000000        0.0000000000000000     
  0.87500000000000000       0.25000000000000000        0.0000000000000000     
  0.90625000000000000       0.25000000000000000        0.0000000000000000     
  0.93750000000000000       0.25000000000000000        0.0000000000000000     
  0.96875000000000000       0.25000000000000000        0.0000000000000000     
   1.0000000000000000       0.25000000000000000        0.0000000000000000     
  0.87500000000000000       0.28125000000000000        0.0000000000000000     
  0.90625000000000000       0.28125000000000000        0.0000000000000000     
  0.93750000000000000       0.28125000000000000        0.0000000000000000     
  0.96875000000000000       0.28125000000000000        0.0000000000000000     
   1.0000000000000000       0.28125000000000000        0.0000000000000000     
  0.87500000000000000       0.31250000000000000        0.0000000000000000     
  0.90625000000000000       0.31250000000000000        0.0000000000000000     
  0.93750000000000000       0.31250000000000000        0.0000000000000000     
  0.96875000000000000       0.31250000000000000        0.0000000000000000     
   1.0000000000000000       0.31250000000000000        0.0000000000000000     
  0.87500000000000000       0.34375000000000000        0.0000000000000000     
  0.90625000000000000       0.34375000000000000        0.0000000000000000     
  0.93750000000000000       0.34375000000000000        0.0000000000000000     
  0.96875000000000000       0.34375000000000000        0.0000000000000000     
   1.0000000000000000       0.34375000000000000        0.0000000000000000     
  0.87500000000000000       0.37500000000000000        0.0000000000000000     
  0.90625000000000000       0.37500000000000000        0.0000000000000000     
  0.93750000000000000       0.37500000000000000        0.0000000000000000     
  0.96875000000000000       0.37500000000000000        0.0000000000000000     
   1.0000000000000000       0.37500000000000000        0.0000000000000000     
   1.0000000000000000       0.25000000000000000        0.0000000000000000     
   1.0312500000000000       0.25000000000000000        0.0000000000000000     
   1.0625000000000000       0.25000000000000000        0.0000000000000000     
   1.0937500000000000       0.25000000000000000        0.0000000000000000     
   1.1250000000000000       0.25000000000000000        0.0000000000000000     
   1.0000000000000000       0.28125000000000000        0.0000000000000000     
   1.0312500000000000       0.28125000000000000        0.0000000000000000     
   1.0625000000000000       0.28125000000000000        0.0000000000000000     
   1.0937500000000000       0.28125000000000000        0.0000000000000000     
   1.1250000000000000       0.28125000000000000        0.0000000000000000     
   1.0000000000000000       0.31250000000000000        0.0000000000000000     
   1.0312500000000000       0.31250000000000000        0.0000000000000000     
   1.0625000000000000       0.31250000000000000        0.0000000000000000     
   1.0937500000000000       0.31250000000000000        0.0000000000000000     
   1.1250000000000000       0.31250000000000000        0.0000000000000000     
   1.0000000000000000       0.34375000000000000        0.0000000000000000     
   1.0312500000000000       0.34375000000000000        0.0000000000000000     
   1.0625000000000000       0.34375000000000000        0.0000000000000000     
   1.0937500000000000       0.34375000000000000        0.0000000000000000     
   1.1250000000000000       0.34375000000000000        0.0000000000000000     
   1.0000000000000000       0.37500000000000000        0.0000000000000000     
   1.0312500000000000       0.37500000000000000        0.0000000000000000     
   1.0625000000000000       0.37500000000000000        0.0000000000000000     
   1.0937500000000000       0.37500000000000000        0.0000000000000000     
   1.1250000000000000       0.37500000000000000        0.0000000000000000     
   1.1250000000000000       0.25000000000000000        0.0000000000000000     
   1.1562500000000000       0.25000000000000000        0.0000000000000000     
   1.1875000000000000       0.25000000000000000        0.0000000000000000     
   1.2187500000000000       0.25000000000000000        0.0000000000000000     
   1.2500000000000000       0.25000000000000000        0.0000000000000000     
   1.1250000000000000       0.28125000000000000        0.0000000000000000     
   1.1562500000000000       0.28125000000000000        0.0000000000000000     
   1.1875000000000000       0.28125000000000000        0.0000000000000000     
   1.2187500000000000       0.28125000000000000        0.0000000000000000     
   1.2500000000000000       0.28125000000000000        0.0000000000000000     
   1.1250000000000000       0.31250000000000000        0.0000000000000000     
   1.1562500000000000       0.31250000000000000        0.0000000000000000     
   1.1875000000000000       0.31250000000000000        0.0000000000000000     
   1.2187500000000000       0.31250000000000000        0.0000000000000000     
   1.2500000000000000       0.31250000000000000        0.0000000000000000     
   1.1250000000000000       0.34375000000000000        0.0000000000000000     
   1.1562500000000000       0.34375000000000000        0.0000000000000000     
   1.1875000000000000       0.34375000000000000        0.0000000000000000     
   1.2187500000000000       0.34375000000000000        0.0000000000000000     
   1.2500000000000000       0.34375000000000000        0.0000000000000000     
   1.1250000000000000       0.37500000000000000        0.0000000000000000     
   1.1562500000000000       0.37500000000000000        0.0000000000000000     
   1.1875000000000000       0.37500000000000000        0.0000000000000000     
   1.2187500000000000       0.37500000000000000        0.0000000000000000     
   1.2500000000000000       0.37500000000000000        0.0000000000000000     
   1.2500000000000000       0.25000000000000000        0.0000000000000000     
   1.2812500000000000       0.25000000000000000        0.0000000000000000     
   1.3125000000000000       0.25000000000000000        0.0000000000000000     
   1.3437500000000000       0.25000000000000000        0.0000000000000000     
   1.3750000000000000       0.25000000000000000        0.0000000000000000     
   1.2500000000000000       0.28125000000000000        0.0000000000000000     
   1.2812500000000000       0.28125000000000000        0.0000000000000000     
   1.3125000000000000       0.28125000000000000        0.0000000000000000     
   1.3437500000000000       0.28125000000000000        0.0000000000000000     
   1.3750000000000000       0.28125000000000000        0.0000000000000000     
   1.2500000000000000       0.31250000000000000        0.0000000000000000     
   1.2812500000000000       0.31250000000000000        0.0000000000000000     
   1.3125000000000000       0.31250000000000000        0.0000000000000000     
   1.3437500000000000       0.31250000000000000        0.0000000000000000     
   1.3750000000000000       0.31250000000000000        0.0000000000000000     
   1.2500000000000000       0.34375000000000000        0.0000000000000000     
   1.2812500000000000       0.34375000000000000        0.0000000000000000     
   1.3125000000000000       0.34375000000000000        0.0000000000000000     
   1.3437500000000000       0.34375000000000000        0.0000000000000000     
   1.3750000000000000       0.34375000000000000        0.0000000000000000     
   1.2500000000000000       0.37500000000000000        0.0000000000000000     
   1.2812500000000000       0.37500000000000000        0.0000000000000000     
   1.3125000000000000       0.37500000000000000        0.0000000000000000     
   1.3437500000000000       0.37500000000000000        0.0000000000000000     
   1.3750000000000000       0.37500000000000000        0.0000000000000000     
   1.3750000000000000       0.25000000000000000        0.0000000000000000     
   1.4062500000000000       0.25000000000000000        0.0000000000000000     
   1.4375000000000000       0.25000000000000000        0.0000000000000000     
   1.4687500000000000       0.25000000000000000        0.0000000000000000     
   1.5000000000000000       0.25000000000000000        0.0000000000000000     
   1.3750000000000000       0.28125000000000000        0.0000000000000000     
   1.4062500000000000       0.28125000000000000        0.0000000000000000     
   1.4375000000000000       0.28125000000000000        0.0000000000000000     
   1.4687500000000000       0.28125000000000000        0.0000000000000000     
   1.5000000000000000       0.28125000000000000        0.0000000000000000     
   1.3750000000000000       0.31250000000000000        0.0000000000000000     
   1.4062500000000000       0.31250000000000000        0.0000000000000000     
   1.4375000000000000       0.31250000000000000        0.0000000000000000     
   1.4687500000000000       0.31250000000000000        0.0000000000000000     
   1.5000000000000000       0.31250000000000000        0.0000000000000000     
   1.3750000000000000       0.34375000000000000        0.0000000000000000     
   1.4062500000000000       0.34375000000000000        0.0000000000000000     
   1.4375000000000000       0.34375000000000000        0.0000000000000000     
   1.4687500000000000       0.34375000000000000        0.0000000000000000     
   1.5000000000000000       0.34375000000000000        0.0000000000000000     
   1.3750000000000000       0.37500000000000000        0.0000000000000000     
   1.4062500000000000       0.37500000000000000        0.0000000000000000     
   1.4375000000000000       0.37500000000000000        0.0000000000000000     
   1.4687500000000000       0.37500000000000000        0.0000000000000000     
   1.5000000000000000       0.37500000000000000        0.0000000000000000     
  0.50000000000000000       0.37500000000000000        0.0000000000000000     
  0.53125000000000000       0.37500000000000000        0.0000000000000000     
  0.56250000000000000       0.37500000000000000        0.0000000000000000     
  0.59375000000000000       0.37500000000000000        0.0000000000000000     
  0.62500000000000000       0.37500000000000000        0.0000000000000000     
  0.50000000000000000       0.40625000000000000        0.0000000000000000     
  0.53125000000000000       0.40625000000000000        0.0000000000000000     
  0.56250000000000000       0.40625000000000000        0.0000000000000000     
  0.59375000000000000       0.40625000000000000        0.0000000000000000     
  0.62500000000000000       0.40625000000000000        0.0000000000000000     
  0.50000000000000000       0.43750000000000000        0.0000000000000000     
  0.53125000000000000       0.43750000000000000        0.0000000000000000     
  0.56250000000000000       0.43750000000000000        0.0000000000000000     
  0.59375000000000000       0.43750000000000000        0.0000000000000000     
  0.62500000000000000       0.43750000000000000        0.0000000000000000     
  0.50000000000000000       0.46875000000000000        0.0000000000000000     
  0.53125000000000000       0.46875000000000000        0.0000000000000000     
  0.56250000000000000       0.46875000000000000        0.0000000000000000     
  0.59375000000000000       0.46875000000000000        0.0000000000000000     
  0.62500000000000000       0.46875000000000000        0.0000000000000000     
  0.50000000000000000       0.50000000000000000        0.0000000000000000     
  0.53125000000000000       0.50000000000000000        0.0000000000000000     
  0.56250000000000000       0.50000000000000000        0.0000000000000000     
  0.59375000000000000       0.50000000000000000        0.0000000000000000     
  0.62500000000000000       0.50000000000000000        0.0000000000000000     
  0.62500000000000000       0.37500000000000000        0.0000000000000000     
  0.65625000000000000       0.37500000000000000        0.0000000000000000     
  0.68750000000000000       0.37500000000000000        0.0000000000000000     
  0.71875000000000000       0.37500000000000000        0.0000000000000000     
  0.75000000000000000       0.37500000000000000        0.0000000000000000     
  0.62500000000000000       0.40625000000000000        0.0000000000000000     
  0.65625000000000000       0.40625000000000000        0.0000000000000000     
  0.68750000000000000       0.40625000000000000        0.0000000000000000     
  0.71875000000000000       0.40625000000000000        0.0000000000000000     
  0.75000000000000000       0.40625000000000000        0.0000000000000000     
  0.62500000000000000       0.43750000000000000        0.0000000000000000     
  0.65625000000000000       0.43750000000000000        0.0000000000000000     
  0.68750000000000000       0.43750000000000000        0.0000000000000000     
  0.71875000000000000       0.43750000000000000        0.0000000000000000     
  0.75000000000000000       0.43750000000000000        0.0000000000000000     
  0.62500000000000000       0.46875000000000000        0.0000000000000000     
  0.65625000000000000       0.46875000000000000        0.0000000000000000     
  0.68750000000000000       0.46875000000000000        0.0000000000000000     
  0.71875000000000000       0.46875000000000000        0.0000000000000000     
  0.75000000000000000       0.46875000000000000        0.0000000000000000     
  0.62500000000000000       0.50000000000000000        0.0000000000000000     
  0.65625000000000000       0.50000000000000000        0.0000000000000000     
  0.68750000000000000       0.50000000000000000        0.0000000000000000     
  0.71875000000000000       0.50000000000000000        0.0000000000000000     
  0.75000000000000000       0.50000000000000000        0.0000000000000000     
  0.75000000000000000       0.37500000000000000        0.0000000000000000     
  0.78125000000000000       0.37500000000000000        0.0000000000000000     
  0.81250000000000000       0.37500000000000000        0.0000000000000000     
  0.84375000000000000       0.37500000000000000        0.0000000000000000     
  0.87500000000000000       0.37500000000000000        0.0000000000000000     
  0.75000000000000000       0.40625000000000000        0.0000000000000000     
  0.78125000000000000       0.40625000000000000        0.0000000000000000     
  0.81250000000000000       0.40625000000000000        0.0000000000000000     
  0.84375000000000000       0.40625000000000000        0.0000000000000000     
  0.87500000000000000       0.40625000000000000        0.0000000000000000     
  0.75000000000000000       0.43750000000000000        0.0000000000000000     
  0.78125000000000000       0.43750000000000000        0.0000000000000000     
  0.81250000000000000       0.43750000000000000        0.0000000000000000     
  0.84375000000000000       0.43750000000000000        0.0000000000000000     
  0.87500000000000000       0.43750000000000000        0.0000000000000000     
  0.75000000000000000       0.46875000000000000        0.0000000000000000     
  0.78125000000000000       0.46875000000000000        0.0000000000000000     
  0.81250000000000000       0.46875000000000000        0.0000000000000000     
  0.84375000000000000       0.46875000000000000        0.0000000000000000     
  0.87500000000000000       0.46875000000000000        0.0000000000000000     
  0.75000000000000000       0.50000000000000000        0.0000000000000000     
  0.78125000000000000       0.50000000000000000        0.0000000000000000     
  0.81250000000000000       0.50000000000000000        0.0000000000000000     
  0.84375000000000000       0.50000000000000000        0.0000000000000000     
  0.87500000000000000       0.50000000000000000        0.0000000000000000     
  0.87500000000000000       0.37500000000000000        0.0000000000000000     
  0.90625000000000000       0.37500000000000000        0.0000000000000000     
  0.93750000000000000       0.37500000000000000        0.0000000000000000     
  0.96875000000000000       0.37500000000000000        0.0000000000000000     
   1.0000000000000000       0.37500000000000000        0.0000000000000000     
  0.87500000000000000       0.40625000000000000        0.0000000000000000     
  0.90625000000000000       0.40625000000000000        0.0000000000000000     
  0.93750000000000000       0.40625000000000000        0.0000000000000000     
  0.96875000000000000       0.40625000000000000        0.0000000000000000     
   1.0000000000000000       0.40625000000000000        0.0000000000000000     
  0.87500000000000000       0.43750000000000000        0.0000000000000000     
  0.90625000000000000       0.43750000000000000        0.0000000000000000     
  0.93750000000000000       0.43750000000000000        0.0000000000000000     
  0.96875000000000000       0.43750000000000000        0.0000000000000000     
   1.0000000000000000       0.43750000000000000        0.0000000000000000     
  0.87500000000000000       0.46875000000000000        0.0000000000000000     
  0.90625000000000000       0.46875000000000000        0.0000000000000000     
  0.93750000000000000       0.46875000000000000        0.0000000000000000     
  0.96875000000000000       0.46875000000000000        0.0000000000000000     
   1.0000000000000000       0.46875000000000000        0.0000000000000000     
  0.87500000000000000       0.50000000000000000        0.0000000000000000     
  0.90625000000000000       0.50000000000000000        0.0000000000000000     
  0.93750000000000000       0.50000000000000000        0.0000000000000000     
  0.96875000000000000       0.50000000000000000        0.0000000000000000     
   1.0000000000000000       0.50000000000000000        0.0000000000000000     
   1.0000000000000000       0.37500000000000000        0.0000000000000000     
   1.0312500000000000       0.37500000000000000        0.0000000000000000     
   1.0625000000000000       0.37500000000000000        0.0000000000000000     
   1.0937500000000000       0.37500000000000000        0.0000000000000000     
   1.1250000000000000       0.37500000000000000        0.0000000000000000     
   1.0000000000000000       0.40625000000000000        0.0000000000000000     
   1.0312500000000000       0.40625000000000000        0.0000000000000000     
   1.0625000000000000       0.40625000000000000        0.0000000000000000     
   1.0937500000000000       0.40625000000000000        0.0000000000000000     
   1.1250000000000000       0.40625000000000000        0.0000000000000000     
   1.0000000000000000       0.43750000000000000        0.0000000000000000     
   1.0312500000000000       0.43750000000000000        0.0000000000000000     
   1.0625000000000000       0.43750000000000000        0.0000000000000000     
   1.0937500000000000       0.43750000000000000        0.0000000000000000     
   1.1250000000000000       0.43750000000000000        0.0000000000000000     
   1.0000000000000000       0.46875000000000000        0.0000000000000000     
   1.0312500000000000       0.46875000000000000        0.0000000000000000     
   1.0625000000000000       0.46875000000000000        0.0000000000000000     
   1.0937500000000000       0.46875000000000000        0.0000000000000000     
   1.1250000000000000       0.46875000000000000        0.0000000000000000     
   1.0000000000000000       0.50000000000000000        0.0000000000000000     
   1.0312500000000000       0.50000000000000000        0.0000000000000000     
   1.0625000000000000       0.50000000000000000        0.0000000000000000     
   1.0937500000000000       0.50000000000000000        0.0000000000000000     
   1.1250000000000000       0.50000000000000000        0.0000000000000000     
   1.1250000000000000       0.37500000000000000        0.0000000000000000     
   1.1562500000000000       0.37500000000000000        0.0000000000000000     
   1.1875000000000000       0.37500000000000000        0.0000000000000000     
   1.2187500000000000       0.37500000000000000        0.0000000000000000     
   1.2500000000000000       0.37500000000000000        0.0000000000000000     
   1.1250000000000000       0.40625000000000000        0.0000000000000000     
   1.1562500000000000       0.40625000000000000        0.0000000000000000     
   1.1875000000000000       0.40625000000000000        0.0000000000000000     
   1.2187500000000000       0.40625000000000000        0.0000000000000000     
   1.2500000000000000       0.40625000000000000        0.0000000000000000     
   1.1250000000000000       0.43750000000000000        0.0000000000000000     
   1.1562500000000000       0.43750000000000000        0.0000000000000000     
   1.1875000000000000       0.43750000000000000        0.0000000000000000     
   1.2187500000000000       0.43750000000000000        0.0000000000000000     
   1.2500000000000000       0.43750000000000000        0.0000000000000000     
   1.1250000000000000       0.46875000000000000        0.0000000000000000     
   1.1562500000000000       0.46875000000000000        0.0000000000000000     
   1.1875000000000000       0.46875000000000000        0.0000000000000000     
   1.2187500000000000       0.46875000000000000        0.0000000000000000     
   1.2500000000000000       0.46875000000000000        0.0000000000000000     
   1.1250000000000000       0.50000000000000000        0.0000000000000000     
   1.1562500000000000       0.50000000000000000        0.0000000000000000     
   1.1875000000000000       0.50000000000000000        0.0000000000000000     
   1.2187500000000000       0.50000000000000000        0.0000000000000000     
   1.2500000000000000       0.50000000000000000        0.0000000000000000     
   1.2500000000000000       0.37500000000000000        0.0000000000000000     
   1.2812500000000000       0.37500000000000000        0.0000000000000000     
   1.3125000000000000       0.37500000000000000        0.0000000000000000     
   1.3437500000000000       0.37500000000000000        0.0000000000000000     
   1.3750000000000000       0.37500000000000000        0.0000000000000000     
   1.2500000000000000       0.40625000000000000        0.0000000000000000     
   1.2812500000000000       0.40625000000000000        0.0000000000000000     
   1.3125000000000000       0.40625000000000000        0.0000000000000000     
   1.3437500000000000       0.40625000000000000        0.0000000000000000     
   1.3750000000000000       0.40625000000000000        0.0000000000000000     
   1.2500000000000000       0.43750000000000000        0.0000000000000000     
   1.2812500000000000       0.43750000000000000        0.0000000000000000     
   1.3125000000000000       0.43750000000000000        0.0000000000000000     
   1.3437500000000000       0.43750000000000000        0.0000000000000000     
   1.3750000000000000       0.43750000000000000        0.0000000000000000     
   1.2500000000000000       0.46875000000000000        0.0000000000000000     
   1.2812500000000000       0.46875000000000000        0.0000000000000000     
   1.3125000000000000       0.46875000000000000        0.0000000000000000     
   1.3437500000000000       0.46875000000000000        0.0000000000000000     
   1.3750000000000000       0.46875000000000000        0.0000000000000000     
   1.2500000000000000       0.50000000000000000        0.0000000000000000     
   1.2812500000000000       0.50000000000000000        0.0000000000000000     
   1.3125000000000000       0.50000000000000000        0.0000000000000000     
   1.3437500000000000       0.50000000000000000        0.0000000000000000     
   1.3750000000000000       0.50000000000000000        0.0000000000000000     
   1.3750000000000000       0.37500000000000000        0.0000000000000000     
   1.4062500000000000       0.37500000000000000        0.0000000000000000     
   1.4375000000000000       0.37500000000000000        0.0000000000000000     
   1.4687500000000000       0.37500000000000000        0.0000000000000000     
   1.5000000000000000       0.37500000000000000        0.0000000000000000     
   1.3750000000000000       0.40625000000000000        0.0000000000000000     
   1.4062500000000000       0.40625000000000000        0.0000000000000000     
   1.4375000000000000       0.40625000000000000        0.0000000000000000     
   1.4687500000000000       0.40625000000000000        0.0000000000000000     
   1.5000000000000000       0.40625000000000000        0.0000000000000000     
   1.3750000000000000       0.43750000000000000        0.0000000000000000     
   1.4062500000000000       0.43750000000000000        0.0000000000000000     
   1.4375000000000000       0.43750000000000000        0.0000000000000000     
   1.4687500000000000       0.43750000000000000        0.0000000000000000     
   1.5000000000000000       0.43750000000000000        0.0000000000000000     
   1.3750000000000000       0.46875000000000000        0.0000000000000000     
   1.4062500000000000       0.46875000000000000        0.0000000000000000     
   1.4375000000000000       0.46875000000000000        0.0000000000000000     
   1.4687500000000000       0.46875000000000000        0.0000000000000000     
   1.5000000000000000       0.46875000000000000        0.0000000000000000     
   1.3750000000000000       0.50000000000000000        0.0000000000000000     
   1.4062500000000000       0.50000000000000000        0.0000000000000000     
   1.4375000000000000       0.50000000000000000        0.0000000000000000     
   1.4687500000000000       0.50000000000000000        0.0000000000000000     
   1.5000000000000000       0.50000000000000000        0.0000000000000000     
  0.50000000000000000       0.50000000000000000        0.0000000000000000     
  0.53125000000000000       0.50000000000000000        0.0000000000000000     
  0.56250000000000000       0.50000000000000000        0.0000000000000000     
  0.59375000000000000       0.50000000000000000        0.0000000000000000     
  0.62500000000000000       0.50000000000000000        0.0000000000000000     
  0.50000000000000000       0.53125000000000000        0.0000000000000000     
  0.53125000000000000       0.53125000000000000        0.0000000000000000     
  0.56250000000000000       0.53125000000000000        0.0000000000000000     
  0.59375000000000000       0.53125000000000000        0.0000000000000000     
  0.62500000000000000       0.53125000000000000        0.0000000000000000     
  0.50000000000000000       0.56250000000000000        0.0000000000000000     
  0.53125000000000000       0.56250000000000000        0.0000000000000000     
  0.56250000000000000       0.56250000000000000        0.0000000000000000     
  0.59375000000000000       0.56250000000000000        0.0000000000000000     
  0.62500000000000000       0.56250000000000000        0.0000000000000000     
  0.50000000000000000       0.59375000000000000        0.0000000000000000     
  0.53125000000000000       0.59375000000000000        0.0000000000000000     
  0.56250000000000000       0.59375000000000000        0.0000000000000000     
  0.59375000000000000       0.59375000000000000        0.0000000000000000     
  0.62500000000000000       0.59375000000000000        0.0000000000000000     
  0.50000000000000000       0.62500000000000000        0.0000000000000000     
  0.53125000000000000       0.62500000000000000        0.0000000000000000     
  0.56250000000000000       0.62500000000000000        0.0000000000000000     
  0.59375000000000000       0.62500000000000000        0.0000000000000000     
  0.62500000000000000       0.62500000000000000        0.0000000000000000     
  0.62500000000000000       0.50000000000000000        0.0000000000000000     
  0.65625000000000000       0.50000000000000000        0.0000000000000000     
  0.68750000000000000       0.50000000000000000        0.0000000000000000     
  0.71875000000000000       0.50000000000000000        0.0000000000000000     
  0.75000000000000000       0.50000000000000000        0.0000000000000000     
  0.62500000000000000       0.53125000000000000        0.0000000000000000     
  0.65625000000000000       0.53125000000000000        0.0000000000000000     
  0.68750000000000000       0.53125000000000000        0.0000000000000000     
  0.71875000000000000       0.53125000000000000        0.0000000000000000     
  0.75000000000000000       0.53125000000000000        0.0000000000000000     
  0.62500000000000000       0.56250000000000000        0.0000000000000000     
  0.65625000000000000       0.56250000000000000        0.0000000000000000     
  0.68750000000000000       0.56250000000000000        0.0000000000000000     
  0.71875000000000000       0.56250000000000000        0.0000000000000000     
  0.75000000000000000       0.56250000000000000        0.0000000000000000     
  0.62500000000000000       0.59375000000000000        0.0000000000000000     
  0.65625000000000000       0.59375000000000000        0.0000000000000000     
  0.68750000000000000       0.59375000000000000        0.0000000000000000     
  0.71875000000000000       0.59375000000000000        0.0000000000000000     
  0.75000000000000000       0.59375000000000000        0.0000000000000000     
  0.62500000000000000       0.62500000000000000        0.0000000000000000     
  0.65625000000000000       0.62500000000000000        0.0000000000000000     
  0.68750000000000000       0.62500000000000000        0.0000000000000000     
  0.71875000000000000       0.62500000000000000        0.0000000000000000     
  0.75000000000000000       0.62500000000000000        0.0000000000000000     
  0.75000000000000000       0.50000000000000000        0.0000000000000000     
  0.78125000000000000       0.50000000000000000        0.0000000000000000     
  0.81250000000000000       0.50000000000000000        0.0000000000000000     
  0.84375000000000000       0.50000000000000000        0.0000000000000000     
  0.87500000000000000       0.50000000000000000        0.0000000000000000     
  0.75000000000000000       0.53125000000000000        0.0000000000000000     
  0.78125000000000000       0.53125000000000000        0.0000000000000000     
  0.81250000000000000       0.53125000000000000        0.0000000000000000     
  0.84375000000000000       0.53125000000000000        0.0000000000000000     
  0.87500000000000000       0.53125000000000000        0.0000000000000000     
  0.75000000000000000       0.56250000000000000        0.0000000000000000     
  0.78125000000000000       0.56250000000000000        0.0000000000000000     
  0.81250000000000000       0.56250000000000000        0.0000000000000000     
  0.84375000000000000       0.56250000000000000        0.0000000000000000     
  0.87500000000000000       0.56250000000000000        0.0000000000000000     
  0.75000000000000000       0.59375000000000000        0.0000000000000000     
  0.78125000000000000       0.59375000000000000        0.0000000000000000     
  0.81250000000000000       0.59375000000000000        0.0000000000000000     
  0.84375000000000000       0.59375000000000000        0.0000000000000000     
  0.87500000000000000       0.59375000000000000        0.0000000000000000     
  0.75000000000000000       0.62500000000000000        0.0000000000000000     
  0.78125000000000000       0.62500000000000000        0.0000000000000000     
  0.81250000000000000       0.62500000000000000        0.0000000000000000     
  0.84375000000000000       0.62500000000000000        0.0000000000000000     
  0.87500000000000000       0.62500000000000000        0.0000000000000000     
  0.87500000000000000       0.50000000000000000        0.0000000000000000     
  0.90625000000000000       0.50000000000000000        0.0000000000000000     
  0.93750000000000000       0.50000000000000000        0.0000000000000000     
  0.96875000000000000       0.50000000000000000        0.0000000000000000     
   1.0000000000000000       0.50000000000000000        0.0000000000000000     
  0.87500000000000000       0.53125000000000000        0.0000000000000000     
  0.90625000000000000       0.53125000000000000        0.0000000000000000     
  0.93750000000000000       0.53125000000000000        0.0000000000000000     
  0.96875000000000000       0.53125000000000000        0.0000000000000000     
   1.0000000000000000       0.53125000000000000        0.0000000000000000     
  0.87500000000000000       0.56250000000000000        0.0000000000000000     
  0.90625000000000000       0.56250000000000000        0.0000000000000000     
  0.93750000000000000       0.56250000000000000        0.0000000000000000     
  0.96875000000000000       0.56250000000000000        0.0000000000000000     
   1.0000000000000000       0.56250000000000000        0.0000000000000000     
  0.87500000000000000       0.59375000000000000        0.0000000000000000     
  0.90625000000000000       0.59375000000000000        0.0000000000000000     
  0.93750000000000000       0.59375000000000000        0.0000000000000000     
  0.96875000000000000       0.59375000000000000        0.0000000000000000     
   1.0000000000000000       0.59375000000000000        0.0000000000000000     
  0.87500000000000000       0.62500000000000000        0.0000000000000000     
  0.90625000000000000       0.62500000000000000        0.0000000000000000     
  0.93750000000000000       0.62500000000000000        0.0000000000000000     
  0.96875000000000000       0.62500000000000000        0.0000000000000000     
   1.0000000000000000       0.62500000000000000        0.0000000000000000     
   1.0000000000000000       0.50000000000000000        0.0000000000000000     
   1.0312500000000000       0.50000000000000000        0.0000000000000000     
   1.0625000000000000       0.50000000000000000        0.0000000000000000     
   1.0937500000000000       0.50000000000000000        0.0000000000000000     
   1.1250000000000000       0.50000000000000000        0.0000000000000000     
   1.0000000000000000       0.53125000000000000        0.0000000000000000     
   1.0312500000000000       0.53125000000000000        0.0000000000000000     
   1.0625000000000000       0.53125000000000000        0.0000000000000000     
   1.0937500000000000       0.53125000000000000        0.0000000000000000     
   1.1250000000000000       0.53125000000000000        0.0000000000000000     
   1.0000000000000000       0.56250000000000000        0.0000000000000000     
   1.0312500000000000       0.56250000000000000        0.0000000000000000     
   1.0625000000000000       0.56250000000000000        0.0000000000000000     
   1.0937500000000000       0.56250000000000000        0.0000000000000000     
   1.1250000000000000       0.56250000000000000        0.0000000000000000     
   1.0000000000000000       0.59375000000000000        0.0000000000000000     
   1.0312500000000000       0.59375000000000000        0.0000000000000000     
   1.0625000000000000       0.59375000000000000        0.0000000000000000     
   1.0937500000000000       0.59375000000000000        0.0000000000000000     
   1.1250000000000000       0.59375000000000000        0.0000000000000000     
   1.0000000000000000       0.62500000000000000        0.0000000000000000     
   1.0312500000000000       0.62500000000000000        0.0000000000000000     
   1.0625000000000000       0.62500000000000000        0.0000000000000000     
   1.0937500000000000       0.62500000000000000        0.0000000000000000     
   1.1250000000000000       0.62500000000000000        0.0000000000000000     
   1.1250000000000000       0.50000000000000000        0.0000000000000000     
   1.1562500000000000       0.50000000000000000        0.0000000000000000     
   1.1875000000000000       0.50000000000000000        0.0000000000000000     
   1.2187500000000000       0.50000000000000000        0.0000000000000000     
   1.2500000000000000       0.50000000000000000        0.0000000000000000     
   1.1250000000000000       0.53125000000000000        0.0000000000000000     
   1.1562500000000000       0.53125000000000000        0.0000000000000000     
   1.1875000000000000       0.53125000000000000        0.0000000000000000     
   1.2187500000000000       0.53125000000000000        0.0000000000000000     
   1.2500000000000000       0.53125000000000000        0.0000000000000000     
   1.1250000000000000       0.56250000000000000        0.0000000000000000     
   1.1562500000000000       0.56250000000000000        0.0000000000000000     
   1.1875000000000000       0.56250000000000000        0.0000000000000000     
   1.2187500000000000       0.56250000000000000        0.0000000000000000     
   1.2500000000000000       0.56250000000000000        0.0000000000000000     
   1.1250000000000000       0.59375000000000000        0.0000000000000000     
   1.1562500000000000       0.59375000000000000        0.0000000000000000     
   1.1875000000000000       0.59375000000000000        0.0000000000000000     
   1.2187500000000000       0.59375000000000000        0.0000000000000000     
   1.2500000000000000       0.59375000000000000        0.0000000000000000     
   1.1250000000000000       0.62500000000000000        0.0000000000000000     
   1.1562500000000000       0.62500000000000000        0.0000000000000000     
   1.1875000000000000       0.62500000000000000        0.0000000000000000     
   1.2187500000000000       0.62500000000000000        0.0000000000000000     
   1.2500000000000000       0.62500000000000000        0.0000000000000000     
   1.2500000000000000       0.50000000000000000        0.0000000000000000     
   1.2812500000000000       0.50000000000000000        0.0000000000000000     
   1.3125000000000000       0.50000000000000000        0.0000000000000000     
   1.3437500000000000       0.50000000000000000        0.0000000000000000     
   1.3750000000000000       0.50000000000000000        0.0000000000000000     
   1.2500000000000000       0.53125000000000000        0.0000000000000000     
   1.2812500000000000       0.53125000000000000        0.0000000000000000     
   1.3125000000000000       0.53125000000000000        0.0000000000000000     
   1.3437500000000000       0.53125000000000000        0.0000000000000000     
   1.3750000000000000       0.53125000000000000        0.0000000000000000     
   1.2500000000000000       0.56250000000000000        0.0000000000000000     
   1.2812500000000000       0.56250000000000000        0.0000000000000000     
   1.3125000000000000       0.56250000000000000        0.0000000000000000     
   1.3437500000000000       0.56250000000000000        0.0000000000000000     
   1.3750000000000000       0.56250000000000000        0.0000000000000000     
   1.2500000000000000       0.59375000000000000        0.0000000000000000     
   1.2812500000000000       0.59375000000000000        0.0000000000000000     
   1.3125000000000000       0.59375000000000000        0.0000000000000000     
   1.3437500000000000       0.59375000000000000        0.0000000000000000     
   1.3750000000000000       0.59375000000000000        0.0000000000000000     
   1.2500000000000000       0.62500000000000000        0.0000000000000000     
   1.2812500000000000       0.62500000000000000        0.0000000000000000     
   1.3125000000000000       0.62500000000000000        0.0000000000000000     
   1.3437500000000000       0.62500000000000000        0.0000000000000000     
   1.3750000000000000       0.62500000000000000        0.0000000000000000     
   1.3750000000000000       0.50000000000000000        0.0000000000000000     
   1.4062500000000000       0.50000000000000000        0.0000000000000000     
   1.4375000000000000       0.50000000000000000        0.0000000000000000     
   1.4687500000000000       0.50000000000000000        0.0000000000000000     
   1.5000000000000000       0.50000000000000000        0.0000000000000000     
   1.3750000000000000       0.53125000000000000        0.0000000000000000     
   1.4062500000000000       0.53125000000000000        0.0000000000000000     
   1.4375000000000000       0.53125000000000000        0.0000000000000000     
   1.4687500000000000       0.53125000000000000        0.0000000000000000     
   1.5000000000000000       0.53125000000000000        0.0000000000000000     
   1.3750000000000000       0.56250000000000000        0.0000000000000000     
   1.4062500000000000       0.56250000000000000        0.0000000000000000     
   1.4375000000000000       0.56250000000000000        0.0000000000000000     
   1.4687500000000000       0.56250000000000000        0.0000000000000000     
   1.5000000000000000       0.56250000000000000        0.0000000000000000     
   1.3750000000000000       0.59375000000000000        0.0000000000000000     
   1.4062500000000000       0.59375000000000000        0.0000000000000000     
   1.4375000000000000       0.59375000000000000        0.0000000000000000     
   1.4687500000000000       0.59375000000000000        0.0000000000000000     
   1.5000000000000000       0.59375000000000000        0.0000000000000000     
   1.3750000000000000       0.62500000000000000        0.0000000000000000     
   1.4062500000000000       0.62500000000000000        0.0000000000000000     
   1.4375000000000000       0.62500000000000000        0.0000000000000000     
   1.4687500000000000       0.62500000000000000        0.0000000000000000     
   1.5000000000000000       0.62500000000000000        0.0000000000000000     
  0.50000000000000000       0.62500000000000000        0.0000000000000000     
  0.53125000000000000       0.62500000000000000        0.0000000000000000     
  0.56250000000000000       0.62500000000000000        0.0000000000000000     
  0.59375000000000000       0.62500000000000000        0.0000000000000000     
  0.62500000000000000       0.62500000000000000        0.0000000000000000     
  0.50000000000000000       0.65625000000000000        0.0000000000000000     
  0.53125000000000000       0.65625000000000000        0.0000000000000000     
  0.56250000000000000       0.65625000000000000        0.0000000000000000     
  0.59375000000000000       0.65625000000000000        0.0000000000000000     
  0.62500000000000000       0.65625000000000000        0.0000000000000000     
  0.50000000000000000       0.68750000000000000        0.0000000000000000     
  0.53125000000000000       0.68750000000000000        0.0000000000000000     
  0.56250000000000000       0.68750000000000000        0.0000000000000000     
  0.59375000000000000       0.68750000000000000        0.0000000000000000     
  0.62500000000000000       0.68750000000000000        0.0000000000000000     
  0.50000000000000000       0.71875000000000000        0.0000000000000000     
  0.53125000000000000       0.71875000000000000        0.0000000000000000     
  0.56250000000000000       0.71875000000000000        0.0000000000000000     
  0.59375000000000000       0.71875000000000000        0.0000000000000000     
  0.62500000000000000       0.71875000000000000        0.0000000000000000     
  0.50000000000000000       0.75000000000000000        0.0000000000000000     
  0.53125000000000000       0.75000000000000000        0.0000000000000000     
  0.56250000000000000       0.75000000000000000        0.0000000000000000     
  0.59375000000000000       0.75000000000000000        0.0000000000000000     
  0.62500000000000000       0.75000000000000000        0.0000000000000000     
  0.62500000000000000       0.62500000000000000        0.0000000000000000     
  0.65625000000000000       0.62500000000000000        0.0000000000000000     
  0.68750000000000000       0.62500000000000000        0.0000000000000000     
  0.71875000000000000       0.62500000000000000        0.0000000000000000     
  0.75000000000000000       0.62500000000000000        0.0000000000000000     
  0.62500000000000000       0.65625000000000000        0.0000000000000000     
  0.65625000000000000       0.65625000000000000        0.0000000000000000     
  0.68750000000000000       0.65625000000000000        0.0000000000000000     
  0.71875000000000000       0.65625000000000000        0.0000000000000000     
  0.75000000000000000       0.65625000000000000        0.0000000000000000     
  0.62500000000000000       0.68750000000000000        0.0000000000000000     
  0.65625000000000000       0.68750000000000000        0.0000000000000000     
  0.68750000000000000       0.68750000000000000        0.0000000000000000     
  0.71875000000000000       0.68750000000000000        0.0000000000000000     
  0.75000000000000000       0.68750000000000000        0.0000000000000000     
  0.62500000000000000       0.71875000000000000        0.0000000000000000     
  0.65625000000000000       0.71875000000000000        0.0000000000000000     
  0.68750000000000000       0.71875000000000000        0.0000000000000000     
  0.71875000000000000       0.71875000000000000        0.0000000000000000     
  0.75000000000000000       0.71875000000000000        0.0000000000000000     
  0.62500000000000000       0.75000000000000000        0.0000000000000000     
  0.65625000000000000       0.75000000000000000        0.0000000000000000     
  0.68750000000000000       0.75000000000000000        0.0000000000000000     
  0.71875000000000000       0.75000000000000000        0.0000000000000000     
  0.75000000000000000       0.75000000000000000        0.0000000000000000     
  0.75000000000000000       0.62500000000000000        0.0000000000000000     
  0.78125000000000000       0.62500000000000000        0.0000000000000000     
  0.81250000000000000       0.62500000000000000        0.0000000000000000     
  0.84375000000000000       0.62500000000000000        0.0000000000000000     
  0.87500000000000000       0.62500000000000000        0.0000000000000000     
  0.75000000000000000       0.65625000000000000        0.0000000000000000     
  0.78125000000000000       0.65625000000000000        0.0000000000000000     
  0.81250000000000000       0.65625000000000000        0.0000000000000000     
  0.84375000000000000       0.65625000000000000        0.0000000000000000     
  0.87500000000000000       0.65625000000000000        0.0000000000000000     
  0.75000000000000000       0.68750000000000000        0.0000000000000000     
  0.78125000000000000       0.68750000000000000        0.0000000000000000     
  0.81250000000000000       0.68750000000000000        0.0000000000000000     
  0.84375000000000000       0.68750000000000000        0.0000000000000000     
  0.87500000000000000       0.68750000000000000        0.0000000000000000     
  0.75000000000000000       0.71875000000000000        0.0000000000000000     
  0.78125000000000000       0.71875000000000000        0.0000000000000000     
  0.81250000000000000       0.71875000000000000        0.0000000000000000     
  0.84375000000000000       0.71875000000000000        0.0000000000000000     
  0.87500000000000000       0.71875000000000000        0.0000000000000000     
  0.75000000000000000       0.75000000000000000        0.0000000000000000     
  0.78125000000000000       0.75000000000000000        0.0000000000000000     
  0.81250000000000000       0.75000000000000000        0.0000000000000000     
  0.84375000000000000       0.75000000000000000        0.0000000000000000     
  0.87500000000000000       0.75000000000000000        0.0000000000000000     
  0.87500000000000000       0.62500000000000000        0.0000000000000000     
  0.90625000000000000       0.62500000000000000        0.0000000000000000     
  0.93750000000000000       0.62500000000000000        0.0000000000000000     
  0.96875000000000000       0.62500000000000000        0.0000000000000000     
   1.0000000000000000       0.62500000000000000        0.0000000000000000     
  0.87500000000000000       0.65625000000000000        0.0000000000000000     
  0.90625000000000000       0.65625000000000000        0.0000000000000000     
  0.93750000000000000       0.65625000000000000        0.0000000000000000     
  0.96875000000000000       0.65625000000000000        0.0000000000000000     
   1.0000000000000000       0.65625000000000000        0.0000000000000000     
  0.87500000000000000       0.68750000000000000        0.0000000000000000     
  0.90625000000000000       0.68750000000000000        0.0000000000000000     
  0.93750000000000000       0.68750000000000000        0.0000000000000000     
  0.96875000000000000       0.68750000000000000        0.0000000000000000     
   1.0000000000000000       0.68750000000000000        0.0000000000000000     
  0.87500000000000000       0.71875000000000000        0.0000000000000000     
  0.90625000000000000       0.71875000000000000        0.0000000000000000     
  0.93750000000000000       0.71875000000000000        0.0000000000000000     
  0.96875000000000000       0.71875000000000000        0.0000000000000000     
   1.0000000000000000       0.71875000000000000        0.0000000000000000     
  0.87500000000000000       0.75000000000000000        0.0000000000000000     
  0.90625000000000000       0.75000000000000000        0.0000000000000000     
  0.93750000000000000       0.75000000000000000        0.0000000000000000     
  0.96875000000000000       0.75000000000000000        0.0000000000000000     
   1.0000000000000000       0.75000000000000000        0.0000000000000000     
   1.0000000000000000       0.62500000000000000        0.0000000000000000     
   1.0312500000000000       0.62500000000000000        0.0000000000000000     
   1.0625000000000000       0.62500000000000000        0.0000000000000000     
   1.0937500000000000       0.62500000000000000        0.0000000000000000     
   1.1250000000000000       0.62500000000000000        0.0000000000000000     
   1.0000000000000000       0.65625000000000000        0.0000000000000000     
   1.0312500000000000       0.65625000000000000        0.0000000000000000     
   1.0625000000000000       0.65625000000000000        0.0000000000000000     
   1.0937500000000000       0.65625000000000000        0.0000000000000000     
   1.1250000000000000       0.65625000000000000        0.0000000000000000     
   1.0000000000000000       0.68750000000000000        0.0000000000000000     
   1.0312500000000000       0.68750000000000000        0.0000000000000000     
   1.0625000000000000       0.68750000000000000        0.0000000000000000     
   1.0937500000000000       0.68750000000000000        0.0000000000000000     
   1.1250000000000000       0.68750000000000000        0.0000000000000000     
   1.0000000000000000       0.71875000000000000        0.0000000000000000     
   1.0312500000000000       0.71875000000000000        0.0000000000000000     
   1.0625000000000000       0.71875000000000000        0.0000000000000000     
   1.0937500000000000       0.71875000000000000        0.0000000000000000     
   1.1250000000000000       0.71875000000000000        0.0000000000000000     
   1.0000000000000000       0.75000000000000000        0.0000000000000000     
   1.0312500000000000       0.75000000000000000        0.0000000000000000     
   1.0625000000000000       0.75000000000000000        0.0000000000000000     
   1.0937500000000000       0.75000000000000000        0.0000000000000000     
   1.1250000000000000       0.75000000000000000        0.0000000000000000     
   1.1250000000000000       0.62500000000000000        0.0000000000000000     
   1.1562500000000000       0.62500000000000000        0.0000000000000000     
   1.1875000000000000       0.62500000000000000        0.0000000000000000     
   1.2187500000000000       0.62500000000000000        0.0000000000000000     
   1.2500000000000000       0.62500000000000000        0.0000000000000000     
   1.1250000000000000       0.65625000000000000        0.0000000000000000     
   1.1562500000000000       0.65625000000000000        0.0000000000000000     
   1.1875000000000000       0.65625000000000000        0.0000000000000000     
   1.2187500000000000       0.65625000000000000        0.0000000000000000     
   1.2500000000000000       0.65625000000000000        0.0000000000000000     
   1.1250000000000000       0.68750000000000000        0.0000000000000000     
   1.1562500000000000       0.68750000000000000        0.0000000000000000     
   1.1875000000000000       0.68750000000000000        0.0000000000000000     
   1.2187500000000000       0.68750000000000000        0.0000000000000000     
   1.2500000000000000       0.68750000000000000        0.0000000000000000     
   1.1250000000000000       0.71875000000000000        0.0000000000000000     
   1.1562500000000000       0.71875000000000000        0.0000000000000000     
   1.1875000000000000       0.71875000000000000        0.0000000000000000     
   1.2187500000000000       0.71875000000000000        0.0000000000000000     
   1.2500000000000000       0.71875000000000000        0.0000000000000000     
   1.1250000000000000       0.75000000000000000        0.0000000000000000     
   1.1562500000000000       0.75000000000000000        0.0000000000000000     
   1.1875000000000000       0.75000000000000000        0.0000000000000000     
   1.2187500000000000       0.75000000000000000        0.0000000000000000     
   1.2500000000000000       0.75000000000000000        0.0000000000000000     
   1.2500000000000000       0.62500000000000000        0.0000000000000000     
   1.2812500000000000       0.62500000000000000        0.0000000000000000     
   1.3125000000000000       0.62500000000000000        0.0000000000000000     
   1.3437500000000000       0.62500000000000000        0.0000000000000000     
   1.3750000000000000       0.62500000000000000        0.0000000000000000     
   1.2500000000000000       0.65625000000000000        0.0000000000000000     
   1.2812500000000000       0.65625000000000000        0.0000000000000000     
   1.3125000000000000       0.65625000000000000        0.0000000000000000     
   1.3437500000000000       0.65625000000000000        0.0000000000000000     
   1.3750000000000000       0.65625000000000000        0.0000000000000000     
   1.2500000000000000       0.68750000000000000        0.0000000000000000     
   1.2812500000000000       0.68750000000000000        0.0000000000000000     
   1.3125000000000000       0.68750000000000000        0.0000000000000000     
   1.3437500000000000       0.68750000000000000        0.0000000000000000     
   1.3750000000000000       0.68750000000000000        0.0000000000000000     
   1.2500000000000000       0.71875000000000000        0.0000000000000000     
   1.2812500000000000       0.71875000000000000        0.0000000000000000     
   1.3125000000000000       0.71875000000000000        0.0000000000000000     
   1.3437500000000000       0.71875000000000000        0.0000000000000000     
   1.3750000000000000       0.71875000000000000        0.0000000000000000     
   1.2500000000000000       0.75000000000000000        0.0000000000000000     
   1.2812500000000000       0.75000000000000000        0.0000000000000000     
   1.3125000000000000       0.75000000000000000        0.0000000000000000     
   1.3437500000000000       0.75000000000000000        0.0000000000000000     
   1.3750000000000000       0.75000000000000000        0.0000000000000000     
   1.3750000000000000       0.62500000000000000        0.0000000000000000     
   1.4062500000000000       0.62500000000000000        0.0000000000000000     
   1.4375000000000000       0.62500000000000000        0.0000000000000000     
   1.4687500000000000       0.62500000000000000        0.0000000000000000     
   1.5000000000000000       0.62500000000000000        0.0000000000000000     
   1.3750000000000000       0.65625000000000000        0.0000000000000000     
   1.4062500000000000       0.65625000000000000        0.0000000000000000     
   1.4375000000000000       0.65625000000000000        0.0000000000000000     
   1.4687500000000000       0.65625000000000000        0.0000000000000000     
   1.5000000000000000       0.65625000000000000        0.0000000000000000     
   1.3750000000000000       0.68750000000000000        0.0000000000000000     
   1.4062500000000000       0.68750000000000000        0.0000000000000000     
   1.4375000000000000       0.68750000000000000        0.0000000000000000     
   1.4687500000000000       0.68750000000000000        0.0000000000000000     
   1.5000000000000000       0.68750000000000000        0.0000000000000000     
   1.3750000000000000       0.71875000000000000        0.0000000000000000     
   1.4062500000000000       0.71875000000000000        0.0000000000000000     
   1.4375000000000000       0.71875000000000000        0.0000000000000000     
   1.4687500000000000       0.71875000000000000        0.0000000000000000     
   1.5000000000000000       0.71875000000000000        0.0000000000000000     
   1.3750000000000000       0.75000000000000000        0.0000000000000000     
   1.4062500000000000       0.75000000000000000        0.0000000000000000     
   1.4375000000000000       0.75000000000000000        0.0000000000000000     
   1.4687500000000000       0.75000000000000000        0.0000000000000000     
   1.5000000000000000       0.75000000000000000        0.0000000000000000     
  0.50000000000000000       0.75000000000000000        0.0000000000000000     
  0.53125000000000000       0.75000000000000000        0.0000000000000000     
  0.56250000000000000       0.75000000000000000        0.0000000000000000     
  0.59375000000000000       0.75000000000000000        0.0000000000000000     
  0.62500000000000000       0.75000000000000000        0.0000000000000000     
  0.50000000000000000       0.78125000000000000        0.0000000000000000     
  0.53125000000000000       0.78125000000000000        0.0000000000000000     
  0.56250000000000000       0.78125000000000000        0.0000000000000000     
  0.59375000000000000       0.78125000000000000        0.0000000000000000     
  0.62500000000000000       0.78125000000000000        0.0000000000000000     
  0.50000000000000000       0.81250000000000000        0.0000000000000000     
  0.53125000000000000       0.81250000000000000        0.0000000000000000     
  0.56250000000000000       0.81250000000000000        0.0000000000000000     
  0.59375000000000000       0.81250000000000000        0.0000000000000000     
  0.62500000000000000       0.81250000000000000        0.0000000000000000     
  0.50000000000000000       0.84375000000000000        0.0000000000000000     
  0.53125000000000000       0.84375000000000000        0.0000000000000000     
  0.56250000000000000       0.84375000000000000        0.0000000000000000     
  0.59375000000000000       0.84375000000000000        0.0000000000000000     
  0.62500000000000000       0.84375000000000000        0.0000000000000000     
  0.50000000000000000       0.87500000000000000        0.0000000000000000     
  0.53125000000000000       0.87500000000000000        0.0000000000000000     
  0.56250000000000000       0.87500000000000000        0.0000000000000000     
  0.59375000000000000       0.87500000000000000        0.0000000000000000     
  0.62500000000000000       0.87500000000000000        0.0000000000000000     
  0.62500000000000000       0.75000000000000000        0.0000000000000000     
  0.65625000000000000       0.75000000000000000        0.0000000000000000     
  0.68750000000000000       0.75000000000000000        0.0000000000000000     
  0.71875000000000000       0.75000000000000000        0.0000000000000000     
  0.75000000000000000       0.75000000000000000        0.0000000000000000     
  0.62500000000000000       0.78125000000000000        0.0000000000000000     
  0.65625000000000000       0.78125000000000000        0.0000000000000000     
  0.68750000000000000       0.78125000000000000        0.0000000000000000     
  0.71875000000000000       0.78125000000000000        0.0000000000000000     
  0.75000000000000000       0.78125000000000000        0.0000000000000000     
  0.62500000000000000       0.81250000000000000        0.0000000000000000     
  0.65625000000000000       0.81250000000000000        0.0000000000000000     
  0.68750000000000000       0.81250000000000000        0.0000000000000000     
  0.71875000000000000       0.81250000000000000        0.0000000000000000     
  0.75000000000000000       0.81250000000000000        0.0000000000000000     
  0.62500000000000000       0.84375000000000000        0.0000000000000000     
  0.65625000000000000       0.84375000000000000        0.0000000000000000     
  0.68750000000000000       0.84375000000000000        0.0000000000000000     
  0.71875000000000000       0.84375000000000000        0.0000000000000000     
  0.75000000000000000       0.84375000000000000        0.0000000000000000     
  0.62500000000000000       0.87500000000000000        0.0000000000000000     
  0.65625000000000000       0.87500000000000000        0.0000000000000000     
  0.68750000000000000       0.87500000000000000        0.0000000000000000     
  0.71875000000000000       0.87500000000000000        0.0000000000000000     
  0.75000000000000000       0.87500000000000000        0.0000000000000000     
  0.75000000000000000       0.75000000000000000        0.0000000000000000     
  0.78125000000000000       0.75000000000000000        0.0000000000000000     
  0.81250000000000000       0.75000000000000000        0.0000000000000000     
  0.84375000000000000       0.75000000000000000        0.0000000000000000     
  0.87500000000000000       0.75000000000000000        0.0000000000000000     
  0.75000000000000000       0.78125000000000000        0.0000000000000000     
  0.78125000000000000       0.78125000000000000        0.0000000000000000     
  0.81250000000000000       0.78125000000000000        0.0000000000000000     
  0.84375000000000000       0.78125000000000000        0.0000000000000000     
  0.87500000000000000       0.78125000000000000        0.0000000000000000     
  0.75000000000000000       0.81250000000000000        0.0000000000000000     
  0.78125000000000000       0.81250000000000000        0.0000000000000000     
  0.81250000000000000       0.81250000000000000        0.0000000000000000     
  0.84375000000000000       0.81250000000000000        0.0000000000000000     
  0.87500000000000000       0.81250000000000000        0.0000000000000000     
  0.75000000000000000       0.84375000000000000        0.0000000000000000     
  0.78125000000000000       0.84375000000000000        0.0000000000000000     
  0.81250000000000000       0.84375000000000000        0.0000000000000000     
  0.84375000000000000       0.84375000000000000        0.0000000000000000     
  0.87500000000000000       0.84375000000000000        0.0000000000000000     
  0.75000000000000000       0.87500000000000000        0.0000000000000000     
  0.78125000000000000       0.87500000000000000        0.0000000000000000     
  0.81250000000000000       0.87500000000000000        0.0000000000000000     
  0.84375000000000000       0.87500000000000000        0.0000000000000000     
  0.87500000000000000       0.87500000000000000        0.0000000000000000     
  0.87500000000000000       0.75000000000000000        0.0000000000000000     
  0.90625000000000000       0.75000000000000000        0.0000000000000000     
  0.93750000000000000       0.75000000000000000        0.0000000000000000     
  0.96875000000000000       0.75000000000000000        0.0000000000000000     
   1.0000000000000000       0.75000000000000000        0.0000000000000000     
  0.87500000000000000       0.78125000000000000        0.0000000000000000     
  0.90625000000000000       0.78125000000000000        0.0000000000000000     
  0.93750000000000000       0.78125000000000000        0.0000000000000000     
  0.96875000000000000       0.78125000000000000        0.0000000000000000     
   1.0000000000000000       0.78125000000000000        0.0000000000000000     
  0.87500000000000000       0.81250000000000000        0.0000000000000000     
  0.90625000000000000       0.81250000000000000        0.0000000000000000     
  0.93750000000000000       0.81250000000000000        0.0000000000000000     
  0.96875000000000000       0.81250000000000000        0.0000000000000000     
   1.0000000000000000       0.81250000000000000        0.0000000000000000     
  0.87500000000000000       0.84375000000000000        0.0000000000000000     
  0.90625000000000000       0.84375000000000000        0.0000000000000000     
  0.93750000000000000       0.84375000000000000        0.0000000000000000     
  0.96875000000000000       0.84375000000000000        0.0000000000000000     
   1.0000000000000000       0.84375000000000000        0.0000000000000000     
  0.87500000000000000       0.87500000000000000        0.0000000000000000     
  0.90625000000000000       0.87500000000000000        0.0000000000000000     
  0.93750000000000000       0.87500000000000000        0.0000000000000000     
  0.96875000000000000       0.87500000000000000        0.0000000000000000     
   1.0000000000000000       0.87500000000000000        0.0000000000000000     
   1.0000000000000000       0.75000000000000000        0.0000000000000000     
   1.0312500000000000       0.75000000000000000        0.0000000000000000     
   1.0625000000000000       0.75000000000000000        0.0000000000000000     
   1.0937500000000000       0.75000000000000000        0.0000000000000000     
   1.1250000000000000       0.75000000000000000        0.0000000000000000     
   1.0000000000000000       0.78125000000000000        0.0000000000000000     
   1.0312500000000000       0.78125000000000000        0.0000000000000000     
   1.0625000000000000       0.78125000000000000        0.0000000000000000     
   1.0937500000000000       0.78125000000000000        0.0000000000000000     
   1.1250000000000000       0.78125000000000000        0.0000000000000000     
   1.0000000000000000       0.81250000000000000        0.0000000000000000     
   1.0312500000000000       0.81250000000000000        0.0000000000000000     
   1.0625000000000000       0.81250000000000000        0.0000000000000000     
   1.0937500000000000       0.81250000000000000        0.0000000000000000     
   1.1250000000000000       0.81250000000000000        0.0000000000000000     
   1.0000000000000000       0.84375000000000000        0.0000000000000000     
   1.0312500000000000       0.84375000000000000        0.0000000000000000     
   1.0625000000000000       0.84375000000000000        0.0000000000000000     
   1.0937500000000000       0.84375000000000000        0.0000000000000000     
   1.1250000000000000       0.84375000000000000        0.0000000000000000     
   1.0000000000000000       0.87500000000000000        0.0000000000000000     
   1.0312500000000000       0.87500000000000000        0.0000000000000000     
   1.0625000000000000       0.87500000000000000        0.0000000000000000     
   1.0937500000000000       0.87500000000000000        0.0000000000000000     
   1.1250000000000000       0.87500000000000000        0.0000000000000000     
   1.1250000000000000       0.75000000000000000        0.0000000000000000     
   1.1562500000000000       0.75000000000000000        0.0000000000000000     
   1.1875000000000000       0.75000000000000000        0.0000000000000000     
   1.2187500000000000       0.75000000000000000        0.0000000000000000     
   1.2500000000000000       0.75000000000000000        0.0000000000000000     
   1.1250000000000000       0.78125000000000000        0.0000000000000000     
   1.1562500000000000       0.78125000000000000        0.0000000000000000     
   1.1875000000000000       0.78125000000000000        0.0000000000000000     
   1.2187500000000000       0.78125000000000000        0.0000000000000000     
   1.2500000000000000       0.78125000000000000        0.0000000000000000     
   1.1250000000000000       0.81250000000000000        0.0000000000000000     
   1.1562500000000000       0.81250000000000000        0.0000000000000000     
   1.1875000000000000       0.81250000000000000        0.0000000000000000     
   1.2187500000000000       0.81250000000000000        0.0000000000000000     
   1.2500000000000000       0.81250000000000000        0.0000000000000000     
   1.1250000000000000       0.84375000000000000        0.0000000000000000     
   1.1562500000000000       0.84375000000000000        0.0000000000000000     
   1.1875000000000000       0.84375000000000000        0.0000000000000000     
   1.2187500000000000       0.84375000000000000        0.0000000000000000     
   1.2500000000000000       0.84375000000000000        0.0000000000000000     
   1.1250000000000000       0.87500000000000000        0.0000000000000000     
   1.1562500000000000       0.87500000000000000        0.0000000000000000     
   1.1875000000000000       0.87500000000000000        0.0000000000000000     
   1.2187500000000000       0.87500000000000000        0.0000000000000000     
   1.2500000000000000       0.87500000000000000        0.0000000000000000     
   1.2500000000000000       0.75000000000000000        0.0000000000000000     
   1.2812500000000000       0.75000000000000000        0.0000000000000000     
   1.3125000000000000       0.75000000000000000        0.0000000000000000     
   1.3437500000000000       0.75000000000000000        0.0000000000000000     
   1.3750000000000000       0.75000000000000000        0.0000000000000000     
   1.2500000000000000       0.78125000000000000        0.0000000000000000     
   1.2812500000000000       0.78125000000000000        0.0000000000000000     
   1.3125000000000000       0.78125000000000000        0.0000000000000000     
   1.3437500000000000       0.78125000000000000        0.0000000000000000     
   1.3750000000000000       0.78125000000000000        0.0000000000000000     
   1.2500000000000000       0.81250000000000000        0.0000000000000000     
   1.2812500000000000       0.81250000000000000        0.0000000000000000     
   1.3125000000000000       0.81250000000000000        0.0000000000000000     
   1.3437500000000000       0.81250000000000000        0.0000000000000000     
   1.3750000000000000       0.81250000000000000        0.0000000000000000     
   1.2500000000000000       0.84375000000000000        0.0000000000000000     
   1.2812500000000000       0.84375000000000000        0.0000000000000000     
   1.3125000000000000       0.84375000000000000        0.0000000000000000     
   1.3437500000000000       0.84375000000000000        0.0000000000000000     
   1.3750000000000000       0.84375000000000000        0.0000000000000000     
   1.2500000000000000       0.87500000000000000        0.0000000000000000     
   1.2812500000000000       0.87500000000000000        0.0000000000000000     
   1.3125000000000000       0.87500000000000000        0.0000000000000000     
   1.3437500000000000       0.87500000000000000        0.0000000000000000     
   1.3750000000000000       0.87500000000000000        0.0000000000000000     
   1.3750000000000000       0.75000000000000000        0.0000000000000000     
   1.4062500000000000       0.75000000000000000        0.0000000000000000     
   1.4375000000000000       0.75000000000000000        0.0000000000000000     
   1.4687500000000000       0.75000000000000000        0.0000000000000000     
   1.5000000000000000       0.75000000000000000        0.0000000000000000     
   1.3750000000000000       0.78125000000000000        0.0000000000000000     
   1.4062500000000000       0.78125000000000000        0.0000000000000000     
   1.4375000000000000       0.78125000000000000        0.0000000000000000     
   1.4687500000000000       0.78125000000000000        0.0000000000000000     
   1.5000000000000000       0.78125000000000000        0.0000000000000000     
   1.3750000000000000       0.81250000000000000        0.0000000000000000     
   1.4062500000000000       0.81250000000000000        0.0000000000000000     
   1.4375000000000000       0.81250000000000000        0.0000000000000000     
   1.4687500000000000       0.81250000000000000        0.0000000000000000     
   1.5000000000000000       0.81250000000000000        0.0000000000000000     
   1.3750000000000000       0.84375000000000000        0.0000000000000000     
   1.4062500000000000       0.84375000000000000        0.0000000000000000     
   1.4375000000000000       0.84375000000000000        0.0000000000000000     
   1.4687500000000000       0.84375000000000000        0.0000000000000000     
   1.5000000000000000       0.84375000000000000        0.0000000000000000     
   1.3750000000000000       0.87500000000000000        0.0000000000000000     
   1.4062500000000000       0.87500000000000000        0.0000000000000000     
   1.4375000000000000       0.87500000000000000        0.0000000000000000     
   1.4687500000000000       0.87500000000000000        0.0000000000000000     
   1.5000000000000000       0.87500000000000000        0.0000000000000000     
  0.50000000000000000       0.87500000000000000        0.0000000000000000     
  0.53125000000000000       0.87500000000000000        0.0000000000000000     
  0.56250000000000000       0.87500000000000000        0.0000000000000000     
  0.59375000000000000       0.87500000000000000        0.0000000000000000     
  0.62500000000000000       0.87500000000000000        0.0000000000000000     
  0.50000000000000000       0.90625000000000000        0.0000000000000000     
  0.53125000000000000       0.90625000000000000        0.0000000000000000     
  0.56250000000000000       0.90625000000000000        0.0000000000000000     
  0.59375000000000000       0.90625000000000000        0.0000000000000000     
  0.62500000000000000       0.90625000000000000        0.0000000000000000     
  0.50000000000000000       0.93750000000000000        0.0000000000000000     
  0.53125000000000000       0.93750000000000000        0.0000000000000000     
  0.56250000000000000       0.93750000000000000        0.0000000000000000     
  0.59375000000000000       0.93750000000000000        0.0000000000000000     
  0.62500000000000000       0.93750000000000000        0.0000000000000000     
  0.50000000000000000       0.96875000000000000        0.0000000000000000     
  0.53125000000000000       0.96875000000000000        0.0000000000000000     
  0.56250000000000000       0.96875000000000000        0.0000000000000000     
  0.59375000000000000       0.96875000000000000        0.0000000000000000     
  0.62500000000000000       0.96875000000000000        0.0000000000000000     
  0.50000000000000000        1.0000000000000000        0.0000000000000000     
  0.53125000000000000        1.0000000000000000        0.0000000000000000     
  0.56250000000000000        1.0000000000000000        0.0000000000000000     
  0.59375000000000000        1.0000000000000000        0.0000000000000000     
  0.62500000000000000        1.0000000000000000        0.0000000000000000     
  0.62500000000000000       0.87500000000000000        0.0000000000000000     
  0.65625000000000000       0.87500000000000000        0.0000000000000000     
  0.68750000000000000       0.87500000000000000        0.0000000000000000     
  0.71875000000000000       0.87500000000000000        0.0000000000000000     
  0.75000000000000000       0.87500000000000000        0.0000000000000000     
  0.62500000000000000       0.90625000000000000        0.0000000000000000     
  0.65625000000000000       0.90625000000000000        0.0000000000000000     
  0.68750000000000000       0.90625000000000000        0.0000000000000000     
  0.71875000000000000       0.90625000000000000        0.0000000000000000     
  0.75000000000000000       0.90625000000000000        0.0000000000000000     
  0.62500000000000000       0.93750000000000000        0.0000000000000000     
  0.65625000000000000       0.93750000000000000        0.0000000000000000     
  0.68750000000000000       0.93750000000000000        0.0000000000000000     
  0.71875000000000000       0.93750000000000000        0.0000000000000000     
  0.75000000000000000       0.93750000000000000        0.0000000000000000     
  0.62500000000000000       0.96875000000000000        0.0000000000000000     
  0.65625000000000000       0.96875000000000000        0.0000000000000000     
  0.68750000000000000       0.96875000000000000        0.0000000000000000     
  0.71875000000000000       0.96875000000000000        0.0000000000000000     
  0.75000000000000000       0.96875000000000000        0.0000000000000000     
  0.62500000000000000        1.0000000000000000        0.0000000000000000     
  0.65625000000000000        1.0000000000000000        0.0000000000000000     
  0.68750000000000000        1.0000000000000000        0.0000000000000000     
  0.71875000000000000        1.0000000000000000        0.0000000000000000     
  0.75000000000000000        1.0000000000000000        0.0000000000000000     
  0.75000000000000000       0.87500000000000000        0.0000000000000000     
  0.78125000000000000       0.87500000000000000        0.0000000000000000     
  0.81250000000000000       0.87500000000000000        0.0000000000000000     
  0.84375000000000000       0.87500000000000000        0.0000000000000000     
  0.87500000000000000       0.87500000000000000        0.0000000000000000     
  0.75000000000000000       0.90625000000000000        0.0000000000000000     
  0.78125000000000000       0.90625000000000000        0.0000000000000000     
  0.81250000000000000       0.90625000000000000        0.0000000000000000     
  0.84375000000000000       0.90625000000000000        0.0000000000000000     
  0.87500000000000000       0.90625000000000000        0.0000000000000000     
  0.75000000000000000       0.93750000000000000        0.0000000000000000     
  0.78125000000000000       0.93750000000000000        0.0000000000000000     
  0.81250000000000000       0.93750000000000000        0.0000000000000000     
  0.84375000000000000       0.93750000000000000        0.0000000000000000     
  0.87500000000000000       0.93750000000000000        0.0000000000000000     
  0.75000000000000000       0.96875000000000000        0.0000000000000000     
  0.78125000000000000       0.96875000000000000        0.0000000000000000     
  0.81250000000000000       0.96875000000000000        0.0000000000000000     
  0.84375000000000000       0.96875000000000000        0.0000000000000000     
  0.87500000000000000       0.96875000000000000        0.0000000000000000     
  0.75000000000000000        1.0000000000000000        0.0000000000000000     
  0.78125000000000000        1.0000000000000000        0.0000000000000000     
  0.81250000000000000        1.0000000000000000        0.0000000000000000     
  0.84375000000000000        1.0000000000000000        0.0000000000000000     
  0.87500000000000000        1.0000000000000000        0.0000000000000000     
  0.87500000000000000       0.87500000000000000        0.0000000000000000     
  0.90625000000000000       0.87500000000000000        0.0000000000000000     
  0.93750000000000000       0.87500000000000000        0.0000000000000000     
  0.96875000000000000       0.87500000000000000        0.0000000000000000     
   1.0000000000000000       0.87500000000000000        0.0000000000000000     
  0.87500000000000000       0.90625000000000000        0.0000000000000000     
  0.90625000000000000       0.90625000000000000        0.0000000000000000     
  0.93750000000000000       0.90625000000000000        0.0000000000000000     
  0.96875000000000000       0.90625000000000000        0.0000000000000000     
   1.0000000000000000       0.90625000000000000        0.0000000000000000     
  0.87500000000000000       0.93750000000000000        0.0000000000000000     
  0.90625000000000000       0.93750000000000000        0.0000000000000000     
  0.93750000000000000       0.93750000000000000        0.0000000000000000     
  0.96875000000000000       0.93750000000000000        0.0000000000000000     
   1.0000000000000000       0.93750000000000000        0.0000000000000000     
  0.87500000000000000       0.96875000000000000        0.0000000000000000     
  0.90625000000000000       0.96875000000000000        0.0000000000000000     
  0.93750000000000000       0.96875000000000000        0.0000000000000000     
  0.96875000000000000       0.96875000000000000        0.0000000000000000     
   1.0000000000000000       0.96875000000000000        0.0000000000000000     
  0.87500000000000000        1.0000000000000000        0.0000000000000000     
  0.90625000000000000        1.0000000000000000        0.0000000000000000     
  0.93750000000000000        1.0000000000000000        0.0000000000000000     
  0.96875000000000000        1.0000000000000000        0.0000000000000000     
   1.0000000000000000        1.0000000000000000        0.0000000000000000     
   1.0000000000000000       0.87500000000000000        0.0000000000000000     
   1.0312500000000000       0.87500000000000000        0.0000000000000000     
   1.0625000000000000       0.87500000000000000        0.0000000000000000     
   1.0937500000000000       0.87500000000000000        0.0000000000000000     
   1.1250000000000000       0.87500000000000000        0.0000000000000000     
   1.0000000000000000       0.90625000000000000        0.0000000000000000     
   1.0312500000000000       0.90625000000000000        0.0000000000000000     
   1.0625000000000000       0.90625000000000000        0.0000000000000000     
   1.0937500000000000       0.90625000000000000        0.0000000000000000     
   1.1250000000000000       0.90625000000000000        0.0000000000000000     
   1.0000000000000000       0.93750000000000000        0.0000000000000000     
   1.0312500000000000       0.93750000000000000        0.0000000000000000     
   1.0625000000000000       0.93750000000000000        0.0000000000000000     
   1.0937500000000000       0.93750000000000000        0.0000000000000000     
   1.1250000000000000       0.93750000000000000        0.0000000000000000     
   1.0000000000000000       0.96875000000000000        0.0000000000000000     
   1.0312500000000000       0.96875000000000000        0.0000000000000000     
   1.0625000000000000       0.96875000000000000        0.0000000000000000     
   1.0937500000000000       0.96875000000000000        0.0000000000000000     
   1.1250000000000000       0.96875000000000000        0.0000000000000000     
   1.0000000000000000        1.0000000000000000        0.0000000000000000     
   1.0312500000000000        1.0000000000000000        0.0000000000000000     
   1.0625000000000000        1.0000000000000000        0.0000000000000000     
   1.0937500000000000        1.0000000000000000        0.0000000000000000     
   1.1250000000000000        1.0000000000000000        0.0000000000000000     
   1.1250000000000000       0.87500000000000000        0.0000000000000000     
   1.1562500000000000       0.87500000000000000        0.0000000000000000     
   1.1875000000000000       0.87500000000000000        0.0000000000000000     
   1.2187500000000000       0.87500000000000000        0.0000000000000000     
   1.2500000000000000       0.87500000000000000        0.0000000000000000     
   1.1250000000000000       0.90625000000000000        0.0000000000000000     
   1.1562500000000000       0.90625000000000000        0.0000000000000000     
   1.1875000000000000       0.90625000000000000        0.0000000000000000     
   1.2187500000000000       0.90625000000000000        0.0000000000000000     
   1.2500000000000000       0.90625000000000000        0.0000000000000000     
   1.1250000000000000       0.93750000000000000        0.0000000000000000     
   1.1562500000000000       0.93750000000000000        0.0000000000000000     
   1.1875000000000000       0.93750000000000000        0.0000000000000000     
   1.2187500000000000       0.93750000000000000        0.0000000000000000     
   1.2500000000000000       0.93750000000000000        0.0000000000000000     
   1.1250000000000000       0.96875000000000000        0.0000000000000000     
   1.1562500000000000       0.96875000000000000        0.0000000000000000     
   1.1875000000000000       0.96875000000000000        0.0000000000000000     
   1.2187500000000000       0.96875000000000000        0.0000000000000000     
   1.2500000000000000       0.96875000000000000        0.0000000000000000     
   1.1250000000000000        1.0000000000000000        0.0000000000000000     
   1.1562500000000000        1.0000000000000000        0.0000000000000000     
   1.1875000000000000        1.0000000000000000        0.0000000000000000     
   1.2187500000000000        1.0000000000000000        0.0000000000000000     
   1.2500000000000000        1.0000000000000000        0.0000000000000000     
   1.2500000000000000       0.87500000000000000        0.0000000000000000     
   1.2812500000000000       0.87500000000000000        0.0000000000000000     
   1.3125000000000000       0.87500000000000000        0.0000000000000000     
   1.3437500000000000       0.87500000000000000        0.0000000000000000     
   1.3750000000000000       0.87500000000000000        0.0000000000000000     
   1.2500000000000000       0.90625000000000000        0.0000000000000000     
   1.2812500000000000       0.90625000000000000        0.0000000000000000     
   1.3125000000000000       0.90625000000000000        0.0000000000000000     
   1.3437500000000000       0.90625000000000000        0.0000000000000000     
   1.3750000000000000       0.90625000000000000        0.0000000000000000     
   1.2500000000000000       0.93750000000000000        0.0000000000000000     
   1.2812500000000000       0.93750000000000000        0.0000000000000000     
   1.3125000000000000       0.93750000000000000        0.0000000000000000     
   1.3437500000000000       0.93750000000000000        0.0000000000000000     
   1.3750000000000000       0.93750000000000000        0.0000000000000000     
   1.2500000000000000       0.96875000000000000        0.0000000000000000     
   1.2812500000000000       0.96875000000000000        0.0000000000000000     
   1.3125000000000000       0.96875000000000000        0.0000000000000000     
   1.3437500000000000       0.96875000000000000        0.0000000000000000     
   1.3750000000000000       0.96875000000000000        0.0000000000000000     
   1.2500000000000000        1.0000000000000000        0.0000000000000000     
   1.2812500000000000        1.0000000000000000        0.0000000000000000     
   1.3125000000000000        1.0000000000000000        0.0000000000000000     
   1.3437500000000000        1.0000000000000000        0.0000000000000000     
   1.3750000000000000        1.0000000000000000        0.0000000000000000     
   1.3750000000000000       0.87500000000000000        0.0000000000000000     
   1.4062500000000000       0.87500000000000000        0.0000000000000000     
   1.4375000000000000       0.87500000000000000        0.0000000000000000     
   1.4687500000000000       0.87500000000000000        0.0000000000000000     
   1.5000000000000000       0.87500000000000000        0.0000000000000000     
   1.3750000000000000       0.90625000000000000        0.0000000000000000     
   1.4062500000000000       0.90625000000000000        0.0000000000000000     
   1.4375000000000000       0.90625000000000000        0.0000000000000000     
   1.4687500000000000       0.90625000000000000        0.0000000000000000     
   1.5000000000000000       0.90625000000000000        0.0000000000000000     
   1.3750000000000000       0.93750000000000000        0.0000000000000000     
   1.4062500000000000       0.93750000000000000        0.0000000000000000     
   1.4375000000000000       0.93750000000000000        0.0000000000000000     
   1.4687500000000000       0.93750000000000000        0.0000000000000000     
   1.5000000000000000       0.93750000000000000        0.0000000000000000     
   1.3750000000000000       0.96875000000000000        0.0000000000000000     
   1.4062500000000000       0.96875000000000000        0.0000000000000000     
   1.4375000000000000       0.96875000000000000        0.0000000000000000     
   1.4687500000000000       0.96875000000000000        0.0000000000000000     
   1.5000000000000000       0.96875000000000000        0.0000000000000000     
   1.3750000000000000        1.0000000000000000        0.0000000000000000     
   1.4062500000000000        1.0000000000000000        0.0000000000000000     
   1.4375000000000000        1.0000000000000000        0.0000000000000000     
   1.4687500000000000        1.0000000000000000        0.0000000000000000     
   1.5000000000000000        1.0000000000000000        0.0000000000000000     
 </DataArray>
 </Points>
 <Cells>
 <DataArray  type="Int32"  Name="connectivity"  format="ascii">
           0           1           6           5
           1           2           7           6
           2           3           8           7
           3           4           9           8
           5           6          11          10
           6           7          12          11
           7           8          13          12
           8           9          14          13
          10          11          16          15
          11          12          17          16
          12          13          18          17
          13          14          19          18
          15          16          21          20
          16          17          22          21
          17          18          23          22
          18          19          24          23
          25          26          31          30
          26          27          32          31
          27          28          33          32
          28          29          34          33
          30          31          36          35
          31          32          37          36
          32          33          38          37
          33          34          39          38
          35          36          41          40
          36          37          42          41
          37          38          43          42
          38          39          44          43
          40          41          46          45
          41          42          47          46
          42          43          48          47
          43          44          49          48
          50          51          56          55
          51          52          57          56
          52          53          58          57
          53          54          59          58
          55          56          61          60
          56          57          62          61
          57          58          63          62
          58          59          64          63
          60          61          66          65
          61          62          67          66
          62          63          68          67
          63          64          69          68
          65          66          71          70
          66          67          72          71
          67          68          73          72
          68          69          74          73
          75          76          81          80
          76          77          82          81
          77          78          83          82
          78          79          84          83
          80          81          86          85
          81          82          87          86
          82          83          88          87
          83          84          89          88
          85          86          91          90
          86          87          92          91
          87          88          93          92
          88          89          94          93
          90          91          96          95
          91          92          97          96
          92          93          98          97
          93          94          99          98
         100         101         106         105
         101         102         107         106
         102         103         108         107
         103         104         109         108
         105         106         111         110
         106         107         112         111
         107         108         113         112
         108         109         114         113
         110         111         116         115
         111         112         117         116
         112         113         118         117
         113         114         119         118
         115         116         121         120
         116         117         122         121
         117         118         123         122
         118         119         124         123
         125         126         131         130
         126         127         132         131
         127         128         133         132
         128         129         134         133
         130         131         136         135
         131         132         137         136
         132         133         138         137
         133         134         139         138
         135         136         141         140
         136         137         142         141
         137         138         143         142
         138         139         144         143
         140         141         146         145
         141         142         147         146
         142         143         148         147
         143         144         149         148
         150         151         156         155
         151         152         157         156
         152         153         158         157
         153         154         159         158
         155         156         161         160
         156         157         162         161
         157         158         163         162
         158         159         164         163
         160         161         166         165
         161         162         167         166
         162         163         168         167
         163         164         169         168
         165         166         171         170
         166         167         172         171
         167         168         173         172
         168         169         174         173
         175         176         181         180
         176         177         182         181
         177         178         183         182
         178         179         184         183
         180         181         186         185
         181         182         187         186
         182         183         188         187
         183         184         189         188
         185         186         191         190
         186         187         192         191
         187         188         193         192
         188         189         194         193
         190         191         196         195
         191         192         197         196
         192         193         198         197
         193         194         199         198
         200         201         206         205
         201         202         207         206
         202         203         208         207
         203         204         209         208
         205         206         211         210
         206         207         212         211
         207         208         213         212
         208         209         214         213
         210         211         216         215
         211         212         217         216
         212         213         218         217
         213         214         219         218
         215         216         221         220
         216         217         222         221
         217         218         223         222
         218         219         224         223
         225         226         231         230
         226         227         232         231
         227         228         233         232
         228         229         234         233
         230         231         236         235
         231         232         237         236
         232         233         238         237
         233         234         239         238
         235         236         241         240
         236         237         242         241
         237         238         243         242
         238         239         244         243
         240         241         246         245
         241         242         247         246
         242         243         248         247
         243         244         249         248
         250         251         256         255
         251         252         257         256
         252         253         258         257
         253         254         259         258
         255         256         261         260
         256         257         262         261
         257         258         263         262
         258         259         264         263
         260         261         266         265
         261         262         267         266
         262         263         268         267
         263         264         269         268
         265         266         271         270
         266         267         272         271
         267         268         273         272
         268         269         274         273
         275         276         281         280
         276         277         282         281
         277         278         283         282
         278         279         284         283
         280         281         286         285
         281         282         287         286
         282         283         288         287
         283         284         289         288
         285         286         291         290
         286         287         292         291
         287         288         293         292
         288         289         294         293
         290         291         296         295
         291         292         297         296
         292         293         298         297
         293         294         299         298
         300         301         306         305
         301         302         307         306
         302         303         308         307
         303         304         309         308
         305         306         311         310
         306         307         312         311
         307         308         313         312
         308         309         314         313
         310         311         316         315
         311         312         317         316
         312         313         318         317
         313         314         319         318
         315         316         321         320
         316         317         322         321
         317         318         323         322
         318         319         324         323
         325         326         331         330
         326         327         332         331
         327         328         333         332
         328         329         334         333
         330         331         336         335
         331         332         337         336
         332         333         338         337
         333         334         339         338
         335         336         341         340
         336         337         342         341
         337         338         343         342
         338         339         344         343
         340         341         346         345
         341         342         347         346
         342         343         348         347
         343         344         349         348
         350         351         356         355
         351         352         357         356
         352         353         358         357
         353         354         359         358
         355         356         361         360
         356         357         362         361
         357         358         363         362
         358         359         364         363
         360         361         366         365
         361         362         367         366
         362         363         368         367
         363         364         369         368
         365         366         371         370
         366         367         372         371
         367         368         373         372
         368         369         374         373
         375         376         381         380
         376         377         382         381
         377         378         383         382
         378         379         384         383
         380         381         386         385
         381         382         387         386
         382         383         388         387
         383         384         389         388
         385         386         391         390
         386         387         392         391
         387         388         393         392
         388         389         394         393
         390         391         396         395
         391         392         397         396
         392         393         398         397
         393         394         399         398
         400         401         406         405
         401         402         407         406
         402         403         408         407
         403         404         409         408
         405         406         411         410
         406         407         412         411
         407         408         413         412
         408         409         414         413
         410         411         416         415
         411         412         417         416
         412         413         418         417
         413         414         419         418
         415         416         421         420
         416         417         422         421
         417         418         423         422
         418         419         424         423
         425         426         431         430
         426         427         432         431
         427         428         433         432
         428         429         434         433
         430         431         436         435
         431         432         437         436
         432         433         438         437
         433         434         439         438
         435         436         441         440
         436         437         442         441
         437         438         443         442
         438         439         444         443
         440         441         446         445
         441         442         447         446
         442         443         448         447
         443         444         449         448
         450         451         456         455
         451         452         457         456
         452         453         458         457
         453         454         459         458
         455         456         461         460
         456         457         462         461
         457         458         463         462
         458         459         464         463
         460         461         466         465
         461         462         467         466
         462         463         468         467
         463         464         469         468
         465         466         471         470
         466         467         472         471
         467         468         473         472
         468         469         474         473
         475         476         481         480
         476         477         482         481
         477         478         483         482
         478         479         484         483
         480         481         486         485
         481         482         487         486
         482         483         488         487
         483         484         489         488
         485         486         491         490
         486         487         492         491
         487         488         493         492
         488         489         494         493
         490         491         496         495
         491         492         497         496
         492         493         498         497
         493         494         499         498
         500         501         506         505
         501         502         507         506
         502         503         508         507
         503         504         509         508
         505         506         511         510
         506         507         512         511
         507         508         513         512
         508         509         514         513
         510         511         516         515
         511         512         517         516
         512         513         518         517
         513         514         519         518
         515         516         521         520
         516         517         522         521
         517         518         523         522
         518         519         524         523
         525         526         531         530
         526         527         532         531
         527         528         533         532
         528         529         534         533
         530         531         536         535
         531         532         537         536
         532         533         538         537
         533         534         539         538
         535         536         541         540
         536         537         542         541
         537         538         543         542
         538         539         544         543
         540         541         546         545
         541         542         547         546
         542         543         548         547
         543         544         549         548
         550         551         556         555
         551         552         557         556
         552         553         558         557
         553         554         559         558
         555         556         561         560
         556         557         562         561
         557         558         563         562
         558         559         564         563
         560         561         566         565
         561         562         567         566
         562         563         568         567
         563         564         569         568
         565         566         571         570
         566         567         572         571
         567         568         573         572
         568         569         574         573
         575         576         581         580
         576         577         582         581
         577         578         583         582
         578         579         584         583
         580         581         586         585
         581         582         587         586
         582         583         588         587
         583         584         589         588
         585         586         591         590
         586         587         592         591
         587         588         593         592
         588         589         594         593
         590         591         596         595
         591         592         597         596
         592         593         598         597
         593         594         599         598
         600         601         606         605
         601         602         607         606
         602         603         608         607
         603         604         609         608
         605         606         611         610
         606         607         612         611
         607         608         613         612
         608         609         614         613
         610         611         616         615
         611         612         617         616
         612         613         618         617
         613         614         619         618
         615         616         621         620
         616         617         622         621
         617         618         623         622
         618         619         624         623
         625         626         631         630
         626         627         632         631
         627         628         633         632
         628         629         634         633
         630         631         636         635
         631         632         637         636
         632         633         638         637
         633         634         639         638
         635         636         641         640
         636         637         642         641
         637         638         643         642
         638         639         644         643
         640         641         646         645
         641         642         647         646
         642         643         648         647
         643         644         649         648
         650         651         656         655
         651         652         657         656
         652         653         658         657
         653         654         659         658
         655         656         661         660
         656         657         662         661
         657         658         663         662
         658         659         664         663
         660         661         666         665
         661         662         667         666
         662         663         668         667
         663         664         669         668
         665         666         671         670
         666         667         672         671
         667         668         673         672
         668         669         674         673
         675         676         681         680
         676         677         682         681
         677         678         683         682
         678         679         684         683
         680         681         686         685
         681         682         687         686
         682         683         688         687
         683         684         689         688
         685         686         691         690
         686         687         692         691
         687         688         693         692
         688         689         694         693
         690         691         696         695
         691         692         697         696
         692         693         698         697
         693         694         699         698
         700         701         706         705
         701         702         707         706
         702         703         708         707
         703         704         709         708
         705         706         711         710
         706         707         712         711
         707         708         713         712
         708         709         714         713
         710         711         716         715
         711         712         717         716
         712         713         718         717
         713         714         719         718
         715         716         721         720
         716         717         722         721
         717         718         723         722
         718         719         724         723
         725         726         731         730
         726         727         732         731
         727         728         733         732
         728         729         734         733
         730         731         736         735
         731         732         737         736
         732         733         738         737
         733         734         739         738
         735         736         741         740
         736         737         742         741
         737         738         743         742
         738         739         744         743
         740         741         746         745
         741         742         747         746
         742         743         748         747
         743         744         749         748
         750         751         756         755
         751         752         757         756
         752         753         758         757
         753         754         759         758
         755         756         761         760
         756         757         762         761
         757         758         763         762
         758         759         764         763
         760         761         766         765
         761         762         767         766
         762         763         768         767
         763         764         769         768
         765         766         771         770
         766         767         772         771
         767         768         773         772
         768         769         774         773
         775         776         781         780
         776         777         782         781
         777         778         783         782
         778         779         784         783
         780         781         786         785
         781         782         787         786
         782         783         788         787
         783         784         789         788
         785         786         791         790
         786         787         792         791
         787         788         793         792
         788         789         794         793
         790         791         796         795
         791         792         797         796
         792         793         798         797
         793         794         799         798
         800         801         806         805
         801         802         807         806
         802         803         808         807
         803         804         809         808
         805         806         811         810
         806         807         812         811
         807         808         813         812
         808         809         814         813
         810         811         816         815
         811         812         817         816
         812         813         818         817
         813         814         819         818
         815         816         821         820
         816         817         822         821
         817         818         823         822
         818         819         824         823
         825         826         831         830
         826         827         832         831
         827         828         833         832
         828         829         834         833
         830         831         836         835
         831         832         837         836
         832         833         838         837
         833         834         839         838
         835         836         841         840
         836         837         842         841
         837         838         843         842
         838         839         844         843
         840         841         846         845
         841         842         847         846
         842         843         848         847
         843         844         849         848
         850         851         856         855
         851         852         857         856
         852         853         858         857
         853         854         859         858
         855         856         861         860
         856         857         862         861
         857         858         863         862
         858         859         864         863
         860         861         866         865
         861         862         867         866
         862         863         868         867
         863         864         869         868
         865         866         871         870
         866         867         872         871
         867         868         873         872
         868         869         874         873
         875         876         881         880
         876         877         882         881
         877         878         883         882
         878         879         884         883
         880         881         886         885
         881         882         887         886
         882         883         888         887
         883         884         889         888
         885         886         891         890
         886         887         892         891
         887         888         893         892
         888         889         894         893
         890         891         896         895
         891         892         897         896
         892         893         898         897
         893         894         899         898
         900         901         906         905
         901         902         907         906
         902         903         908         907
         903         904         909         908
         905         906         911         910
         906         907         912         911
         907         908         913         912
         908         909         914         913
         910         911         916         915
         911         912         917         916
         912         913         918         917
         913         914         919         918
         915         916         921         920
         916         917         922         921
         917         918         923         922
         918         919         924         923
         925         926         931         930
         926         927         932         931
         927         928         933         932
         928         929         934         933
         930         931         936         935
         931         932         937         936
         932         933         938         937
         933         934         939         938
         935         936         941         940
         936         937         942         941
         937         938         943         942
         938         939         944         943
         940         941         946         945
         941         942         947         946
         942         943         948         947
         943         944         949         948
         950         951         956         955
         951         952         957         956
         952         953         958         957
         953         954         959         958
         955         956         961         960
         956         957         962         961
         957         958         963         962
         958         959         964         963
         960         961         966         965
         961         962         967         966
         962         963         968         967
         963         964         969         968
         965         966         971         970
         966         967         972         971
         967         968         973         972
         968         969         974         973
         975         976         981         980
         976         977         982         981
         977         978         983         982
         978         979         984         983
         980         981         986         985
         981         982         987         986
         982         983         988         987
         983         984         989         988
         985         986         991         990
         986         987         992         991
         987         988         993         992
         988         989         994         993
         990         991         996         995
         991         992         997         996
         992         993         998         997
         993         994         999         998
        1000        1001        1006        1005
        1001        1002        1007        1006
        1002        1003        1008        1007
        1003        1004        1009        1008
        1005        1006        1011        1010
        1006        1007        1012        1011
        1007        1008        1013        1012
        1008        1009        1014        1013
        1010        1011        1016        1015
        1011        1012        1017        1016
        1012        1013        1018        1017
        1013        1014        1019        1018
        1015        1016        1021        1020
        1016        1017        1022        1021
        1017        1018        1023        1022
        1018        1019        1024        1023
        1025        1026        1031        1030
        1026        1027        1032        1031
        1027        1028        1033        1032
        1028        1029        1034        1033
        1030        1031        1036        1035
        1031        1032        1037        1036
        1032        1033        1038        1037
        1033        1034        1039        1038
        1035        1036        1041        1040
        1036        1037        1042        1041
        1037        1038        1043        1042
        1038        1039        1044        1043
        1040        1041        1046        1045
        1041        1042        1047        1046
        1042        1043        1048        1047
        1043        1044        1049        1048
        1050        1051        1056        1055
        1051        1052        1057        1056
        1052        1053        1058        1057
        1053        1054        1059        1058
        1055        1056        1061        1060
        1056        1057        1062        1061
        1057        1058        1063        1062
        1058        1059        1064        1063
        1060        1061        1066        1065
        1061        1062        1067        1066
        1062        1063        1068        1067
        1063        1064        1069        1068
        1065        1066        1071        1070
        1066        1067        1072        1071
        1067        1068        1073        1072
        1068        1069        1074        1073
        1075        1076        1081        1080
        1076        1077        1082        1081
        1077        1078        1083        1082
        1078        1079        1084        1083
        1080        1081        1086        1085
        1081        1082        1087        1086
        1082        1083        1088        1087
        1083        1084        1089        1088
        1085        1086        1091        1090
        1086        1087        1092        1091
        1087        1088        1093        1092
        1088        1089        1094        1093
        1090        1091        1096        1095
        1091        1092        1097        1096
        1092        1093        1098        1097
        1093        1094        1099        1098
        1100        1101        1106        1105
        1101        1102        1107        1106
        1102        1103        1108        1107
        1103        1104        1109        1108
        1105        1106        1111        1110
        1106        1107        1112        1111
        1107        1108        1113        1112
        1108        1109        1114        1113
        1110        1111        1116        1115
        1111        1112        1117        1116
        1112        1113        1118        1117
        1113        1114        1119        1118
        1115        1116        1121        1120
        1116        1117        1122        1121
        1117        1118        1123        1122
        1118        1119        1124        1123
        1125        1126        1131        1130
        1126        1127        1132        1131
        1127        1128        1133        1132
        1128        1129        1134        1133
        1130        1131        1136        1135
        1131        1132        1137        1136
        1132        1133        1138        1137
        1133        1134        1139        1138
        1135        1136        1141        1140
        1136        1137        1142        1141
        1137        1138        1143        1142
        1138        1139        1144        1143
        1140        1141        1146        1145
        1141        1142        1147        1146
        1142        1143        1148        1147
        1143        1144        1149        1148
        1150        1151        1156        1155
        1151        1152        1157        1156
        1152        1153        1158        1157
        1153        1154        1159        1158
        1155        1156        1161        1160
        1156        1157        1162        1161
        1157        1158        1163        1162
        1158        1159        1164        1163
        1160        1161        1166        1165
        1161        1162        1167        1166
        1162        1163        1168        1167
        1163        1164        1169        1168
        1165        1166        1171        1170
        1166        1167        1172        1171
        1167        1168        1173        1172
        1168        1169        1174        1173
        1175        1176        1181        1180
        1176        1177        1182        1181
        1177        1178        1183        1182
        1178        1179        1184        1183
        1180        1181        1186        1185
        1181        1182        1187        1186
        1182        1183        1188        1187
        1183        1184        1189        1188
        1185        1186        1191        1190
        1186        1187        1192        1191
        1187        1188        1193        1192
        1188        1189        1194        1193
        1190        1191        1196        1195
        1191        1192        1197        1196
        1192        1193        1198        1197
        1193        1194        1199        1198
        1200        1201        1206        1205
        1201        1202        1207        1206
        1202        1203        1208        1207
        1203        1204        1209        1208
        1205        1206        1211        1210
        1206        1207        1212        1211
        1207        1208        1213        1212
        1208        1209        1214        1213
        1210        1211        1216        1215
        1211        1212        1217        1216
        1212        1213        1218        1217
        1213        1214        1219        1218
        1215        1216        1221        1220
        1216        1217        1222        1221
        1217        1218        1223        1222
        1218        1219        1224        1223
        1225        1226        1231        1230
        1226        1227        1232        1231
        1227        1228        1233        1232
        1228        1229        1234        1233
        1230        1231        1236        1235
        1231        1232        1237        1236
        1232        1233        1238        1237
        1233        1234        1239        1238
        1235        1236        1241        1240
        1236        1237        1242        1241
        1237        1238        1243        1242
        1238        1239        1244        1243
        1240        1241        1246        1245
        1241        1242        1247        1246
        1242        1243        1248        1247
        1243        1244        1249        1248
        1250        1251        1256        1255
        1251        1252        1257        1256
        1252        1253        1258        1257
        1253        1254        1259        1258
        1255        1256        1261        1260
        1256        1257        1262        1261
        1257        1258        1263        1262
        1258        1259        1264        1263
        1260        1261        1266        1265
        1261        1262        1267        1266
        1262        1263        1268        1267
        1263        1264        1269        1268
        1265        1266        1271        1270
        1266        1267        1272        1271
        1267        1268        1273        1272
        1268        1269        1274        1273
        1275        1276        1281        1280
        1276        1277        1282        1281
        1277        1278        1283        1282
        1278        1279        1284        1283
        1280        1281        1286        1285
        1281        1282        1287        1286
        1282        1283        1288        1287
        1283        1284        1289        1288
        1285        1286        1291        1290
        1286        1287        1292        1291
        1287        1288        1293        1292
        1288        1289        1294        1293
        1290        1291        1296        1295
        1291        1292        1297        1296
        1292        1293        1298        1297
        1293        1294        1299        1298
        1300        1301        1306        1305
        1301        1302        1307        1306
        1302        1303        1308        1307
        1303        1304        1309        1308
        1305        1306        1311        1310
        1306        1307        1312        1311
        1307        1308        1313        1312
        1308        1309        1314        1313
        1310        1311        1316        1315
        1311        1312        1317        1316
        1312        1313        1318        1317
        1313        1314        1319        1318
        1315        1316        1321        1320
        1316        1317        1322        1321
        1317        1318        1323        1322
        1318        1319        1324        1323
        1325        1326        1331        1330
        1326        1327        1332        1331
        1327        1328        1333        1332
        1328        1329        1334        1333
        1330        1331        1336        1335
        1331        1332        1337        1336
        1332        1333        1338        1337
        1333        1334        1339        1338
        1335        1336        1341        1340
        1336        1337        1342        1341
        1337        1338        1343        1342
        1338        1339        1344        1343
        1340        1341        1346        1345
        1341        1342        1347        1346
        1342        1343        1348        1347
        1343        1344        1349        1348
        1350        1351        1356        1355
        1351        1352        1357        1356
        1352        1353        1358        1357
        1353        1354        1359        1358
        1355        1356        1361        1360
        1356        1357        1362        1361
        1357        1358        1363        1362
        1358        1359        1364        1363
        1360        1361        1366        1365
        1361        1362        1367        1366
        1362        1363        1368        1367
        1363        1364        1369        1368
        1365        1366        1371        1370
        1366        1367        1372        1371
        1367        1368        1373        1372
        1368        1369        1374        1373
        1375        1376        1381        1380
        1376        1377        1382        1381
        1377        1378        1383        1382
        1378        1379        1384        1383
        1380        1381        1386        1385
        1381        1382        1387        1386
        1382        1383        1388        1387
        1383        1384        1389        1388
        1385        1386        1391        1390
        1386        1387        1392        1391
        1387        1388        1393        1392
        1388        1389        1394        1393
        1390        1391        1396        1395
        1391        1392        1397        1396
        1392        1393        1398        1397
        1393        1394        1399        1398
        1400        1401        1406        1405
        1401        1402        1407        1406
        1402        1403        1408        1407
        1403        1404        1409        1408
        1405        1406        1411        1410
        1406        1407        1412        1411
        1407        1408        1413        1412
        1408        1409        1414        1413
        1410        1411        1416        1415
        1411        1412        1417        1416
        1412        1413        1418        1417
        1413        1414        1419        1418
        1415        1416        1421        1420
        1416        1417        1422        1421
        1417        1418        1423        1422
        1418        1419        1424        1423
        1425        1426        1431        1430
        1426        1427        1432        1431
        1427        1428        1433        1432
        1428        1429        1434        1433
        1430        1431        1436        1435
        1431        1432        1437        1436
        1432        1433        1438        1437
        1433        1434        1439        1438
        1435        1436        1441        1440
        1436        1437        1442        1441
        1437        1438        1443        1442
        1438        1439        1444        1443
        1440        1441        1446        1445
        1441        1442        1447        1446
        1442        1443        1448        1447
        1443        1444        1449        1448
        1450        1451        1456        1455
        1451        1452        1457        1456
        1452        1453        1458        1457
        1453        1454        1459        1458
        1455        1456        1461        1460
        1456        1457        1462        1461
        1457        1458        1463        1462
        1458        1459        1464        1463
        1460        1461        1466        1465
        1461        1462        1467        1466
        1462        1463        1468        1467
        1463        1464        1469        1468
        1465        1466        1471        1470
        1466        1467        1472        1471
        1467        1468        1473        1472
        1468        1469        1474        1473
        1475        1476        1481        1480
        1476        1477        1482        1481
        1477        1478        1483        1482
        1478        1479        1484        1483
        1480        1481        1486        1485
        1481        1482        1487        1486
        1482        1483        1488        1487
        1483        1484        1489        1488
        1485        1486        1491        1490
        1486        1487        1492        1491
        1487        1488        1493        1492
        1488        1489        1494        1493
        1490        1491        1496        1495
        1491        1492        1497        1496
        1492        1493        1498        1497
        1493        1494        1499        1498
        1500        1501        1506        1505
        1501        1502        1507        1506
        1502        1503        1508        1507
        1503        1504        1509        1508
        1505        1506        1511        1510
        1506        1507        1512        1511
        1507        1508        1513        1512
        1508        1509        1514        1513
        1510        1511        1516        1515
        1511        1512        1517        1516
        1512        1513        1518        1517
        1513        1514        1519        1518
        1515        1516        1521        1520
        1516        1517        1522        1521
        1517        1518        1523        1522
        1518        1519        1524        1523
        1525        1526        1531        1530
        1526        1527        1532        1531
        1527        1528        1533        1532
        1528        1529        1534        1533
        1530        1531        1536        1535
        1531        1532        1537        1536
        1532        1533        1538        1537
        1533        1534        1539        1538
        1535        1536        1541        1540
        1536        1537        1542        1541
        1537        1538        1543        1542
        1538        1539        1544        1543
        1540        1541        1546        1545
        1541        1542        1547        1546
        1542        1543        1548        1547
        1543        1544        1549        1548
        1550        1551        1556        1555
        1551        1552        1557        1556
        1552        1553        1558        1557
        1553        1554        1559        1558
        1555        1556        1561        1560
        1556        1557        1562        1561
        1557        1558        1563        1562
        1558        1559        1564        1563
        1560        1561        1566        1565
        1561        1562        1567        1566
        1562        1563        1568        1567
        1563        1564        1569        1568
        1565        1566        1571        1570
        1566        1567        1572        1571
        1567        1568        1573        1572
        1568        1569        1574        1573
        1575        1576        1581        1580
        1576        1577        1582        1581
        1577        1578        1583        1582
        1578        1579        1584        1583
        1580        1581        1586        1585
        1581        1582        1587        1586
        1582        1583        1588        1587
        1583        1584        1589        1588
        1585        1586        1591        1590
        1586        1587        1592        1591
        1587        1588        1593        1592
        1588        1589        1594        1593
        1590        1591        1596        1595
        1591        1592        1597        1596
        1592        1593        1598        1597
        1593        1594        1599        1598
 </DataArray>
 <DataArray  type="Int32"  Name="offsets"  format="ascii"> 
           4
           8
          12
          16
          20
          24
          28
          32
          36
          40
          44
          48
          52
          56
          60
          64
          68
          72
          76
          80
          84
          88
          92
          96
         100
         104
         108
         112
         116
         120
         124
         128
         132
         136
         140
         144
         148
         152
         156
         160
         164
         168
         172
         176
         180
         184
         188
         192
         196
         200
         204
         208
         212
         216
         220
         224
         228
         232
         236
         240
         244
         248
         252
         256
         260
         264
         268
         272
         276
         280
         284
         288
         292
         296
         300
         304
         308
         312
         316
         320
         324
         328
         332
         336
         340
         344
         348
         352
         356
         360
         364
         368
         372
         376
         380
         384
         388
         392
         396
         400
         404
         408
         412
         416
         420
         424
         428
         432
         436
         440
         444
         448
         452
         456
         460
         464
         468
         472
         476
         480
         484
         488
         492
         496
         500
         504
         508
         512
         516
         520
         524
         528
         532
         536
         540
         544
         548
         552
         556
         560
         564
         568
         572
         576
         580
         584
         588
         592
         596
         600
         604
         608
         612
         616
         620
         624
         628
         632
         636
         640
         644
         648
         652
         656
         660
         664
         668
         672
         676
         680
         684
         688
         692
         696
         700
         704
         708
         712
         716
         720
         724
         728
         732
         736
         740
         744
         748
         752
         756
         760
         764
         768
         772
         776
         780
         784
         788
         792
         796
         800
         804
         808
         812
         816
         820
         824
         828
         832
         836
         840
         844
         848
         852
         856
         860
         864
         868
         872
         876
         880
         884
         888
         892
         896
         900
         904
         908
         912
         916
         920
         924
         928
         932
         936
         940
         944
         948
         952
         956
         960
         964
         968
         972
         976
         980
         984
         988
         992
         996
        1000
        1004
        1008
        1012
        1016
        1020
        1024
        1028
        1032
        1036
        1040
        1044
        1048
        1052
        1056
        1060
        1064
        1068
        1072
        1076
        1080
        1084
        1088
        1092
        1096
        1100
        1104
        1108
        1112
        1116
        1120
        1124
        1128
        1132
        1136
        1140
        1144
        1148
        1152
        1156
        1160
        1164
        1168
        1172
        1176
        1180
        1184
        1188
        1192
        1196
        1200
        1204
        1208
        1212
        1216
        1220
        1224
        1228
        1232
        1236
        1240
        1244
        1248
        1252
        1256
        1260
        1264
        1268
        1272
        1276
        1280
        1284
        1288
        1292
        1296
        1300
        1304
        1308
        1312
        1316
        1320
        1324
        1328
        1332
        1336
        1340
        1344
        1348
        1352
        1356
        1360
        1364
        1368
        1372
        1376
        1380
        1384
        1388
        1392
        1396
        1400
        1404
        1408
        1412
        1416
        1420
        1424
        1428
        1432
        1436
        1440
        1444
        1448
        1452
        1456
        1460
        1464
        1468
        1472
        1476
        1480
        1484
        1488
        1492
        1496
        1500
        1504
        1508
        1512
        1516
        1520
        1524
        1528
        1532
        1536
        1540
        1544
        1548
        1552
        1556
        1560
        1564
        1568
        1572
        1576
        1580
        1584
        1588
        1592
        1596
        1600
        1604
        1608
        1612
        1616
        1620
        1624
        1628
        1632
        1636
        1640
        1644
        1648
        1652
        1656
        1660
        1664
        1668
        1672
        1676
        1680
        1684
        1688
        1692
        1696
        1700
        1704
        1708
        1712
        1716
        1720
        1724
        1728
        1732
        1736
        1740
        1744
        1748
        1752
        1756
        1760
        1764
        1768
        1772
        1776
        1780
        1784
        1788
        1792
        1796
        1800
        1804
        1808
        1812
        1816
        1820
        1824
        1828
        1832
        1836
        1840
        1844
        1848
        1852
        1856
        1860
        1864
        1868
        1872
        1876
        1880
        1884
        1888
        1892
        1896
        1900
        1904
        1908
        1912
        1916
        1920
        1924
        1928
        1932
        1936
        1940
        1944
        1948
        1952
        1956
        1960
        1964
        1968
        1972
        1976
        1980
        1984
        1988
        1992
        1996
        2000
        2004
        2008
        2012
        2016
        2020
        2024
        2028
        2032
        2036
        2040
        2044
        2048
        2052
        2056
        2060
        2064
        2068
        2072
        2076
        2080
        2084
        2088
        2092
        2096
        2100
        2104
        2108
        2112
        2116
        2120
        2124
        2128
        2132
        2136
        2140
        2144
        2148
        2152
        2156
        2160
        2164
        2168
        2172
        2176
        2180
        2184
        2188
        2192
        2196
        2200
        2204
        2208
        2212
        2216
        2220
        2224
        2228
        2232
        2236
        2240
        2244
        2248
        2252
        2256
        2260
        2264
        2268
        2272
        2276
        2280
        2284
        2288
        2292
        2296
        2300
        2304
        2308
        2312
        2316
        2320
        2324
        2328
        2332
        2336
        2340
        2344
        2348
        2352
        2356
        2360
        2364
        2368
        2372
        2376
        2380
        2384
        2388
        2392
        2396
        2400
        2404
        2408
        2412
        2416
        2420
        2424
        2428
        2432
        2436
        2440
        2444
        2448
        2452
        2456
        2460
        2464
        2468
        2472
        2476
        2480
        2484
        2488
        2492
        2496
        2500
        2504
        2508
        2512
        2516
        2520
        2524
        2528
        2532
        2536
        2540
        2544
        2548
        2552
        2556
        2560
        2564
        2568
        2572
        2576
        2580
        2584
        2588
        2592
        2596
        2600
        2604
        2608
        2612
        2616
        2620
        2624
        2628
        2632
        2636
        2640
        2644
        2648
        2652
        2656
        2660
        2664
        2668
        2672
        2676
        2680
        2684
        2688
        2692
        2696
        2700
        2704
        2708
        2712
        2716
        2720
        2724
        2728
        2732
        2736
        2740
        2744
        2748
        2752
        2756
        2760
        2764
        2768
        2772
        2776
        2780
        2784
        2788
        2792
        2796
        2800
        2804
        2808
        2812
        2816
        2820
        2824
        2828
        2832
        2836
        2840
        2844
        2848
        2852
        2856
        2860
        2864
        2868
        2872
        2876
        2880
        2884
        2888
        2892
        2896
        2900
        2904
        2908
        2912
        2916
        2920
        2924
        2928
        2932
        2936
        2940
        2944
        2948
        2952
        2956
        2960
        2964
        2968
        2972
        2976
        2980
        2984
        2988
        2992
        2996
        3000
        3004
        3008
        3012
        3016
        3020
        3024
        3028
        3032
        3036
        3040
        3044
        3048
        3052
        3056
        3060
        3064
        3068
        3072
        3076
        3080
        3084
        3088
        3092
        3096
        3100
        3104
        3108
        3112
        3116
        3120
        3124
        3128
        3132
        3136
        3140
        3144
        3148
        3152
        3156
        3160
        3164
        3168
        3172
        3176
        3180
        3184
        3188
        3192
        3196
        3200
        3204
        3208
        3212
        3216
        3220
        3224
        3228
        3232
        3236
        3240
        3244
        3248
        3252
        3256
        3260
        3264
        3268
        3272
        3276
        3280
        3284
        3288
        3292
        3296
        3300
        3304
        3308
        3312
        3316
        3320
        3324
        3328
        3332
        3336
        3340
        3344
        3348
        3352
        3356
        3360
        3364
        3368
        3372
        3376
        3380
        3384
        3388
        3392
        3396
        3400
        3404
        3408
        3412
        3416
        3420
        3424
        3428
        3432
        3436
        3440
        3444
        3448
        3452
        3456
        3460
        3464
        3468
        3472
        3476
        3480
        3484
        3488
        3492
        3496
        3500
        3504
        3508
        3512
        3516
        3520
        3524
        3528
        3532
        3536
        3540
        3544
        3548
        3552
        3556
        3560
        3564
        3568
        3572
        3576
        3580
        3584
        3588
        3592
        3596
        3600
        3604
        3608
        3612
        3616
        3620
        3624
        3628
        3632
        3636
        3640
        3644
        3648
        3652
        3656
        3660
        3664
        3668
        3672
        3676
        3680
        3684
        3688
        3692
        3696
        3700
        3704
        3708
        3712
        3716
        3720
        3724
        3728
        3732
        3736
        3740
        3744
        3748
        3752
        3756
        3760
        3764
        3768
        3772
        3776
        3780
        3784
        3788
        3792
        3796
        3800
        3804
        3808
        3812
        3816
        3820
        3824
        3828
        3832
        3836
        3840
        3844
        3848
        3852
        3856
        3860
        3864
        3868
        3872
        3876
        3880
        3884
        3888
        3892
        3896
        3900
        3904
        3908
        3912
        3916
        3920
        3924
        3928
        3932
        3936
        3940
        3944
        3948
        3952
        3956
        3960
        3964
        3968
        3972
        3976
        3980
        3984
        3988
        3992
        3996
        4000
        4004
        4008
        4012
        4016
        4020
        4024
        4028
        4032
        4036
        4040
        4044
        4048
        4052
        4056
        4060
        4064
        4068
        4072
        4076
        4080
        4084
        4088
        4092
        4096
 </DataArray>
 <DataArray  type="UInt8"  Name="types"  format="ascii">
 9
 9
 9
 9
 9
 9
 9
 9
 9
 9
 9
 9
 9
 9
 9
 9
 9
 9
 9
 9
 9
 9
 9
 9
 9
 9
 9
 9
 9
 9
 9
 9
 9
 9
 9
 9
 9
 9
 9
 9
 9
 9
 9
 9
 9
 9
 9
 9
 9
 9
 9
 9
 9
 9
 9
 9
 9
 9
 9
 9
 9
 9
 9
 9
 9
 9
 9
 9
 9
 9
 9
 9
 9
 9
 9
 9
 9
 9
 9
 9
 9
 9
 9
 9
 9
 9
 9
 9
 9
 9
 9
 9
 9
 9
 9
 9
 9
 9
 9
 9
 9
 9
 9
 9
 9
 9
 9
 9
 9
 9
 9
 9
 9
 9
 9
 9
 9
 9
 9
 9
 9
 9
 9
 9
 9
 9
 9
 9
 9
 9
 9
 9
 9
 9
 9
 9
 9
 9
 9
 9
 9
 9
 9
 9
 9
 9
 9
 9
 9
 9
 9
 9
 9
 9
 9
 9
 9
 9
 9
 9
 9
 9
 9
 9
 9
 9
 9
 9
 9
 9
 9
 9
 9
 9
 9
 9
 9
 9
 9
 9
 9
 9
 9
 9
 9
 9
 9
 9
 9
 9
 9
 9
 9
 9
 9
 9
 9
 9
 9
 9
 9
 9
 9
 9
 9
 9
 9
 9
 9
 9
 9
 9
 9
 9
 9
 9
 9
 9
 9
 9
 9
 9
 9
 9
 9
 9
 9
 9
 9
 9
 9
 9
 9
 9
 9
 9
 9
 9
 9
 9
 9
 9
 9
 9
 9
 9
 9
 9
 9
 9
 9
 9
 9
 9
 9
 9
 9
 9
 9
 9
 9
 9
 9
 9
 9
 9
 9
 9
 9
 9
 9
 9
 9
 9
 9
 9
 9
 9
 9
 9
 9
 9
 9
 9
 9
 9
 9
 9
 9
 9
 9
 9
 9
 9
 9
 9
 9
 9
 9
 9
 9
 9
 9
 9
 9
 9
 9
 9
 9
 9
 9
 9
 9
 9
 9
 9
 9
 9
 9
 9
 9
 9
 9
 9
 9
 9
 9
 9
 9
 9
 9
 9
 9
 9
 9
 9
 9
 9
 9
 9
 9
 9
 9
 9
 9
 9
 9
 9
 9
 9
 9
 9
 9
 9
 9
 9
 9
 9
 9
 9
 9
 9
 9
 9
 9
 9
 9
 9
 9
 9
 9
 9
 9
 9
 9
 9
 9
 9
 9
 9
 9
 9
 9
 9
 9
 9
 9
 9
 9
 9
 9
 9
 9
 9
 9
 9
 9
 9
 9
 9
 9
 9
 9
 9
 9
 9
 9
 9
 9
 9
 9
 9
 9
 9
 9
 9
 9
 9
 9
 9
 9
 9
 9
 9
 9
 9
 9
 9
 9
 9
 9
 9
 9
 9
 9
 9
 9
 9
 9
 9
 9
 9
 9
 9
 9
 9
 9
 9
 9
 9
 9
 9
 9
 9
 9
 9
 9
 9
 9
 9
 9
 9
 9
 9
 9
 9
 9
 9
 9
 9
 9
 9
 9
 9
 9
 9
 9
 9
 9
 9
 9
 9
 9
 9
 9
 9
 9
 9
 9
 9
 9
 9
 9
 9
 9
 9
 9
 9
 9
 9
 9
 9
 9
 9
 9
 9
 9
 9
 9
 9
 9
 9
 9
 9
 9
 9
 9
 9
 9
 9
 9
 9
 9
 9
 9
 9
 9
 9
 9
 9
 9
 9
 9
 9
 9
 9
 9
 9
 9
 9
 9
 9
 9
 9
 9
 9
 9
 9
 9
 9
 9
 9
 9
 9
 9
 9
 9
 9
 9
 9
 9
 9
 9
 9
 9
 9
 9
 9
 9
 9
 9
 9
 9
 9
 9
 9
 9
 9
 9
 9
 9
 9
 9
 9
 9
 9
 9
 9
 9
 9
 9
 9
 9
 9
 9
 9
 9
 9
 9
 9
 9
 9
 9
 9
 9
 9
 9
 9
 9
 9
 9
 9
 9
 9
 9
 9
 9
 9
 9
 9
 9
 9
 9
 9
 9
 9
 9
 9
 9
 9
 9
 9
 9
 9
 9
 9
 9
 9
 9
 9
 9
 9
 9
 9
 9
 9
 9
 9
 9
 9
 9
 9
 9
 9
 9
 9
 9
 9
 9
 9
 9
 9
 9
 9
 9
 9
 9
 9
 9
 9
 9
 9
 9
 9
 9
 9
 9
 9
 9
 9
 9
 9
 9
 9
 9
 9
 9
 9
 9
 9
 9
 9
 9
 9
 9
 9
 9
 9
 9
 9
 9
 9
 9
 9
 9
 9
 9
 9
 9
 9
 9
 9
 9
 9
 9
 9
 9
 9
 9
 9
 9
 9
 9
 9
 9
 9
 9
 9
 9
 9
 9
 9
 9
 9
 9
 9
 9
 9
 9
 9
 9
 9
 9
 9
 9
 9
 9
 9
 9
 9
 9
 9
 9
 9
 9
 9
 9
 9
 9
 9
 9
 9
 9
 9
 9
 9
 9
 9
 9
 9
 9
 9
 9
 9
 9
 9
 9
 9
 9
 9
 9
 9
 9
 9
 9
 9
 9
 9
 9
 9
 9
 9
 9
 9
 9
 9
 9
 9
 9
 9
 9
 9
 9
 9
 9
 9
 9
 9
 9
 9
 9
 9
 9
 9
 9
 9
 9
 9
 9
 9
 9
 9
 9
 9
 9
 9
 9
 9
 9
 9
 9
 9
 9
 9
 9
 9
 9
 9
 9
 9
 9
 9
 9
 9
 9
 9
 9
 9
 9
 9
 9
 9
 9
 9
 9
 9
 9
 9
 9
 9
 9
 9
 9
 9
 9
 9
 9
 9
 9
 9
 9
 9
 9
 9
 9
 9
 9
 9
 9
 9
 9
 9
 9
 9
 9
 9
 9
 9
 9
 9
 9
 9
 9
 9
 9
 9
 9
 9
 9
 9
 9
 9
 9
 9
 9
 9
 9
 9
 9
 9
 9
 9
 9
 9
 9
 9
 9
 9
 9
 9
 9
 9
 9
 9
 9
 9
 9
 9
 9
 9
 9
 9
 9
 9
 9
 9
 9
 9
 9
 9
 9
 9
 9
 9
 9
 9
 9
 9
 9
 9
 9
 9
 9
 9
 9
 9
 9
 9
 9
 9
 9
 9
 9
 9
 9
 9
 9
 9
 9
 9
 9
 9
 9
 9
 9
 9
 9
 9
 9
 9
 9
 9
 9
 9
 9
 9
 9
 9
 9
 9
 9
 9
 9
 9
 9
 9
 9
 9
 9
 9
 9
 9
 9
 9
 9
 9
 9
 9
 9
 9
 9
 9
 9
 9
 9
 9
 9
 9
 9
 9
 9
 9
 9
 9
 </DataArray>
 </Cells> 
 <PointData>
 <DataArray  type="Float64" Name="disp" NumberOfComponents="3" format="ascii">
   6.7873679936459735E-002   5.9894641606347242E-002   0.0000000000000000     
   7.0036025241221558E-002   6.6745655117700531E-002   0.0000000000000000     
   7.2393360306831356E-002   7.3350837314833342E-002   0.0000000000000000     
   7.4945685133289100E-002   7.9710188197745682E-002   0.0000000000000000     
   7.7692999720594833E-002   8.5823707766437551E-002   0.0000000000000000     
   6.0738691653565977E-002   6.1074768615798553E-002   0.0000000000000000     
   6.3467877239146570E-002   6.6958832296688864E-002   0.0000000000000000     
   6.6198763589325083E-002   7.2895351691130733E-002   0.0000000000000000     
   6.8931350704101502E-002   7.8884326799124216E-002   0.0000000000000000     
   7.1665638583475827E-002   8.4925757620669284E-002   0.0000000000000000     
   5.5659022169600107E-002   6.1596655932164880E-002   0.0000000000000000     
   5.8472785288369460E-002   6.6868246007179652E-002   0.0000000000000000     
   6.1198918050899415E-002   7.2382941968698059E-002   0.0000000000000000     
   6.3837420457189986E-002   7.8140743816720107E-002   0.0000000000000000     
   6.6388292507241153E-002   8.4141651551245783E-002   0.0000000000000000     
   5.2634671484562148E-002   6.1460303555446211E-002   0.0000000000000000     
   5.5050749388890201E-002   6.6473896249172909E-002   0.0000000000000000     
   5.7393823691554338E-002   7.1813608147535263E-002   0.0000000000000000     
   5.9663894392554540E-002   7.7479439250533327E-002   0.0000000000000000     
   6.1860961491890812E-002   8.3471389558167033E-002   0.0000000000000000     
   5.1665639598452079E-002   6.0665711485642551E-002   0.0000000000000000     
   5.3201769540708821E-002   6.5775783022668621E-002   0.0000000000000000     
   5.4783480511289860E-002   7.1187350227642401E-002   0.0000000000000000     
   5.6410772510195183E-002   7.6900413100563864E-002   0.0000000000000000     
   5.8083645537424788E-002   8.2914971641433063E-002   0.0000000000000000     
   7.7692999720594833E-002   8.5823707766437551E-002   0.0000000000000000     
   8.0494222456281711E-002   9.1908031664527864E-002   0.0000000000000000     
   8.3208271727882921E-002   9.8179795535635536E-002   0.0000000000000000     
   8.5835147535398434E-002  0.10463899937976055        0.0000000000000000     
   8.8374849878828279E-002  0.11128564319690293        0.0000000000000000     
   7.1665638583475827E-002   8.4925757620669284E-002   0.0000000000000000     
   7.4349940097217654E-002   9.1079527535945129E-002   0.0000000000000000     
   7.6932568115096508E-002   9.7405519925130940E-002   0.0000000000000000     
   7.9413522637112405E-002  0.10390373478822675        0.0000000000000000     
   8.1792803663265357E-002  0.11057417212523253        0.0000000000000000     
   6.6388292507241153E-002   8.4141651551245783E-002   0.0000000000000000     
   6.8847884331962844E-002   9.0345739755724908E-002   0.0000000000000000     
   7.1212546062264903E-002   9.6713083013607357E-002   0.0000000000000000     
   7.3482277698147344E-002  0.10324368132489309        0.0000000000000000     
   7.5657079239610167E-002  0.10993753468958214        0.0000000000000000     
   6.1860961491890812E-002   8.3471389558167033E-002   0.0000000000000000     
   6.3988055160517282E-002   8.9706668323867242E-002   0.0000000000000000     
   6.6048205569388091E-002   9.6102484801064772E-002   0.0000000000000000     
   6.8041412718503211E-002  0.10265883898975961        0.0000000000000000     
   6.9967676607862697E-002  0.10937573088995177        0.0000000000000000     
   5.8083645537424788E-002   8.2914971641433063E-002   0.0000000000000000     
   5.9770452582880988E-002   8.9162313240372104E-002   0.0000000000000000     
   6.1439546636466086E-002   9.5573725287503186E-002   0.0000000000000000     
   6.3090927698180074E-002  0.10214920778282628        0.0000000000000000     
   6.4724595768022947E-002  0.10888876072634142        0.0000000000000000     
   8.8374849878828279E-002  0.11128564319690293        0.0000000000000000     
   9.0821291052501529E-002  0.11809903908768371        0.0000000000000000     
   9.3168383350747258E-002  0.12505849915272396        0.0000000000000000     
   9.5416126773565466E-002  0.13216402339202366        0.0000000000000000     
   9.7564521320956166E-002  0.13941561180558285        0.0000000000000000     
   8.1792803663265357E-002  0.11057417212523253        0.0000000000000000     
   8.4076344457475971E-002  0.11740578489223966        0.0000000000000000     
   8.6270078283664786E-002  0.12438752604533952        0.0000000000000000     
   8.8374005141831843E-002  0.13151939558453213        0.0000000000000000     
   9.0388125031977129E-002  0.13880139350981743        0.0000000000000000     
   7.5657079239610167E-002  0.10993753468958214        0.0000000000000000     
   7.7745440895688619E-002  0.11678888945879938        0.0000000000000000     
   7.9755852875417907E-002  0.12379199198366979        0.0000000000000000     
   8.1688315178798016E-002  0.13094684226419331        0.0000000000000000     
   8.3542827805828973E-002  0.13825344030036996        0.0000000000000000     
   6.9967676607862697E-002  0.10937573088995177        0.0000000000000000     
   7.1828580367139516E-002  0.11624835278736292        0.0000000000000000     
   7.3625707126006606E-002  0.12327189696771475        0.0000000000000000     
   7.5359056884464010E-002  0.13044636343100727        0.0000000000000000     
   7.7028629642511753E-002  0.13777175217724044        0.0000000000000000     
   6.4724595768022947E-002  0.10888876072634142        0.0000000000000000     
   6.6325762871828606E-002  0.11578417487793025        0.0000000000000000     
   6.7879641035430899E-002  0.12282724099747443        0.0000000000000000     
   6.9386230258829826E-002  0.13001795908497391        0.0000000000000000     
   7.0845530542025401E-002  0.13735632914042878        0.0000000000000000     
   9.7564521320956166E-002  0.13941561180558285        0.0000000000000000     
   9.9608199083394577E-002  0.14679169666484918        0.0000000000000000     
  0.10154179215135598       0.15427071024127037        0.0000000000000000     
  0.10336530052484033       0.16185265253484643        0.0000000000000000     
  0.10507872420384767       0.16953752354557733        0.0000000000000000     
   9.0388125031977129E-002  0.13880139350981743        0.0000000000000000     
   9.2306615333124967E-002  0.14620914170812827        0.0000000000000000     
   9.4123653424299708E-002  0.15371826206639744        0.0000000000000000     
   9.5839239305501339E-002  0.16132875458462492        0.0000000000000000     
   9.7453372976729902E-002  0.16904061926281072        0.0000000000000000     
   8.3542827805828973E-002  0.13825344030036996        0.0000000000000000     
   8.5312034233355691E-002  0.14568673249722183        0.0000000000000000     
   8.6988577938223122E-002  0.15322166525977102        0.0000000000000000     
   8.8572458920431238E-002  0.16085823858801751        0.0000000000000000     
   9.0063677179980067E-002  0.16859645248196126        0.0000000000000000     
   7.7028629642511753E-002  0.13777175217724044        0.0000000000000000     
   7.8624455784086777E-002  0.14522446903212982        0.0000000000000000     
   8.0136565693126216E-002  0.15278091982139105        0.0000000000000000     
   8.1564959369630027E-002  0.16044110454502411        0.0000000000000000     
   8.2909636813598198E-002  0.16820502320302899        0.0000000000000000     
   7.0845530542025401E-002  0.13735632914042878        0.0000000000000000     
   7.2243879985318254E-002  0.14482235131285223        0.0000000000000000     
   7.3567616689009019E-002  0.15239602575125757        0.0000000000000000     
   7.4816740653097680E-002  0.16007735245564478        0.0000000000000000     
   7.5991251877584279E-002  0.16786633142601382        0.0000000000000000     
  0.10507872420384767       0.16953752354557733        0.0000000000000000     
  0.10669025752422515       0.17732336732718576        0.0000000000000000     
  0.10820809482181984       0.18520822793339434        0.0000000000000000     
  0.10963223609663181       0.19319210536420306        0.0000000000000000     
  0.11096268134866101       0.20127499961961193        0.0000000000000000     
   9.7453372976729902E-002  0.16904061926281072        0.0000000000000000     
   9.8968638144788249E-002  0.17685381423646504        0.0000000000000000     
  0.10038761851647934       0.18476829764109806        0.0000000000000000     
  0.10171031409180317       0.19278406947670973        0.0000000000000000     
  0.10293672487075974       0.20090112974330016        0.0000000000000000     
   9.0063677179980067E-002  0.16859645248196126        0.0000000000000000     
   9.1462054182971389E-002  0.17643649965572550        0.0000000000000000     
   9.2767411395507093E-002  0.18437857282343328        0.0000000000000000     
   9.3979748817587097E-002  0.19242267198508464        0.0000000000000000     
   9.5099066449211442E-002  0.20056879714067957        0.0000000000000000     
   8.2909636813598198E-002  0.16820502320302899        0.0000000000000000     
   8.4170505638774581E-002  0.17607142358496711        0.0000000000000000     
   8.5347473458903034E-002  0.18403905348040009        0.0000000000000000     
   8.6440540273983568E-002  0.19210791288932771        0.0000000000000000     
   8.7449706084016157E-002  0.20027800181175018        0.0000000000000000     
   7.5991251877584279E-002  0.16786633142601382        0.0000000000000000     
   7.7093992512197784E-002  0.17575858602418998        0.0000000000000000     
   7.8127804706667206E-002  0.18374973961199836        0.0000000000000000     
   7.9092688460992544E-002  0.19183979218943903        0.0000000000000000     
   7.9988643775173840E-002  0.20002874375651197        0.0000000000000000     
  0.11096268134866101       0.20127499961961193        0.0000000000000000     
  0.11220448727302079       0.20945014237462617        0.0000000000000000     
  0.11336271056482447       0.21771076530425101        0.0000000000000000     
  0.11443735122407202       0.22605686840848646        0.0000000000000000     
  0.11542840925076346       0.23448845168733248        0.0000000000000000     
  0.10293672487075974       0.20090112974330016        0.0000000000000000     
  0.10407605564931934       0.20910842146340100        0.0000000000000000     
  0.10513751122345223       0.21739488765954404        0.0000000000000000     
  0.10612109159315847       0.22576052833172927        0.0000000000000000     
  0.10702679675843801       0.23420534347995670        0.0000000000000000     
   9.5099066449211442E-002  0.20056879714067957        0.0000000000000000     
   9.6135031820057643E-002  0.20880371935978120        0.0000000000000000     
   9.7097312459803187E-002  0.21711420971195255        0.0000000000000000     
   9.7985908368448033E-002  0.22550026819719371        0.0000000000000000     
   9.8800819545992249E-002  0.23396189481550470        0.0000000000000000     
   8.7449706084016157E-002  0.20027800181175018        0.0000000000000000     
   8.8381415785235742E-002  0.20853603606376667        0.0000000000000000     
   8.9242114273877279E-002  0.21686873146147656        0.0000000000000000     
   9.0031801549940740E-002  0.22527608800487980        0.0000000000000000     
   9.0750477613426167E-002  0.23375810569397643        0.0000000000000000     
   7.9988643775173840E-002  0.20002874375651197        0.0000000000000000     
   8.0815207544853621E-002  0.20830537157535753        0.0000000000000000     
   8.1571916665674538E-002  0.21665845290811603        0.0000000000000000     
   8.2258771137636577E-002  0.22508798775478750        0.0000000000000000     
   8.2875770960739739E-002  0.23359397611537192        0.0000000000000000     
  0.11542840925076346       0.23448845168733248        0.0000000000000000     
  0.11636766903096445       0.24301915915371031        0.0000000000000000     
  0.11728691495074066       0.25166263482054119        0.0000000000000000     
  0.11818614701009207       0.26041887868782504        0.0000000000000000     
  0.11906536520901870       0.26928789075556203        0.0000000000000000     
  0.10702679675843801       0.23420534347995670        0.0000000000000000     
  0.10786140813083497       0.24275119762531366        0.0000000000000000     
  0.10863170712189341       0.25141995528888755        0.0000000000000000     
  0.10933769373161334       0.26021161647067831        0.0000000000000000     
  0.10997936795999474       0.26912618117068604        0.0000000000000000     
   9.8800819545992249E-002  0.23396189481550470        0.0000000000000000     
   9.9533170103423857E-002  0.24252471428912420        0.0000000000000000     
  0.10017408415173093       0.25121435134029113        0.0000000000000000     
  0.10072356169091345       0.26003080596900552        0.0000000000000000     
  0.10118160272097147       0.26897407817526736        0.0000000000000000     
   9.0750477613426167E-002  0.23375810569397643        0.0000000000000000     
   9.1382954948731110E-002  0.24233970914514197        0.0000000000000000     
   9.1914046040253189E-002  0.25104582297475203        0.0000000000000000     
   9.2343750887992460E-002  0.25987644718280678        0.0000000000000000     
   9.2672069491948825E-002  0.26883158176930594        0.0000000000000000     
   8.2875770960739739E-002  0.23359397611537192        0.0000000000000000     
   8.3410762666756733E-002  0.24219618219336692        0.0000000000000000     
   8.3851592787460266E-002  0.25091437019227031        0.0000000000000000     
   8.4198261322850285E-002  0.25974854011208187        0.0000000000000000     
   8.4450768272926843E-002  0.26869869195280183        0.0000000000000000     
  0.11906536520901870       0.26928789075556203        0.0000000000000000     
  0.11986522365371080       0.27843543522339342        0.0000000000000000     
  0.12052637645035864       0.28802727629096075        0.0000000000000000     
  0.12104882359896223       0.29806341395826402        0.0000000000000000     
  0.12143256509952154       0.30854384822530329        0.0000000000000000     
  0.10997936795999474       0.26912618117068604        0.0000000000000000     
  0.11053817150819864       0.27829640862007682        0.0000000000000000     
  0.11099554607738601       0.28785505805001710        0.0000000000000000     
  0.11135149166755684       0.29780212946050655        0.0000000000000000     
  0.11160600827871113       0.30813762285154545        0.0000000000000000     
  0.10118160272097147       0.26897407817526736        0.0000000000000000     
  0.10155960804799588       0.27814267713137258        0.0000000000000000     
  0.10186897847807770       0.28763511200961711        0.0000000000000000     
  0.10210971401121686       0.29745138281000116        0.0000000000000000     
  0.10228181464741341       0.30759148953252452        0.0000000000000000     
   9.2672069491948825E-002  0.26883158176930594        0.0000000000000000     
   9.2929533273102521E-002  0.27797424075728039        0.0000000000000000     
   9.3146673652433662E-002  0.28736743816976101        0.0000000000000000     
   9.3323490629942288E-002  0.29701117400674770        0.0000000000000000     
   9.3459984205628385E-002  0.30690544826824045        0.0000000000000000     
   8.4450768272926843E-002  0.26869869195280183        0.0000000000000000     
   8.4647947183518535E-002  0.27779109949780056        0.0000000000000000     
   8.4828631600453952E-002  0.28705203653044875        0.0000000000000000     
   8.4992821523733122E-002  0.29648150305074628        0.0000000000000000     
   8.5140516953356032E-002  0.30607949905869319        0.0000000000000000     
   5.1665639598452079E-002   6.0665711485642551E-002   0.0000000000000000     
   5.3201769540708821E-002   6.5775783022668621E-002   0.0000000000000000     
   5.4783480511289860E-002   7.1187350227642401E-002   0.0000000000000000     
   5.6410772510195183E-002   7.6900413100563864E-002   0.0000000000000000     
   5.8083645537424788E-002   8.2914971641433063E-002   0.0000000000000000     
   5.0527559725121324E-002   5.9612502944585713E-002   0.0000000000000000     
   5.1186679204373739E-002   6.4960685489724598E-002   0.0000000000000000     
   5.2020255765177575E-002   7.0543381511772252E-002   0.0000000000000000     
   5.3028289407532854E-002   7.6360591010728673E-002   0.0000000000000000     
   5.4210780131439561E-002   8.2412313986593877E-002   0.0000000000000000     
   4.6996065078421308E-002   5.8700301154107522E-002   0.0000000000000000     
   4.7266311840433388E-002   6.4215382812398608E-002   0.0000000000000000     
   4.7756516708289121E-002   6.9920915302677647E-002   0.0000000000000000     
   4.8466679681988513E-002   7.5816898624944645E-002   0.0000000000000000     
   4.9396800761531565E-002   8.1903332779199561E-002   0.0000000000000000     
   4.1071155658352024E-002   5.7929106114207950E-002   0.0000000000000000     
   4.1440667448887754E-002   6.3539874990690678E-002   0.0000000000000000     
   4.1992263340624482E-002   6.9319951600358615E-002   0.0000000000000000     
   4.2725943333562159E-002   7.5269335943211724E-002   0.0000000000000000     
   4.3641707427700814E-002   8.1388028019250075E-002   0.0000000000000000     
   3.2752831464913465E-002   5.7298917824887032E-002   0.0000000000000000     
   3.3709746029736871E-002   6.2934162024600795E-002   0.0000000000000000     
   3.4727495662183638E-002   6.8740490404815127E-002   0.0000000000000000     
   3.5806080362253787E-002   7.4717902965530006E-002   0.0000000000000000     
   3.6945500129947302E-002   8.0866399706745445E-002   0.0000000000000000     
   5.8083645537424788E-002   8.2914971641433063E-002   0.0000000000000000     
   5.9770452582880988E-002   8.9162313240372104E-002   0.0000000000000000     
   6.1439546636466086E-002   9.5573725287503186E-002   0.0000000000000000     
   6.3090927698180074E-002  0.10214920778282628        0.0000000000000000     
   6.4724595768022947E-002  0.10888876072634142        0.0000000000000000     
   5.4210780131439561E-002   8.2412313986593877E-002   0.0000000000000000     
   5.5494236560621919E-002   8.8666073294884296E-002   0.0000000000000000     
   5.6805167318804181E-002   9.5089391791116348E-002   0.0000000000000000     
   5.8143572405986360E-002  0.10168226947529008        0.0000000000000000     
   5.9509451822168422E-002  0.10844470634740544        0.0000000000000000     
   4.9396800761531565E-002   8.1903332779199561E-002   0.0000000000000000     
   5.0458567055308039E-002   8.8171347277048645E-002   0.0000000000000000     
   5.1563665671707691E-002   9.4612071630098118E-002   0.0000000000000000     
   5.2712096610730542E-002  0.10122550583834797        0.0000000000000000     
   5.3903859872376572E-002  0.10801164990179822        0.0000000000000000     
   4.3641707427700814E-002   8.1388028019250075E-002   0.0000000000000000     
   4.4663444066939333E-002   8.7678135186865125E-002   0.0000000000000000     
   4.5715041695176609E-002   9.4141764804448441E-002   0.0000000000000000     
   4.6796500312412642E-002  0.10077891687199997        0.0000000000000000     
   4.7907819918647433E-002  0.10758959138951973        0.0000000000000000     
   3.6945500129947302E-002   8.0866399706745445E-002   0.0000000000000000     
   3.8108867595515808E-002   8.7186437024333791E-002   0.0000000000000000     
   3.9259295389210934E-002   9.3678471314167316E-002   0.0000000000000000     
   4.0396783511032652E-002  0.10034250257624606        0.0000000000000000     
   4.1521331960980998E-002  0.10717853081056999        0.0000000000000000     
   6.4724595768022947E-002  0.10888876072634142        0.0000000000000000     
   6.6325762871828606E-002  0.11578417487793025        0.0000000000000000     
   6.7879641035430899E-002  0.12282724099747443        0.0000000000000000     
   6.9386230258829826E-002  0.13001795908497391        0.0000000000000000     
   7.0845530542025401E-002  0.13735632914042878        0.0000000000000000     
   5.9509451822168422E-002  0.10844470634740544        0.0000000000000000     
   6.0872312435385899E-002  0.11536369576977554        0.0000000000000000     
   6.2201661113674298E-002  0.12242623110471351        0.0000000000000000     
   6.3497497857033638E-002  0.12963231235221931        0.0000000000000000     
   6.4759822665463915E-002  0.13698193951229293        0.0000000000000000     
   5.3903859872376572E-002  0.10801164990179822        0.0000000000000000     
   5.5103553083441337E-002  0.11495425550217309        0.0000000000000000     
   5.6275773870720365E-002  0.12203707432119680        0.0000000000000000     
   5.7420522234213671E-002  0.12926010635886936        0.0000000000000000     
   5.8537798173921227E-002  0.13662335161519079        0.0000000000000000     
   4.7907819918647433E-002  0.10758959138951973        0.0000000000000000     
   4.9019484815994947E-002  0.11455585407512280        0.0000000000000000     
   5.0101979306569080E-002  0.12165977064692426        0.0000000000000000     
   5.1155303390369875E-002  0.12890134110492407        0.0000000000000000     
   5.2179457067397315E-002  0.13628056544912226        0.0000000000000000     
   4.1521331960980998E-002  0.10717853081056999        0.0000000000000000     
   4.2620107633046675E-002  0.11416849148862473        0.0000000000000000     
   4.3680277421220444E-002  0.12129432008189589        0.0000000000000000     
   4.4701841325502277E-002  0.12855601659038343        0.0000000000000000     
   4.5684799345892202E-002  0.13595358101408742        0.0000000000000000     
   7.0845530542025401E-002  0.13735632914042878        0.0000000000000000     
   7.2243879985318254E-002  0.14482235131285223        0.0000000000000000     
   7.3567616689009019E-002  0.15239602575125757        0.0000000000000000     
   7.4816740653097680E-002  0.16007735245564478        0.0000000000000000     
   7.5991251877584279E-002  0.16786633142601382        0.0000000000000000     
   6.4759822665463915E-002  0.13698193951229293        0.0000000000000000     
   6.5972106676718434E-002  0.14445946229451448        0.0000000000000000     
   6.7117821028550503E-002  0.15204923040846394        0.0000000000000000     
   6.8196965720960151E-002  0.15975124385414127        0.0000000000000000     
   6.9209540753947335E-002  0.16756550263154660        0.0000000000000000     
   5.8537798173921227E-002  0.13662335161519079        0.0000000000000000     
   5.9610935697955683E-002  0.14411488493224187        0.0000000000000000     
   6.0623268814429698E-002  0.15172278115210341        0.0000000000000000     
   6.1574797523343265E-002  0.15944704027477552        0.0000000000000000     
   6.2465521824696377E-002  0.16728766230025810        0.0000000000000000     
   5.2179457067397315E-002  0.13628056544912226        0.0000000000000000     
   5.3160367049030016E-002  0.14378861922603442        0.0000000000000000     
   5.4083960046646597E-002  0.15141667798217615        0.0000000000000000     
   5.4950236060247057E-002  0.15916474171754738        0.0000000000000000     
   5.5759195089831383E-002  0.16703281043214824        0.0000000000000000     
   4.5684799345892202E-002  0.13595358101408742        0.0000000000000000     
   4.6620400729941426E-002  0.14348066517589217        0.0000000000000000     
   4.7499894725201192E-002  0.15113092089868202        0.0000000000000000     
   4.8323281331671512E-002  0.15890434818245699        0.0000000000000000     
   4.9090560549352374E-002  0.16680094702721712        0.0000000000000000     
   7.5991251877584279E-002  0.16786633142601382        0.0000000000000000     
   7.7093992512197784E-002  0.17575858602418998        0.0000000000000000     
   7.8127804706667206E-002  0.18374973961199836        0.0000000000000000     
   7.9092688460992544E-002  0.19183979218943903        0.0000000000000000     
   7.9988643775173840E-002  0.20002874375651197        0.0000000000000000     
   6.9209540753947335E-002  0.16756550263154660        0.0000000000000000     
   7.0161481657832245E-002  0.17548379723883104        0.0000000000000000     
   7.1058723962934972E-002  0.18349791817414590        0.0000000000000000     
   7.1901267669255600E-002  0.19160786543749117        0.0000000000000000     
   7.2689112776794032E-002  0.19981363902886676        0.0000000000000000     
   6.2465521824696377E-002  0.16728766230025810        0.0000000000000000     
   6.3301939930269155E-002  0.17523286749432757        0.0000000000000000     
   6.4090550051841735E-002  0.18327087612276044        0.0000000000000000     
   6.4831352189414132E-002  0.19140168818555672        0.0000000000000000     
   6.5524346342986317E-002  0.19962530368271636        0.0000000000000000     
   5.5759195089831383E-002  0.16703281043214824        0.0000000000000000     
   5.6515367329508542E-002  0.17500579679067949        0.0000000000000000     
   5.7223282973387482E-002  0.18306861345784201        0.0000000000000000     
   5.7882942021468195E-002  0.19122126043363571        0.0000000000000000     
   5.8494344473750702E-002  0.19946373771806072        0.0000000000000000     
   4.9090560549352374E-002  0.16680094702721712        0.0000000000000000     
   4.9801763855550386E-002  0.17480258512788685        0.0000000000000000     
   5.0456922727572198E-002  0.18289113017939052        0.0000000000000000     
   5.1056037165417775E-002  0.19106658218172823        0.0000000000000000     
   5.1599107169087138E-002  0.19932894113489993        0.0000000000000000     
   7.9988643775173840E-002  0.20002874375651197        0.0000000000000000     
   8.0815207544853621E-002  0.20830537157535753        0.0000000000000000     
   8.1571916665674538E-002  0.21665845290811603        0.0000000000000000     
   8.2258771137636577E-002  0.22508798775478750        0.0000000000000000     
   8.2875770960739739E-002  0.23359397611537192        0.0000000000000000     
   7.2689112776794032E-002  0.19981363902886676        0.0000000000000000     
   7.3415213640866894E-002  0.20810668097957435        0.0000000000000000     
   7.4072524616790675E-002  0.21647843332091549        0.0000000000000000     
   7.4661045704565401E-002  0.22492889605289013        0.0000000000000000     
   7.5180776904191074E-002  0.23345806917549830        0.0000000000000000     
   6.5524346342986317E-002  0.19962530368271636        0.0000000000000000     
   6.6160240615231139E-002  0.20793491936143774        0.0000000000000000     
   6.6729743108821390E-002  0.21632373196891924        0.0000000000000000     
   6.7232853823757072E-002  0.22479174150516087        0.0000000000000000     
   6.7669572760038210E-002  0.23333894797016264        0.0000000000000000     
   5.8494344473750702E-002  0.19946373771806072        0.0000000000000000     
   5.9050288467946389E-002  0.20779008672094770        0.0000000000000000     
   5.9543572141766685E-002  0.21619434885212743        0.0000000000000000     
   5.9974195495211595E-002  0.22467652411159983        0.0000000000000000     
   6.0342158528281127E-002  0.23323661249936500        0.0000000000000000     
   5.1599107169087138E-002  0.19932894113489993        0.0000000000000000     
   5.2085357199012625E-002  0.20767218305810428        0.0000000000000000     
   5.2514011715626564E-002  0.21609028397054000        0.0000000000000000     
   5.2885070718928964E-002  0.22458324387220696        0.0000000000000000     
   5.3198534208919832E-002  0.23315106276310532        0.0000000000000000     
   8.2875770960739739E-002  0.23359397611537192        0.0000000000000000     
   8.3410762666756733E-002  0.24219618219336692        0.0000000000000000     
   8.3851592787460266E-002  0.25091437019227031        0.0000000000000000     
   8.4198261322850285E-002  0.25974854011208187        0.0000000000000000     
   8.4450768272926843E-002  0.26869869195280183        0.0000000000000000     
   7.5180776904191074E-002  0.23345806917549830        0.0000000000000000     
   7.5626545169166531E-002  0.24207833003854207        0.0000000000000000     
   7.5993177452990612E-002  0.25080205599182326        0.0000000000000000     
   7.6280673755663303E-002  0.25962924703534207        0.0000000000000000     
   7.6489034077184617E-002  0.26855990316909839        0.0000000000000000     
   6.7669572760038210E-002  0.23333894797016264        0.0000000000000000     
   6.8040254367626271E-002  0.24197034928541006        0.0000000000000000     
   6.8345253096482816E-002  0.25069094337238862        0.0000000000000000     
   6.8584568946607805E-002  0.25950073023109832        0.0000000000000000     
   6.8758201918001277E-002  0.26839970986153916        0.0000000000000000     
   6.0342158528281127E-002  0.23323661249936500        0.0000000000000000     
   6.0651890262135973E-002  0.24187223993397108        0.0000000000000000     
   6.0907819717936872E-002  0.25058103233396628        0.0000000000000000     
   6.1109946895683817E-002  0.25936298969935062        0.0000000000000000     
   6.1258271795376802E-002  0.26821811203012402        0.0000000000000000     
   5.3198534208919832E-002  0.23315106276310532        0.0000000000000000     
   5.3461452852695622E-002  0.24178400198422503        0.0000000000000000     
   5.3680877317352771E-002  0.25047232287655624        0.0000000000000000     
   5.3856807602891299E-002  0.25921602544009886        0.0000000000000000     
   5.3989243709311206E-002  0.26801510967485304        0.0000000000000000     
   8.4450768272926843E-002  0.26869869195280183        0.0000000000000000     
   8.4647947183518535E-002  0.27779109949780056        0.0000000000000000     
   8.4828631600453952E-002  0.28705203653044875        0.0000000000000000     
   8.4992821523733122E-002  0.29648150305074628        0.0000000000000000     
   8.5140516953356032E-002  0.30607949905869319        0.0000000000000000     
   7.6489034077184617E-002  0.26855990316909839        0.0000000000000000     
   7.6658739360650721E-002  0.27758754167584981        0.0000000000000000     
   7.6830270549157767E-002  0.28670567983835366        0.0000000000000000     
   7.7003627642705755E-002  0.29591431765661008        0.0000000000000000     
   7.7178810641294684E-002  0.30521345513061904        0.0000000000000000     
   6.8758201918001277E-002  0.26839970986153916        0.0000000000000000     
   6.8905799385905880E-002  0.27735785561434489        0.0000000000000000     
   6.9067008725564330E-002  0.28634514084014934        0.0000000000000000     
   6.9241829936976584E-002  0.29536156553895238        0.0000000000000000     
   6.9430263020142685E-002  0.30440712971075407        0.0000000000000000     
   6.1258271795376802E-002  0.26821811203012402        0.0000000000000000     
   6.1389127259284013E-002  0.27710204131328592        0.0000000000000000     
   6.1538846129673620E-002  0.28597041953583557        0.0000000000000000     
   6.1707428406545625E-002  0.29482324669777310        0.0000000000000000     
   6.1894874089900034E-002  0.30366052279909833        0.0000000000000000     
   5.3989243709311206E-002  0.26801510967485304        0.0000000000000000     
   5.4108722980785118E-002  0.27682009877267283        0.0000000000000000     
   5.4245782761485666E-002  0.28558151592541259        0.0000000000000000     
   5.4400423051412877E-002  0.29429936113307226        0.0000000000000000     
   5.4572643850566718E-002  0.30297363439565184        0.0000000000000000     
   3.2752831464913465E-002   5.7298917824887032E-002   0.0000000000000000     
   3.3709746029736871E-002   6.2934162024600795E-002   0.0000000000000000     
   3.4727495662183638E-002   6.8740490404815127E-002   0.0000000000000000     
   3.5806080362253787E-002   7.4717902965530006E-002   0.0000000000000000     
   3.6945500129947302E-002   8.0866399706745445E-002   0.0000000000000000     
   2.4458043834725982E-002   5.6783982379651418E-002   0.0000000000000000     
   2.6022566595847316E-002   6.2410357487280611E-002   0.0000000000000000     
   2.7522294398410328E-002   6.8219143878930216E-002   0.0000000000000000     
   2.8957227242415024E-002   7.4210341554600212E-002   0.0000000000000000     
   3.0327365127861397E-002   8.0383950514290578E-002   0.0000000000000000     
   1.8603744104409903E-002   5.6358545872007788E-002   0.0000000000000000     
   2.0328148160085720E-002   6.1980574951881806E-002   0.0000000000000000     
   2.1936740274748252E-002   6.7792524185586914E-002   0.0000000000000000     
   2.3429520448397509E-002   7.3794393573123077E-002   0.0000000000000000     
   2.4806488681033478E-002   7.9986183114490350E-002   0.0000000000000000     
   1.5189932273965236E-002   5.6022608301956135E-002   0.0000000000000000     
   1.6626490722452082E-002   6.1644814418404359E-002   0.0000000000000000     
   1.7970833291197415E-002   6.7460631324785206E-002   0.0000000000000000     
   1.9222959980201234E-002   7.3470059021098683E-002   0.0000000000000000     
   2.0382870789463537E-002   7.9673097507344789E-002   0.0000000000000000     
   1.4216608343391973E-002   5.5776169669496473E-002   0.0000000000000000     
   1.4917594282946400E-002   6.1403075886848263E-002   0.0000000000000000     
   1.5624573447757809E-002   6.7223465296525092E-002   0.0000000000000000     
   1.6337545837826199E-002   7.3237337898526961E-002   0.0000000000000000     
   1.7056511453151568E-002   7.9444693692853868E-002   0.0000000000000000     
   3.6945500129947302E-002   8.0866399706745445E-002   0.0000000000000000     
   3.8108867595515808E-002   8.7186437024333791E-002   0.0000000000000000     
   3.9259295389210934E-002   9.3678471314167316E-002   0.0000000000000000     
   4.0396783511032652E-002  0.10034250257624606        0.0000000000000000     
   4.1521331960980998E-002  0.10717853081056999        0.0000000000000000     
   3.0327365127861397E-002   8.0383950514290578E-002   0.0000000000000000     
   3.1636816570316459E-002   8.6733675007382105E-002   0.0000000000000000     
   3.2889690085347194E-002   9.3253219283255487E-002   0.0000000000000000     
   3.4085985672953602E-002   9.9942583341910751E-002   0.0000000000000000     
   3.5225703333135697E-002  0.10680176718334787        0.0000000000000000     
   2.4806488681033478E-002   7.9986183114490350E-002   0.0000000000000000     
   2.6089269920620259E-002   8.6357271353937573E-002   0.0000000000000000     
   2.7299489115121939E-002   9.2897036835713626E-002   0.0000000000000000     
   2.8437146264538513E-002   9.9605479559818508E-002   0.0000000000000000     
   2.9502241368869985E-002  0.10648259952625221        0.0000000000000000     
   2.0382870789463537E-002   7.9673097507344789E-002   0.0000000000000000     
   2.1466227646427215E-002   8.6057226064000264E-002   0.0000000000000000     
   2.2488692478535161E-002   9.2609923971541774E-002   0.0000000000000000     
   2.3450265285787381E-002   9.9331191229969390E-002   0.0000000000000000     
   2.4350946068183860E-002  0.10622102783928304        0.0000000000000000     
   1.7056511453151568E-002   7.9444693692853868E-002   0.0000000000000000     
   1.7767689747737327E-002   8.5833539137570108E-002   0.0000000000000000     
   1.8457300175586871E-002   9.2391880690739905E-002   0.0000000000000000     
   1.9125342736700204E-002   9.9119718352363329E-002   0.0000000000000000     
   1.9771817431077324E-002  0.10601705212244034        0.0000000000000000     
   4.1521331960980998E-002  0.10717853081056999        0.0000000000000000     
   4.2620107633046675E-002  0.11416849148862473        0.0000000000000000     
   4.3680277421220444E-002  0.12129432008189589        0.0000000000000000     
   4.4701841325502277E-002  0.12855601659038343        0.0000000000000000     
   4.5684799345892202E-002  0.13595358101408742        0.0000000000000000     
   3.5225703333135697E-002  0.10680176718334787        0.0000000000000000     
   3.6313167819668798E-002  0.11381330576272589        0.0000000000000000     
   3.7352703886328227E-002  0.12095973403520380        0.0000000000000000     
   3.8344311533113996E-002  0.12824105200078165        0.0000000000000000     
   3.9287990760026086E-002  0.13565725965945938        0.0000000000000000     
   2.9502241368869985E-002  0.10648259952625221        0.0000000000000000     
   3.0506411660933506E-002  0.11351143491747326        0.0000000000000000     
   3.1461294373546216E-002  0.12067502391594011        0.0000000000000000     
   3.2366889506708123E-002  0.12797336652165278        0.0000000000000000     
   3.3223197060419214E-002  0.13540646273461132        0.0000000000000000     
   2.4350946068183860E-002  0.10622102783928304        0.0000000000000000     
   2.5199839156840806E-002  0.11326287895286684        0.0000000000000000     
   2.6006048882874409E-002  0.12044018972410479        0.0000000000000000     
   2.6769575246284667E-002  0.12775296015299689        0.0000000000000000     
   2.7490418247071581E-002  0.13520119023954319        0.0000000000000000     
   1.9771817431077324E-002  0.10601705212244034        0.0000000000000000     
   2.0393450307390700E-002  0.11306763786890660        0.0000000000000000     
   2.0986967414312802E-002  0.12025523145969783        0.0000000000000000     
   2.1552368751843631E-002  0.12757983289481395        0.0000000000000000     
   2.2089654319983179E-002  0.13504144217425504        0.0000000000000000     
   4.5684799345892202E-002  0.13595358101408742        0.0000000000000000     
   4.6620400729941426E-002  0.14348066517589217        0.0000000000000000     
   4.7499894725201192E-002  0.15113092089868202        0.0000000000000000     
   4.8323281331671512E-002  0.15890434818245699        0.0000000000000000     
   4.9090560549352374E-002  0.16680094702721712        0.0000000000000000     
   3.9287990760026086E-002  0.13565725965945938        0.0000000000000000     
   4.0180404230366139E-002  0.14320363593463958        0.0000000000000000     
   4.1018214607435759E-002  0.15087545974972483        0.0000000000000000     
   4.1801421891234945E-002  0.15867273110471516        0.0000000000000000     
   4.2530026081763699E-002  0.16659544999961048        0.0000000000000000     
   3.3223197060419214E-002  0.13540646273461132        0.0000000000000000     
   3.4029745039980401E-002  0.14297014465510130        0.0000000000000000     
   3.4786061450692553E-002  0.15066024438340841        0.0000000000000000     
   3.5492146292555669E-002  0.15847676191953267        0.0000000000000000     
   3.6147999565569758E-002  0.16641969726347405        0.0000000000000000     
   2.7490418247071581E-002  0.13520119023954319        0.0000000000000000     
   2.8168423158784199E-002  0.14278019133727729        0.0000000000000000     
   2.8803435254971560E-002  0.15048527479973275        0.0000000000000000     
   2.9395454535633664E-002  0.15831644062690964        0.0000000000000000     
   2.9944481000770521E-002  0.16627368881880789        0.0000000000000000     
   2.2089654319983179E-002  0.13504144217425504        0.0000000000000000     
   2.2596438586777543E-002  0.14263377598116750        0.0000000000000000     
   2.3070336020272801E-002  0.15035055099869782        0.0000000000000000     
   2.3511346620468953E-002  0.15819176722684594        0.0000000000000000     
   2.3919470387365999E-002  0.16615742466561195        0.0000000000000000     
   4.9090560549352374E-002  0.16680094702721712        0.0000000000000000     
   4.9801763855550386E-002  0.17480258512788685        0.0000000000000000     
   5.0456922727572198E-002  0.18289113017939052        0.0000000000000000     
   5.1056037165417775E-002  0.19106658218172823        0.0000000000000000     
   5.1599107169087138E-002  0.19932894113489993        0.0000000000000000     
   4.2530026081763699E-002  0.16659544999961048        0.0000000000000000     
   4.3199661316102804E-002  0.17462320769533138        0.0000000000000000     
   4.3805961731333012E-002  0.18273559545279838        0.0000000000000000     
   4.4348927327454338E-002  0.19093261327201147        0.0000000000000000     
   4.4828558104466766E-002  0.19921426115297070        0.0000000000000000     
   3.6147999565569758E-002  0.16641969726347405        0.0000000000000000     
   3.6747591518873864E-002  0.17446763968239504        0.0000000000000000     
   3.7284892401607067E-002  0.18259917844345794        0.0000000000000000     
   3.7759902213769327E-002  0.19081431354666287        0.0000000000000000     
   3.8172620955360684E-002  0.19911304499200977        0.0000000000000000     
   2.9944481000770521E-002  0.16627368881880789        0.0000000000000000     
   3.0445554463863586E-002  0.17433588108907769        0.0000000000000000     
   3.0893714738394338E-002  0.18248187915136918        0.0000000000000000     
   3.1288961824362777E-002  0.19071168300568236        0.0000000000000000     
   3.1631295721768891E-002  0.19902529265201724        0.0000000000000000     
   2.3919470387365999E-002  0.16615742466561195        0.0000000000000000     
   2.4293550151071961E-002  0.17422793191537947        0.0000000000000000     
   2.4632428741694846E-002  0.18238369757653211        0.0000000000000000     
   2.4936106159234660E-002  0.19062472164906999        0.0000000000000000     
   2.5204582403691396E-002  0.19895100413299305        0.0000000000000000     
   5.1599107169087138E-002  0.19932894113489993        0.0000000000000000     
   5.2085357199012625E-002  0.20767218305810428        0.0000000000000000     
   5.2514011715626564E-002  0.21609028397054000        0.0000000000000000     
   5.2885070718928964E-002  0.22458324387220696        0.0000000000000000     
   5.3198534208919832E-002  0.23315106276310532        0.0000000000000000     
   4.4828558104466766E-002  0.19921426115297070        0.0000000000000000     
   4.5250711293584364E-002  0.20757365356774116        0.0000000000000000     
   4.5621244126021178E-002  0.21600390498838795        0.0000000000000000     
   4.5940156601777214E-002  0.22450501541491119        0.0000000000000000     
   4.6207448720852473E-002  0.23307698484731076        0.0000000000000000     
   3.8172620955360684E-002  0.19911304499200977        0.0000000000000000     
   3.8531615236816134E-002  0.20748694344469187        0.0000000000000000     
   3.8845451668570695E-002  0.21592757956990233        0.0000000000000000     
   3.9114130250624358E-002  0.22443495336764119        0.0000000000000000     
   3.9337650982977146E-002  0.23300906483790831        0.0000000000000000     
   3.1631295721768891E-002  0.19902529265201724        0.0000000000000000     
   3.1928069028707928E-002  0.20741205268895657        0.0000000000000000     
   3.2186634343275095E-002  0.21586130771508319        0.0000000000000000     
   3.2406991665470411E-002  0.22437305773039704        0.0000000000000000     
   3.2589140995293864E-002  0.23294730273489811        0.0000000000000000     
   2.5204582403691396E-002  0.19895100413299305        0.0000000000000000     
   2.5440072669259746E-002  0.20734898130053520        0.0000000000000000     
   2.5644792150134404E-002  0.21580508942393042        0.0000000000000000     
   2.5818740846315365E-002  0.22431932850317873        0.0000000000000000     
   2.5961918757802630E-002  0.23289169853828010        0.0000000000000000     
   5.3198534208919832E-002  0.23315106276310532        0.0000000000000000     
   5.3461452852695622E-002  0.24178400198422503        0.0000000000000000     
   5.3680877317352771E-002  0.25047232287655624        0.0000000000000000     
   5.3856807602891299E-002  0.25921602544009886        0.0000000000000000     
   5.3989243709311206E-002  0.26801510967485304        0.0000000000000000     
   4.6207448720852473E-002  0.23307698484731076        0.0000000000000000     
   4.6431606221705654E-002  0.24170344849155972        0.0000000000000000     
   4.6621114842795505E-002  0.25036804155363102        0.0000000000000000     
   4.6775974584121999E-002  0.25907076403352464        0.0000000000000000     
   4.6896185445685155E-002  0.26781161593124070        0.0000000000000000     
   3.9337650982977146E-002  0.23300906483790831        0.0000000000000000     
   3.9525014451566538E-002  0.24162839251136267        0.0000000000000000     
   3.9685221242330024E-002  0.25027141491866295        0.0000000000000000     
   3.9818271355267623E-002  0.25893813205980931        0.0000000000000000     
   3.9924164790379302E-002  0.26762854393480151        0.0000000000000000     
   3.2589140995293864E-002  0.23294730273489811        0.0000000000000000     
   3.2741677542278247E-002  0.24155883404363401        0.0000000000000000     
   3.2873196515956341E-002  0.25018244297165221        0.0000000000000000     
   3.2983697916328159E-002  0.25881812951895261        0.0000000000000000     
   3.3073181743393673E-002  0.26746589368553542        0.0000000000000000     
   2.5961918757802630E-002  0.23289169853828010        0.0000000000000000     
   2.6081595493840794E-002  0.24149477308837369        0.0000000000000000     
   2.6185040663674455E-002  0.25010112571259863        0.0000000000000000     
   2.6272254267303608E-002  0.25871075641095492        0.0000000000000000     
   2.6343236304728256E-002  0.26732366518344258        0.0000000000000000     
   5.3989243709311206E-002  0.26801510967485304        0.0000000000000000     
   5.4108722980785118E-002  0.27682009877267283        0.0000000000000000     
   5.4245782761485666E-002  0.28558151592541259        0.0000000000000000     
   5.4400423051412877E-002  0.29429936113307226        0.0000000000000000     
   5.4572643850566718E-002  0.30297363439565184        0.0000000000000000     
   4.6896185445685155E-002  0.26781161593124070        0.0000000000000000     
   4.7005851647979144E-002  0.27654037658589009        0.0000000000000000     
   4.7129077411498160E-002  0.28520682533658365        0.0000000000000000     
   4.7265862736242205E-002  0.29381096218332164        0.0000000000000000     
   4.7416207622211284E-002  0.30235278712610381        0.0000000000000000     
   3.9924164790379302E-002  0.26762854393480151        0.0000000000000000     
   4.0021778358436053E-002  0.27629122334632178        0.0000000000000000     
   4.0129988870208778E-002  0.28487474309705224        0.0000000000000000     
   4.0248796325697521E-002  0.29337910318699278        0.0000000000000000     
   4.0378200724902259E-002  0.30180430361614352        0.0000000000000000     
   3.3073181743393673E-002  0.26746589368553542        0.0000000000000000     
   3.3156503112155830E-002  0.27607263905396812        0.0000000000000000     
   3.3248517137617548E-002  0.28458526920681831        0.0000000000000000     
   3.3349223819778819E-002  0.29300378414408584        0.0000000000000000     
   3.3458623158639643E-002  0.30132818386577093        0.0000000000000000     
   2.6343236304728256E-002  0.26732366518344258        0.0000000000000000     
   2.6410025909138508E-002  0.27588462370882905        0.0000000000000000     
   2.6484662213724454E-002  0.28433840366588181        0.0000000000000000     
   2.6567145218486098E-002  0.29268500505460077        0.0000000000000000     
   2.6657474923423435E-002  0.30092442787498608        0.0000000000000000     
   1.4216608343391973E-002   5.5776169669496473E-002   0.0000000000000000     
   1.4917594282946400E-002   6.1403075886848263E-002   0.0000000000000000     
   1.5624573447757809E-002   6.7223465296525092E-002   0.0000000000000000     
   1.6337545837826199E-002   7.3237337898526961E-002   0.0000000000000000     
   1.7056511453151568E-002   7.9444693692853868E-002   0.0000000000000000     
   1.3513260336463788E-002   5.5599691651185335E-002   0.0000000000000000     
   1.3450857684943059E-002   6.1232689297507317E-002   0.0000000000000000     
   1.3495710402246333E-002   6.7057388010991689E-002   0.0000000000000000     
   1.3647818488373608E-002   7.3073787791638478E-002   0.0000000000000000     
   1.3907181943324883E-002   7.9281888639447656E-002   0.0000000000000000     
   1.0909376276954354E-002   5.5473635923579269E-002   0.0000000000000000     
   1.0475679771816451E-002   6.1110984590675252E-002   0.0000000000000000     
   1.0181993812479886E-002   6.6938761378370043E-002   0.0000000000000000     
   1.0028318398944663E-002   7.2956966286663691E-002   0.0000000000000000     
   1.0014653531210779E-002   7.9165599315556182E-002   0.0000000000000000     
   6.4049561648636660E-003   5.5398002486678276E-002   0.0000000000000000     
   5.9920605435665707E-003   6.1037961766352081E-002   0.0000000000000000     
   5.6834236784584716E-003   6.6867585398660209E-002   0.0000000000000000     
   5.4790455695393654E-003   7.2886873383602682E-002   0.0000000000000000     
   5.3789262168092572E-003   7.9095825721179458E-002   0.0000000000000000     
   1.9172684273538465E-013   5.5372791340482355E-002   0.0000000000000000     
   1.9342080020967600E-013   6.1013620824537811E-002   0.0000000000000000     
   1.8208286441112609E-013   6.6843860071862146E-002   0.0000000000000000     
   1.5771504111375401E-013   7.2863509082455369E-002   0.0000000000000000     
   1.2031651716593039E-013   7.9072567856317472E-002   0.0000000000000000     
   1.7056511453151568E-002   7.9444693692853868E-002   0.0000000000000000     
   1.7767689747737327E-002   8.5833539137570108E-002   0.0000000000000000     
   1.8457300175586871E-002   9.2391880690739905E-002   0.0000000000000000     
   1.9125342736700204E-002   9.9119718352363329E-002   0.0000000000000000     
   1.9771817431077324E-002  0.10601705212244034        0.0000000000000000     
   1.3907181943324883E-002   7.9281888639447656E-002   0.0000000000000000     
   1.4229994855305024E-002   8.5671219860970968E-002   0.0000000000000000     
   1.4572451312518898E-002   9.2231310762760157E-002   0.0000000000000000     
   1.4934551314966500E-002   9.8962161344815183E-002   0.0000000000000000     
   1.5316294862647836E-002  0.10586377160713607        0.0000000000000000     
   1.0014653531210779E-002   7.9165599315556182E-002   0.0000000000000000     
   1.0089481599884749E-002   8.5555277520526732E-002   0.0000000000000000     
   1.0201284995573087E-002   9.2116617957054600E-002   0.0000000000000000     
   1.0350063718275794E-002   9.8849620625139772E-002   0.0000000000000000     
   1.0535817767992870E-002  0.10575428552478228        0.0000000000000000     
   5.3789262168092572E-003   7.9095825721179458E-002   0.0000000000000000     
   5.3461499814764944E-003   8.5485712116237372E-002   0.0000000000000000     
   5.3438012247494348E-003   9.2047802273623247E-002   0.0000000000000000     
   5.3718799466280767E-003   9.8782096193337068E-002   0.0000000000000000     
   5.4303861471124201E-003  0.10568859387537886        0.0000000000000000     
   1.2031651716593039E-013   7.9072567856317472E-002   0.0000000000000000     
   8.0266305754750356E-014   8.5462523648102903E-002   0.0000000000000000     
   4.7945696891871226E-014   9.2024863712466126E-002   0.0000000000000000     
   2.3353199799305835E-014   9.8759588049407127E-002   0.0000000000000000     
   6.4891668427602411E-015  0.10566669665892589        0.0000000000000000     
   1.9771817431077324E-002  0.10601705212244034        0.0000000000000000     
   2.0393450307390700E-002  0.11306763786890660        0.0000000000000000     
   2.0986967414312802E-002  0.12025523145969783        0.0000000000000000     
   2.1552368751843631E-002  0.12757983289481395        0.0000000000000000     
   2.2089654319983179E-002  0.13504144217425504        0.0000000000000000     
   1.5316294862647836E-002  0.10586377160713607        0.0000000000000000     
   1.5701636896581515E-002  0.11292012718072818        0.0000000000000000     
   1.6074532357786150E-002  0.12011521369659678        0.0000000000000000     
   1.6434981246261741E-002  0.12744903115474193        0.0000000000000000     
   1.6782983562008288E-002  0.13492157955516351        0.0000000000000000     
   1.0535817767992870E-002  0.10575428552478228        0.0000000000000000     
   1.0738790708411584E-002  0.11281476240346708        0.0000000000000000     
   1.0939226103219207E-002  0.12001520100867917        0.0000000000000000     
   1.1137123952415735E-002  0.12735560134041859        0.0000000000000000     
   1.1332484256001174E-002  0.13483596339868531        0.0000000000000000     
   5.4303861471124201E-003  0.10568859387537886        0.0000000000000000     
   5.5049117428809047E-003  0.11275154353712329        0.0000000000000000     
   5.5810486506119687E-003  0.11995519339594501        0.0000000000000000     
   5.6587968703056112E-003  0.12729954345184408        0.0000000000000000     
   5.7381564019618348E-003  0.13478459370482043        0.0000000000000000     
   6.4891668427602411E-015  0.10566669665892589        0.0000000000000000     
  -1.0522832605275312E-014  0.11273047058169683        0.0000000000000000     
  -3.5563782821435019E-014  0.11993519085839428        0.0000000000000000     
  -6.8629618047572061E-014  0.12728085748901832        0.0000000000000000     
  -1.0972386194074701E-013  0.13476747047356885        0.0000000000000000     
   2.2089654319983179E-002  0.13504144217425504        0.0000000000000000     
   2.2596438586777543E-002  0.14263377598116750        0.0000000000000000     
   2.3070336020272801E-002  0.15035055099869782        0.0000000000000000     
   2.3511346620468953E-002  0.15819176722684594        0.0000000000000000     
   2.3919470387365999E-002  0.16615742466561195        0.0000000000000000     
   1.6782983562008288E-002  0.13492157955516351        0.0000000000000000     
   1.7113674237035317E-002  0.14252471040282888        0.0000000000000000     
   1.7422188203352361E-002  0.15025027520270526        0.0000000000000000     
   1.7708525460959419E-002  0.15809827395479253        0.0000000000000000     
   1.7972686009856492E-002  0.16606870665909082        0.0000000000000000     
   1.1332484256001174E-002  0.13483596339868531        0.0000000000000000     
   1.1520013022632409E-002  0.14244680641831836        0.0000000000000000     
   1.1694416260966340E-002  0.15017864963415664        0.0000000000000000     
   1.1855693971002963E-002  0.15803149304620023        0.0000000000000000     
   1.2003846152742276E-002  0.16600533665444908        0.0000000000000000     
   5.7381564019618348E-003  0.13478459370482043        0.0000000000000000     
   5.8154549435688171E-003  0.14240006402763583        0.0000000000000000     
   5.8870201931147297E-003  0.15013567429305205        0.0000000000000000     
   5.9528521505995803E-003  0.15799142450106901        0.0000000000000000     
   6.0129508160233639E-003  0.16596731465168682        0.0000000000000000     
  -1.0972386194074701E-013  0.13476747047356885        0.0000000000000000     
  -1.5546244847008950E-013  0.14238448323078143        0.0000000000000000     
  -2.0246250422711887E-013  0.15012134917939143        0.0000000000000000     
  -2.5072682103242927E-013  0.15797806831939895        0.0000000000000000     
  -3.0025157707336270E-013  0.16595464065080390        0.0000000000000000     
   2.3919470387365999E-002  0.16615742466561195        0.0000000000000000     
   2.4293550151071961E-002  0.17422793191537947        0.0000000000000000     
   2.4632428741694846E-002  0.18238369757653211        0.0000000000000000     
   2.4936106159234660E-002  0.19062472164906999        0.0000000000000000     
   2.5204582403691396E-002  0.19895100413299305        0.0000000000000000     
   1.7972686009856492E-002  0.16606870665909082        0.0000000000000000     
   1.8217462310346703E-002  0.17414389300948319        0.0000000000000000     
   1.8445646822733201E-002  0.18230615269985276        0.0000000000000000     
   1.8657239547015977E-002  0.19055548573019954        0.0000000000000000     
   1.8852240483195028E-002  0.19889189210052355        0.0000000000000000     
   1.2003846152742276E-002  0.16600533665444908        0.0000000000000000     
   1.2143174671535546E-002  0.17408386521957186        0.0000000000000000     
   1.2277981392734031E-002  0.18225076350223715        0.0000000000000000     
   1.2408266316337728E-002  0.19050603150244491        0.0000000000000000     
   1.2534029442346641E-002  0.19884966922019520        0.0000000000000000     
   6.0129508160233639E-003  0.16596731465168682        0.0000000000000000     
   6.0706872346384805E-003  0.17404784854564551        0.0000000000000000     
   6.1294324516973321E-003  0.18221752998368529        0.0000000000000000     
   6.1891864671999178E-003  0.19047635896580611        0.0000000000000000     
   6.2499492811462351E-003  0.19882433549200801        0.0000000000000000     
  -3.0025157707336270E-013  0.16595464065080390        0.0000000000000000     
  -3.4449114567902672E-013  0.17403584298770408        0.0000000000000000     
  -3.7689393706658025E-013  0.18220645214419712        0.0000000000000000     
  -3.9745986992086035E-013  0.19046646812028306        0.0000000000000000     
  -4.0619070607039731E-013  0.19881589091596194        0.0000000000000000     
   2.5204582403691396E-002  0.19895100413299305        0.0000000000000000     
   2.5440072669259746E-002  0.20734898130053520        0.0000000000000000     
   2.5644792150134404E-002  0.21580508942393042        0.0000000000000000     
   2.5818740846315365E-002  0.22431932850317873        0.0000000000000000     
   2.5961918757802630E-002  0.23289169853828010        0.0000000000000000     
   1.8852240483195028E-002  0.19889189210052355        0.0000000000000000     
   1.9027402051066889E-002  0.20729896480886811        0.0000000000000000     
   1.9179476670428096E-002  0.21576029685327669        0.0000000000000000     
   1.9308464341278645E-002  0.22427588823374911        0.0000000000000000     
   1.9414365063618533E-002  0.23284573895028557        0.0000000000000000     
   1.2534029442346641E-002  0.19884966922019520        0.0000000000000000     
   1.2649833066724658E-002  0.20726323874339572        0.0000000000000000     
   1.2750239485435669E-002  0.21572830215995439        0.0000000000000000     
   1.2835248698479674E-002  0.22424485946987111        0.0000000000000000     
   1.2904860705856672E-002  0.23281291067314583        0.0000000000000000     
   6.2499492811462351E-003  0.19882433549200801        0.0000000000000000     
   6.3073657162330508E-003  0.20724180310411813        0.0000000000000000     
   6.3570805951571234E-003  0.21570910534396368        0.0000000000000000     
   6.3990939179184563E-003  0.22422624221154458        0.0000000000000000     
   6.4334056845170486E-003  0.23279321370686093        0.0000000000000000     
  -4.0619070607039731E-013  0.19881589091596194        0.0000000000000000     
  -4.0793410316375400E-013  0.20723465789103523        0.0000000000000000     
  -4.0754053777514176E-013  0.21570270640530445        0.0000000000000000     
  -4.0500811255075875E-013  0.22422003645876970        0.0000000000000000     
  -4.0033991746679654E-013  0.23278664805143087        0.0000000000000000     
   2.5961918757802630E-002  0.23289169853828010        0.0000000000000000     
   2.6081595493840794E-002  0.24149477308837369        0.0000000000000000     
   2.6185040663674455E-002  0.25010112571259863        0.0000000000000000     
   2.6272254267303608E-002  0.25871075641095492        0.0000000000000000     
   2.6343236304728256E-002  0.26732366518344258        0.0000000000000000     
   1.9414365063618533E-002  0.23284573895028557        0.0000000000000000     
   1.9502654811942056E-002  0.24144112491422512        0.0000000000000000     
   1.9578809560743510E-002  0.25003332203690704        0.0000000000000000     
   1.9642829310022883E-002  0.25862233031833126        0.0000000000000000     
   1.9694714059780183E-002  0.26720814975849783        0.0000000000000000     
   1.2904860705856672E-002  0.23281291067314583        0.0000000000000000     
   1.2962742002269913E-002  0.24140280478983181        0.0000000000000000     
   1.3012559082422645E-002  0.24998489083998224        0.0000000000000000     
   1.3054311946314867E-002  0.25855916882359703        0.0000000000000000     
   1.3088000593946580E-002  0.26712563874067630        0.0000000000000000     
   6.4334056845170486E-003  0.23279321370686093        0.0000000000000000     
   6.4618570648243643E-003  0.24137981271519379        0.0000000000000000     
   6.4862892287118690E-003  0.24995583212182418        0.0000000000000000     
   6.5067021761795645E-003  0.25852127192675217        0.0000000000000000     
   6.5230959072274490E-003  0.26707613212997788        0.0000000000000000     
  -4.0033991746679654E-013  0.23278664805143087        0.0000000000000000     
  -3.9459082702697490E-013  0.24137214869031096        0.0000000000000000     
  -3.8881896834153107E-013  0.24994614588243294        0.0000000000000000     
  -3.8302580508339790E-013  0.25850863962779685        0.0000000000000000     
  -3.7720998199985978E-013  0.26705962992640264        0.0000000000000000     
   2.6343236304728256E-002  0.26732366518344258        0.0000000000000000     
   2.6410025909138508E-002  0.27588462370882905        0.0000000000000000     
   2.6484662213724454E-002  0.28433840366588181        0.0000000000000000     
   2.6567145218486098E-002  0.29268500505460077        0.0000000000000000     
   2.6657474923423435E-002  0.30092442787498608        0.0000000000000000     
   1.9694714059780183E-002  0.26720814975849783        0.0000000000000000     
   1.9744090653754737E-002  0.27573348419623661        0.0000000000000000     
   1.9800585935685865E-002  0.28414103747037744        0.0000000000000000     
   1.9864199905573567E-002  0.29243080958092049        0.0000000000000000     
   1.9934932563417850E-002  0.30060280052786542        0.0000000000000000     
   1.3088000593946580E-002  0.26712563874067630        0.0000000000000000     
   1.3120441250375203E-002  0.27562552740152291        0.0000000000000000     
   1.3158450140658166E-002  0.28400006161644004        0.0000000000000000     
   1.3202027264795460E-002  0.29224924138542752        0.0000000000000000     
   1.3251172622787088E-002  0.30037306670848551        0.0000000000000000     
   6.5230959072274490E-003  0.26707613212997788        0.0000000000000000     
   6.5390776989999152E-003  0.27556075332468799        0.0000000000000000     
   6.5582548286413564E-003  0.28391547610406936        0.0000000000000000     
   6.5806272961517710E-003  0.29214030046812223        0.0000000000000000     
   6.6061951015311616E-003  0.30023522641684630        0.0000000000000000     
  -3.7720998199985978E-013  0.26705962992640264        0.0000000000000000     
  -3.7113628142959598E-013  0.27553916196573180        0.0000000000000000     
  -3.6456417312064060E-013  0.28388728093326565        0.0000000000000000     
  -3.5749894255858450E-013  0.29210398682900435        0.0000000000000000     
  -3.4993709319142141E-013  0.30018927965294784        0.0000000000000000     
   1.9172684273538465E-013   5.5372791340482355E-002   0.0000000000000000     
   1.9342080020967600E-013   6.1013620824537811E-002   0.0000000000000000     
   1.8208286441112609E-013   6.6843860071862146E-002   0.0000000000000000     
   1.5771504111375401E-013   7.2863509082455369E-002   0.0000000000000000     
   1.2031651716593039E-013   7.9072567856317472E-002   0.0000000000000000     
  -6.4049561647825069E-003   5.5398002485155154E-002   0.0000000000000000     
  -5.9920605434579631E-003   6.1037961765326915E-002   0.0000000000000000     
  -5.6834236783466644E-003   6.6867585398018320E-002   0.0000000000000000     
  -5.4790455694486116E-003   7.2886873383229384E-002   0.0000000000000000     
  -5.3789262167638014E-003   7.9095825720960092E-002   0.0000000000000000     
  -1.0909376277780077E-002   5.5473635920860312E-002   0.0000000000000000     
  -1.0475679772542549E-002   6.1110984588813866E-002   0.0000000000000000     
  -1.0181993813125165E-002   6.6938761377171196E-002   0.0000000000000000     
  -1.0028318399527938E-002   7.2956966285932262E-002   0.0000000000000000     
  -1.0014653531750857E-002   7.9165599315097146E-002   0.0000000000000000     
  -1.3513260338800986E-002   5.5599691647597850E-002   0.0000000000000000     
  -1.3450857687060325E-002   6.1232689294998678E-002   0.0000000000000000     
  -1.3495710404153417E-002   6.7057388009320748E-002   0.0000000000000000     
  -1.3647818490080255E-002   7.3073787790564074E-002   0.0000000000000000     
  -1.3907181944840852E-002   7.9281888638728634E-002   0.0000000000000000     
  -1.4216608347845234E-002   5.5776169665367761E-002   0.0000000000000000     
  -1.4917594287011303E-002   6.1403075883881331E-002   0.0000000000000000     
  -1.5624573451431416E-002   6.7223465294466989E-002   0.0000000000000000     
  -1.6337545841105579E-002   7.3237337897124735E-002   0.0000000000000000     
  -1.7056511456033784E-002   7.9444693691854557E-002   0.0000000000000000     
   1.2031651716593039E-013   7.9072567856317472E-002   0.0000000000000000     
   8.0266305754750356E-014   8.5462523648102903E-002   0.0000000000000000     
   4.7945696891871226E-014   9.2024863712466126E-002   0.0000000000000000     
   2.3353199799305835E-014   9.8759588049407127E-002   0.0000000000000000     
   6.4891668427602411E-015  0.10566669665892589        0.0000000000000000     
  -5.3789262167638014E-003   7.9095825720960092E-002   0.0000000000000000     
  -5.3461499814826171E-003   8.5485712116105866E-002   0.0000000000000000     
  -5.3438012247954362E-003   9.2047802273562143E-002   0.0000000000000000     
  -5.3718799467022613E-003   9.8782096193328908E-002   0.0000000000000000     
  -5.4303861472030897E-003  0.10568859387540620        0.0000000000000000     
  -1.0014653531750857E-002   7.9165599315097146E-002   0.0000000000000000     
  -1.0089481600390832E-002   8.5555277520228790E-002   0.0000000000000000     
  -1.0201284996044764E-002   9.2116617956890259E-002   0.0000000000000000     
  -1.0350063718712645E-002   9.8849620625081541E-002   0.0000000000000000     
  -1.0535817768394485E-002  0.10575428552480266        0.0000000000000000     
  -1.3907181944840852E-002   7.9281888638728634E-002   0.0000000000000000     
  -1.4229994856644385E-002   8.5671219860471701E-002   0.0000000000000000     
  -1.4572451313700030E-002   9.2231310762450475E-002   0.0000000000000000     
  -1.4934551316007804E-002   9.8962161344665039E-002   0.0000000000000000     
  -1.5316294863567691E-002  0.10586377160711526        0.0000000000000000     
  -1.7056511456033784E-002   7.9444693691854557E-002   0.0000000000000000     
  -1.7767689750243263E-002   8.5833539136834558E-002   0.0000000000000000     
  -1.8457300177761246E-002   9.2391880690242803E-002   0.0000000000000000     
  -1.9125342738587729E-002   9.9119718352079292E-002   0.0000000000000000     
  -1.9771817432722716E-002  0.10601705212234402        0.0000000000000000     
   6.4891668427602411E-015  0.10566669665892589        0.0000000000000000     
  -1.0522832605275312E-014  0.11273047058169683        0.0000000000000000     
  -3.5563782821435019E-014  0.11993519085839428        0.0000000000000000     
  -6.8629618047572061E-014  0.12728085748901832        0.0000000000000000     
  -1.0972386194074701E-013  0.13476747047356885        0.0000000000000000     
  -5.4303861472030897E-003  0.10568859387540620        0.0000000000000000     
  -5.5049117429909738E-003  0.11275154353717563        0.0000000000000000     
  -5.5810486507589666E-003  0.11995519339601884        0.0000000000000000     
  -5.6587968705070621E-003  0.12729954345193589        0.0000000000000000     
  -5.7381564022352645E-003  0.13478459370492674        0.0000000000000000     
  -1.0535817768394485E-002  0.10575428552480266        0.0000000000000000     
  -1.0738790708788725E-002  0.11281476240354762        0.0000000000000000     
  -1.0939226103593816E-002  0.12001520100881057        0.0000000000000000     
  -1.1137123952809757E-002  0.12735560134059140        0.0000000000000000     
  -1.1332484256436549E-002  0.13483596339889020        0.0000000000000000     
  -1.5316294863567691E-002  0.10586377160711526        0.0000000000000000     
  -1.5701636897403774E-002  0.11292012718081286        0.0000000000000000     
  -1.6074532358540113E-002  0.12011521369676939        0.0000000000000000     
  -1.6434981246976711E-002  0.12744903115498490        0.0000000000000000     
  -1.6782983562713568E-002  0.13492157955545928        0.0000000000000000     
  -1.9771817432722716E-002  0.10601705212234402        0.0000000000000000     
  -2.0393450308836117E-002  0.11306763786897131        0.0000000000000000     
  -2.0986967415597860E-002  0.12025523145989539        0.0000000000000000     
  -2.1552368753007929E-002  0.12757983289511626        0.0000000000000000     
  -2.2089654321066337E-002  0.13504144217463399        0.0000000000000000     
  -1.0972386194074701E-013  0.13476747047356885        0.0000000000000000     
  -1.5546244847008950E-013  0.14238448323078143        0.0000000000000000     
  -2.0246250422711887E-013  0.15012134917939143        0.0000000000000000     
  -2.5072682103242927E-013  0.15797806831939895        0.0000000000000000     
  -3.0025157707336270E-013  0.16595464065080390        0.0000000000000000     
  -5.7381564022352645E-003  0.13478459370492674        0.0000000000000000     
  -5.8154549439244693E-003  0.14240006402775174        0.0000000000000000     
  -5.8870201935555732E-003  0.15013567429317126        0.0000000000000000     
  -5.9528521511285765E-003  0.15799142450118528        0.0000000000000000     
  -6.0129508166434798E-003  0.16596731465179382        0.0000000000000000     
  -1.1332484256436549E-002  0.13483596339889020        0.0000000000000000     
  -1.1520013023122253E-002  0.14244680641854354        0.0000000000000000     
  -1.1694416261514937E-002  0.15017864963438793        0.0000000000000000     
  -1.1855693971614600E-002  0.15803149304642342        0.0000000000000000     
  -1.2003846153421240E-002  0.16600533665464998        0.0000000000000000     
  -1.6782983562713568E-002  0.13492157955545928        0.0000000000000000     
  -1.7113674237748813E-002  0.14252471040315676        0.0000000000000000     
  -1.7422188204080549E-002  0.15025027520304149        0.0000000000000000     
  -1.7708525461708789E-002  0.15809827395511333        0.0000000000000000     
  -1.7972686010633527E-002  0.16606870665937237        0.0000000000000000     
  -2.2089654321066337E-002  0.13504144217463399        0.0000000000000000     
  -2.2596438587804149E-002  0.14263377598159152        0.0000000000000000     
  -2.3070336021252413E-002  0.15035055099913189        0.0000000000000000     
  -2.3511346621411147E-002  0.15819176722725503        0.0000000000000000     
  -2.3919470388280340E-002  0.16615742466596103        0.0000000000000000     
  -3.0025157707336270E-013  0.16595464065080390        0.0000000000000000     
  -3.4449114567902672E-013  0.17403584298770408        0.0000000000000000     
  -3.7689393706658025E-013  0.18220645214419712        0.0000000000000000     
  -3.9745986992086035E-013  0.19046646812028306        0.0000000000000000     
  -4.0619070607039731E-013  0.19881589091596194        0.0000000000000000     
  -6.0129508166434798E-003  0.16596731465179382        0.0000000000000000     
  -6.0706872353400946E-003  0.17404784854573926        0.0000000000000000     
  -6.1294324524582252E-003  0.18221752998376389        0.0000000000000000     
  -6.1891864679978802E-003  0.19047635896586779        0.0000000000000000     
  -6.2499492819590519E-003  0.19882433549205092        0.0000000000000000     
  -1.2003846153421240E-002  0.16600533665464998        0.0000000000000000     
  -1.2143174672275058E-002  0.17408386521974278        0.0000000000000000     
  -1.2277981393516251E-002  0.18225076350237684        0.0000000000000000     
  -1.2408266317144817E-002  0.19050603150255219        0.0000000000000000     
  -1.2534029443160762E-002  0.19884966922026881        0.0000000000000000     
  -1.7972686010633527E-002  0.16606870665937237        0.0000000000000000     
  -1.8217462311149377E-002  0.17414389300971458        0.0000000000000000     
  -1.8445646823550963E-002  0.18230615270003589        0.0000000000000000     
  -1.8657239547838277E-002  0.19055548573033623        0.0000000000000000     
  -1.8852240484011323E-002  0.19889189210061572        0.0000000000000000     
  -2.3919470388280340E-002  0.16615742466596103        0.0000000000000000     
  -2.4293550151963061E-002  0.17422793191565478        0.0000000000000000     
  -2.4632428742562371E-002  0.18238369757674106        0.0000000000000000     
  -2.4936106160078256E-002  0.19062472164922001        0.0000000000000000     
  -2.5204582404510730E-002  0.19895100413309158        0.0000000000000000     
  -4.0619070607039731E-013  0.19881589091596194        0.0000000000000000     
  -4.0793410316375400E-013  0.20723465789103523        0.0000000000000000     
  -4.0754053777514176E-013  0.21570270640530445        0.0000000000000000     
  -4.0500811255075875E-013  0.22422003645876970        0.0000000000000000     
  -4.0033991746679654E-013  0.23278664805143087        0.0000000000000000     
  -6.2499492819590519E-003  0.19882433549205092        0.0000000000000000     
  -6.3073657170476674E-003  0.20724180310414322        0.0000000000000000     
  -6.3570805959696462E-003  0.21570910534397458        0.0000000000000000     
  -6.3990939187249917E-003  0.22422624221154508        0.0000000000000000     
  -6.4334056853136970E-003  0.23279321370685468        0.0000000000000000     
  -1.2534029443160762E-002  0.19884966922026881        0.0000000000000000     
  -1.2649833067535518E-002  0.20726323874343824        0.0000000000000000     
  -1.2750239486240511E-002  0.21572830215997185        0.0000000000000000     
  -1.2835248699275752E-002  0.22424485946986966        0.0000000000000000     
  -1.2904860706641232E-002  0.23281291067313167        0.0000000000000000     
  -1.8852240484011323E-002  0.19889189210061572        0.0000000000000000     
  -1.9027402051871482E-002  0.20729896480892038        0.0000000000000000     
  -1.9179476671220139E-002  0.21576029685329623        0.0000000000000000     
  -1.9308464342057297E-002  0.22427588823374336        0.0000000000000000     
  -1.9414365064382943E-002  0.23284573895026170        0.0000000000000000     
  -2.5204582404510730E-002  0.19895100413309158        0.0000000000000000     
  -2.5440072670055568E-002  0.20734898130058954        0.0000000000000000     
  -2.5644792150908532E-002  0.21580508942394772        0.0000000000000000     
  -2.5818740847069616E-002  0.22431932850316616        0.0000000000000000     
  -2.5961918758538829E-002  0.23289169853824482        0.0000000000000000     
  -4.0033991746679654E-013  0.23278664805143087        0.0000000000000000     
  -3.9459082702697490E-013  0.24137214869031096        0.0000000000000000     
  -3.8881896834153107E-013  0.24994614588243294        0.0000000000000000     
  -3.8302580508339790E-013  0.25850863962779685        0.0000000000000000     
  -3.7720998199985978E-013  0.26705962992640264        0.0000000000000000     
  -6.4334056853136970E-003  0.23279321370685468        0.0000000000000000     
  -6.4618570656092009E-003  0.24137981271518261        0.0000000000000000     
  -6.4862892294849312E-003  0.24995583212180786        0.0000000000000000     
  -6.5067021769408817E-003  0.25852127192673047        0.0000000000000000     
  -6.5230959079770594E-003  0.26707613212995052        0.0000000000000000     
  -1.2904860706641232E-002  0.23281291067313167        0.0000000000000000     
  -1.2962742003041717E-002  0.24140280478980788        0.0000000000000000     
  -1.3012559083181970E-002  0.24998489083994826        0.0000000000000000     
  -1.3054311947061985E-002  0.25855916882355279        0.0000000000000000     
  -1.3088000594681761E-002  0.26712563874062151        0.0000000000000000     
  -1.9414365064382943E-002  0.23284573895026170        0.0000000000000000     
  -1.9502654812692137E-002  0.24144112491418682        0.0000000000000000     
  -1.9578809561479938E-002  0.25003332203685413        0.0000000000000000     
  -1.9642829310746332E-002  0.25862233031826370        0.0000000000000000     
  -1.9694714060491322E-002  0.26720814975841550        0.0000000000000000     
  -2.5961918758538829E-002  0.23289169853824482        0.0000000000000000     
  -2.6081595494560468E-002  0.24149477308831938        0.0000000000000000     
  -2.6185040664378836E-002  0.25010112571252557        0.0000000000000000     
  -2.6272254267993921E-002  0.25871075641086333        0.0000000000000000     
  -2.6343236305405731E-002  0.26732366518333261        0.0000000000000000     
  -3.7720998199985978E-013  0.26705962992640264        0.0000000000000000     
  -3.7113628142959598E-013  0.27553916196573180        0.0000000000000000     
  -3.6456417312064060E-013  0.28388728093326565        0.0000000000000000     
  -3.5749894255858450E-013  0.29210398682900435        0.0000000000000000     
  -3.4993709319142141E-013  0.30018927965294784        0.0000000000000000     
  -6.5230959079770594E-003  0.26707613212995052        0.0000000000000000     
  -6.5390776997373643E-003  0.27556075332465457        0.0000000000000000     
  -6.5582548293656928E-003  0.28391547610402929        0.0000000000000000     
  -6.5806272968620466E-003  0.29214030046807460        0.0000000000000000     
  -6.6061951022264326E-003  0.30023522641679068        0.0000000000000000     
  -1.3088000594681761E-002  0.26712563874062151        0.0000000000000000     
  -1.3120441251098186E-002  0.27562552740145674        0.0000000000000000     
  -1.3158450141368122E-002  0.28400006161636077        0.0000000000000000     
  -1.3202027265491578E-002  0.29224924138533376        0.0000000000000000     
  -1.3251172623468550E-002  0.30037306670837549        0.0000000000000000     
  -1.9694714060491322E-002  0.26720814975841550        0.0000000000000000     
  -1.9744090654453598E-002  0.27573348419613813        0.0000000000000000     
  -1.9800585936371854E-002  0.28414103747026015        0.0000000000000000     
  -1.9864199906246084E-002  0.29243080958078155        0.0000000000000000     
  -1.9934932564076292E-002  0.30060280052770233        0.0000000000000000     
  -2.6343236305405731E-002  0.26732366518333261        0.0000000000000000     
  -2.6410025909803604E-002  0.27588462370869893        0.0000000000000000     
  -2.6484662214376883E-002  0.28433840366572738        0.0000000000000000     
  -2.6567145219125565E-002  0.29268500505441808        0.0000000000000000     
  -2.6657474924049657E-002  0.30092442787477114        0.0000000000000000     
  -1.4216608347845234E-002   5.5776169665367761E-002   0.0000000000000000     
  -1.4917594287011303E-002   6.1403075883881331E-002   0.0000000000000000     
  -1.5624573451431416E-002   6.7223465294466989E-002   0.0000000000000000     
  -1.6337545841105579E-002   7.3237337897124735E-002   0.0000000000000000     
  -1.7056511456033784E-002   7.9444693691854557E-002   0.0000000000000000     
  -1.5189932280366563E-002   5.6022608297737392E-002   0.0000000000000000     
  -1.6626490728307363E-002   6.1644814415256516E-002   0.0000000000000000     
  -1.7970833296492489E-002   6.7460631322487113E-002   0.0000000000000000     
  -1.9222959984921927E-002   7.3470059019429199E-002   0.0000000000000000     
  -2.0382870793595683E-002   7.9673097506082757E-002   0.0000000000000000     
  -1.8603744111818712E-002   5.6358545868274108E-002   0.0000000000000000     
  -2.0328148166860394E-002   6.1980574948918885E-002   0.0000000000000000     
  -2.1936740280869935E-002   6.7792524183258304E-002   0.0000000000000000     
  -2.3429520453847330E-002   7.3794393571292347E-002   0.0000000000000000     
  -2.4806488685792584E-002   7.9986183113021039E-002   0.0000000000000000     
  -2.4458043842201686E-002   5.6783982376977911E-002   0.0000000000000000     
  -2.6022566602670397E-002   6.2410357484868451E-002   0.0000000000000000     
  -2.7522294404563767E-002   6.8219143876780533E-002   0.0000000000000000     
  -2.8957227247881794E-002   7.4210341552714193E-002   0.0000000000000000     
  -3.0327365132624483E-002   8.0383950512669375E-002   0.0000000000000000     
  -3.2752831471515476E-002   5.7298917823848800E-002   0.0000000000000000     
  -3.3709746035737363E-002   6.2934162023105200E-002   0.0000000000000000     
  -3.4727495667573986E-002   6.8740490403053842E-002   0.0000000000000000     
  -3.5806080367025324E-002   7.4717902963694710E-002   0.0000000000000000     
  -3.6945500134091376E-002   8.0866399705027806E-002   0.0000000000000000     
  -1.7056511456033784E-002   7.9444693691854557E-002   0.0000000000000000     
  -1.7767689750243263E-002   8.5833539136834558E-002   0.0000000000000000     
  -1.8457300177761246E-002   9.2391880690242803E-002   0.0000000000000000     
  -1.9125342738587729E-002   9.9119718352079292E-002   0.0000000000000000     
  -1.9771817432722716E-002  0.10601705212234402        0.0000000000000000     
  -2.0382870793595683E-002   7.9673097506082757E-002   0.0000000000000000     
  -2.1466227649998396E-002   8.6057226063027445E-002   0.0000000000000000     
  -2.2488692481614708E-002   9.2609923970842861E-002   0.0000000000000000     
  -2.3450265288444613E-002   9.9331191229529034E-002   0.0000000000000000     
  -2.4350946070488107E-002  0.10622102783908594        0.0000000000000000     
  -2.4806488685792584E-002   7.9986183113021039E-002   0.0000000000000000     
  -2.6089269924720708E-002   8.6357271352760348E-002   0.0000000000000000     
  -2.7299489118646724E-002   9.2897036834826280E-002   0.0000000000000000     
  -2.8437146267570639E-002   9.9605479559218807E-002   0.0000000000000000     
  -2.9502241371492439E-002  0.10648259952593798        0.0000000000000000     
  -3.0327365132624483E-002   8.0383950512669375E-002   0.0000000000000000     
  -3.1636816574410191E-002   8.6733675006033295E-002   0.0000000000000000     
  -3.2889690088857303E-002   9.3253219282193059E-002   0.0000000000000000     
  -3.4085985675965796E-002   9.9942583341148680E-002   0.0000000000000000     
  -3.5225703335735700E-002  0.10680176718290015        0.0000000000000000     
  -3.6945500134091376E-002   8.0866399705027806E-002   0.0000000000000000     
  -3.8108867599066849E-002   8.7186437022846258E-002   0.0000000000000000     
  -3.9259295392246436E-002   9.3678471312943185E-002   0.0000000000000000     
  -4.0396783513630109E-002  0.10034250257531858        0.0000000000000000     
  -4.1521331963217889E-002  0.10717853080997244        0.0000000000000000     
  -1.9771817432722716E-002  0.10601705212234402        0.0000000000000000     
  -2.0393450308836117E-002  0.11306763786897131        0.0000000000000000     
  -2.0986967415597860E-002  0.12025523145989539        0.0000000000000000     
  -2.1552368753007929E-002  0.12757983289511626        0.0000000000000000     
  -2.2089654321066337E-002  0.13504144217463399        0.0000000000000000     
  -2.4350946070488107E-002  0.10622102783908594        0.0000000000000000     
  -2.5199839158851163E-002  0.11326287895288599        0.0000000000000000     
  -2.6006048884639709E-002  0.12044018972430152        0.0000000000000000     
  -2.6769575247853762E-002  0.12775296015333260        0.0000000000000000     
  -2.7490418248493319E-002  0.13520119023997917        0.0000000000000000     
  -2.9502241371492439E-002  0.10648259952593798        0.0000000000000000     
  -3.0506411663214283E-002  0.11351143491741993        0.0000000000000000     
  -3.1461294375538323E-002  0.12067502391610088        0.0000000000000000     
  -3.2366889508464551E-002  0.12797336652198080        0.0000000000000000     
  -3.3223197061992976E-002  0.13540646273505971        0.0000000000000000     
  -3.5225703335735700E-002  0.10680176718290015        0.0000000000000000     
  -3.6313167821925486E-002  0.11381330576257316        0.0000000000000000     
  -3.7352703888293697E-002  0.12095973403529342        0.0000000000000000     
  -3.8344311534840296E-002  0.12824105200106092        0.0000000000000000     
  -3.9287990761565320E-002  0.13565725965987566        0.0000000000000000     
  -4.1521331963217889E-002  0.10717853080997244        0.0000000000000000     
  -4.2620107634984798E-002  0.11416849148834568        0.0000000000000000     
  -4.3680277422905832E-002  0.12129432008187918        0.0000000000000000     
  -4.4701841326981018E-002  0.12855601659057295        0.0000000000000000     
  -4.5684799347210342E-002  0.13595358101442698        0.0000000000000000     
  -2.2089654321066337E-002  0.13504144217463399        0.0000000000000000     
  -2.2596438587804149E-002  0.14263377598159152        0.0000000000000000     
  -2.3070336021252413E-002  0.15035055099913189        0.0000000000000000     
  -2.3511346621411147E-002  0.15819176722725503        0.0000000000000000     
  -2.3919470388280340E-002  0.16615742466596103        0.0000000000000000     
  -2.7490418248493319E-002  0.13520119023997917        0.0000000000000000     
  -2.8168423160089169E-002  0.14278019133777145        0.0000000000000000     
  -2.8803435256172127E-002  0.15048527480023968        0.0000000000000000     
  -2.9395454536742180E-002  0.15831644062738384        0.0000000000000000     
  -2.9944481001799320E-002  0.16627368881920390        0.0000000000000000     
  -3.3223197061992976E-002  0.13540646273505971        0.0000000000000000     
  -3.4029745041404817E-002  0.14297014465562036        0.0000000000000000     
  -3.4786061451981286E-002  0.15066024438394543        0.0000000000000000     
  -3.5492146293722382E-002  0.15847676192003496        0.0000000000000000     
  -3.6147999566628099E-002  0.16641969726388894        0.0000000000000000     
  -3.9287990761565320E-002  0.13565725965987566        0.0000000000000000     
  -4.0180404231751059E-002  0.14320363593513821        0.0000000000000000     
  -4.1018214608679868E-002  0.15087545975024916        0.0000000000000000     
  -4.1801421892351746E-002  0.15867273110520844        0.0000000000000000     
  -4.2530026082766688E-002  0.16659545000001610        0.0000000000000000     
  -4.5684799347210342E-002  0.13595358101442698        0.0000000000000000     
  -4.6620400731127928E-002  0.14348066517632502        0.0000000000000000     
  -4.7499894726267915E-002  0.15113092089915076        0.0000000000000000     
  -4.8323281332630294E-002  0.15890434818290425        0.0000000000000000     
  -4.9090560550215073E-002  0.16680094702758547        0.0000000000000000     
  -2.3919470388280340E-002  0.16615742466596103        0.0000000000000000     
  -2.4293550151963061E-002  0.17422793191565478        0.0000000000000000     
  -2.4632428742562371E-002  0.18238369757674106        0.0000000000000000     
  -2.4936106160078256E-002  0.19062472164922001        0.0000000000000000     
  -2.5204582404510730E-002  0.19895100413309158        0.0000000000000000     
  -2.9944481001799320E-002  0.16627368881920390        0.0000000000000000     
  -3.0445554464823492E-002  0.17433588108937925        0.0000000000000000     
  -3.0893714739294618E-002  0.18248187915158925        0.0000000000000000     
  -3.1288961825212694E-002  0.19071168300583394        0.0000000000000000     
  -3.1631295722577724E-002  0.19902529265211322        0.0000000000000000     
  -3.6147999566628099E-002  0.16641969726388894        0.0000000000000000     
  -3.6747591519838065E-002  0.17446763968270407        0.0000000000000000     
  -3.7284892402491873E-002  0.18259917844367723        0.0000000000000000     
  -3.7759902214589532E-002  0.19081431354680836        0.0000000000000000     
  -3.8172620956131040E-002  0.19911304499209753        0.0000000000000000     
  -4.2530026082766688E-002  0.16659545000001610        0.0000000000000000     
  -4.3199661317006789E-002  0.17462320769562925        0.0000000000000000     
  -4.3805961732154140E-002  0.18273559545300505        0.0000000000000000     
  -4.4348927328208762E-002  0.19093261327214350        0.0000000000000000     
  -4.4828558105170654E-002  0.19921426115304453        0.0000000000000000     
  -4.9090560550215073E-002  0.16680094702758547        0.0000000000000000     
  -4.9801763856329645E-002  0.17480258512815480        0.0000000000000000     
  -5.0456922728281423E-002  0.18289113017957273        0.0000000000000000     
  -5.1056037166070406E-002  0.19106658218183920        0.0000000000000000     
  -5.1599107169696581E-002  0.19932894113495422        0.0000000000000000     
  -2.5204582404510730E-002  0.19895100413309158        0.0000000000000000     
  -2.5440072670055568E-002  0.20734898130058954        0.0000000000000000     
  -2.5644792150908532E-002  0.21580508942394772        0.0000000000000000     
  -2.5818740847069616E-002  0.22431932850316616        0.0000000000000000     
  -2.5961918758538829E-002  0.23289169853824482        0.0000000000000000     
  -3.1631295722577724E-002  0.19902529265211322        0.0000000000000000     
  -3.1928069029482455E-002  0.20741205268900667        0.0000000000000000     
  -3.2186634344019652E-002  0.21586130771509393        0.0000000000000000     
  -3.2406991666189294E-002  0.22437305773037489        0.0000000000000000     
  -3.2589140995991396E-002  0.23294730273484959        0.0000000000000000     
  -3.8172620956131040E-002  0.19911304499209753        0.0000000000000000     
  -3.8531615237546855E-002  0.20748694344473284        0.0000000000000000     
  -3.8845451669267485E-002  0.21592757956990241        0.0000000000000000     
  -3.9114130251292907E-002  0.22443495336760635        0.0000000000000000     
  -3.9337650983623136E-002  0.23300906483784464        0.0000000000000000     
  -4.4828558105170654E-002  0.19921426115304453        0.0000000000000000     
  -4.5250711294248742E-002  0.20757365356776789        0.0000000000000000     
  -4.5621244126652014E-002  0.21600390498837324        0.0000000000000000     
  -4.5940156602380447E-002  0.22450501541486056        0.0000000000000000     
  -4.6207448721434050E-002  0.23307698484722991        0.0000000000000000     
  -5.1599107169696581E-002  0.19932894113495422        0.0000000000000000     
  -5.2085357199588150E-002  0.20767218305811191        0.0000000000000000     
  -5.2514011716173259E-002  0.21609028397050634        0.0000000000000000     
  -5.2885070719451921E-002  0.22458324387213752        0.0000000000000000     
  -5.3198534209424136E-002  0.23315106276300543        0.0000000000000000     
  -2.5961918758538829E-002  0.23289169853824482        0.0000000000000000     
  -2.6081595494560468E-002  0.24149477308831938        0.0000000000000000     
  -2.6185040664378836E-002  0.25010112571252557        0.0000000000000000     
  -2.6272254267993921E-002  0.25871075641086333        0.0000000000000000     
  -2.6343236305405731E-002  0.26732366518333261        0.0000000000000000     
  -3.2589140995991396E-002  0.23294730273484959        0.0000000000000000     
  -3.2741677542957447E-002  0.24155883404356263        0.0000000000000000     
  -3.2873196516618977E-002  0.25018244297155845        0.0000000000000000     
  -3.2983697916975967E-002  0.25881812951883709        0.0000000000000000     
  -3.3073181744028422E-002  0.26746589368539864        0.0000000000000000     
  -3.9337650983623136E-002  0.23300906483784464        0.0000000000000000     
  -3.9525014452193828E-002  0.24162839251127338        0.0000000000000000     
  -3.9685221242940681E-002  0.25027141491854871        0.0000000000000000     
  -3.9818271355863660E-002  0.25893813205967064        0.0000000000000000     
  -3.9924164790962800E-002  0.26762854393463931        0.0000000000000000     
  -4.6207448721434050E-002  0.23307698484722991        0.0000000000000000     
  -4.6431606222269613E-002  0.24170344849145170        0.0000000000000000     
  -4.6621114843343935E-002  0.25036804155349640        0.0000000000000000     
  -4.6775974584657029E-002  0.25907076403336404        0.0000000000000000     
  -4.6896185446208889E-002  0.26781161593105457        0.0000000000000000     
  -5.3198534209424136E-002  0.23315106276300543        0.0000000000000000     
  -5.3461452853184786E-002  0.24178400198409761        0.0000000000000000     
  -5.3680877317828751E-002  0.25047232287640153        0.0000000000000000     
  -5.3856807603356059E-002  0.25921602543991717        0.0000000000000000     
  -5.3989243709766675E-002  0.26801510967464454        0.0000000000000000     
  -2.6343236305405731E-002  0.26732366518333261        0.0000000000000000     
  -2.6410025909803604E-002  0.27588462370869893        0.0000000000000000     
  -2.6484662214376883E-002  0.28433840366572738        0.0000000000000000     
  -2.6567145219125565E-002  0.29268500505441808        0.0000000000000000     
  -2.6657474924049657E-002  0.30092442787477114        0.0000000000000000     
  -3.3073181744028422E-002  0.26746589368539864        0.0000000000000000     
  -3.3156503112778367E-002  0.27607263905380758        0.0000000000000000     
  -3.3248517138227858E-002  0.28458526920662874        0.0000000000000000     
  -3.3349223820376875E-002  0.29300378414386186        0.0000000000000000     
  -3.3458623159225445E-002  0.30132818386550719        0.0000000000000000     
  -3.9924164790962800E-002  0.26762854393463931        0.0000000000000000     
  -4.0021778359008067E-002  0.27629122334613299        0.0000000000000000     
  -4.0129988870769427E-002  0.28487474309683031        0.0000000000000000     
  -4.0248796326246894E-002  0.29337910318673133        0.0000000000000000     
  -4.0378200725440461E-002  0.30180430361583599        0.0000000000000000     
  -4.6896185446208889E-002  0.26781161593105457        0.0000000000000000     
  -4.7005851648492671E-002  0.27654037658567499        0.0000000000000000     
  -4.7129077412001584E-002  0.28520682533633229        0.0000000000000000     
  -4.7265862736735574E-002  0.29381096218302644        0.0000000000000000     
  -4.7416207622694703E-002  0.30235278712575742        0.0000000000000000     
  -5.3989243709766675E-002  0.26801510967464454        0.0000000000000000     
  -5.4108722981232232E-002  0.27682009877243369        0.0000000000000000     
  -5.4245782761924322E-002  0.28558151592513459        0.0000000000000000     
  -5.4400423051842971E-002  0.29429936113274718        0.0000000000000000     
  -5.4572643850988166E-002  0.30297363439527158        0.0000000000000000     
  -3.2752831471515476E-002   5.7298917823848800E-002   0.0000000000000000     
  -3.3709746035737363E-002   6.2934162023105200E-002   0.0000000000000000     
  -3.4727495667573986E-002   6.8740490403053842E-002   0.0000000000000000     
  -3.5806080367025324E-002   7.4717902963694710E-002   0.0000000000000000     
  -3.6945500134091376E-002   8.0866399705027806E-002   0.0000000000000000     
  -4.1071155663420233E-002   5.7929106114601669E-002   0.0000000000000000     
  -4.1440667453462018E-002   6.3539874989987366E-002   0.0000000000000000     
  -4.1992263344706612E-002   6.9319951598920196E-002   0.0000000000000000     
  -4.2725943337153995E-002   7.5269335941400131E-002   0.0000000000000000     
  -4.3641707430804193E-002   8.1388028017427186E-002   0.0000000000000000     
  -4.6996065081576104E-002   5.8700301154951381E-002   0.0000000000000000     
  -4.7266311843245069E-002   6.4215382811873195E-002   0.0000000000000000     
  -4.7756516710767673E-002   6.9920915301221631E-002   0.0000000000000000     
  -4.8466679684143928E-002   7.5816898622996703E-002   0.0000000000000000     
  -4.9396800763373834E-002   8.1903332777198398E-002   0.0000000000000000     
  -5.0527559725983072E-002   5.9612502944897963E-002   0.0000000000000000     
  -5.1186679205086488E-002   6.4960685488762646E-002   0.0000000000000000     
  -5.2020255765757181E-002   7.0543381509958120E-002   0.0000000000000000     
  -5.3028289407995116E-002   7.6360591008484385E-002   0.0000000000000000     
  -5.4210780131800314E-002   8.2412313984341456E-002   0.0000000000000000     
  -5.1665639596641146E-002   6.0665711484441401E-002   0.0000000000000000     
  -5.3201769538986317E-002   6.5775783020655745E-002   0.0000000000000000     
  -5.4783480509675110E-002   7.1187350225129675E-002   0.0000000000000000     
  -5.6410772508707553E-002   7.6900413097863204E-002   0.0000000000000000     
  -5.8083645536083611E-002   8.2914971638856333E-002   0.0000000000000000     
  -3.6945500134091376E-002   8.0866399705027806E-002   0.0000000000000000     
  -3.8108867599066849E-002   8.7186437022846258E-002   0.0000000000000000     
  -3.9259295392246436E-002   9.3678471312943185E-002   0.0000000000000000     
  -4.0396783513630109E-002  0.10034250257531858        0.0000000000000000     
  -4.1521331963217889E-002  0.10717853080997244        0.0000000000000000     
  -4.3641707430804193E-002   8.1388028017427186E-002   0.0000000000000000     
  -4.4663444069585910E-002   8.7678135185237191E-002   0.0000000000000000     
  -4.5715041697427863E-002   9.4141764803065964E-002   0.0000000000000000     
  -4.6796500314330053E-002  0.10077891687091350        0.0000000000000000     
  -4.7907819920292471E-002  0.10758959138877980        0.0000000000000000     
  -4.9396800763373834E-002   8.1903332777198398E-002   0.0000000000000000     
  -5.0458567056862573E-002   8.8171347275243991E-002   0.0000000000000000     
  -5.1563665673015326E-002   9.4612071628550620E-002   0.0000000000000000     
  -5.2712096611832113E-002  0.10122550583711837        0.0000000000000000     
  -5.3903859873312900E-002  0.10801164990094717        0.0000000000000000     
  -5.4210780131800314E-002   8.2412313984341456E-002   0.0000000000000000     
  -5.5494236560896859E-002   8.8666073292866632E-002   0.0000000000000000     
  -5.6805167319008851E-002   9.5089391789397210E-002   0.0000000000000000     
  -5.8143572406136282E-002  0.10168226947393316        0.0000000000000000     
  -5.9509451822279173E-002  0.10844470634647455        0.0000000000000000     
  -5.8083645536083611E-002   8.2914971638856333E-002   0.0000000000000000     
  -5.9770452581688747E-002   8.9162313238105140E-002   0.0000000000000000     
  -6.1439546635408418E-002   9.5573725285605649E-002   0.0000000000000000     
  -6.3090927697242602E-002  0.10214920778135791        0.0000000000000000     
  -6.4724595767191306E-002  0.10888876072536188        0.0000000000000000     
  -4.1521331963217889E-002  0.10717853080997244        0.0000000000000000     
  -4.2620107634984798E-002  0.11416849148834568        0.0000000000000000     
  -4.3680277422905832E-002  0.12129432008187918        0.0000000000000000     
  -4.4701841326981018E-002  0.12855601659057295        0.0000000000000000     
  -4.5684799347210342E-002  0.13595358101442698        0.0000000000000000     
  -4.7907819920292471E-002  0.10758959138877980        0.0000000000000000     
  -4.9019484817416803E-002  0.11455585407472484        0.0000000000000000     
  -5.0101979307804703E-002  0.12165977064680854        0.0000000000000000     
  -5.1155303391456144E-002  0.12890134110503088        0.0000000000000000     
  -5.2179457068371182E-002  0.13628056544939190        0.0000000000000000     
  -5.3903859873312900E-002  0.10801164990094717        0.0000000000000000     
  -5.5103553084246137E-002  0.11495425550169805        0.0000000000000000     
  -5.6275773871420229E-002  0.12203707432103189        0.0000000000000000     
  -5.7420522234835188E-002  0.12926010635894877        0.0000000000000000     
  -5.8537798174490986E-002  0.13662335161544867        0.0000000000000000     
  -5.9509451822279173E-002  0.10844470634647455        0.0000000000000000     
  -6.0872312435472795E-002  0.11536369576926526        0.0000000000000000     
  -6.2201661113752450E-002  0.12242623110454928        0.0000000000000000     
  -6.3497497857118071E-002  0.12963231235232658        0.0000000000000000     
  -6.4759822665569761E-002  0.13698193951259724        0.0000000000000000     
  -6.4724595767191306E-002  0.10888876072536188        0.0000000000000000     
  -6.6325762871096788E-002  0.11578417487742650        0.0000000000000000     
  -6.7879641034801319E-002  0.12282724099736066        0.0000000000000000     
  -6.9386230258304898E-002  0.13001795908516436        0.0000000000000000     
  -7.0845530541607499E-002  0.13735632914083762        0.0000000000000000     
  -4.5684799347210342E-002  0.13595358101442698        0.0000000000000000     
  -4.6620400731127928E-002  0.14348066517632502        0.0000000000000000     
  -4.7499894726267915E-002  0.15113092089915076        0.0000000000000000     
  -4.8323281332630294E-002  0.15890434818290425        0.0000000000000000     
  -4.9090560550215073E-002  0.16680094702758547        0.0000000000000000     
  -5.2179457068371182E-002  0.13628056544939190        0.0000000000000000     
  -5.3160367049914253E-002  0.14378861922640784        0.0000000000000000     
  -5.4083960047449829E-002  0.15141667798259498        0.0000000000000000     
  -5.4950236060977896E-002  0.15916474171795328        0.0000000000000000     
  -5.5759195090498481E-002  0.16703281043248278        0.0000000000000000     
  -5.8537798174490986E-002  0.13662335161544867        0.0000000000000000     
  -5.9610935698488875E-002  0.14411488493261376        0.0000000000000000     
  -6.0623268814930013E-002  0.15172278115252633        0.0000000000000000     
  -6.1574797523814437E-002  0.15944704027518639        0.0000000000000000     
  -6.2465521825142138E-002  0.16728766230059386        0.0000000000000000     
  -6.4759822665569761E-002  0.13698193951259724        0.0000000000000000     
  -6.5972106676851799E-002  0.14445946229494280        0.0000000000000000     
  -6.7117821028708502E-002  0.15204923040894483        0.0000000000000000     
  -6.8196965721139938E-002  0.15975124385460349        0.0000000000000000     
  -6.9209540754146065E-002  0.16756550263191866        0.0000000000000000     
  -7.0845530541607499E-002  0.13735632914083762        0.0000000000000000     
  -7.2243879985003007E-002  0.14482235131339488        0.0000000000000000     
  -7.3567616688785309E-002  0.15239602575185057        0.0000000000000000     
  -7.4816740652954364E-002  0.16007735245620464        0.0000000000000000     
  -7.5991251877510213E-002  0.16786633142645718        0.0000000000000000     
  -4.9090560550215073E-002  0.16680094702758547        0.0000000000000000     
  -4.9801763856329645E-002  0.17480258512815480        0.0000000000000000     
  -5.0456922728281423E-002  0.18289113017957273        0.0000000000000000     
  -5.1056037166070406E-002  0.19106658218183920        0.0000000000000000     
  -5.1599107169696581E-002  0.19932894113495422        0.0000000000000000     
  -5.5759195090498481E-002  0.16703281043248278        0.0000000000000000     
  -5.6515367330120303E-002  0.17500579679091990        0.0000000000000000     
  -5.7223282973952086E-002  0.18306861345800116        0.0000000000000000     
  -5.7882942021993851E-002  0.19122126043372648        0.0000000000000000     
  -5.8494344474245577E-002  0.19946373771809581        0.0000000000000000     
  -6.2465521825142138E-002  0.16728766230059386        0.0000000000000000     
  -6.3301939930692386E-002  0.17523286749456379        0.0000000000000000     
  -6.4090550052244510E-002  0.18327087612291121        0.0000000000000000     
  -6.4831352189798491E-002  0.19140168818563613        0.0000000000000000     
  -6.5524346343354328E-002  0.19962530368273854        0.0000000000000000     
  -6.9209540754146065E-002  0.16756550263191866        0.0000000000000000     
  -7.0161481658045935E-002  0.17548379723908644        0.0000000000000000     
  -7.1058723963158724E-002  0.18349791817430297        0.0000000000000000     
  -7.1901267669484376E-002  0.19160786543756830        0.0000000000000000     
  -7.2689112777022891E-002  0.19981363902888236        0.0000000000000000     
  -7.5991251877510213E-002  0.16786633142645718        0.0000000000000000     
  -7.7093992512180937E-002  0.17575858602448785        0.0000000000000000     
  -7.8127804706694684E-002  0.18374973961217642        0.0000000000000000     
  -7.9092688461051455E-002  0.19183979218952291        0.0000000000000000     
  -7.9988643775251250E-002  0.20002874375652727        0.0000000000000000     
  -5.1599107169696581E-002  0.19932894113495422        0.0000000000000000     
  -5.2085357199588150E-002  0.20767218305811191        0.0000000000000000     
  -5.2514011716173259E-002  0.21609028397050634        0.0000000000000000     
  -5.2885070719451921E-002  0.22458324387213752        0.0000000000000000     
  -5.3198534209424136E-002  0.23315106276300543        0.0000000000000000     
  -5.8494344474245577E-002  0.19946373771809581        0.0000000000000000     
  -5.9050288468416444E-002  0.20779008672093635        0.0000000000000000     
  -5.9543572142215659E-002  0.21619434885207506        0.0000000000000000     
  -5.9974195495643201E-002  0.22467652411151201        0.0000000000000000     
  -6.0342158528699084E-002  0.23323661249924713        0.0000000000000000     
  -6.5524346343354328E-002  0.19962530368273854        0.0000000000000000     
  -6.6160240615585050E-002  0.20793491936141265        0.0000000000000000     
  -6.6729743109163658E-002  0.21632373196885274        0.0000000000000000     
  -6.7232853824090166E-002  0.22479174150505885        0.0000000000000000     
  -6.7669572760364533E-002  0.23333894797003096        0.0000000000000000     
  -7.2689112777022891E-002  0.19981363902888236        0.0000000000000000     
  -7.3415213641093990E-002  0.20810668097954080        0.0000000000000000     
  -7.4072524617017257E-002  0.21647843332083938        0.0000000000000000     
  -7.4661045704792817E-002  0.22492889605277805        0.0000000000000000     
  -7.5180776904420529E-002  0.23345806917535686        0.0000000000000000     
  -7.9988643775251250E-002  0.20002874375652727        0.0000000000000000     
  -8.0815207544943202E-002  0.20830537157532086        0.0000000000000000     
  -8.1571916665776484E-002  0.21665845290803498        0.0000000000000000     
  -8.2258771137751097E-002  0.22508798775466965        0.0000000000000000     
  -8.2875770960867040E-002  0.23359397611522487        0.0000000000000000     
  -5.3198534209424136E-002  0.23315106276300543        0.0000000000000000     
  -5.3461452853184786E-002  0.24178400198409761        0.0000000000000000     
  -5.3680877317828751E-002  0.25047232287640153        0.0000000000000000     
  -5.3856807603356059E-002  0.25921602543991717        0.0000000000000000     
  -5.3989243709766675E-002  0.26801510967464454        0.0000000000000000     
  -6.0342158528699084E-002  0.23323661249924713        0.0000000000000000     
  -6.0651890262542869E-002  0.24187223993382584        0.0000000000000000     
  -6.0907819718334172E-002  0.25058103233379359        0.0000000000000000     
  -6.1109946896072971E-002  0.25936298969915023        0.0000000000000000     
  -6.1258271795759288E-002  0.26821811202989593        0.0000000000000000     
  -6.7669572760364533E-002  0.23333894797003096        0.0000000000000000     
  -6.8040254367947361E-002  0.24197034928525130        0.0000000000000000     
  -6.8345253096799188E-002  0.25069094337220210        0.0000000000000000     
  -6.8584568946920013E-002  0.25950073023088344        0.0000000000000000     
  -6.8758201918309850E-002  0.26839970986129530        0.0000000000000000     
  -7.5180776904420529E-002  0.23345806917535686        0.0000000000000000     
  -7.5626545169398290E-002  0.24207833003837381        0.0000000000000000     
  -7.5993177453223842E-002  0.25080205599162714        0.0000000000000000     
  -7.6280673755897213E-002  0.25962924703511675        0.0000000000000000     
  -7.6489034077418375E-002  0.26855990316884265        0.0000000000000000     
  -8.2875770960867040E-002  0.23359397611522487        0.0000000000000000     
  -8.3410762666895608E-002  0.24219618219319358        0.0000000000000000     
  -8.3851592787608092E-002  0.25091437019206864        0.0000000000000000     
  -8.4198261323004522E-002  0.25974854011185022        0.0000000000000000     
  -8.4450768273084870E-002  0.26869869195253809        0.0000000000000000     
  -5.3989243709766675E-002  0.26801510967464454        0.0000000000000000     
  -5.4108722981232232E-002  0.27682009877243369        0.0000000000000000     
  -5.4245782761924322E-002  0.28558151592513459        0.0000000000000000     
  -5.4400423051842971E-002  0.29429936113274718        0.0000000000000000     
  -5.4572643850988166E-002  0.30297363439527158        0.0000000000000000     
  -6.1258271795759288E-002  0.26821811202989593        0.0000000000000000     
  -6.1389127259660364E-002  0.27710204131302563        0.0000000000000000     
  -6.1538846130043463E-002  0.28597041953553454        0.0000000000000000     
  -6.1707428406908606E-002  0.29482324669742260        0.0000000000000000     
  -6.1894874090255771E-002  0.30366052279868982        0.0000000000000000     
  -6.8758201918309850E-002  0.26839970986129530        0.0000000000000000     
  -6.8905799386210762E-002  0.27735785561406734        0.0000000000000000     
  -6.9067008725864812E-002  0.28634514083982948        0.0000000000000000     
  -6.9241829937272015E-002  0.29536156553858167        0.0000000000000000     
  -6.9430263020432398E-002  0.30440712971032391        0.0000000000000000     
  -7.6489034077418375E-002  0.26855990316884265        0.0000000000000000     
  -7.6658739360883410E-002  0.27758754167555888        0.0000000000000000     
  -7.6830270549388360E-002  0.28670567983801948        0.0000000000000000     
  -7.7003627642933253E-002  0.29591431765622439        0.0000000000000000     
  -7.7178810641518061E-002  0.30521345513017362        0.0000000000000000     
  -8.4450768273084870E-002  0.26869869195253809        0.0000000000000000     
  -8.4647947183678324E-002  0.27779109949750025        0.0000000000000000     
  -8.4828631600614143E-002  0.28705203653010447        0.0000000000000000     
  -8.4992821523892273E-002  0.29648150305035076        0.0000000000000000     
  -8.5140516953512768E-002  0.30607949905823917        0.0000000000000000     
  -5.1665639596641146E-002   6.0665711484441401E-002   0.0000000000000000     
  -5.3201769538986317E-002   6.5775783020655745E-002   0.0000000000000000     
  -5.4783480509675110E-002   7.1187350225129675E-002   0.0000000000000000     
  -5.6410772508707553E-002   7.6900413097863204E-002   0.0000000000000000     
  -5.8083645536083611E-002   8.2914971638856333E-002   0.0000000000000000     
  -5.2634671480429635E-002   6.1460303552411416E-002   0.0000000000000000     
  -5.5050749385052035E-002   6.6473896245934611E-002   0.0000000000000000     
  -5.7393823688034307E-002   7.1813608144255969E-002   0.0000000000000000     
  -5.9663894389376484E-002   7.7479439247375465E-002   0.0000000000000000     
  -6.1860961489078541E-002   8.3471389555293110E-002   0.0000000000000000     
  -5.5659022164227856E-002   6.1596655927637738E-002   0.0000000000000000     
  -5.8472785283391136E-002   6.6868246002981399E-002   0.0000000000000000     
  -6.1198918046347577E-002   7.2382941964856631E-002   0.0000000000000000     
  -6.3837420453097163E-002   7.8140743813263441E-002   0.0000000000000000     
  -6.6388292503639895E-002   8.4141651548201801E-002   0.0000000000000000     
  -6.0738691648035803E-002   6.1074768610120359E-002   0.0000000000000000     
  -6.3467877234003642E-002   6.6958832291796111E-002   0.0000000000000000     
  -6.6198763584614906E-002   7.2895351686931689E-002   0.0000000000000000     
  -6.8931350699869567E-002   7.8884326795527149E-002   0.0000000000000000     
  -7.1665638579767668E-002   8.4925757617582434E-002   0.0000000000000000     
  -6.7873679931853476E-002   5.9894641599859286E-002   0.0000000000000000     
  -7.0036025236889538E-002   6.6745655112378705E-002   0.0000000000000000     
  -7.2393360302836302E-002   7.3350837310481129E-002   0.0000000000000000     
  -7.4945685129693740E-002   7.9710188194166559E-002   0.0000000000000000     
  -7.7692999717461853E-002   8.5823707763435009E-002   0.0000000000000000     
  -5.8083645536083611E-002   8.2914971638856333E-002   0.0000000000000000     
  -5.9770452581688747E-002   8.9162313238105140E-002   0.0000000000000000     
  -6.1439546635408418E-002   9.5573725285605649E-002   0.0000000000000000     
  -6.3090927697242602E-002  0.10214920778135791        0.0000000000000000     
  -6.4724595767191306E-002  0.10888876072536188        0.0000000000000000     
  -6.1860961489078541E-002   8.3471389555293110E-002   0.0000000000000000     
  -6.3988055158062107E-002   8.9706668321384658E-002   0.0000000000000000     
  -6.6048205567248802E-002   9.6102484799025847E-002   0.0000000000000000     
  -6.8041412716638619E-002  0.10265883898821665        0.0000000000000000     
  -6.9967676606231557E-002  0.10937573088895713        0.0000000000000000     
  -6.6388292503639895E-002   8.4141651548201801E-002   0.0000000000000000     
  -6.8847884328840758E-002   9.0345739753130330E-002   0.0000000000000000     
  -7.1212546059564785E-002   9.6713083011507564E-002   0.0000000000000000     
  -7.3482277695811948E-002  0.10324368132333352        0.0000000000000000     
  -7.5657079237582248E-002  0.10993753468860819        0.0000000000000000     
  -7.1665638579767668E-002   8.4925757617582434E-002   0.0000000000000000     
  -7.4349940094024750E-002   9.1079527533342156E-002   0.0000000000000000     
  -7.6932568112356367E-002   9.7405519923050812E-002   0.0000000000000000     
  -7.9413522634762562E-002  0.10390373478670847        0.0000000000000000     
  -8.1792803661243335E-002  0.11057417212431504        0.0000000000000000     
  -7.7692999717461853E-002   8.5823707763435009E-002   0.0000000000000000     
  -8.0494222453614012E-002   9.1908031662020134E-002   0.0000000000000000     
  -8.3208271725623562E-002   9.8179795533655620E-002   0.0000000000000000     
  -8.5835147533490502E-002  0.10463899937834149        0.0000000000000000     
  -8.8374849877214834E-002  0.11128564319607773        0.0000000000000000     
  -6.4724595767191306E-002  0.10888876072536188        0.0000000000000000     
  -6.6325762871096788E-002  0.11578417487742650        0.0000000000000000     
  -6.7879641034801319E-002  0.12282724099736066        0.0000000000000000     
  -6.9386230258304898E-002  0.13001795908516436        0.0000000000000000     
  -7.0845530541607499E-002  0.13735632914083762        0.0000000000000000     
  -6.9967676606231557E-002  0.10937573088895713        0.0000000000000000     
  -7.1828580365715294E-002  0.11624835278689460        0.0000000000000000     
  -7.3625707124777479E-002  0.12327189696767646        0.0000000000000000     
  -7.5359056883418124E-002  0.13044636343130270        0.0000000000000000     
  -7.7028629641637217E-002  0.13777175217777329        0.0000000000000000     
  -7.5657079237582248E-002  0.10993753468860819        0.0000000000000000     
  -7.7745440893925488E-002  0.11678888945838242        0.0000000000000000     
  -7.9755852873891545E-002  0.12379199198370708        0.0000000000000000     
  -8.1688315177480361E-002  0.13094684226458214        0.0000000000000000     
  -8.3542827804691980E-002  0.13825344030100759        0.0000000000000000     
  -8.1792803661243335E-002  0.11057417212431504        0.0000000000000000     
  -8.4076344455727384E-002  0.11740578489188996        0.0000000000000000     
  -8.6270078282143475E-002  0.12438752604545250        0.0000000000000000     
  -8.8374005140491596E-002  0.13151939558500267        0.0000000000000000     
  -9.0388125030771774E-002  0.13880139351054049        0.0000000000000000     
  -8.8374849877214834E-002  0.11128564319607773        0.0000000000000000     
  -9.0821291051120981E-002  0.11809903908741720        0.0000000000000000     
  -9.3168383349533312E-002  0.12505849915291273        0.0000000000000000     
  -9.5416126772451856E-002  0.13216402339256439        0.0000000000000000     
  -9.7564521319876599E-002  0.13941561180637210        0.0000000000000000     
  -7.0845530541607499E-002  0.13735632914083762        0.0000000000000000     
  -7.2243879985003007E-002  0.14482235131339488        0.0000000000000000     
  -7.3567616688785309E-002  0.15239602575185057        0.0000000000000000     
  -7.4816740652954364E-002  0.16007735245620464        0.0000000000000000     
  -7.5991251877510213E-002  0.16786633142645718        0.0000000000000000     
  -7.7028629641637217E-002  0.13777175217777329        0.0000000000000000     
  -7.8624455783369809E-002  0.14522446903280428        0.0000000000000000     
  -8.0136565692550940E-002  0.15278091982211167        0.0000000000000000     
  -8.1564959369180595E-002  0.16044110454569549        0.0000000000000000     
  -8.2909636813258789E-002  0.16820502320355568        0.0000000000000000     
  -8.3542827804691980E-002  0.13825344030100759        0.0000000000000000     
  -8.5312034232379499E-002  0.14568673249800509        0.0000000000000000     
  -8.6988577937396006E-002  0.15322166526059644        0.0000000000000000     
  -8.8572458919741512E-002  0.16085823858878154        0.0000000000000000     
  -9.0063677179416018E-002  0.16859645248256039        0.0000000000000000     
  -9.0388125030771774E-002  0.13880139351054049        0.0000000000000000     
  -9.2306615332032022E-002  0.14620914170899746        0.0000000000000000     
  -9.4123653423320505E-002  0.15371826206730485        0.0000000000000000     
  -9.5839239304637100E-002  0.16132875458546284        0.0000000000000000     
  -9.7453372975981875E-002  0.16904061926347136        0.0000000000000000     
  -9.7564521319876599E-002  0.13941561180637210        0.0000000000000000     
  -9.9608199082327473E-002  0.14679169666578118        0.0000000000000000     
 -0.10154179215032440       0.15427071024223696        0.0000000000000000     
 -0.10336530052386735       0.16185265253573938        0.0000000000000000     
 -0.10507872420295637       0.16953752354628843        0.0000000000000000     
  -7.5991251877510213E-002  0.16786633142645718        0.0000000000000000     
  -7.7093992512180937E-002  0.17575858602448785        0.0000000000000000     
  -7.8127804706694684E-002  0.18374973961217642        0.0000000000000000     
  -7.9092688461051455E-002  0.19183979218952291        0.0000000000000000     
  -7.9988643775251250E-002  0.20002874375652727        0.0000000000000000     
  -8.2909636813258789E-002  0.16820502320355568        0.0000000000000000     
  -8.4170505638528292E-002  0.17607142358531805        0.0000000000000000     
  -8.5347473458731879E-002  0.18403905348060823        0.0000000000000000     
  -8.6440540273869590E-002  0.19210791288942619        0.0000000000000000     
  -8.7449706083941356E-002  0.20027800181177205        0.0000000000000000     
  -9.0063677179416018E-002  0.16859645248256039        0.0000000000000000     
  -9.1462054182518973E-002  0.17643649965612690        0.0000000000000000     
  -9.2767411395149824E-002  0.18437857282367490        0.0000000000000000     
  -9.3979748817308556E-002  0.19242267198520432        0.0000000000000000     
  -9.5099066448995170E-002  0.20056879714071529        0.0000000000000000     
  -9.7453372975981875E-002  0.16904061926347136        0.0000000000000000     
  -9.8968638144152965E-002  0.17685381423691446        0.0000000000000000     
 -0.10038761851594845       0.18476829764137653        0.0000000000000000     
 -0.10171031409136840       0.19278406947685739        0.0000000000000000     
 -0.10293672487041275       0.20090112974335717        0.0000000000000000     
 -0.10507872420295637       0.16953752354628843        0.0000000000000000     
 -0.10669025752343025       0.17732336732768078        0.0000000000000000     
 -0.10820809482112784       0.18520822793371311        0.0000000000000000     
 -0.10963223609604909       0.19319210536438530        0.0000000000000000     
 -0.11096268134819405       0.20127499961969747        0.0000000000000000     
  -7.9988643775251250E-002  0.20002874375652727        0.0000000000000000     
  -8.0815207544943202E-002  0.20830537157532086        0.0000000000000000     
  -8.1571916665776484E-002  0.21665845290803498        0.0000000000000000     
  -8.2258771137751097E-002  0.22508798775466965        0.0000000000000000     
  -8.2875770960867040E-002  0.23359397611522487        0.0000000000000000     
  -8.7449706083941356E-002  0.20027800181177205        0.0000000000000000     
  -8.8381415785190182E-002  0.20853603606373283        0.0000000000000000     
  -8.9242114273859016E-002  0.21686873146139576        0.0000000000000000     
  -9.0031801549947887E-002  0.22527608800476079        0.0000000000000000     
  -9.0750477613456768E-002  0.23375810569382796        0.0000000000000000     
  -9.5099066448995170E-002  0.20056879714071529        0.0000000000000000     
  -9.6135031819892303E-002  0.20880371935975681        0.0000000000000000     
  -9.7097312459682561E-002  0.21711420971187798        0.0000000000000000     
  -9.7985908368365932E-002  0.22550026819707872        0.0000000000000000     
  -9.8800819545942400E-002  0.23396189481535912        0.0000000000000000     
 -0.10293672487041275       0.20090112974335717        0.0000000000000000     
 -0.10407605564904963       0.20910842146339281        0.0000000000000000     
 -0.10513751122324712       0.21739488765948159        0.0000000000000000     
 -0.10612109159300523       0.22576052833162347        0.0000000000000000     
 -0.10702679675832395       0.23420534347981842        0.0000000000000000     
 -0.11096268134819405       0.20127499961969747        0.0000000000000000     
 -0.11220448727266212       0.20945014237464082        0.0000000000000000     
 -0.11336271056455269       0.21771076530420666        0.0000000000000000     
 -0.11443735122386579       0.22605686840839492        0.0000000000000000     
 -0.11542840925060138       0.23448845168720572        0.0000000000000000     
  -8.2875770960867040E-002  0.23359397611522487        0.0000000000000000     
  -8.3410762666895608E-002  0.24219618219319358        0.0000000000000000     
  -8.3851592787608092E-002  0.25091437019206864        0.0000000000000000     
  -8.4198261323004522E-002  0.25974854011185022        0.0000000000000000     
  -8.4450768273084870E-002  0.26869869195253809        0.0000000000000000     
  -9.0750477613456768E-002  0.23375810569382796        0.0000000000000000     
  -9.1382954948782069E-002  0.24233970914496722        0.0000000000000000     
  -9.1914046040320149E-002  0.25104582297454853        0.0000000000000000     
  -9.2343750888071022E-002  0.25987644718257197        0.0000000000000000     
  -9.2672069492034687E-002  0.26883158176903743        0.0000000000000000     
  -9.8800819545942400E-002  0.23396189481535912        0.0000000000000000     
  -9.9533170103400362E-002  0.24252471428895161        0.0000000000000000     
 -0.10017408415172817       0.25121435134008874        0.0000000000000000     
 -0.10072356169092579       0.26003080596877037        0.0000000000000000     
 -0.10118160272099326       0.26897407817499658        0.0000000000000000     
 -0.10702679675832395       0.23420534347981842        0.0000000000000000     
 -0.10786140813075050       0.24275119762514683        0.0000000000000000     
 -0.10863170712183214       0.25141995528868910        0.0000000000000000     
 -0.10933769373156882       0.26021161647044538        0.0000000000000000     
 -0.10997936795996059       0.26912618117041548        0.0000000000000000     
 -0.11542840925060138       0.23448845168720572        0.0000000000000000     
 -0.11636766903083251       0.24301915915355279        0.0000000000000000     
 -0.11728691495063208       0.25166263482034984        0.0000000000000000     
 -0.11818614701000013       0.26041887868759700        0.0000000000000000     
 -0.11906536520893667       0.26928789075529419        0.0000000000000000     
  -8.4450768273084870E-002  0.26869869195253809        0.0000000000000000     
  -8.4647947183678324E-002  0.27779109949750025        0.0000000000000000     
  -8.4828631600614143E-002  0.28705203653010447        0.0000000000000000     
  -8.4992821523892273E-002  0.29648150305035076        0.0000000000000000     
  -8.5140516953512768E-002  0.30607949905823917        0.0000000000000000     
  -9.2672069492034687E-002  0.26883158176903743        0.0000000000000000     
  -9.2929533273192602E-002  0.27797424075697386        0.0000000000000000     
  -9.3146673652526241E-002  0.28736743816941013        0.0000000000000000     
  -9.3323490630035560E-002  0.29701117400634625        0.0000000000000000     
  -9.3459984205720603E-002  0.30690544826778210        0.0000000000000000     
 -0.10118160272099326       0.26897407817499658        0.0000000000000000     
 -0.10155960804802334       0.27814267713106217        0.0000000000000000     
 -0.10186897847810876       0.28763511200926201        0.0000000000000000     
 -0.10210971401124953       0.29745138280959599        0.0000000000000000     
 -0.10228181464744568       0.30759148953206428        0.0000000000000000     
 -0.10997936795996059       0.26912618117041548        0.0000000000000000     
 -0.11053817150817052       0.27829640861976518        0.0000000000000000     
 -0.11099554607736173       0.28785505804966005        0.0000000000000000     
 -0.11135149166753423       0.29780212946010026        0.0000000000000000     
 -0.11160600827868801       0.30813762285108565        0.0000000000000000     
 -0.11906536520893667       0.26928789075529419        0.0000000000000000     
 -0.11986522365363417       0.27843543522308284        0.0000000000000000     
 -0.12052637645028516       0.28802727629060437        0.0000000000000000     
 -0.12104882359888963       0.29806341395785885        0.0000000000000000     
 -0.12143256509944755       0.30854384822484621        0.0000000000000000     
 </DataArray>
 <DataArray  type="Float64" Name="stress" NumberOfComponents="3" format="ascii">
   5311910993.1660185        4491327261.4579124       -877822902.56801939     
   4999084713.8256245        2200638527.5629163       -462703881.95509720     
   4909129579.7433176        652853611.19490433       -228705797.18693995     
   5042045590.9191141       -152027487.64612198       -175828648.26353481     
   5397832747.3530045       -214004768.96014643       -304072435.18488693     
   6295146940.8090572        3522477835.0276499       -184241028.41745681     
   5798873884.0645437        1857349419.1193194        95018999.069572508     
   5457341391.9448042        708022885.29357588        269926983.32435042     
   5270549464.4498386        74498233.550397635        340482924.34685576     
   5238498101.5796394       -43224536.110205889        306686822.13711739     
   6151191640.2697687        2215471034.1426792        810850742.59276879     
   5690811499.2997122        1241704844.1745973        874766099.54836690     
   5317041342.3211079        556638600.84468174        911098305.88419986     
   5029881169.3339443        160272304.15290833        919847361.60028255     
   4829330980.3382378        52605954.099317074        901013266.69660568     
   4880045091.5481625        570306858.80301607        2107452410.4626613     
   4674897559.5311337        353704802.72875214        1876537419.4812679     
   4488229430.8722286        198700757.84823489        1694808170.4926205     
   4320040705.5714512        105294724.16146064        1562264663.4967253     
   4170331383.6287899        73486701.668422937        1478906898.4935646     
   2481707294.6442366       -1413014690.9913425        3705563975.1922002     
   2751132064.7588034       -806650705.21822119        3100332958.8682914     
   2970905657.5981741       -365790643.69575953        2621056577.1496191     
   3141028073.1623368       -90434506.423989296        2267734830.0361910     
   3261499311.4513040        19417706.597123861        2040367717.5280073     
   5397832747.3530045       -214004768.96014643       -304072435.18488693     
   5263916967.6972399       -102480530.99770355       -212198231.16532126     
   5118390965.9284487       -29657033.412020683       -138875472.10889840     
   4961254742.0466385        4465723.7969372272       -84104158.015606806     
   4792508296.0518026       -112259.37085866928       -47884288.885458037     
   5238498101.5796394       -43224536.110205889        306686822.13711739     
   5061881627.0555935        18764255.665849686        307725851.12964892     
   4877611024.1262236        55239286.090829611        305900893.53733128     
   4685686292.7915163        66200555.164696217        301211949.36018389     
   4486107433.0514965        51648062.887496948        293659018.59818918     
   4829330980.3382378        52605954.099317074        901013266.69660568     
   4654835120.5981932        78505692.584694862        815832563.32106614     
   4476641226.1605148        92078648.744627237        743475331.73899114     
   4294749297.0252032        93324822.579111099        683941571.95037210     
   4109159333.1922593        82244214.088153362        637231283.95522249     
   4170331383.6287899        73486701.668422937        1478906898.4935646     
   4042777448.3250256        76743779.758804083        1312121905.4089458     
   3915481572.0313201        80861054.549376249        1173847842.4960821     
   3788443754.7476788        85838526.040162563        1064084709.7549784     
   3661663996.4740925        91676194.231137514        982832507.18563068     
   3261499311.4513040        19417706.597123861        2040367717.5280073     
   3225708610.2360940        13478517.188177109        1796593877.3932827     
   3194132061.7386460        21586503.505091190        1597018425.8086078     
   3166769665.9589462        43741665.547839284        1441641362.7739890     
   3143621422.8970046        79944003.316448331        1330462688.2894228     
   4792508296.0518026       -112259.37085866928       -47884288.885458037     
   4593941091.2190695       -26170139.410500050       -48398867.988311917     
   4398720150.7715607       -41073804.832749605       -42722026.582374930     
   4206845474.7092538       -44823255.637646198       -30853764.667651549     
   4018317063.0321736       -37418491.825122833       -12794082.244138582     
   4486107433.0514965        51648062.887496948        293659018.59818918     
   4308637958.7524805        34847743.896793842        272309081.83166200     
   4132967244.2791653        24043290.991748095        258860387.80175936     
   3959095289.6315322        19234704.172326565        253312936.50848314     
   3787022094.8095889        20421983.438516617        255666727.95182243     
   4109159333.1922593        82244214.088153362        637231283.95522249     
   3957672795.7922177        76167018.056004047        593240567.53889596     
   3806437513.6583409        70927339.577724457        558860916.08703637     
   3655453486.7906199        66525178.653302431        534092329.59963602     
   3504720715.1890650        62960535.282770872        518934808.07670271     
   3661663996.4740925        91676194.231137514        982832507.18563068     
   3541045602.3382740        97787683.067100763        914395589.13339949     
   3419130958.9090834        99578340.925160527        857279558.27347589     
   3295920066.1865292        97048167.805344701        811484414.60583949     
   3171412924.1706128        90197163.707648635        777010158.13050056     
   3143621422.8970046        79944003.316448331        1330462688.2894228     
   3058756378.3906507        99709738.930090308        1235774146.6151724     
   2971047580.0314016        109996295.03408933        1154116314.3610575     
   2880495027.8192577        110803671.62844276        1085489191.5270708     
   2787098721.7542210        102131868.71314096        1029892778.1132237     
   4018317063.0321736       -37418491.825122833       -12794082.244138582     
   3808028975.0747643       -33836740.363509178       -20334171.822309002     
   3596178067.0397263       -35464389.160669565       -21557473.881229810     
   3382764338.9270625       -42301438.216581345       -16463988.420893958     
   3167787790.7367468       -54347887.531321645       -5053715.4412969658     
   3787022094.8095889        20421983.438516617        255666727.95182243     
   3591074259.7285795        16556676.996311665        229182907.03056389     
   3394718745.9445271        11332441.543987513        209131814.16508663     
   3197955553.4574189        4749277.0814609528        195513449.35539386     
   3000784682.2672610       -3192816.3912445307        188327812.60145545     
   3504720715.1890650        62960535.282770872        518934808.07670271     
   3323444391.6602416        51747548.539539814        474854920.74937117     
   3142915530.8029470        43026104.034749508        437323702.01433557     
   2963134132.6171770        36796201.768370152        406341151.87160927     
   2784100197.1029301        33057841.740392208        381907270.32116646     
   3171412924.1706128        90197163.707648635        777010158.13050056     
   3005139370.8697395        71735874.266112208        716681869.33411109     
   2840768421.6149755        59616598.311584592        663018189.66653025     
   2678300076.4063096        53839335.844068289        616019119.12776554     
   2517734335.2437477        54404086.863553882        575684657.71781993     
   2787098721.7542210        102131868.71314096        1029892778.1132237     
   2636159197.3570743        76521654.176008940        954663752.78476572     
   2488277418.3806138        61103924.374508619        886215277.12165272     
   2343453384.8248291        55878679.308592319        824547351.12386513     
   2201687096.6897292        60845918.978284836        769659974.79142570     
   3167787790.7367468       -54347887.531321645       -5053715.4412969658     
   2987569804.5313826       -55419962.406299114        4589616.4885671753     
   2809275169.7295012       -50080865.936323762        10159843.188217720     
   2632903886.3311548       -38330598.121241331        11656964.657659795     
   2458455954.3362751       -20169158.961261153        9080980.8968882728     
   3000784682.2672610       -3192816.3912445307        188327812.60145545     
   2814788822.8339839       -6956317.7516562939        184421552.13546938     
   2629745315.8962002       -7545310.7937555313        180764977.45180488     
   2445654161.4539285       -4959795.5174931288        177358088.55043697     
   2262515359.5071473        800228.07708334923        174200885.43136883     
   2784100197.1029301        33057841.740392208        381907270.32116646     
   2604677295.9060946        30308163.333852649        363318585.39999801     
   2425235748.2967534        27496330.218955517        349302377.27366322     
   2245775554.2749190        24622342.395746946        339858645.94215441     
   2066296713.8405869        21686199.864197969        334987391.40548050     
   2517734335.2437477        54404086.863553882        575684657.71781993     
   2357235223.7477036        56373480.850178123        541280716.28213716     
   2195746466.9311614        55044057.101803184        515772042.65380520     
   2033268064.7941296        50415815.618452907        499158636.83283275     
   1869800017.3365834        42488756.400079727        491440498.81921440     
   2201687096.6897292        60845918.978284836        769659974.79142570     
   2072462606.3588276        71239634.797381163        718307944.78189600     
   1941277471.7994344        75097869.854833484        680173973.59224200     
   1808131693.0115356        72420624.150606990        655258061.22245812     
   1673025269.9951394        63207897.684716165        643560207.67255890     
   2458455954.3362751       -20169158.961261153        9080980.8968882728     
   2303885039.6273465       -476692.96522927284       -3140439.5828749952     
   2144468524.0535121        3063770.1477856636       -10587037.516550058     
   1980206407.6148114       -9547769.6220929623       -13258812.904159978     
   1811098690.3112123       -38311312.274956584       -11155765.745697064     
   2262515359.5071473        800228.07708334923        174200885.43136883     
   2117126450.8894987        14571841.015662551        156665524.90365842     
   1968600544.5094595        17886794.746290565        142784774.14411682     
   1816937640.3670726        10745089.269096971        132558633.15273829     
   1662137738.4623237       -6853275.4159926176        125987101.92953239     
   2066296713.8405869        21686199.864197969        334987391.40548050     
   1926889203.3773277        28576777.364247441        314131461.11608762     
   1786053298.2542212        30706039.331469893        295809927.81695175     
   1643788998.4712720        28073985.765882611        280022791.50807625     
   1500096304.0284791        20680616.667471111        266770052.18946677     
   1869800017.3365834        42488756.400079727        491440498.81921440     
   1733173297.0908463        41538116.080550849        469257369.05441219     
   1596826785.2877924        41521503.903290391        448488423.50196213     
   1460760481.9273992        42438919.868239522        429133662.16186112     
   1324974387.0096903        44290363.975465059        411193085.03412533     
   1673025269.9951394        63207897.684716165        643560207.67255890     
   1535978732.0300524        53455857.164553881        622043248.71862292     
   1400921005.6101565        50333188.461717129        600820261.19913471     
   1267852090.7354531        53839891.576176584        579891245.11409688     
   1136771987.4059486        63975966.507966340        559256200.46349645     
   1811098690.3112123       -38311312.274956584       -11155765.745697064     
   1777883420.0724654       -20940173.018792748       -6041183.9145692633     
   1753052397.5928724        24378458.767862916       -39980670.374587610     
   1736605622.8723927        97644583.084913135       -112974225.12571751     
   1728543095.9110715        198858199.93247980       -225021848.16800126     
   1662137738.4623237       -6853275.4159926176        125987101.92953239     
   1536608602.1059105       -13684489.370896935        140349371.59024519     
   1415525862.0167320       -5694382.4350072742        128340201.73104711     
   1298889518.1948056        17117045.391701579        89959592.351963773     
   1186699570.6401014        54749794.109160483        25207543.452946488     
   1500096304.0284791        20680616.667471111        266770052.18946677     
   1318489383.7578926        517874.16253668070        285785849.60589582     
   1137391008.2626600       -17949719.091220200        291112836.27364671     
   956801177.54274726       -34722163.093918860        282751012.19272321     
   776719891.59818947       -49799457.845428050        260700377.36311260     
   1324974387.0096903        44290363.975465059        411193085.03412533     
   1123525765.0284369        21666917.581577301        430268250.13239354     
   918647836.33062792       -12387551.200852871        448337233.25320631     
   710340600.91625714       -57873042.371808529        465400034.39655745     
   498604058.78532779       -114789555.93129486        481456653.56246054     
   1136771987.4059486        63975966.507966340        559256200.46349645     
   951717745.91752601        49762640.886144578        573796573.16972101     
   759296346.22064197        10992121.236123323        600013392.66971862     
   559507788.31530905       -52335592.442063361        637906658.96347654     
   352352072.20151299       -140220500.14846092        687476372.05101275     
   1728543095.9110715        198858199.93247980       -225021848.16800126     
   1457941181.5029604        184567966.05539560       -97184285.883666039     
   1154729502.0892005        61578515.492793381        59835771.788696587     
   818908057.66977942       -170110151.75534058        246038324.84910458     
   450476848.24470526       -510498035.68897378        461423373.29756564     
   1186699570.6401014        54749794.109160483        25207543.452946488     
   979358969.44351637        12759922.493035674        156281085.64287141     
   733894549.40318167       -156309345.26893297        313226905.16262156     
   450306310.51911438       -452458009.17665470        496045002.01221997     
   128594252.79130429       -875686069.23019671        704735376.19162309     
   776719891.59818947       -49799457.845428050        260700377.36311260     
   623182837.73253632       -122326296.96481165        388576836.64750075     
   426007911.18505895       -340312711.69025064        539015355.20354259     
   185195111.95575699       -703758702.02180326        712015933.03119016     
  -99255559.955389678       -1212664267.9594607        907578570.13049531     
   498604058.78532779       -114789555.93129486        481456653.56246054     
   389412786.37002981       -220690692.31807694        599702967.13024080     
   231069587.43481576       -490431583.77122426        737201121.91144300     
   23574461.979686737       -924012230.29076564        893951117.90607989     
  -233072589.99535841       -1521432631.8766937        1069952955.1141554     
   352352072.20151299       -140220500.14846092        687476372.05101275     
   278048815.35599113       -282333263.56678855        789659477.09107590     
   149079578.15245956       -606665961.51183188        907784205.28637028     
  -34555639.409070194       -1113218593.9835105        1041850556.6368576     
  -272856837.32860112       -1801991160.9818826        1191858531.1426020     
   2481707294.6442366       -1413014690.9913425        3705563975.1922002     
   2751132064.7588034       -806650705.21822119        3100332958.8682914     
   2970905657.5981741       -365790643.69575953        2621056577.1496191     
   3141028073.1623368       -90434506.423989296        2267734830.0361910     
   3261499311.4513040        19417706.597123861        2040367717.5280073     
   584607061.97052503       -1711411799.6824708        2138686926.7710381     
   1080871360.3255439       -1173722793.7615428        1844463089.3210199     
   1541991798.5086880       -753179988.41354609        1614624634.3396983     
   1967968376.5199459       -449783383.63849115        1449171561.8270655     
   2358801094.3593283       -263532979.43636012        1348103871.7831192     
  -194620094.17090303       -1674446985.4139185        510760031.19690257     
   352571583.46300107       -1258206604.0336561        544468575.90799654     
   879126718.02834272       -910754699.54858947        580993250.95122695     
   1385045309.5251279       -632091271.95871794        620334056.32659793     
   1870327357.9533536       -422216321.26404393        662490992.03410602     
   144025826.21998590       -1302120248.1856682       -1178216711.5301869     
   566232734.17118335       -1060102136.0345502       -799650581.37078154     
   982310416.15715170       -838514777.10088384       -479837573.01578444     
   1392258872.1778791       -637358171.38467598       -218777686.46520275     
   1796078102.2333727       -456632318.88592625       -16470921.719034536     
   1600544823.1431720       -594431587.99773014       -2928243301.4102440     
   1721854812.4500959       -579409389.76422346       -2187894382.5153131     
   1851542892.8951089       -536460221.07043791       -1567867837.5613432     
   1989609064.4782081       -465584081.91636133       -1068163666.5483409     
   2136053327.1993861       -366780972.30201697       -688781869.47630131     
   3261499311.4513040        19417706.597123861        2040367717.5280073     
   3225708610.2360940        13478517.188177109        1796593877.3932827     
   3194132061.7386460        21586503.505091190        1597018425.8086078     
   3166769665.9589462        43741665.547839284        1441641362.7739890     
   3143621422.8970046        79944003.316448331        1330462688.2894228     
   2358801094.3593283       -263532979.43636012        1348103871.7831192     
   2423311541.1350441       -224333862.45000350        1242532533.0275161     
   2490556217.8210940       -176020645.76252425        1159501002.7005754     
   2560535124.4174833       -118593329.37392414        1099009280.8022945     
   2633248260.9242029       -52051913.284212589        1061057367.3326790     
   1870327357.9533536       -422216321.26404393        662490992.03410602     
   1973257295.2302978       -356443395.12930119        693395578.04897308     
   2077441539.6101584       -286489445.31816161        725181392.37110806     
   2182880091.0929394       -212354471.83062518        757848435.00051320     
   2289572949.6786394       -134038474.66669023        791396705.93719268     
   1796078102.2333727       -456632318.88592625       -16470921.719034536     
   1875545872.5218520       -382850080.84970975        149183012.45764819     
   1954788027.1058373       -309819895.16181123        294059594.82020497     
   2033804565.9853220       -237541761.82224655        418158825.36864519     
   2112595489.1603107       -166015680.83100176        521480704.10296398     
   2136053327.1993861       -366780972.30201697       -688781869.47630131     
   2130177273.0097182       -303553919.61121643       -390105163.74645978     
   2122595680.3081317       -246011995.29347622       -133864389.95212784     
   2113308549.0946302       -194155199.34878206        79940451.906687737     
   2102315879.3692138       -147983531.77714372        251309361.82999501     
   3143621422.8970046        79944003.316448331        1330462688.2894228     
   3058756378.3906507        99709738.930090308        1235774146.6151724     
   2971047580.0314016        109996295.03408933        1154116314.3610575     
   2880495027.8192577        110803671.62844276        1085489191.5270708     
   2787098721.7542210        102131868.71314096        1029892778.1132237     
   2633248260.9242029       -52051913.284212589        1061057367.3326790     
   2577477076.5138383       -23479477.772718668        1018823988.5246056     
   2519351650.5647092       -2754514.0571048260        983907477.31688333     
   2458871983.0768275        10122977.862666488        956307833.70951438     
   2396038074.0501814        15152997.986566305        936025057.70249593     
   2289572949.6786394       -134038474.66669023        791396705.93719268     
   2246570363.0220284       -101556917.96003532        802189587.69511986     
   2201703047.1407952       -75291125.335449100        814585495.23362005     
   2154971002.0349379       -55241096.792947531        828584428.55269217     
   2106374227.7044578       -41406832.332518697        844186387.65233660     
   2112595489.1603107       -166015680.83100176        521480704.10296398     
   2066036237.9152272       -134522581.63183653        585870944.12671745     
   2018101769.7596481       -107613538.80097818        646150368.11126268     
   1968792084.6935856       -85288552.338397145        702318976.05660403     
   1918107182.7170370       -67547622.244113564        754376767.96273053     
   2102315879.3692138       -147983531.77714372        251309361.82999501     
   2035874701.1934197       -122376468.78815150        369868057.81939983     
   1968547818.4212763       -99721754.453666210        478602095.94981623     
   1900335231.0527766       -80019388.773694873        577511476.22124135     
   1831236939.0879307       -63269371.748210788        666596198.63367879     
   2787098721.7542210        102131868.71314096        1029892778.1132237     
   2636159197.3570743        76521654.176008940        954663752.78476572     
   2488277418.3806138        61103924.374508619        886215277.12165272     
   2343453384.8248291        55878679.308592319        824547351.12386513     
   2201687096.6897292        60845918.978284836        769659974.79142570     
   2396038074.0501814        15152997.986566305        936025057.70249593     
   2263657264.7772932       -70545.952788710594        898835670.94464386     
   2134033228.4787364       -6104846.6443502903        866744745.24831057     
   2007165965.1545131       -2949904.0881379843        839752280.61350667     
   1883055474.8046317        9394281.7158662081        817858277.04023516     
   2106374227.7044578       -41406832.332518697        844186387.65233660     
   1987746166.1163597       -47685495.905942321        844685504.94433701     
   1871573905.0562539       -45778157.719393969        848600994.69405699     
   1757857444.5241358       -35684817.772883654        855932856.90148795     
   1646596784.5200064       -17405476.066413879        866681091.56664133     
   1918107182.7170370       -67547622.244113564        754376767.96273053     
   1808425901.3742809       -66323195.683441043        792213254.78385878     
   1700899448.1131663       -57916008.850620747        831784025.45888722     
   1595527822.9336998       -42326061.745648444        873089079.98782468     
   1492311025.8358700       -19553354.368545592        916128418.37067032     
   1831236939.0879307       -63269371.748210788        666596198.63367879     
   1725696470.5510550       -55983645.285283923        741418920.46319246     
   1622009857.6494746       -42518400.038033009        816293837.54279935     
   1520177100.3832002       -22873636.006431818        891220949.87250113     
   1420198198.7522151        2950646.8094670177        966200257.45230818     
   2201687096.6897292        60845918.978284836        769659974.79142570     
   2072462606.3588276        71239634.797381163        718307944.78189600     
   1941277471.7994344        75097869.854833484        680173973.59224200     
   1808131693.0115356        72420624.150606990        655258061.22245812     
   1673025269.9951394        63207897.684716165        643560207.67255890     
   1883055474.8046317        9394281.7158662081        817858277.04023516     
   1784405432.9975588        30631841.231385112        790287862.40147996     
   1683826248.4240716        45438924.858848631        770515770.03123832     
   1581317921.0841553        53815532.598224878        758541999.92951345     
   1476880450.9778261        55761664.449545562        754366552.09628868     
   1646596784.5200064       -17405476.066413879        866681091.56664133     
   1563036229.6614354        10030438.672934473        862929044.00443316     
   1477578033.4985149        31140882.397792101        861555582.15937316     
   1390222196.0312591        45925855.108194649        862560706.03144801     
   1300968717.2596569        54385356.804118335        865944415.62067151     
   1492311025.8358700       -19553354.368545592        916128418.37067032     
   1408354996.3504586        9435427.1220169067        936231489.59075427     
   1322532827.0227809        32203742.471702456        953293409.97662544     
   1234844517.8528333        48751591.680492282        967314179.52826440     
   1145290068.8406301        59078974.748423815        978293798.24568462     
   1420198198.7522151        2950646.8094670177        966200257.45230818     
   1320361733.0646310        28846806.578667462        1010195199.1604549     
   1218690628.9968462        48627505.080525935        1045729253.4830072     
   1115184886.5488970        62292742.315173447        1072802420.4199690     
   1009844505.7207475        69842518.282485843        1091414699.9713466     
   1673025269.9951394        63207897.684716165        643560207.67255890     
   1535978732.0300524        53455857.164553881        622043248.71862292     
   1400921005.6101565        50333188.461717129        600820261.19913471     
   1267852090.7354531        53839891.576176584        579891245.11409688     
   1136771987.4059486        63975966.507966340        559256200.46349645     
   1476880450.9778261        55761664.449545562        754366552.09628868     
   1342181460.2064512        47020312.698925138        742090103.04967988     
   1208350715.0130813        41173112.875009358        731092252.23235106     
   1075388215.3977156        38220064.977773070        721372999.64430940     
   943293961.36036277        38161169.007227123        712932345.28555298     
   1300968717.2596569        54385356.804118335        865944415.62067151     
   1171430493.0958197        47498659.647197306        861601149.51966238     
   1041639948.5428014        39770894.526339412        859521108.44277155     
   911597083.60060024        31202061.441536039        859704292.39000869     
   781301898.26921976        21792160.392804116        862150701.36136794     
   1145290068.8406301        59078974.748423815        978293798.24568462     
   1023725830.6981601        54890898.009356081        980576388.12855244     
   900788706.19931328        46126533.415694177        986106829.83038723     
   776478695.34410274        32785880.967494428        994885123.35118949     
   650795798.13252509        14868940.664727300        1006911268.6909487     
   1009844505.7207475        69842518.282485843        1091414699.9713466     
   899067473.01347280        69197027.785413235        1099015818.8763759     
   785796987.98262715        60240029.543109447        1110849416.3952153     
   670033050.62823462        42971523.555646688        1126915492.5278492     
   551775660.95027494        17391509.822970480        1147214047.2742894     
   1136771987.4059486        63975966.507966340        559256200.46349645     
   951717745.91752601        49762640.886144578        573796573.16972101     
   759296346.22064197        10992121.236123323        600013392.66971862     
   559507788.31530905       -52335592.442063361        637906658.96347654     
   352352072.20151299       -140220500.14846092        687476372.05101275     
   943293961.36036277        38161169.007227123        712932345.28555298     
   785565548.74281597        18870072.984224737        728668990.96413326     
   619358811.99008405       -28682103.489386350        754920851.38066399     
   444673751.10216820       -104495360.41361320        791687926.53513980     
   261510366.07907373       -208569697.78843844        838970216.42755914     
   781301898.26921976        21792160.392804116        862150701.36136794     
   647581508.64878595       -3572047.7934727967        877787259.76445436     
   504271628.96643138       -60901222.852811873        902777800.84966838     
   351372259.22216469       -150195364.78519541        937122324.61700714     
   188883399.41598642       -271454473.59061706        980820831.06647313     
   650795798.13252509        14868940.664727300        1006911268.6909487     
   537765625.63542557       -17563721.446968585        1021151379.5706820     
   414034797.14967406       -85665236.854171783        1043584241.0767332     
   279603312.67528695       -189435605.55682641        1074209853.2090805     
   134471172.21224779       -328874827.55498779        1113028215.9677374     
   551775660.95027494        17391509.822970480        1147214047.2742894     
   456117899.70273471       -23104947.976290166        1158761350.3828309     
   348648316.53981763       -102974145.49346305        1177340172.0618539     
   229366911.46151802       -222216082.72858021        1202950512.3113654     
   98273684.467855662       -380830759.68156785        1235592371.1313622     
   352352072.20151299       -140220500.14846092        687476372.05101275     
   278048815.35599113       -282333263.56678855        789659477.09107590     
   149079578.15245956       -606665961.51183188        907784205.28637028     
  -34555639.409070194       -1113218593.9835105        1041850556.6368576     
  -272856837.32860112       -1801991160.9818826        1191858531.1426020     
   261510366.07907373       -208569697.78843844        838970216.42755914     
   222871180.94394135       -349052773.83426368        887493737.22189069     
   140117353.80944002       -636584656.54463530        947133454.47531545     
   13248884.675600886       -1071165345.9194815        1017889368.1878637     
  -157734226.45759320       -1652794841.9588416        1099761478.3595221     
   188883399.41598642       -271454473.59061706        980820831.06647313     
   172121352.57377076       -414443942.28917503        987994662.36680901     
   121796002.09085011       -669311089.79008985        1001459263.4301406     
   37907347.967234969       -1036055916.0933468        1021214634.2564710     
  -79544609.797116697       -1514678421.1989868        1047260774.8457972     
   134471172.21224779       -328874827.55498779        1113028215.9677374     
   125799330.24550080       -478506768.93148953        1091162252.5258355     
   94115522.996685266       -704845261.24822021        1070761632.1508347     
   39419750.465813518       -1007890304.5051438        1051826354.8427064     
  -38287987.347117960       -1387641898.7022552        1034356420.6014659     
   98273684.467855662       -380830759.68156785        1235592371.1313622     
   83905113.959103197       -541241253.76127565        1196996507.6989715     
   57075916.526935637       -743187170.91903949        1155040560.6373754     
   17786092.171356261       -986668511.15483129        1109724529.9465494     
  -33964359.107642651       -1271685274.4686940        1061048415.6264951     
   1600544823.1431720       -594431587.99773014       -2928243301.4102440     
   1721854812.4500959       -579409389.76422346       -2187894382.5153131     
   1851542892.8951089       -536460221.07043791       -1567867837.5613432     
   1989609064.4782081       -465584081.91636133       -1068163666.5483409     
   2136053327.1993861       -366780972.30201697       -688781869.47630131     
   3071713999.0546355        18757124.952313900       -1136768650.8057425     
   2930821389.2240715       -36197173.043009996       -718684198.29133189     
   2795890054.4695306       -71280554.118232369       -365823256.65814114     
   2666919994.7910280       -86493018.273332834       -78185825.906180471     
   2543911210.1885605       -81834565.508323193        144228093.96455953     
   3519515951.5319533        324935670.87211776        659455918.21152020     
   3273846065.5917053        247232473.55629849        752456285.60635793     
   3031720638.6654425        181344139.62042058        835332005.17970490     
   2793139670.7531643        127270669.06449032        908083076.93156707     
   2558103161.8548656        85012061.888499379        970709500.86194229     
   2943950680.5750985        324104049.76166713        2460430405.6415491     
   2750928841.5530062        270879550.03370821        2225527069.1777468     
   2559034645.4828401        221413860.14552069        2035597947.9522033     
   2368268092.3646088        175706980.09710956        1890643041.9649053     
   2178629182.1983085        133758909.88846672        1790662351.2158577     
   1345018186.1840894        16262261.620972157        4266154811.4843440     
   1362069717.1079686        34744056.389219880        3700528152.4228473     
   1377832074.9217262        48928607.457066655        3234974571.6593442     
   1392305259.6253662        58815914.824518085        2869494069.1938267     
   1405489271.2188876        64405978.491574824        2604086645.0263009     
   2136053327.1993861       -366780972.30201697       -688781869.47630131     
   2130177273.0097182       -303553919.61121643       -390105163.74645978     
   2122595680.3081317       -246011995.29347622       -133864389.95212784     
   2113308549.0946302       -194155199.34878206        79940451.906687737     
   2102315879.3692138       -147983531.77714372        251309361.82999501     
   2543911210.1885605       -81834565.508323193        144228093.96455953     
   2440694775.9475284       -63790610.796101809        313724711.65637320     
   2336427701.9087906       -49248788.742907643        461206914.62387234     
   2231109988.0723429       -38209099.348739862        586674702.86704242     
   2124741634.4381850       -30671542.613614798        690128076.38588679     
   2558103161.8548656        85012061.888499379        970709500.86194229     
   2415893539.5944486        75377076.231763124        1011790079.0156446     
   2273288176.2505240        64422953.630003214        1051277759.6562076     
   2130287071.8230925        52149694.083216667        1089172542.7836349     
   1986890226.3121526        38557297.591411710        1125474428.3979306     
   2178629182.1983085        133758909.88846672        1790662351.2158577     
   2055773563.9504683        113949141.47235250        1704090938.3313439     
   1933177103.3333251        95003231.825226188        1636348145.1448820     
   1810839800.3468759        76921180.947088599        1587433971.6564753     
   1688761654.9911270        59702988.837937474        1557348417.8661137     
   1405489271.2188876        64405978.491574824        2604086645.0263009     
   1360334849.0155876        51925584.925664961        2390627289.6034770     
   1316094483.1571922        42492045.842768013        2216418071.0898924     
   1272768173.6436925        36105361.242859364        2081458989.4855497     
   1230355920.4750996        32765531.125969470        1985750044.7904472     
   2102315879.3692138       -147983531.77714372        251309361.82999501     
   2035874701.1934197       -122376468.78815150        369868057.81939983     
   1968547818.4212763       -99721754.453666210        478602095.94981623     
   1900335231.0527766       -80019388.773694873        577511476.22124135     
   1831236939.0879307       -63269371.748210788        666596198.63367879     
   2124741634.4381850       -30671542.613614798        690128076.38588679     
   2035921141.2892270       -19997965.918674231        754807709.44348526     
   1946747988.0352995       -10499922.906960964        815543331.83318090     
   1857222174.6763918       -2177413.5785166025        872334943.55498385     
   1767343701.2125113        4969562.0666829348        925182544.60888958     
   1986890226.3121526        38557297.591411710        1125474428.3979306     
   1892492267.3074367        39337942.727524638        1136896883.7636538     
   1798274692.6891305        40719869.151665807        1150255975.6525767     
   1704237502.4572234        42703076.863806427        1165551704.0646942     
   1610380696.6117249        45287565.863974810        1182784069.0000107     
   1688761654.9911270        59702988.837937474        1557348417.8661137     
   1605588079.2480614        55631257.150454044        1516135580.7799134     
   1523127932.3827798        53937621.722248435        1482740027.4079995     
   1441381214.3952785        54622082.553310037        1457161757.7503736     
   1360347925.2855577        57684639.643641591        1439400771.8070390     
   1230355920.4750996        32765531.125969470        1985750044.7904472     
   1175208577.1110892        28881977.350096166        1892523800.4922569     
   1121307707.1162441        29153334.804775596        1812995487.0994501     
   1068653310.4905525        33579603.489964366        1747165104.6120207     
   1017245387.2340300        42160783.405713618        1695032653.0299752     
   1831236939.0879307       -63269371.748210788        666596198.63367879     
   1725696470.5510550       -55983645.285283923        741418920.46319246     
   1622009857.6494746       -42518400.038033009        816293837.54279935     
   1520177100.3832002       -22873636.006431818        891220949.87250113     
   1420198198.7522151        2950646.8094670177        966200257.45230818     
   1767343701.2125113        4969562.0666829348        925182544.60888958     
   1663719762.1159530        9016228.6755697727        970170240.11240852     
   1561123206.6321552        16487507.327000976        1017327469.1323920     
   1459554034.7611270        27383398.020989537        1066654231.6688441     
   1359012246.5028589        41703900.757518172        1118150527.7217572     
   1610380696.6117249        45287565.863974810        1182784069.0000107     
   1514722824.8593895        47910033.989981771        1196972520.8179150     
   1419265864.6972907        51202207.416771889        1215447844.4186513     
   1324009816.1254175        55164086.144320190        1238210039.8022263     
   1228954679.1437798        59795670.172645688        1265259106.9686279     
   1360347925.2855577        57684639.643641591        1439400771.8070390     
   1278705658.7813694        60697770.657968342        1421825762.5797074     
   1196437831.8448691        61625700.231262028        1410654963.4015789     
   1113544444.4760699        60468428.363559246        1405888374.2726488     
   1030025496.6749690        57225955.054850399        1407525995.1929312     
   1017245387.2340300        42160783.405713618        1695032653.0299752     
   955668263.88188541        47379438.679502428        1644729965.3977873     
   892639108.07490242        47757985.770497113        1602948826.0811665     
   828157919.81308615        43296424.678709626        1569689235.0801172     
   762224699.09643602        33994755.404145181        1544951192.3946466     
   1420198198.7522151        2950646.8094670177        966200257.45230818     
   1320361733.0646310        28846806.578667462        1010195199.1604549     
   1218690628.9968462        48627505.080525935        1045729253.4830072     
   1115184886.5488970        62292742.315173447        1072802420.4199690     
   1009844505.7207475        69842518.282485843        1091414699.9713466     
   1359012246.5028589        41703900.757518172        1118150527.7217572     
   1240037291.5218637        50463559.784421682        1139436227.6349721     
   1120014583.4603171        55730708.542824209        1158415477.1870687     
   998944122.31822622        57505347.032743424        1175088276.3780398     
   876825908.09557927        55787475.254148513        1189454625.2078984     
   1228954679.1437798        59795670.172645688        1265259106.9686279     
   1108425340.6535785        56694060.192538977        1264753597.9364898     
   987635134.38246107        52722890.942710966        1268096075.5677016     
   866584060.33043277        47882162.423176676        1275286539.8622580     
   745272118.49749124        42171874.633938640        1286324990.8201709     
   1030025496.6749690        57225955.054850399        1407525995.1929312     
   925525880.45976293        47538307.802984595        1386147310.0650063     
   821552281.76328146        39604052.280203998        1374771048.6249068     
   718104700.58551979        33423188.486487359        1373397210.8726280     
   615183136.92647958        28995716.421843350        1382025796.8081644     
   762224699.09643602        33994755.404145181        1544951192.3946466     
   691338910.94042504        22996302.615783513        1503617364.0205238     
   621766025.60277963        16374192.555302143        1478440396.3586853     
   553506043.08348155        14128425.222645879        1469420289.4091465     
   486558963.38255155        16259000.617886484        1476557043.1718974     
   1009844505.7207475        69842518.282485843        1091414699.9713466     
   899067473.01347280        69197027.785413235        1099015818.8763759     
   785796987.98262715        60240029.543109447        1110849416.3952153     
   670033050.62823462        42971523.555646688        1126915492.5278492     
   551775660.95027494        17391509.822970480        1147214047.2742894     
   876825908.09557927        55787475.254148513        1189454625.2078984     
   777614914.31809449        55454445.419533432        1194794537.8045995     
   675833657.67196798        46553872.689436972        1204726818.5036840     
   571482138.15723062        29085757.063973814        1219251467.3051693     
   464560355.77385175        3050098.5430419743        1238368484.2090549     
   745272118.49749124        42171874.633938640        1286324990.8201709     
   658655419.33149052        42459782.166282535        1289314084.8059499     
   569391646.75178254        33924111.652939886        1297255436.3827167     
   477480800.75837845        16564863.093939900        1310149045.5504699     
   382922881.35127258       -9617963.5107300133        1327994912.3092070     
   615183136.92647958        28995716.421843350        1382025796.8081644     
   542188988.05365467        30213038.025657147        1382574459.8804502     
   466470955.22205245        22350746.433552817        1388435270.0323017     
   388029038.43168497        5408841.6455635726        1399608227.2637336     
   306863237.68254191       -20612676.338349074        1416093331.5747449     
   486558963.38255155        16259000.617886484        1476557043.1718974     
   428215620.48459649        18714212.997691706        1474575663.0280874     
   367071583.08279222        11833777.031330019        1478266319.4524429     
   303126851.17714530       -4382307.2811724246        1487629012.4449728     
   236381424.76765651       -29934039.939814612        1502663742.0056696     
   551775660.95027494        17391509.822970480        1147214047.2742894     
   456117899.70273471       -23104947.976290166        1158761350.3828309     
   348648316.53981763       -102974145.49346305        1177340172.0618539     
   229366911.46151802       -222216082.72858021        1202950512.3113654     
   98273684.467855662       -380830759.68156785        1235592371.1313622     
   464560355.77385175        3050098.5430419743        1238368484.2090549     
   387147196.57246989       -33240934.976139292        1238628297.3013580     
   299705644.00706065       -102959946.37542273        1244920418.5632851     
   202235698.07762331       -206106935.65479034        1257244847.9948354     
   94737358.784167632       -342681902.81422746        1275601585.5960081     
   382922881.35127258       -9617963.5107300133        1327994912.3092070     
   320899437.33644575       -42560038.807726145        1319047902.0285187     
   250631028.50894231       -102985330.14698334        1315133989.5165892     
   172117654.86876345       -190893837.52848977        1316253174.7734232     
   85359316.415907443       -306285560.95225209        1322405457.7990170     
   306863237.68254191       -20612676.338349074        1416093331.5747449     
   257374621.99466121       -51062259.471052811        1400020164.5643013     
   201424470.04546207       -103050296.80815959        1387980884.9217618     
   139012781.83492556       -176576788.34971607        1379975492.6471179     
   70139557.363073617       -271641734.09566540        1376003987.7403781     
   236381424.76765651       -29934039.939814612        1502663742.0056696     
   196572750.54712814       -58747596.966077358        1481545084.9087222     
   152085968.61661839       -103154846.35894486        1463461104.7788029     
   102921078.97613853       -163155788.11838213        1448411801.6159253     
   49078081.625678331       -238750422.24442050        1436397175.4200857     
   98273684.467855662       -380830759.68156785        1235592371.1313622     
   83905113.959103197       -541241253.76127565        1196996507.6989715     
   57075916.526935637       -743187170.91903949        1155040560.6373754     
   17786092.171356261       -986668511.15483129        1109724529.9465494     
  -33964359.107642651       -1271685274.4686940        1061048415.6264951     
   94737358.784167632       -342681902.81422746        1275601585.5960081     
   78307872.957565069       -484228047.40975165        1221513150.6439159     
   50615461.719518483       -663317276.71009755        1164846168.4263396     
   11660125.070016444       -879949590.71527696        1105600638.9432962     
  -38558136.990921438       -1134124989.4252591        1043776562.1947922     
   85359316.415907443       -306285560.95225209        1322405457.7990170     
   69101876.310758233       -428297467.75180483        1254221769.7578206     
   42779212.306131929       -583860120.88294649        1184241070.8149166     
   6391324.4020201862       -772973520.34570599        1112463360.9702938     
  -40061787.401559234       -995637666.14003170        1038888640.2239629     
   70139557.363073617       -271641734.09566540        1376003987.7403781     
   56287124.018684402       -373449514.78744644        1295122365.0407181     
   33567168.286787331       -504815703.43758941        1213225267.8031013     
   1979690.1673683524       -665740300.04613185        1130312696.0275297     
  -38475310.339551866       -856223304.61301768        1046384649.7139966     
   49078081.625678331       -238750422.24442050        1436397175.4200857     
   39863616.081343248       -319684188.51666826        1344214936.4925954     
   22979329.661481589       -426184024.37400746        1251798759.3908961     
  -1574777.6339475811       -558249929.81657016        1159148644.1150053     
  -33798705.804893672       -715881904.84419489        1066264590.6649107     
   1345018186.1840894        16262261.620972157        4266154811.4843440     
   1362069717.1079686        34744056.389219880        3700528152.4228473     
   1377832074.9217262        48928607.457066655        3234974571.6593442     
   1392305259.6253662        58815914.824518085        2869494069.1938267     
   1405489271.2188876        64405978.491574824        2604086645.0263009     
  -340558201.99449778       -392599856.67886490        2867838335.6469893     
  -110956296.86437972       -313694533.38540947        2590442528.7420573     
   117678728.42271779       -238012142.90202528        2362530040.1919670     
   345346873.86679947       -165552685.22869253        2184100869.9967136     
   572048139.46786237       -96316160.365423888        2055155018.1563015     
  -1126586695.8374619       -531597606.67801654        1468048630.8897269     
  -828976587.76724422       -435631406.23919201        1479259684.9529741     
  -532011066.27294534       -341813827.72009981        1489364297.4279120     
  -235690131.35456541       -250144871.12073591        1498362468.3145401     
   59986216.987894163       -160624536.44110382        1506254197.6128576     
  -1013067295.3448012       -400730988.37648010        66785697.212554894     
  -791991155.60062528       -331066562.17213041        366979621.05559760     
  -571237309.16526890       -262476446.99717432        615477343.36718202     
  -350805756.03873140       -194960642.85161799        812278864.14730847     
  -130696496.22101523       -128519149.73546359        957384183.39597380     
 -0.51651613389311191       -1.7742561998356354       -1335950465.3845282     
 -0.36452471078271026       -1.1842209447486829       -746397662.95007038     
 -0.25425412690988997      -0.73325654156578268       -259130821.99022284     
 -0.18570015031188553      -0.42134818985499223        125850057.49501580     
 -0.15886907174415926      -0.24851338935423409        408544975.50564295     
   1405489271.2188876        64405978.491574824        2604086645.0263009     
   1360334849.0155876        51925584.925664961        2390627289.6034770     
   1316094483.1571922        42492045.842768013        2216418071.0898924     
   1272768173.6436925        36105361.242859364        2081458989.4855497     
   1230355920.4750996        32765531.125969470        1985750044.7904472     
   572048139.46786237       -96316160.365423888        2055155018.1563015     
   613757416.17336774       -83003927.509618729        1946294390.9390476     
   656152235.13587332       -67406553.797147721        1859049712.1835427     
   699232596.35538375       -49524039.227993667        1793420981.8897946     
   742998499.83189118       -29356383.802183151        1749408200.0577989     
   59986216.987894163       -160624536.44110382        1506254197.6128576     
   138175797.03795367       -136634695.83286905        1501725698.8319571     
   216822405.25711748       -111121427.99428754        1501178960.0653214     
   295926041.64538229       -84084732.925367758        1504613981.3129499     
   375486706.20274830       -55524610.626112759        1512030762.5748470     
  -130696496.22101523       -128519149.73546359        957384183.39597380     
  -66410008.390650421       -108966720.04407224        1056921213.2822090     
  -1895006.4790809453       -88652576.748665273        1142805814.7352252     
   62848509.513690606       -67576719.849250615        1215037987.7550166     
   127820539.58766580       -45739149.345822632        1273617732.3415895     
 -0.15886907174415926      -0.24851338935423409        408544975.50564295     
 -0.11244695650804357      -0.14323482875967997        611880934.28980136     
  -7.2718342336697148E-002  -6.0271407827975312E-002   783930276.19325185     
  -3.9687140936243842E-002   3.6903859089489066E-004   924693001.21599376     
  -1.3353878442595052E-002   3.8683021987083385E-002   1034169109.3580245     
   1230355920.4750996        32765531.125969470        1985750044.7904472     
   1175208577.1110892        28881977.350096166        1892523800.4922569     
   1121307707.1162441        29153334.804775596        1812995487.0994501     
   1068653310.4905525        33579603.489964366        1747165104.6120207     
   1017245387.2340300        42160783.405713618        1695032653.0299752     
   742998499.83189118       -29356383.802183151        1749408200.0577989     
   719867979.43537581       -26800052.991351336        1697273534.9470415     
   697672314.06554508       -21127538.758237123        1654583137.0781999     
   676411503.72240043       -12338841.102834612        1621337006.4512682     
   656085548.40594339       -433960.02514302731        1597535143.0662515     
   375486706.20274830       -55524610.626112759        1512030762.5748470     
   372219684.02095968       -50174392.654412150        1500624121.9186330     
   369575898.52338177       -42746719.068679094        1494408084.8408642     
   367555349.71001327       -33241589.868914083        1493382651.3415442     
   366158037.58085269       -21659005.055120856        1497547821.4206653     
   127820539.58766580       -45739149.345822632        1273617732.3415895     
   132263690.86784074       -41241041.639084198        1302575561.4070296     
   137018460.48975071       -35704206.126561426        1332470330.3874505     
   142084848.45339289       -29128642.808265164        1363302039.2828484     
   147462854.75877148       -21514351.684179172        1395070688.0932245     
  -1.3353878442595052E-002   3.8683021987083385E-002   1034169109.3580245     
  -2.3980725830005746E-002   5.4632992269348618E-002   1103127853.4122338     
  -3.5349607856278886E-002   6.8108819866015302E-002   1168769873.7179539     
  -4.7458831736308243E-002   7.9116841283494582E-002   1231095170.2751815     
  -6.0312194798845649E-002   8.7645092648670847E-002   1290103743.0839236     
   1017245387.2340300        42160783.405713618        1695032653.0299752     
   955668263.88188541        47379438.679502428        1644729965.3977873     
   892639108.07490242        47757985.770497113        1602948826.0811665     
   828157919.81308615        43296424.678709626        1569689235.0801172     
   762224699.09643602        33994755.404145181        1544951192.3946466     
   656085548.40594339       -433960.02514302731        1597535143.0662515     
   615152990.75796878        5055116.8921920359        1570068953.8695040     
   573131408.76844168        6914112.6710158288        1549899246.5195775     
   530020802.43735421        5143027.3113076389        1537026021.0164669     
   485821171.76471740       -258139.18690082431        1531449277.3601720     
   366158037.58085269       -21659005.055120856        1497547821.4206653     
   342369855.72633249       -16949563.467424273        1493341640.1248572     
   317855657.64352924       -14660175.974001825        1495206874.2071114     
   292615443.33244860       -14790842.574839965        1503143523.6674302     
   266649212.79308984       -17341563.269936144        1517151588.5058100     
   147462854.75877148       -21514351.684179172        1395070688.0932245     
   137318858.78696787       -18634602.399370745        1414548024.1638448     
   126811854.70016527       -16964880.164561182        1438871709.1437726     
   115941842.49836409       -16505184.979744457        1468041743.0330117     
   104708822.18156207       -17255516.844933227        1502058125.8315573     
  -6.0312194798845649E-002   8.7645092648670847E-002   1290103743.0839236     
  -6.0118302277759328E-002   9.6369661335220694E-002   1333688105.9864609     
  -6.1645423198320989E-002   9.9359600217781785E-002   1380893751.3295574     
  -6.4900557455699642E-002   9.6590535478371847E-002   1431720679.1132069     
  -6.9871489546561139E-002   8.8097981291010041E-002   1486168889.3374093     
   762224699.09643602        33994755.404145181        1544951192.3946466     
   691338910.94042504        22996302.615783513        1503617364.0205238     
   621766025.60277963        16374192.555302143        1478440396.3586853     
   553506043.08348155        14128425.222645879        1469420289.4091465     
   486558963.38255155        16259000.617886484        1476557043.1718974     
   485821171.76471740       -258139.18690082431        1531449277.3601720     
   453352936.22974169       -2298147.1063376069        1509072207.2217352     
   421869377.80829126       -1055897.9806911647        1498022906.4943569     
   391370496.50036633        3468608.1900443584        1498301375.1780365     
   361856292.30597794        11275371.405894741        1509907613.2727830     
   266649212.79308984       -17341563.269936144        1517151588.5058100     
   258801126.16134828       -14562347.435780033        1513348346.6140842     
   251609490.93830273       -9594960.2393086404        1516043782.8321893     
   245074307.12394679       -2439401.6805353463        1525237897.1601257     
   239195574.71828839        6904328.2405615598        1540930689.5978885     
   104708822.18156207       -17255516.844933227        1502058125.8315573     
   107683480.73524602       -13796298.372547626        1516445782.1975753     
   110986364.99280764       -9242994.2205710188        1532503025.3721893     
   114617474.95420994       -3595604.3891234919        1550229855.3554046     
   118576810.61948626        3145871.1219012439        1569626272.1472163     
  -6.9871489546561139E-002   8.8097981291010041E-002   1486168889.3374093     
  -4.8551913405443320E-002   8.3412718124561691E-002   1518364513.9721975     
  -2.8204865183327838E-002   7.5486389117495917E-002   1547400634.1143546     
  -8.8282174610947138E-003   6.4325044832793762E-002   1573277249.7638795     
   9.5714645001008132E-003   4.9907148011299626E-002   1595994360.9207683     
   486558963.38255155        16259000.617886484        1476557043.1718974     
   428215620.48459649        18714212.997691706        1474575663.0280874     
   367071583.08279222        11833777.031330019        1478266319.4524429     
   303126851.17714530       -4382307.2811724246        1487629012.4449728     
   236381424.76765651       -29934039.939814612        1502663742.0056696     
   361856292.30597794        11275371.405894741        1509907613.2727830     
   318080091.52482980        13111172.603611290        1505784055.4651139     
   272203369.86614144        7945237.5428633243        1507336896.0673022     
   224226127.32991394       -4222433.7763496339        1514566135.0793369     
   174148363.91614562       -23391841.354032271        1527471772.5012381     
   239195574.71828839        6904328.2405615598        1540930689.5978885     
   209998978.45876104        8124456.9776469246        1535481823.3570523     
   179402034.94799957        4676761.5439476594        1535713717.3677568     
   147404744.18600109       -3438758.0605383515        1541626371.6300018     
   114007106.17277193       -16222101.835795470        1553219786.1437821     
   118576810.61948626        3145871.1219012439        1569626272.1472163     
   103972281.28639199        3754066.1197958104        1563668966.7039065     
   88667578.328362137        2028349.0345741697        1563396783.3538196     
   72662701.745409146       -2031280.1337272450        1568809722.0969522     
   55957651.537523568       -8424821.3851343952        1579907782.9333117     
   9.5714645001008132E-003   4.9907148011299626E-002   1595994360.9207683     
   7.7179105597300606E-003   3.0046523877006178E-002   1590345485.5056748     
   7.2415974315965786E-003   1.4777396339560689E-002   1590386094.0254805     
   8.1333291749881558E-003   4.0691122632557858E-003   1596116186.4801939     
   1.0413922471616512E-002  -2.0117149704310202E-003   1607535762.8698153     
   236381424.76765651       -29934039.939814612        1502663742.0056696     
   196572750.54712814       -58747596.966077358        1481545084.9087222     
   152085968.61661839       -103154846.35894486        1463461104.7788029     
   102921078.97613853       -163155788.11838213        1448411801.6159253     
   49078081.625678331       -238750422.24442050        1436397175.4200857     
   174148363.91614562       -23391841.354032271        1527471772.5012381     
   144373458.52738604       -44977529.041962355        1502300158.1725264     
   111089972.35612385       -78258486.004894286        1480144180.7462137     
   74297905.402357861       -123234712.24284297        1461003840.2223012     
   33997257.666081101       -179906207.75582346        1444879136.6007826     
   114007106.17277193       -16222101.835795470        1553219786.1437821     
   94211569.431101516       -30596240.240773447        1525359662.6653647     
   72076978.834395573       -52767224.829200491        1500496136.0247047     
   47603334.382656261       -82735055.601073444        1478629206.2218099     
   20790636.075878464       -120499732.55640797        1459758873.2566655     
   55957651.537523568       -8424821.3851343952        1579907782.9333117     
   46087083.258258365       -15603730.562567115        1550723598.3872330     
   35046988.051427379       -26681062.831881993        1524516970.6142743     
   22837365.917028956       -41656818.193091586        1501287899.6144371     
   9458216.8550675586       -60530996.646175012        1481036385.3877149     
   1.0413922471616512E-002  -2.0117149704310202E-003   1607535762.8698153     
   8.8623247934377664E-003  -7.3266484454473264E-003   1578391965.3381329     
   7.2175781834676695E-003  -1.2949302802206578E-002   1552206684.5149298     
   5.4805061587849249E-003  -1.8881096320122102E-002   1528979920.4002035     
   3.6522982440587749E-003  -2.5116676138182314E-002   1508711672.9939590     
   49078081.625678331       -238750422.24442050        1436397175.4200857     
   39863616.081343248       -319684188.51666826        1344214936.4925954     
   22979329.661481589       -426184024.37400746        1251798759.3908961     
  -1574777.6339475811       -558249929.81657016        1159148644.1150053     
  -33798705.804893672       -715881904.84419489        1066264590.6649107     
   33997257.666081101       -179906207.75582346        1444879136.6007826     
   29689301.500313804       -239825664.56379950        1345219588.8429570     
   19628979.677854747       -318919673.56074804        1244718761.2126234     
   3816292.1986907721       -417188234.74671298        1143376653.7097886     
  -17748760.937183470       -534631348.12170935        1041193266.3344486     
   20790636.075878464       -120499732.55640797        1459758873.2566655     
   19653927.293531299       -159925458.49863663        1354859047.7571418     
   14682308.073319569       -212134219.23374781        1248510600.6868083     
   5875778.4152493179       -277126014.76171970        1140713532.0456643     
  -6765661.6806843281       -354900845.08257377        1031467841.8337228     
   9458216.8550675586       -60530996.646175012        1481036385.3877149     
   9757493.4609852433       -79983570.321219504        1373133313.2351561     
   8139314.8478755951       -105827661.39302021        1263174277.8134649     
   4603681.0157536045       -138063269.86152935        1151159279.1226890     
  -849408.03539857268       -176690395.72680888        1037088317.1627781     
   3.6522982440587749E-003  -2.5116676138182314E-002   1508711672.9939590     
   2.6826526348318960E-003  -3.1522678240585744E-002   1400042385.2769878     
   1.5196177649556830E-003  -3.8571229543649110E-002   1288709792.5926063     
   1.9620294400157952E-004  -4.6155421517724372E-002   1174713894.9408014     
  -1.3278755384637589E-003  -5.4408492363503737E-002   1058054692.3215981     
 -0.51651613389311191       -1.7742561998356354       -1335950465.3845282     
 -0.36452471078271026       -1.1842209447486829       -746397662.95007038     
 -0.25425412690988997      -0.73325654156578268       -259130821.99022284     
 -0.18570015031188553      -0.42134818985499223        125850057.49501580     
 -0.15886907174415926      -0.24851338935423409        408544975.50564295     
   1013067294.5677910        400730985.53318578        66785697.176148199     
   791991155.04385734        331066560.21816862        366979620.97004396     
   571237308.76701021        262476445.72677469        615477343.23515677     
   350805755.73725182        194960642.05900761        812278863.97148728     
   130696495.95457608        128519149.21485019        957384183.17903459     
   1126586695.4141803        531597604.56924903        1468048630.7020969     
   828976587.48811185        435631404.73132396        1479259684.6923723     
   532011066.09793699        341813826.67970586        1489364297.0996900     
   235690131.24365273        250144870.41439301        1498362467.9240506     
  -59986217.074738868        160624535.93538576        1506254197.1654563     
   340558202.02265346        392599855.33393830        2867838335.1933160     
   110956296.96824053        313694532.35524046        2590442528.2169104     
  -117678728.26147489        238012142.12553149        2362530039.6033745     
  -345346873.66649342        165552684.64481521        2184100869.3527074     
  -572048139.24681377        96316159.913090020        2055155017.4649088     
  -1345018185.6067920       -16262262.172746301        4266154810.6498051     
  -1362069716.5157590       -34744056.910081625        3700528151.5436606     
  -1377832074.3112237       -48928607.935737252        3234974570.7462101     
  -1392305258.9931889       -58815915.249724090        2869494068.2574558     
  -1405489270.5616472       -64405978.852026701        2604086644.0773973     
 -0.15886907174415926      -0.24851338935423409        408544975.50564295     
 -0.11244695650804357      -0.14323482875967997        611880934.28980136     
  -7.2718342336697148E-002  -6.0271407827975312E-002   783930276.19325185     
  -3.9687140936243842E-002   3.6903859089489066E-004   924693001.21599376     
  -1.3353878442595052E-002   3.8683021987083385E-002   1034169109.3580245     
   130696495.95457608        128519149.21485019        957384183.17903459     
   66410008.199877024        108966719.70081735        1056921213.0945073     
   1895006.3552689590        88652576.553756848        1142805814.5712047     
  -62848509.579241857        67576719.773685947        1215037987.6091290     
  -127820539.60365742        45739149.360597827        1273617732.2082756     
  -59986217.074738868        160624535.93538576        1506254197.1654563     
  -138175797.08218607        136634695.46653759        1501725698.4485042     
  -216822405.26274499        111121427.75398470        1501178959.7347088     
  -295926041.61641622        84084732.797723636        1504613981.0240700     
  -375486706.14320165        55524610.597748742        1512030762.3165874     
  -572048139.24681377        96316159.913090020        2055155017.4649088     
  -613757415.95862508        83003927.153956294        1946294390.3517861     
  -656152234.92675793        67406553.540417910        1859049711.6837559     
  -699232596.15121412        49524039.072467595        1793420981.4608119     
  -742998499.63198698        29356383.750128180        1749408199.6829615     
  -1405489270.5616472       -64405978.852026701        2604086644.0773973     
  -1360334848.4294472       -51925585.236946583        2390627288.8043604     
  -1316094482.6367755       -42492046.086961925        2216418070.4183478     
  -1272768173.1836298       -36105361.402064204        2081458988.9193614     
  -1230355920.0700171       -32765531.182275891        1985750044.3073926     
  -1.3353878442595052E-002   3.8683021987083385E-002   1034169109.3580245     
  -2.3980725830005746E-002   5.4632992269348618E-002   1103127853.4122338     
  -3.5349607856278886E-002   6.8108819866015302E-002   1168769873.7179539     
  -4.7458831736308243E-002   7.9116841283494582E-002   1231095170.2751815     
  -6.0312194798845649E-002   8.7645092648670847E-002   1290103743.0839236     
  -127820539.60365742        45739149.360597827        1273617732.2082756     
  -132263690.90176088        41241041.706264175        1302575561.2927234     
  -137018460.54456741        35704206.236254677        1332470330.2899740     
  -142084848.53207794        29128642.950565062        1363302039.2000277     
  -147462854.86428446        21514351.849221274        1395070688.0228827     
  -375486706.14320165        55524610.597748742        1512030762.3165874     
  -372219683.98223448        50174392.697079018        1500624121.6966546     
  -369575898.50992882        42746719.167540789        1494408084.6508164     
  -367555349.72628057        33241590.009141549        1493382651.1790757     
  -366158037.63129026        21659005.221882403        1497547821.2814302     
  -742998499.63198698        29356383.750128180        1749408199.6829615     
  -719867979.26539505        26800053.027095258        1697273534.6240258     
  -697672313.93142092        21127538.862006009        1654583136.8004806     
  -676411503.63006771        12338841.254844368        1621337006.2123294     
  -656085548.36133027        433960.20563244820        1597535142.8595634     
  -1230355920.0700171       -32765531.182275891        1985750044.3073926     
  -1175208576.7512479       -28881977.303704619        1892523800.0748396     
  -1121307706.8090575       -29153334.680393696        1812995486.7389693     
  -1068653310.2434422       -33579603.312334418        1747165104.2997808     
  -1017245387.0544025       -42160783.199527144        1695032652.7572780     
  -6.0312194798845649E-002   8.7645092648670847E-002   1290103743.0839236     
  -6.0118302277759328E-002   9.6369661335220694E-002   1333688105.9864609     
  -6.1645423198320989E-002   9.9359600217781785E-002   1380893751.3295574     
  -6.4900557455699642E-002   9.6590535478371847E-002   1431720679.1132069     
  -6.9871489546561139E-002   8.8097981291010041E-002   1486168889.3374093     
  -147462854.86428446        21514351.849221274        1395070688.0228827     
  -137318858.89231893        18634602.583927505        1414548024.1025431     
  -126811854.80983885        16964880.353684425        1438871709.0908580     
  -115941842.61685605        16505185.158447891        1468041742.9878333     
  -104708822.31336473        17255516.998239823        1502058125.7934673     
  -366158037.63129026        21659005.221882403        1497547821.2814302     
  -342369855.77867901        16949563.655249178        1493341640.0024726     
  -317855657.70332581        14660176.164420769        1495206874.1002741     
  -292615443.40524119        14790842.749362931        1503143523.5748427     
  -266649212.88441694        17341563.410107329        1517151588.4261668     
  -656085548.36133027        433960.20563244820        1597535142.8595634     
  -615152990.71920228       -5055116.6896772683        1570068953.6862557     
  -573131408.74210882       -6914112.4684347808        1549899246.3578134     
  -530020802.43004912       -5143027.1306421757        1537026020.8742337     
  -485821171.78302503        258139.32370468974        1531449277.2355301     
  -1017245387.0544025       -42160783.199527144        1695032652.7572780     
  -955668263.71388829       -47379438.450852513        1644729965.1538861     
  -892639107.92618120       -47757985.544865519        1602948825.8634651     
  -828157919.69128132       -43296424.481569946        1569689234.8860142     
  -762224699.00918365       -33994755.260949731        1544951192.2215364     
  -6.9871489546561139E-002   8.8097981291010041E-002   1486168889.3374093     
  -4.8551913405443320E-002   8.3412718124561691E-002   1518364513.9721975     
  -2.8204865183327838E-002   7.5486389117495917E-002   1547400634.1143546     
  -8.8282174610947138E-003   6.4325044832793762E-002   1573277249.7638795     
   9.5714645001008132E-003   4.9907148011299626E-002   1595994360.9207683     
  -104708822.31336473        17255516.998239823        1502058125.7934673     
  -107683480.82967584        13796298.508264951        1516445782.1684389     
  -110986365.05023716        9242994.3374553025        1532503025.3498557     
  -114617474.97504297        3595604.4858313352        1550229855.3377185     
  -118576810.60409185       -3145871.0466061234        1569626272.1320202     
  -266649212.88441694        17341563.410107329        1517151588.4261668     
  -258801126.22671583        14562347.548314080        1513348346.5541720     
  -251609490.97652933        9594960.3281387538        1516043782.7877026     
  -245074307.13386095        2439401.7495697588        1525237897.1267512     
  -239195574.69871175       -6904328.1873963922        1540930689.5713255     
  -485821171.78302503        258139.32370468974        1531449277.2355301     
  -453352936.23965752        2298147.2036067843        1509072207.1294124     
  -421869377.80707347        1055898.0475637019        1498022906.4278963     
  -391370496.48528993       -3468608.1444816589        1498301375.1309791     
  -361856292.27429265       -11275371.372479931        1509907613.2386615     
  -762224699.00918365       -33994755.260949731        1544951192.2215364     
  -691338910.86850500       -22996302.525872171        1503617363.8941479     
  -621766025.54187727       -16374192.504295886        1478440396.2704341     
  -553506043.02932823       -14128425.196314216        1469420289.3503993     
  -486558963.33083576       -16259000.601858824        1476557043.1340430     
   9.5714645001008132E-003   4.9907148011299626E-002   1595994360.9207683     
   7.7179105597300606E-003   3.0046523877006178E-002   1590345485.5056748     
   7.2415974315965786E-003   1.4777396339560689E-002   1590386094.0254805     
   8.1333291749881558E-003   4.0691122632557858E-003   1596116186.4801939     
   1.0413922471616512E-002  -2.0117149704310202E-003   1607535762.8698153     
  -118576810.60409185       -3145871.0466061234        1569626272.1320202     
  -103972281.27263911       -3754066.0748958923        1563668966.6939476     
  -88667578.314315349       -2028349.0136176944        1563396783.3485265     
  -72662701.729119226        2031280.1372367814        1568809722.0957716     
  -55957651.517052054        8424821.3776600733        1579907782.9356642     
  -239195574.69871175       -6904328.1873963922        1540930689.5713255     
  -209998978.44037437       -8124456.9460484460        1535481823.3400075     
  -179402034.92966989       -4676761.5301462412        1535713717.3591104     
  -147404744.16659454        3438758.0603240952        1541626371.6286213     
  -114007106.15115297        16222101.825351372        1553219786.1485438     
  -361856292.27429265       -11275371.372479931        1509907613.2386615     
  -318080091.49548978       -13111172.583420053        1505784055.4438591     
  -272203369.83881950       -7945237.5348062217        1507336896.0572171     
  -224226127.30429098        4222433.7733385265        1514566135.0787461     
  -174148363.89188948        23391841.341056988        1527471772.5084410     
  -486558963.33083576       -16259000.601858824        1476557043.1340430     
  -428215620.43798143       -18714212.986997858        1474575663.0054924     
  -367071583.04177415       -11833777.027624369        1478266319.4428647     
  -303126851.14219779        4382307.2763106525        1487629012.4461558     
  -236381424.73926857        29934039.924756497        1502663742.0153618     
   1.0413922471616512E-002  -2.0117149704310202E-003   1607535762.8698153     
   8.8623247934377664E-003  -7.3266484454473264E-003   1578391965.3381329     
   7.2175781834676695E-003  -1.2949302802206578E-002   1552206684.5149298     
   5.4805061587849249E-003  -1.8881096320122102E-002   1528979920.4002035     
   3.6522982440587749E-003  -2.5116676138182314E-002   1508711672.9939590     
  -55957651.517052054        8424821.3776600733        1579907782.9356642     
  -46087083.240960546        15603730.544736542        1550723598.3899014     
  -35046988.037375592        26681062.803460307        1524516970.6171389     
  -22837365.906305276        41656818.153801039        1501287899.6173797     
  -9458216.8477473371        60530996.595766492        1481036385.3906157     
  -114007106.15115297        16222101.825351372        1553219786.1485438     
  -94211569.413069338        30596240.220123947        1525359662.6708751     
  -72076978.819912076        52767224.798473597        1500496136.0307312     
  -47603334.371686913        82735055.560384423        1478629206.2281096     
  -20790636.068387680        120499732.50587410        1459758873.2630124     
  -174148363.89188948        23391841.341056988        1527471772.5084410     
  -144373458.50747010        44977529.018812098        1502300158.1810477     
  -111089972.34038731        78258485.972111911        1480144180.7557080     
  -74297905.390659019        123234712.20089401        1461003840.2324135     
  -33997257.658267759        179906207.70522478        1444879136.6111622     
  -236381424.73926857        29934039.924756497        1502663742.0153618     
  -196572750.52415493        58747596.940825030        1481545084.9204335     
  -152085968.59880295        103154846.32436311        1463461104.7920678     
  -102921078.96321534        163155788.07534704        1448411801.6302722     
  -49078081.617395952        238750422.19377443        1436397175.4350429     
   3.6522982440587749E-003  -2.5116676138182314E-002   1508711672.9939590     
   2.6826526348318960E-003  -3.1522678240585744E-002   1400042385.2769878     
   1.5196177649556830E-003  -3.8571229543649110E-002   1288709792.5926063     
   1.9620294400157952E-004  -4.6155421517724372E-002   1174713894.9408014     
  -1.3278755384637589E-003  -5.4408492363503737E-002   1058054692.3215981     
  -9458216.8477473371        60530996.595766492        1481036385.3906157     
  -9757493.4552738778        79983570.259380415        1373133313.2375550     
  -8139314.8442903534        105827661.31802997        1263174277.8153303     
  -4603681.0147809833        138063269.77176151        1151159279.1239252     
   849408.03325226158        176690395.62057611        1037088317.1633406     
  -20790636.068387680        120499732.50587410        1459758873.2630124     
  -19653927.287515782        159925458.43796128        1354859047.7623613     
  -14682308.069422558        212134219.16078037        1248510600.6907740     
  -5875778.4140963852        277126014.67438340        1140713532.0482624     
   6765661.6784525961        354900844.97872013        1031467841.8347938     
  -33997257.658267759        179906207.70522478        1444879136.6111622     
  -29689301.494026020        239825664.50427991        1345219588.8513994     
  -19628979.673855305        318919673.48976767        1244718761.2189462     
  -3816292.1977518201        417188234.66170013        1143376653.7137945     
   17748760.934280902        534631348.02005917        1041193266.3359474     
  -49078081.617395952        238750422.19377443        1436397175.4350429     
  -39863616.074811488        319684188.45831609        1344214936.5046651     
  -22979329.657599002        426184024.30494839        1251798759.3998351     
   1574777.6342583001        558249929.73372638        1159148644.1205380     
   33798705.800741673        715881904.74460137        1066264590.6667861     
  -1345018185.6067920       -16262262.172746301        4266154810.6498051     
  -1362069716.5157590       -34744056.910081625        3700528151.5436606     
  -1377832074.3112237       -48928607.935737252        3234974570.7462101     
  -1392305258.9931889       -58815915.249724090        2869494068.2574558     
  -1405489270.5616472       -64405978.852026701        2604086644.0773973     
  -2943950679.3129258       -324104049.00378132        2460430405.4227505     
  -2750928840.3846912       -270879549.67935574        2225527068.8863864     
  -2559034644.3715181       -221413860.07179904        2035597947.5941553     
  -2368268091.2734027       -175706980.18111062        1890643041.5460529     
  -2178629181.0903506       -133758910.00729322        1790662350.7420843     
  -3519515949.7248540       -324935668.84655440        659455918.43438578     
  -3273846064.0010304       -247232472.37285173        752456285.76781118     
  -3031720637.2208238       -181344139.04455757        835332005.28080499     
  -2793139669.3842483       -127270668.86168659        908083076.97336543     
  -2558103160.4912972       -85012061.824233055        970709500.84549558     
  -3071713996.8425775       -18757121.701068163       -1136768650.3152914     
  -2930821387.3647709        36197175.009430051       -718684197.81206799     
  -2795890052.8591528        71280555.145968556       -365823256.19383770     
  -2666919993.3257213        86493018.708547592       -78185825.460605547     
  -2543911208.7644825        81834565.697155714        144228094.38762832     
  -1600544820.6660895        594431592.43268514       -2928243300.8262820     
  -1721854810.4759135        579409392.46749461       -2187894381.8532472     
  -1851542891.2864923        536460222.49980223       -1567867836.8297758     
  -1989609063.0978241        465584082.52959895       -1068163665.7558662     
  -2136053325.9099095        366780972.55687535       -688781868.63151610     
  -1405489270.5616472       -64405978.852026701        2604086644.0773973     
  -1360334848.4294472       -51925585.236946583        2390627288.8043604     
  -1316094482.6367755       -42492046.086961925        2216418070.4183478     
  -1272768173.1836298       -36105361.402064204        2081458988.9193614     
  -1230355920.0700171       -32765531.182275891        1985750044.3073926     
  -2178629181.0903506       -133758910.00729322        1790662350.7420843     
  -2055773562.9798231       -113949141.60519683        1704090937.9505184     
  -1933177102.4926651       -95003231.947669744        1636348144.8428698     
  -1810839799.6288822       -76921181.034722984        1587433971.4191382     
  -1688761654.3884740       -59702988.866360068        1557348417.6793270     
  -2558103160.4912972       -85012061.824233055        970709500.84549558     
  -2415893538.4113126       -75377076.237777591        1011790079.0375804     
  -2273288175.2385454       -64422953.675384760        1051277759.7104769     
  -2130287070.9729960       -52149694.137040138        1089172542.8641880     
  -1986890225.6146626       -38557297.622760653        1125474428.4987102     
  -2543911208.7644825        81834565.697155714        144228094.38762832     
  -2440694774.7239156        63790610.865303993        313724712.06554544     
  -2336427700.8744102        49248788.729911685        461206915.02117342     
  -2231109987.2159677        38209099.290981889        586674703.25450349     
  -2124741633.7485819        30671542.548519969        690128076.76554477     
  -2136053325.9099095        366780972.55687535       -688781868.63151610     
  -2130177271.9176340        303553919.70405114       -390105162.96557993     
  -2122595679.4002633        246011995.26820576       -133864389.22504535     
  -2113308548.3577948        194155199.24935520        79940452.590093002     
  -2102315878.7902348        147983531.64747679        251309362.47983032     
  -1230355920.0700171       -32765531.182275891        1985750044.3073926     
  -1175208576.7512479       -28881977.303704619        1892523800.0748396     
  -1121307706.8090575       -29153334.680393696        1812995486.7389693     
  -1068653310.2434422       -33579603.312334418        1747165104.2997808     
  -1017245387.0544025       -42160783.199527144        1695032652.7572780     
  -1688761654.3884740       -59702988.866360068        1557348417.6793270     
  -1605588078.7168427       -55631257.104368210        1516135580.6168954     
  -1523127931.9289181       -53937621.621399581        1482740027.2638106     
  -1441381214.0247030       -54622082.417459190        1457161757.6200678     
  -1360347925.0041974       -57684639.492554307        1439400771.6856740     
  -1986890225.6146626       -38557297.622760653        1125474428.4987102     
  -1892492266.6968536       -39337942.709355950        1136896883.8480868     
  -1798274692.1698792       -40719869.098741293        1150255975.7194662     
  -1704237502.0337472       -42703076.790928662        1165551704.1128511     
  -1610380696.2884490       -45287565.785895288        1182784069.0282423     
  -2124741633.7485819        30671542.548519969        690128076.76554477     
  -2035921140.6912770        19997965.881335616        754807709.76840651     
  -1946747987.5319400        10499922.887586355        815543332.10593700     
  -1857222174.2705703        2177413.5672830343        872334943.77813148     
  -1767343700.9071712       -4969562.0795890093        925182544.78499472     
  -2102315878.7902348        147983531.64747679        251309362.47983032     
  -2035874700.7001178        122376468.66769183        369868058.37786335     
  -1968547818.0151007        99721754.337580919        478602096.42322218     
  -1900335230.7351832        80019388.657133698        577511476.61590838     
  -1831236938.8603566        63269371.626385093        666596198.95592237     
  -1017245387.0544025       -42160783.199527144        1695032652.7572780     
  -955668263.71388829       -47379438.450852513        1644729965.1538861     
  -892639107.92618120       -47757985.544865519        1602948825.8634651     
  -828157919.69128132       -43296424.481569946        1569689234.8860142     
  -762224699.00918365       -33994755.260949731        1544951192.2215364     
  -1360347925.0041974       -57684639.492554307        1439400771.6856740     
  -1278705658.5179641       -60697770.487691402        1421825762.4590235     
  -1196437831.6050272       -61625700.060481310        1410654963.2800622     
  -1113544444.2653768       -60468428.210896075        1405888374.1487937     
  -1030025496.4990164       -57225954.938938439        1407525995.0652158     
  -1610380696.2884490       -45287565.785895288        1182784069.0282423     
  -1514722824.5573015       -47910033.895105422        1196972520.8211029     
  -1419265864.4199331       -51202207.316907465        1215447844.3963745     
  -1324009815.8763351       -55164086.051274180        1238210039.7540565     
  -1228954678.9265108       -59795670.098232388        1265259106.8941529     
  -1767343700.9071712       -4969562.0795890093        925182544.78499472     
  -1663719761.8319044       -9016228.6730973721        970170240.24013066     
  -1561123206.3709025       -16487507.314149857        1017327469.2124012     
  -1459554034.5241530       -27383398.002713561        1066654231.7018052     
  -1359012246.2916622       -41703900.738806784        1118150527.7083359     
  -1831236938.8603566        63269371.626385093        666596198.95592237     
  -1725696470.3417776        55983645.178316355        741418920.71610308     
  -1622009857.4579349        42518399.947787285        816293837.72814405     
  -1520177100.2088339        22873635.934786081        891220949.99203658     
  -1420198198.5944805       -2950646.8607011437        966200257.50777662     
  -762224699.00918365       -33994755.260949731        1544951192.2215364     
  -691338910.86850500       -22996302.525872171        1503617363.8941479     
  -621766025.54187727       -16374192.504295886        1478440396.2704341     
  -553506043.02932823       -14128425.196314216        1469420289.3503993     
  -486558963.33083576       -16259000.601858824        1476557043.1340430     
  -1030025496.4990164       -57225954.938938439        1407525995.0652158     
  -925525880.31348991       -47538307.726684481        1386147309.9730518     
  -821552281.64397514       -39604052.234468400        1374771048.5631316     
  -718104700.49046612       -33423188.462272376        1373397210.8354490     
  -615183136.85298061       -28995716.410153687        1382025796.7900138     
  -1228954678.9265108       -59795670.098232388        1265259106.8941529     
  -1108425340.4716682       -56694060.141481459        1264753597.8849399     
  -987635134.23477852       -52722890.911239266        1268096075.5365348     
  -866584060.21585310       -47882162.407545269        1275286539.8489368     
  -745272118.41488862       -42171874.630387574        1286324990.8221519     
  -1359012246.2916622       -41703900.738806784        1118150527.7083359     
  -1240037291.3430295       -50463559.770219862        1139436227.6298077     
  -1120014583.3142934       -55730708.534630239        1158415477.1906488     
  -998944122.20546639       -57505347.032069445        1175088276.3908677     
  -876825908.01654792       -55787475.262531817        1189454625.2304668     
  -1420198198.5944805       -2950646.8607011437        966200257.50777662     
  -1320361732.9275715       -28846806.612909257        1010195199.2076542     
  -1218690628.8825195       -48627505.104637861        1045729253.5254744     
  -1115184886.4593160       -62292742.335861921        1072802420.4612309     
  -1009844505.6579738       -69842518.306626081        1091414700.0149348     
  -486558963.33083576       -16259000.601858824        1476557043.1340430     
  -428215620.43798143       -18714212.986997858        1474575663.0054924     
  -367071583.04177415       -11833777.027624369        1478266319.4428647     
  -303126851.14219779        4382307.2763106525        1487629012.4461558     
  -236381424.73926857        29934039.924756497        1502663742.0153618     
  -615183136.85298061       -28995716.410153687        1382025796.7900138     
  -542188987.99008441       -30213038.019450754        1382574459.8730240     
  -466470955.16879129       -22350746.434099585        1388435270.0341828     
  -388029038.38911319       -5408841.6541312188        1399608227.2734888     
  -306863237.65103614        20612676.320507646        1416093331.5909512     
  -745272118.41488862       -42171874.630387574        1286324990.8221519     
  -658655419.26127934       -42459782.167637974        1289314084.8142569     
  -569391646.69424796       -33924111.660134971        1297255436.3967445     
  -477480800.71379232       -16564863.107882619        1310149045.5696130     
  -382922881.31990695        9617963.4891244918        1327994912.3328726     
  -876825908.01654792       -55787475.262531817        1189454625.2304668     
  -777614914.25157034       -55454445.431537241        1194794537.8291955     
  -675833657.61813664       -46553872.705689162        1204726818.5305483     
  -571482138.11624372       -29085757.084982157        1219251467.3345141     
  -464560355.74588966       -3050098.5693939030        1238368484.2410986     
  -1009844505.6579738       -69842518.306626081        1091414700.0149348     
  -899067472.96096361       -69197027.811193913        1099015818.9178426     
  -785796987.94045401       -60240029.570766926        1110849416.4355984     
  -670033050.59646189       -42971523.585395515        1126915492.5682023     
  -551775660.92897475       -17391509.855042964        1147214047.3156512     
  -236381424.73926857        29934039.924756497        1502663742.0153618     
  -196572750.52415493        58747596.940825030        1481545084.9204335     
  -152085968.59880295        103154846.32436311        1463461104.7920678     
  -102921078.96321534        163155788.07534704        1448411801.6302722     
  -49078081.617395952        238750422.19377443        1436397175.4350429     
  -306863237.65103614        20612676.320507646        1416093331.5909512     
  -257374621.96894047        51062259.445134267        1400020164.5817115     
  -201424470.02538925        103050296.77460769        1387980884.9400609     
  -139012781.82036811        176576788.30898303        1379975492.6660066     
  -70139557.353898212        271641734.04818821        1376003987.7595596     
  -382922881.31990695        9617963.4891244918        1327994912.3328726     
  -320899437.31074488        42560038.780326173        1319047902.0524035     
  -250631028.48890531        102985330.11378579        1315133989.5405617     
  -172117654.85437459        190893837.48954940        1316253174.7973454     
  -85359316.407166183        306285560.90757227        1322405457.8227634     
  -464560355.74588966       -3050098.5693939030        1238368484.2410986     
  -387147196.54957402        33240934.946409836        1238628297.3325045     
  -299705643.98935699        102959946.34189035        1244920418.5935702     
  -202235698.06522983        206106935.61706787        1257244848.0242944     
  -94737358.777196154        342681902.77193439        1275601585.6246812     
  -551775660.92897475       -17391509.855042964        1147214047.3156512     
  -456117899.68542218        23104947.943387747        1158761350.4220278     
  -348648316.52675301        102974145.45887992        1177340172.0990894     
  -229366911.45293176        222216082.69154108        1202950512.3468409     
  -98273684.464000851        380830759.64123744        1235592371.1652737     
  -49078081.617395952        238750422.19377443        1436397175.4350429     
  -39863616.074811488        319684188.45831609        1344214936.5046651     
  -22979329.657599002        426184024.30494839        1251798759.3998351     
   1574777.6342583001        558249929.73372638        1159148644.1205380     
   33798705.800741673        715881904.74460137        1066264590.6667861     
  -70139557.353898212        271641734.04818821        1376003987.7595596     
  -56287124.011485472        373449514.73326617        1295122365.0556197     
  -33567168.282323062        504815703.37416381        1213225267.8135788     
  -1979690.1664516926        665740299.97077155        1130312696.0334284     
   38475310.336152941        856223304.52314246        1046384649.7151784     
  -85359316.407166183        306285560.90757227        1322405457.8227634     
  -69101876.303891748        428297467.70154327        1254221769.7760375     
  -42779212.301801175        583860120.82491314        1184241070.8275616     
  -6391324.4008819163        772973520.27769721        1112463360.9773378     
   40061787.398850024        995637666.05986929        1038888640.2253592     
  -94737358.777196154        342681902.77193439        1275601585.6246812     
  -78307872.952058166        484228047.36308897        1221513150.6659367     
  -50615461.716007948        663317276.65727043        1164846168.4417965     
  -11660125.069048643        879949590.65449703        1105600638.9522679     
   38558136.988833010        1134124989.3547819        1043776562.1973388     
  -98273684.464000851        380830759.64123744        1235592371.1652737     
  -83905113.955976754        541241253.71789563        1196996507.7252965     
  -57075916.524965435        743187170.87117267        1155040560.6562781     
  -17786092.170928717        986668511.10120189        1109724529.9582210     
   33964359.106101751        1271685274.4078798        1061048415.6311170     
  -1600544820.6660895        594431592.43268514       -2928243300.8262820     
  -1721854810.4759135        579409392.46749461       -2187894381.8532472     
  -1851542891.2864923        536460222.49980223       -1567867836.8297758     
  -1989609063.0978241        465584082.52959895       -1068163665.7558662     
  -2136053325.9099095        366780972.55687535       -688781868.63151610     
  -144025824.58020931        1302120250.4844158       -1178216711.2011039     
  -566232732.82388604        1060102137.3700976       -799650580.86984515     
  -982310415.02415037        838514777.73383117       -479837572.34988183     
  -1392258871.1810017        637358171.57560849       -218777685.64121252     
  -1796078101.2944293        456632318.89544344       -16470920.743839772     
   194620094.87960005        1674446985.5483270        510760031.57691050     
  -352571582.83146685        1258206603.9748168        544468576.48459077     
  -879126717.45493555        910754699.35992336        580993251.71924031     
  -1385045308.9908285        632091271.70363331        620334057.28086281     
  -1870327357.4391418        422216321.00595236        662490993.16945291     
  -584607062.28668392        1711411797.6244075        2138686927.5077598     
  -1080871360.4986424        1173722792.2816546        1844463090.2100542     
  -1541991798.5788517        753179987.37807786        1614624635.3775864     
  -1967968376.5273120        449783382.91366291        1449171563.0103581     
  -2358801094.3440194        263532978.88841581        1348103873.1083658     
  -2481707296.0790377        1413014686.7126708        3705563976.5914426     
  -2751132065.8254242        806650702.29061747        3100332960.3065534     
  -2970905658.3958964        365790641.78829062        2621056578.6251631     
  -3141028073.7904496        90434505.205688477        2267734831.5472784     
  -3261499312.0090837       -19417707.457183719        2040367719.0728958     
  -2136053325.9099095        366780972.55687535       -688781868.63151610     
  -2130177271.9176340        303553919.70405114       -390105162.96557993     
  -2122595679.4002633        246011995.26820576       -133864389.22504535     
  -2113308548.3577948        194155199.24935520        79940452.590093002     
  -2102315878.7902348        147983531.64747679        251309362.47983032     
  -1796078101.2944293        456632318.89544344       -16470920.743839772     
  -1875545871.7232749        382850080.78481805        149183013.35743061     
  -1954788026.4389386        309819895.05145335        294059595.65811932     
  -2033804565.4414196        237541761.69536376        418158826.15822309     
  -2112595488.7307281        166015680.71651697        521480704.85774422     
  -1870327357.4391418        422216321.00595236        662490993.16945291     
  -1973257294.7896290        356443394.88736939        693395579.09216106     
  -2077441539.2388535        286489445.10632873        725181393.33909810     
  -2182880090.7868142        212354471.66283143        757848435.91026640     
  -2289572949.4335146        134038474.55687606        791396706.80566585     
  -2358801094.3440194        263532978.88841581        1348103873.1083658     
  -2423311541.1166878        224333862.01170683        1242532534.2386057     
  -2490556217.8000083        176020645.43283236        1159501003.8178921     
  -2560535124.3939843        118593329.15177310        1099009281.8462224     
  -2633248260.8986087        52051913.168544412        1061057368.3235977     
  -3261499312.0090837       -19417707.457183719        2040367719.0728958     
  -3225708610.7044611       -13478517.842166662        1796593878.7967689     
  -3194132062.1224027       -21586503.969035983        1597018427.0945003     
  -3166769666.2629161       -43741665.837807059        1441641363.9660919     
  -3143621423.1260014       -79944003.448486686        1330462689.4115391     
  -2102315878.7902348        147983531.64747679        251309362.47983032     
  -2035874700.7001178        122376468.66769183        369868058.37786335     
  -1968547818.0151007        99721754.337580919        478602096.42322218     
  -1900335230.7351832        80019388.657133698        577511476.61590838     
  -1831236938.8603566        63269371.626385093        666596198.95592237     
  -2112595488.7307281        166015680.71651697        521480704.85774422     
  -2066036237.5453315        134522581.55466497        585870944.77564907     
  -2018101769.4525266        107613538.75085080        646150368.66153526     
  -1968792084.4522977        85288552.305112362        702318976.51540077     
  -1918107182.5446606        67547622.217401743        754376768.33724701     
  -2289572949.4335146        134038474.55687606        791396706.80566585     
  -2246570362.8081255        101556917.91635561        802189588.44137609     
  -2201703046.9627986        75291125.342273593        814585495.86572278     
  -2154971001.8975458        55241096.834621191        828584429.07870245     
  -2106374227.6123664        41406832.393401146        844186388.08031631     
  -2633248260.8986087        52051913.168544412        1061057368.3235977     
  -2577477076.4884915        23479477.752777100        1018823989.3750507     
  -2519351650.5459299        2754514.1118286848        983907478.03578806     
  -2458871983.0709243       -10122977.754304528        956307834.30581594     
  -2396038074.0634747       -15152997.845621705        936025058.18512952     
  -3143621423.1260014       -79944003.448486686        1330462689.4115391     
  -3058756378.5864339       -99709738.936072350        1235774147.5766659     
  -2971047580.2019095       -109996294.94046259        1154116315.1717296     
  -2880495027.9724278       -110803671.46165848        1085489192.1967351     
  -2787098721.8979859       -102131868.49966550        1029892778.6516839     
  -1831236938.8603566        63269371.626385093        666596198.95592237     
  -1725696470.3417776        55983645.178316355        741418920.71610308     
  -1622009857.4579349        42518399.947787285        816293837.72814405     
  -1520177100.2088339        22873635.934786081        891220949.99203658     
  -1420198198.5944805       -2950646.8607011437        966200257.50777662     
  -1918107182.5446606        67547622.217401743        754376768.33724701     
  -1808425901.2135534        66323195.673129439        792213255.08017075     
  -1700899447.9658725        57916008.850765586        831784025.67999732     
  -1595527822.8016105        42326061.750334024        873089080.13673627     
  -1492311025.7207818        19553354.371805489        916128418.45037794     
  -2106374227.6123664        41406832.393401146        844186388.08031631     
  -1987746166.0257263        47685495.985813618        844685505.28251421     
  -1871573904.9711890        45778157.804534435        848600994.94667041     
  -1757857444.4487672        35684817.849554777        855932857.07278669     
  -1646596784.4584494        17405476.120885491        866681091.66086924     
  -2396038074.0634747       -15152997.845621705        936025058.18512952     
  -2263657264.7782865        70546.116379737854        898835671.32313466     
  -2134033228.4738896        6104846.8090926409        866744745.52815783     
  -2007165965.1502838        2949904.2324842215        839752280.80019379     
  -1883055474.8074796       -9394281.6134448051        817858277.13924348     
  -2787098721.8979859       -102131868.49966550        1029892778.6516839     
  -2636159197.4712453       -76521653.935163617        954663753.20203447     
  -2488277418.4739752       -61103924.135581493        886215277.42445481     
  -2343453384.9061856       -55878679.100919366        824547351.31894660     
  -2201687096.7678671       -60845918.831169009        769659974.88550687     
  -1420198198.5944805       -2950646.8607011437        966200257.50777662     
  -1320361732.9275715       -28846806.612909257        1010195199.2076542     
  -1218690628.8825195       -48627505.104637861        1045729253.5254744     
  -1115184886.4593160       -62292742.335861921        1072802420.4612309     
  -1009844505.6579738       -69842518.306626081        1091414700.0149348     
  -1492311025.7207818        19553354.371805489        916128418.45037794     
  -1408354996.2523992       -9435427.1231121421        936231489.65745151     
  -1322532826.9418890       -32203742.477614045        953293410.03449583     
  -1234844517.7892597       -48751591.691725194        967314179.58150995     
  -1145290068.7945130       -59078974.765433967        978293798.29849923     
  -1646596784.4584494        17405476.120885491        866681091.66086924     
  -1563036229.6113479       -10030438.643539727        862929044.08310366     
  -1477578033.4581571       -31140882.387666523        861555582.22733760     
  -1390222195.9988742       -45925855.111482978        862560706.09357738     
  -1300968717.2334960       -54385356.814988434        865944415.68182135     
  -1883055474.8074796       -9394281.6134448051        817858277.13924348     
  -1784405433.0044394       -30631841.174232483        790287862.48460829     
  -1683826248.4313273       -45438924.834793031        770515770.10400403     
  -1581317921.0881498       -53815532.595125794        758541999.99743760     
  -1476880450.9749157       -55761664.455277264        754366552.16490734     
  -2201687096.7678671       -60845918.831169009        769659974.88550687     
  -2072462606.4316473       -71239634.715133667        718307944.86197031     
  -1941277471.8613939       -75097869.818981647        680173973.66449451     
  -1808131693.0571001       -72420624.142699301        655258061.29308939     
  -1673025270.0187674       -63207897.686282277        643560207.74774754     
  -1009844505.6579738       -69842518.306626081        1091414700.0149348     
  -899067472.96096361       -69197027.811193913        1099015818.9178426     
  -785796987.94045401       -60240029.570766926        1110849416.4355984     
  -670033050.59646189       -42971523.585395515        1126915492.5682023     
  -551775660.92897475       -17391509.855042964        1147214047.3156512     
  -1145290068.7945130       -59078974.765433967        978293798.29849923     
  -1023725830.6600795       -54890898.029308498        980576388.17810130     
  -900788706.16913712       -46126533.438185662        986106829.87763441     
  -776478695.32168341       -32785880.992007703        994885123.39710629     
  -650795798.11773002       -14868940.690832645        1006911268.7365168     
  -1300968717.2334960       -54385356.814988434        865944415.68182135     
  -1171430493.0756733       -47498659.662419736        861601149.57663023     
  -1041639948.5283195       -39770894.544746697        859521108.49646640     
  -911597083.59144795       -31202061.462015927        859704292.44132698     
  -781301898.26504743       -21792160.414187670        862150701.41121519     
  -1476880450.9749157       -55761664.455277264        754366552.16490734     
  -1342181460.2077329       -47020312.710447490        742090103.11344504     
  -1208350715.0180011       -41173112.890464544        731092252.29209948     
  -1075388215.4057372       -38220064.995371580        721372999.70086694     
  -943293961.37092888       -38161169.025126874        712932345.33974731     
  -1673025270.0187674       -63207897.686282277        643560207.74774754     
  -1535978732.0562539       -53455857.173410237        622043248.78853369     
  -1400921005.6381824       -50333188.475327313        600820261.26452470     
  -1267852090.7645569       -53839891.592073679        579891245.17572129     
  -1136771987.4353676       -63975966.523606539        559256200.52212143     
  -551775660.92897475       -17391509.855042964        1147214047.3156512     
  -456117899.68542218        23104947.943387747        1158761350.4220278     
  -348648316.52675301        102974145.45887992        1177340172.0990894     
  -229366911.45293176        222216082.69154108        1202950512.3468409     
  -98273684.464000851        380830759.64123744        1235592371.1652737     
  -650795798.11773002       -14868940.690832645        1006911268.7365168     
  -537765625.62354624        17563721.420483947        1021151379.6124971     
  -414034797.14102370        85665236.826253384        1043584241.1153021     
  -279603312.67013162        189435605.52659148        1074209853.2449350     
  -134471172.21089613        328874827.52141047        1113028216.0013943     
  -781301898.26504743       -21792160.414187670        862150701.41121519     
  -647581508.64555228        3572047.7724021971        877787259.80889118     
  -504271628.96448690        60901222.830874950        902777800.88953650     
  -351372259.22183555        150195364.76130375        937122324.65314651     
  -188883399.41762340        271454473.56361389        980820831.09972215     
  -943293961.37092888       -38161169.025126874        712932345.33974731     
  -785565548.75143266       -18870073.000848502        728668991.01121449     
  -619358811.99714696        28682103.472734541        754920851.42178202     
  -444673751.10806412        104495360.39563206        791687926.57145691     
  -261510366.08418447        208569697.76786381        838970216.46024013     
  -1136771987.4353676       -63975966.523606539        559256200.52212143     
  -951717745.94119215       -49762640.899239630        573796573.21946585     
  -759296346.23900080       -10992121.248164028        600013392.71205020     
  -559507788.32878578        52335592.429662466        637906658.99988461     
  -352352072.21056288        140220500.13418186        687476372.08296156     
  -98273684.464000851        380830759.64123744        1235592371.1652737     
  -83905113.955976754        541241253.71789563        1196996507.7252965     
  -57075916.524965435        743187170.87117267        1155040560.6562781     
  -17786092.170928717        986668511.10120189        1109724529.9582210     
   33964359.106101751        1271685274.4078798        1061048415.6311170     
  -134471172.21089613        328874827.52141047        1113028216.0013943     
  -125799330.24431112        478506768.89501590        1091162252.5514231     
  -94115522.995794445        704845261.20838964        1070761632.1685512     
  -39419750.465365529        1007890304.4614866        1051826354.8527805     
   38287987.347000837        1387641898.6543584        1034356420.6040972     
  -188883399.41762340        271454473.56361389        980820831.09972215     
  -172121352.57491684        414443942.25948805        987994662.39182615     
  -121796002.09137973        669311089.75813472        1001459263.4471629     
  -37907347.966990650        1036055916.0596218        1021214634.2657464     
   79544609.798244596        1514678421.1639135        1047260774.8475676     
  -261510366.08418447        208569697.76786381        838970216.46024013     
  -222871180.94782472        349052773.81124616        887493737.24649274     
  -140117353.81170642        636584656.52047336        947133454.49212492     
  -13248884.675827742        1071165345.8955964        1017889368.1971352     
   157734226.45981532        1652794841.9365733        1099761478.3615198     
  -352352072.21056288        140220500.13418186        687476372.08296156     
  -278048815.36300093        282333263.55035043        789659477.11543846     
  -149079578.15677804        606665961.49538839        907784205.30343354     
   34555639.408137381        1113218593.9694018        1041850556.6469355     
   272856837.33173704        1801991160.9723518        1191858531.1459737     
  -2481707296.0790377        1413014686.7126708        3705563976.5914426     
  -2751132065.8254242        806650702.29061747        3100332960.3065534     
  -2970905658.3958964        365790641.78829062        2621056578.6251631     
  -3141028073.7904496        90434505.205688477        2267734831.5472784     
  -3261499312.0090837       -19417707.457183719        2040367719.0728958     
  -4880045093.1966476       -570306862.49051082        2107452411.5673347     
  -4674897560.8688955       -353704805.22803259        1876537420.5931306     
  -4488229431.9891329       -198700759.45886183        1694808171.6067913     
  -4320040706.5573587       -105294725.18299007        1562264664.6083217     
  -4170331384.5735736       -73486702.400415897        1478906899.5977268     
  -6151191641.9031858       -2215471037.1703711        810850743.34138668     
  -5690811500.6888084       -1241704846.1796241        874766100.28330588     
  -5317041343.5463352       -556638602.09520197        911098306.59745812     
  -5029881170.4757586       -160272304.91711760        919847362.28384733     
  -4829330981.4770823       -52605954.645363808        901013267.34247243     
  -6295146942.1986513       -3522477837.3269138       -184241028.08639708     
  -5798873885.2851763       -1857349420.5641396        95018999.377080843     
  -5457341393.0675144       -708022886.12074113        269926983.59716284     
  -5270549465.5456581       -74498233.996691465        340482924.57384700     
  -5238498102.7196178        43224535.807971954        306686822.30713701     
  -5311910994.0830278       -4491327262.9601212       -877822902.71602654     
  -4999084714.6579847       -2200638528.3815961       -462703882.12554288     
  -4909129580.5526600       -652853611.53546357       -228705797.39409092     
  -5042045591.7670527        152027487.57827401       -175828648.52167064     
  -5397832748.3011627        214004768.95962524       -304072435.50828212     
  -3261499312.0090837       -19417707.457183719        2040367719.0728958     
  -3225708610.7044611       -13478517.842166662        1796593878.7967689     
  -3194132062.1224027       -21586503.969035983        1597018427.0945003     
  -3166769666.2629161       -43741665.837807059        1441641363.9660919     
  -3143621423.1260014       -79944003.448486686        1330462689.4115391     
  -4170331384.5735736       -73486702.400415897        1478906899.5977268     
  -4042777449.1386757       -76743780.317414045        1312121906.4298038     
  -3915481572.7183518       -80861054.949673176        1173847843.4494669     
  -3788443755.3126092       -85838526.297192574        1064084710.6567217     
  -3661663996.9214435       -91676194.359977007        982832508.05155933     
  -4829330981.4770823       -52605954.645363808        901013267.34247243     
  -4654835121.5869637       -78505692.996890306        815832563.94207585     
  -4476641227.0034409       -92078649.037052870        743475332.34299552     
  -4294749297.7265048       -93324822.765835285        683941572.54523456     
  -4109159333.7561464       -82244214.183235407        637231284.54878414     
  -5238498102.7196178        43224535.807971954        306686822.30713701     
  -5061881628.0493498       -18764255.880602360        307725851.33359009     
  -4877611024.9776735       -55239286.231174946        305900893.77508461     
  -4685686293.5045929       -66200555.243721008        301211949.63162804     
  -4486107433.6301146       -51648062.918274879        293659018.90321648     
  -5397832748.3011627        214004768.95962524       -304072435.50828212     
  -5263916968.5257950        102480531.03148437       -212198231.39566010     
  -5118390966.6410418        29657033.467973471       -138875472.25426033     
  -4961254742.6468954       -4465723.7308912277       -84104158.084087282     
  -4792508296.5433512        112259.43489146233       -47884288.885142908     
  -3143621423.1260014       -79944003.448486686        1330462689.4115391     
  -3058756378.5864339       -99709738.936072350        1235774147.5766659     
  -2971047580.2019095       -109996294.94046259        1154116315.1717296     
  -2880495027.9724278       -110803671.46165848        1085489192.1967351     
  -2787098721.8979859       -102131868.49966550        1029892778.6516839     
  -3661663996.9214435       -91676194.359977007        982832508.05155933     
  -3541045602.7349157       -97787683.102770567        914395589.86730683     
  -3419130959.2603855       -99578340.885564446        857279558.88658929     
  -3295920066.4978428       -97048167.708316326        811484415.10941637     
  -3171412924.4472980       -90197163.571051359        777010158.53578126     
  -4109159333.7561464       -82244214.183235407        637231284.54878414     
  -3957672796.2838092       -76167018.089608431        593240568.03204453     
  -3806437514.0804162       -70927339.559133291        558860916.49243963     
  -3655453487.1459637       -66525178.591789246        534092329.92997301     
  -3504720715.4804544       -62960535.187590599        518934808.34464800     
  -4486107433.6301146       -51648062.918274879        293659018.90321648     
  -4308637959.2331161       -34847743.896572351        272309082.07087916     
  -4132967244.6619987       -24043290.961150408        258860387.98927459     
  -3959095289.9167862       -19234704.112077951        253312936.65840939     
  -3787022094.9974575       -20421983.349277020        255666728.07828057     
  -4792508296.5433512        112259.43489146233       -47884288.885142908     
  -4593941091.5828209        26170139.476371050       -48398868.016197301     
  -4398720151.0051470        41073804.908322096       -42722026.622906610     
  -4206845474.8103027        44823255.730850697       -30853764.705279145     
  -4018317062.9983087        37418491.943868876       -12794082.263315551     
  -2787098721.8979859       -102131868.49966550        1029892778.6516839     
  -2636159197.4712453       -76521653.935163617        954663753.20203447     
  -2488277418.4739752       -61103924.135581493        886215277.42445481     
  -2343453384.9061856       -55878679.100919366        824547351.31894660     
  -2201687096.7678671       -60845918.831169009        769659974.88550687     
  -3171412924.4472980       -90197163.571051359        777010158.53578126     
  -3005139371.1092601       -71735874.106966496        716681869.64747179     
  -2840768421.8236766       -59616598.151062250        663018189.88818491     
  -2678300076.5905533       -53839335.703361154        616019119.25792432     
  -2517734335.4099002       -54404086.763879299        575684657.75668693     
  -3504720715.4804544       -62960535.187590599        518934808.34464800     
  -3323444391.9255304       -51747548.432237864        474854920.95752776     
  -3142915531.0460420       -43026103.928335667        437323702.15638351     
  -2963134132.8420033       -36796201.675927758        406341151.94122648     
  -2784100197.3134127       -33057841.675030112        381907270.31204039     
  -3787022094.9974575       -20421983.349277020        255666728.07828057     
  -3591074259.9200516       -16556676.910961628        229182907.13219759     
  -3394718746.1410823       -11332441.467431784        209131814.22904798     
  -3197955553.6605296       -4749277.0186270475        195513449.36884135     
  -3000784682.4784136        3192816.4353910685        188327812.55156443     
  -4018317062.9983087        37418491.943868876       -12794082.263315551     
  -3808028975.0928464        33836740.456778765       -20334171.828501485     
  -3596178067.1087751        35464389.231719732       -21557473.893805645     
  -3382764339.0461388        42301438.268551111       -16463988.459210103     
  -3167787790.9049129        54347887.567335963       -5053715.5247276640     
  -2201687096.7678671       -60845918.831169009        769659974.88550687     
  -2072462606.4316473       -71239634.715133667        718307944.86197031     
  -1941277471.8613939       -75097869.818981647        680173973.66449451     
  -1808131693.0571001       -72420624.142699301        655258061.29308939     
  -1673025270.0187674       -63207897.686282277        643560207.74774754     
  -2517734335.4099002       -54404086.763879299        575684657.75668693     
  -2357235223.8924584       -56373480.794257164        541280716.32533956     
  -2195746467.0506234       -55044057.076663852        515772042.70265746     
  -2033268064.8844054       -50415815.611129880        499158636.88863665     
  -1869800017.3938036       -42488756.397628188        491440498.88328493     
  -2784100197.3134127       -33057841.675030112        381907270.31204039     
  -2604677296.0930409       -30308163.295309067        363318585.41163230     
  -2425235748.4579310       -27496330.199782848        349302377.30248022     
  -2245775554.4080863       -24622342.388473272        339858645.98458934     
  -2066296713.9434948       -21686199.861353993        334987391.45796543     
  -3000784682.4784136        3192816.4353910685        188327812.55156443     
  -2814788823.0334163        6956317.7816963196        184421552.12083733     
  -2629745316.0833092        7545310.8116903305        180764977.46396551     
  -2445654161.6281242        4959795.5252763033        177358088.58094668     
  -2262515359.6678457       -800228.07747924328        174200885.47178409     
  -3167787790.9049129        54347887.567335963       -5053715.5247276640     
  -2987569804.7135644        55419962.436783075        4589616.4529584795     
  -2809275169.9267626        50080865.957744241        10159843.187107071     
  -2632903886.5445390        38330598.130113840        11656964.677701775     
  -2458455954.5668626        20169158.953981996        9080980.9247608483     
  -1673025270.0187674       -63207897.686282277        643560207.74774754     
  -1535978732.0562539       -53455857.173410237        622043248.78853369     
  -1400921005.6381824       -50333188.475327313        600820261.26452470     
  -1267852090.7645569       -53839891.592073679        579891245.17572129     
  -1136771987.4353676       -63975966.523606539        559256200.52212143     
  -1869800017.3938036       -42488756.397628188        491440498.88328493     
  -1733173297.1465929       -41538116.085432649        469257369.11062908     
  -1596826785.3413446       -41521503.913137734        448488423.55269939     
  -1460760481.9780595       -42438919.880695701        429133662.20949656     
  -1324974387.0567319       -44290363.988112032        411193085.08100963     
  -2066296713.9434948       -21686199.861353993        334987391.45796543     
  -1926889203.4701109       -28576777.367447019        314131461.15810335     
  -1786053298.3362045       -30706039.338456511        295809927.85248262     
  -1643788998.5417814       -28073985.774403274        280022791.54110348     
  -1500096304.0868163       -20680616.675233483        266770052.22397506     
  -2262515359.6678457       -800228.07747924328        174200885.47178409     
  -2117126451.0268199       -14571841.019429684        156665524.93095389     
  -1968600544.6227522       -17886794.751265526        142784774.16387361     
  -1816937640.4557118       -10745089.273163557        132558633.17056309     
  -1662137738.5256324        6853275.4150389433        125987101.95100816     
  -2458455954.5668626        20169158.953981996        9080980.9247608483     
  -2303885039.8166718        476692.95871150494       -3140439.5708256592     
  -2144468524.2010119       -3063770.1516313553       -10587037.513125874     
  -1980206407.7198520        9547769.6230106354       -13258812.902143322     
  -1811098690.3731847        38311312.282677054       -11155765.737880241     
  -1136771987.4353676       -63975966.523606539        559256200.52212143     
  -951717745.94119215       -49762640.899239630        573796573.21946585     
  -759296346.23900080       -10992121.248164028        600013392.71205020     
  -559507788.32878578        52335592.429662466        637906658.99988461     
  -352352072.21056288        140220500.13418186        687476372.08296156     
  -1324974387.0567319       -44290363.988112032        411193085.08100963     
  -1123525765.0665085       -21666917.592187703        430268250.17199713     
  -918647836.36002970        12387551.191237986        448337233.28664786     
  -710340600.93729925        57873042.362174749        465400034.42495894     
  -498604058.79831243        114789555.92063820        481456653.58694416     
  -1500096304.0868163       -20680616.675233483        266770052.22397506     
  -1318489383.8050518       -517874.16907548904        285785849.63488352     
  -1137391008.2988172        17949719.085319102        291112836.29786801     
  -956801177.56808186        34722163.088059545        282751012.21293974     
  -776719891.61286092        49799457.839061558        260700377.38009131     
  -1662137738.5256324        6853275.4150389433        125987101.95100816     
  -1536608602.1568577        13684489.370030344        140349371.60810879     
  -1415525862.0553629        5694382.4340894222        128340201.74571247     
  -1298889518.2211511       -17117045.392781436        89959592.363817111     
  -1186699570.6542029       -54749794.110556543        25207543.462419357     
  -1811098690.3731847        38311312.282677054       -11155765.737880241     
  -1777883420.1219091        20940173.025175929       -6041183.9083140111     
  -1753052397.6296792       -24378458.762488008       -39980670.369825393     
  -1736605622.8964868       -97644583.080283403       -112974225.12241583     
  -1728543095.9223328       -198858199.92818427       -225021848.16608226     
  -352352072.21056288        140220500.13418186        687476372.08296156     
  -278048815.36300093        282333263.55035043        789659477.11543846     
  -149079578.15677804        606665961.49538839        907784205.30343354     
   34555639.408137381        1113218593.9694018        1041850556.6469355     
   272856837.33173704        1801991160.9723518        1191858531.1459737     
  -498604058.79831243        114789555.92063820        481456653.58694416     
  -389412786.38026798        220690692.30534658        599702967.14867890     
  -231069587.44162425        490431583.75869679        737201121.92407525     
  -23574461.982386053        924012230.28069830        893951117.91312420     
   233072589.99743804        1521432631.8713360        1069952955.1158220     
  -776719891.61286092        49799457.839061558        260700377.38009131     
  -623182837.74392855        122326296.95645791        388576836.66000164     
  -426007911.19250107        340312711.68218261        539015355.21169317     
  -185195111.95854351        703758702.01630771        712015933.03518057     
   99255559.957888424        1212664267.9587584        907578570.13045681     
  -1186699570.6542029       -54749794.110556543        25207543.462419357     
  -979358969.45399523       -12759922.496329248        156281085.64938864     
  -733894549.40939569        156309345.26587641        313226905.16627806     
  -450306310.52034163        452458009.17621660        496045002.01310003     
  -128594252.78689843        875686069.23460937        704735376.18984628     
  -1728543095.9223328       -198858199.92818427       -225021848.16608226     
  -1457941181.5104752       -184567966.05306703       -97184285.883148506     
  -1154729502.0922976       -61578515.490238667        59835771.787833177     
  -818908057.66776514        170110151.76043963        246038324.84688136     
  -450476848.23691076        510498035.69887960        461423373.29399925     
 </DataArray>
 <DataArray  type="Float64" Name="VM" NumberOfComponents="1" format="ascii">
   5180985182.3381367     
   4413022108.2986603     
   4634409036.6952534     
   5128802273.6641016     
   5533076765.8722000     
   5473942254.6327305     
   5131591953.6170998     
   5161252813.5091791     
   5266818858.1332912     
   5286996575.7269115     
   5575851538.0398521     
   5399676418.2125511     
   5302018962.9455681     
   5201691902.6796675     
   5050408722.1203356     
   5889060520.0539255     
   5557914952.6286116     
   5282896462.1987133     
   5053807853.3619280     
   4863342172.7850590     
   7270198319.3065042     
   6266961702.9063044     
   5536842552.9424477     
   5058276075.6886530     
   4802470743.0052805     
   5533076765.8722000     
   5328588685.1915102     
   5138916335.3650246     
   4961162514.2693739     
   4793282017.5386992     
   5286996575.7269115     
   5080561077.3785343     
   4879080958.6032495     
   4682096691.5859499     
   4489413716.9645844     
   5050408722.1203356     
   4827522180.4604416     
   4614635281.0388403     
   4410907225.5225563     
   4215707661.1340470     
   4863342172.7850590     
   4604853175.3217678     
   4376606077.0961227     
   4175081881.3705735     
   3997296528.8374324     
   4802470743.0052805     
   4477180878.6881542     
   4217273884.7661433     
   4015820355.4852581     
   3866241832.5159726     
   4793282017.5386992     
   4607844512.9861212     
   4420019650.3974733     
   4229772848.1386743     
   4037217184.1977005     
   4489413716.9645844     
   4317161778.3991880     
   4145316910.5788879     
   3973808726.0144672     
   3802724198.3644891     
   4215707661.1340470     
   4052571325.8150172     
   3893712022.9109597     
   3738896889.0340466     
   3588070823.3442574     
   3997296528.8374324     
   3835446991.4197884     
   3683026702.9928846     
   3539514838.4141102     
   3404581820.2453718     
   3866241832.5159726     
   3693556286.1245651     
   3536717699.0510960     
   3394881439.5372109     
   3267374482.0420275     
   4037217184.1977005     
   3825221735.1893220     
   3614233645.6373572     
   3404231626.9343929     
   3195320386.8647127     
   3802724198.3644891     
   3604747788.7468314     
   3408369358.4527740     
   3213476439.4874449     
   3020049991.7922254     
   3588070823.3442574     
   3398888335.9918642     
   3212210754.2657585     
   3027841667.2686238     
   2845668616.3494825     
   3404581820.2453718     
   3218902154.3756108     
   3036929662.2802243     
   2858396533.2770376     
   2683134254.0867820     
   3267374482.0420275     
   3080197438.0806079     
   2898162734.8050618     
   2720952428.1433344     
   2548390482.8878670     
   3195320386.8647127     
   3015672215.1408730     
   2834702043.0348482     
   2652353774.4131975     
   2468652437.2558212     
   3020049991.7922254     
   2836317859.4155126     
   2652072309.5589409     
   2467335910.7098904     
   2282148923.6047769     
   2845668616.3494825     
   2665017935.9899673     
   2486337839.5353150     
   2309833228.3841233     
   2135858594.2378819     
   2683134254.0867820     
   2511136148.4657607     
   2345534480.9458461     
   2186707557.9722648     
   2035449142.9259214     
   2548390482.8878670     
   2387558119.0253425     
   2239714716.8110948     
   2105167052.9228270     
   1984885287.6125801     
   2468652437.2558212     
   2304129843.5479484     
   2143016736.9358170     
   1985130353.3034031     
   1830657025.0892475     
   2282148923.6047769     
   2127256114.7248235     
   1975261644.0801756     
   1826080519.1595213     
   1679808967.1934068     
   2135858594.2378819     
   1988640257.8432672     
   1843528454.4636471     
   1700564906.8820338     
   1559869377.5035329     
   2035449142.9259214     
   1895845398.3565254     
   1757470559.0554161     
   1620523449.5194736     
   1485285973.8964748     
   1984885287.6125801     
   1854937881.4493787     
   1725559396.7254012     
   1597156287.6836135     
   1470346857.8259420     
   1830657025.0892475     
   1788476060.8818483     
   1742367832.6852219     
   1701191626.0662158     
   1683916668.3664770     
   1679808967.1934068     
   1562521937.0349014     
   1435694974.4899132     
   1299789216.6216507     
   1161115030.6886990     
   1559869377.5035329     
   1408102399.3997664     
   1252452153.7836323     
   1090752370.2381902     
   921058122.90927613     
   1485285973.8964748     
   1339338852.2194626     
   1207669623.6517735     
   1094912876.0260477     
   1007183556.1903822     
   1470346857.8259420     
   1359636172.6767864     
   1283882278.3925953     
   1251337231.7840688     
   1269288005.7828858     
   1683916668.3664770     
   1385244722.2732258     
   1129967506.9610324     
   1010176725.3774230     
   1154226914.2915442     
   1161115030.6886990     
   1009990888.7201308     
   985942026.65725398     
   1161645665.5118685     
   1544644496.5800524     
   921058122.90927613     
   965674942.71223569     
   1146247813.0939746     
   1476755321.1163025     
   1957329610.6925492     
   1007183556.1903822     
   1168425189.5779464     
   1427458090.0212581     
   1809304632.1150267     
   2334282292.2697186     
   1269288005.7828858     
   1451279405.9679668     
   1718408072.9567850     
   2111478036.1116753     
   2662990361.1591220     
   7270198319.3065042     
   6266961702.9063044     
   5536842552.9424477     
   5058276075.6886530     
   4802470743.0052805     
   4241832681.9025173     
   3744420343.7259083     
   3453614671.0365734     
   3355690502.0113845     
   3421573652.8161340     
   1816148696.1249049     
   1743656091.3956370     
   1848152096.5539589     
   2085139794.1763937     
   2404736311.5452137     
   2463408894.5855484     
   1990734471.4751468     
   1783943629.7675738     
   1837272109.1170523     
   2062855013.4421115     
   5439699765.7356377     
   4319583726.3994541     
   3476191656.2300024     
   2919685587.8753958     
   2627542046.4151158     
   4802470743.0052805     
   4477180878.6881542     
   4217273884.7661433     
   4015820355.4852581     
   3866241832.5159726     
   3421573652.8161340     
   3331374585.9746637     
   3271936824.1794682     
   3239989364.8590765     
   3232846984.5916281     
   2404736311.5452137     
   2483252516.3301558     
   2563331578.7592235     
   2645110019.2446046     
   2728722724.8126326     
   2062855013.4421115     
   2109280945.4623470     
   2186831030.4852939     
   2280454128.1814241     
   2378480872.2819057     
   2627542046.4151158     
   2394362122.4852853     
   2267570803.1055393     
   2221092194.2365890     
   2223107846.4832993     
   3866241832.5159726     
   3693556286.1245651     
   3536717699.0510960     
   3394881439.5372109     
   3267374482.0420275     
   3232846984.5916281     
   3133442857.3596263     
   3042745748.1438217     
   2960546708.9089665     
   2886754168.8677177     
   2728722724.8126326     
   2686274626.5902791     
   2647561585.4125218     
   2612594692.2199268     
   2581413792.6086092     
   2378480872.2819057     
   2365219837.4216456     
   2356697136.7945447     
   2351826453.8563418     
   2349577483.1209760     
   2223107846.4832993     
   2195293168.6872535     
   2183715156.0228868     
   2184101479.3538780     
   2192337662.6875639     
   3267374482.0420275     
   3080197438.0806079     
   2898162734.8050618     
   2720952428.1433344     
   2548390482.8878670     
   2886754168.8677177     
   2747366120.3599720     
   2611685738.2243404     
   2479958979.3143182     
   2352652270.1141791     
   2581413792.6086092     
   2487705005.8006644     
   2398110229.2864046     
   2313423478.4486794     
   2234648085.4376502     
   2349577483.1209760     
   2297291691.3506217     
   2251780739.5902405     
   2214020452.2973132     
   2185046465.1017523     
   2192337662.6875639     
   2174138749.7010422     
   2168108840.5054960     
   2174639726.9175501     
   2193948481.4540181     
   2548390482.8878670     
   2387558119.0253425     
   2239714716.8110948     
   2105167052.9228270     
   1984885287.6125801     
   2352652270.1141791     
   2236972541.5100045     
   2131175246.6649029     
   2035809644.8174329     
   1951701463.4231486     
   2234648085.4376502     
   2159037871.5641437     
   2089264841.8305044     
   2025589472.2600327     
   1968324900.8427610     
   2185046465.1017523     
   2144726695.5032406     
   2105669639.2180862     
   2067391407.3026035     
   2029456422.5534749     
   2193948481.4540181     
   2183479344.0937624     
   2170013505.3663454     
   2151921209.5096526     
   2127837390.7988799     
   1984885287.6125801     
   1854937881.4493787     
   1725559396.7254012     
   1597156287.6836135     
   1470346857.8259420     
   1951701463.4231486     
   1841913503.1546602     
   1736531819.2123997     
   1636446208.5757182     
   1542750841.4967828     
   1968324900.8427610     
   1883064992.7954955     
   1805961838.3287699     
   1738048766.3803644     
   1680414470.8330390     
   2029456422.5534749     
   1969625476.0299551     
   1920733643.5483730     
   1883593843.2239797     
   1858948767.7734969     
   2127837390.7988799     
   2091507844.4021256     
   2067783502.0687573     
   2057137351.1874685     
   2059966709.3411748     
   1470346857.8259420     
   1359636172.6767864     
   1283882278.3925953     
   1251337231.7840688     
   1269288005.7828858     
   1542750841.4967828     
   1481729100.3977165     
   1453240857.5803347     
   1461310948.5046859     
   1509319449.4809721     
   1680414470.8330390     
   1653245046.0178938     
   1653400395.1554964     
   1683267759.6537836     
   1745470200.6988122     
   1858948767.7734969     
   1851268737.4003441     
   1865860643.1593044     
   1904943860.1067581     
   1971537663.9944904     
   2059966709.3411748     
   2060897755.5466046     
   2080012194.1929781     
   2119959431.0457199     
   2184532203.7647314     
   1269288005.7828858     
   1451279405.9679668     
   1718408072.9567850     
   2111478036.1116753     
   2662990361.1591220     
   1509319449.4809721     
   1616242125.1029117     
   1790322539.9621069     
   2066412053.5339029     
   2474739276.7245226     
   1745470200.6988122     
   1789168676.1791775     
   1884964982.3970032     
   2059796336.5550318     
   2338879849.8860736     
   1971537663.9944904     
   1968983294.6129220     
   2002896121.3767631     
   2091923423.3517845     
   2254676386.5503359     
   2184532203.7647314     
   2154947096.8746257     
   2144844752.0391324     
   2164681424.6342263     
   2225447429.2974524     
   5439699765.7356377     
   4319583726.3994541     
   3476191656.2300024     
   2919685587.8753958     
   2627542046.4151158     
   3640726726.1895370     
   3201036180.7506151     
   2902215476.4505658     
   2714581428.2844934     
   2597838763.1410933     
   3557190713.2777443     
   3415898458.9091363     
   3281427986.9790001     
   3152171777.1530786     
   3026628490.2902350     
   5096949680.9242487     
   4664196293.2608948     
   4296749200.5311651     
   3993374362.8651137     
   3753973956.1196060     
   7509174120.4571447     
   6549110096.5918922     
   5764423758.5749083     
   5153840527.1867781     
   4715169994.2014389     
   2627542046.4151158     
   2394362122.4852853     
   2267570803.1055393     
   2221092194.2365890     
   2223107846.4832993     
   2597838763.1410933     
   2532197311.8221784     
   2492894209.1541777     
   2469235111.9919367     
   2451421454.1104908     
   3026628490.2902350     
   2954873567.3048787     
   2888094924.7405195     
   2826418097.8273330     
   2769961802.2290254     
   3753973956.1196060     
   3566050125.6593661     
   3405208805.7503252     
   3271942169.0728416     
   3167121491.1804290     
   4715169994.2014389     
   4350616910.1033058     
   4051606337.3687344     
   3817421019.6143646     
   3647484849.4579844     
   2223107846.4832993     
   2195293168.6872535     
   2183715156.0228868     
   2184101479.3538780     
   2192337662.6875639     
   2451421454.1104908     
   2428022472.8144274     
   2409504401.1968288     
   2395042306.3616834     
   2383827542.6492739     
   2769961802.2290254     
   2717762181.6611133     
   2670485142.5346379     
   2628498650.7582603     
   2592176921.3189011     
   3167121491.1804290     
   3063933473.7558846     
   2972579357.0271368     
   2893405138.9636145     
   2826840384.8211102     
   3647484849.4579844     
   3477491341.0552621     
   3329616936.0292349     
   3203907027.6274014     
   3100497529.6842551     
   2192337662.6875639     
   2174138749.7010422     
   2168108840.5054960     
   2174639726.9175501     
   2193948481.4540181     
   2383827542.6492739     
   2361511199.5937467     
   2348723911.4526801     
   2346131716.5962381     
   2354306521.5812631     
   2592176921.3189011     
   2553887200.3794718     
   2525115463.3127890     
   2506491489.3222804     
   2498611770.6059747     
   2826840384.8211102     
   2761507431.7757473     
   2707650673.6535573     
   2665683728.6007528     
   2636033274.1424069     
   3100497529.6842551     
   2997611981.7491860     
   2909431142.6381879     
   2836130590.7382054     
   2777922434.7961516     
   2193948481.4540181     
   2183479344.0937624     
   2170013505.3663454     
   2151921209.5096526     
   2127837390.7988799     
   2354306521.5812631     
   2317888502.4470911     
   2284928582.2720075     
   2255271373.4436922     
   2228772516.0137310     
   2498611770.6059747     
   2442904994.0106258     
   2397985582.3222542     
   2364494447.5782919     
   2343005638.3406277     
   2636033274.1424069     
   2564970410.6531177     
   2512760661.4083385     
   2480211647.8778706     
   2468084130.8337574     
   2777922434.7961516     
   2691686388.3187289     
   2633256198.1136260     
   2603139708.9228611     
   2601875308.8271408     
   2127837390.7988799     
   2091507844.4021256     
   2067783502.0687573     
   2057137351.1874685     
   2059966709.3411748     
   2228772516.0137310     
   2201644819.0764961     
   2186676895.0881114     
   2184156186.3651896     
   2194328640.0264311     
   2343005638.3406277     
   2322639846.5379658     
   2314013091.7125397     
   2317288171.6260619     
   2332620165.8097119     
   2468084130.8337574     
   2452149457.3662071     
   2447636866.6740861     
   2454629620.1432104     
   2473231928.6425023     
   2601875308.8271408     
   2588208894.0131192     
   2585798073.2840319     
   2594677961.4304209     
   2614926966.5418525     
   2059966709.3411748     
   2060897755.5466046     
   2080012194.1929781     
   2119959431.0457199     
   2184532203.7647314     
   2194328640.0264311     
   2183221753.0490246     
   2186495471.3673773     
   2206140374.0336671     
   2245072169.7902455     
   2332620165.8097119     
   2310434461.7041378     
   2299557662.0381727     
   2301410090.4166393     
   2318083253.1010737     
   2473231928.6425023     
   2441753583.7341776     
   2418971029.7877789     
   2405836118.1039166     
   2403730963.1139388     
   2614926966.5418525     
   2576541833.3460426     
   2544526416.5468149     
   2519463230.6563559     
   2502166735.3702517     
   2184532203.7647314     
   2154947096.8746257     
   2144844752.0391324     
   2164681424.6342263     
   2225447429.2974524     
   2245072169.7902455     
   2180552894.3074346     
   2132305239.1876190     
   2109920823.5133271     
   2124242220.2332540     
   2318083253.1010737     
   2221942099.1637902     
   2138920409.7501848     
   2077304365.0870986     
   2047164161.6870577     
   2403730963.1139388     
   2279403211.5588551     
   2165330814.0334597     
   2068176104.2541234     
   1996601548.8761070     
   2502166735.3702517     
   2353140931.2878652     
   2212002418.0487742     
   2083660980.5873265     
   1974890858.8127069     
   7509174120.4571447     
   6549110096.5918922     
   5764423758.5749083     
   5153840527.1867781     
   4715169994.2014389     
   4980953883.8796349     
   4495229322.3444490     
   4104040886.9851985     
   3809820873.4980164     
   3614221880.6975579     
   2723674568.5586009     
   2660916442.7094030     
   2621572383.1060147     
   2606613871.7490840     
   2616378980.5207949     
   891237454.01745367     
   937376870.20375383     
   1175460203.4538147     
   1439469303.0554657     
   1663296476.0546370     
   2313934082.4412894     
   1292798674.8801920     
   448827749.49415243     
   217978693.71683174     
   707620654.75275612     
   4715169994.2014389     
   4350616910.1033058     
   4051606337.3687344     
   3817421019.6143646     
   3647484849.4579844     
   3614221880.6975579     
   3434926150.9634771     
   3293555200.2683291     
   3189840769.0112696     
   3123460815.8957744     
   2616378980.5207949     
   2611930592.9884796     
   2616117037.3098178     
   2628899964.7950978     
   2650213780.6213636     
   1663296476.0546370     
   1833110718.9029777     
   1981340521.9154866     
   2107537800.2297623     
   2211466243.7572551     
   707620654.75275612     
   1059808866.3726496     
   1357807067.9582148     
   1601615259.5094509     
   1791233441.0263526     
   3647484849.4579844     
   3477491341.0552621     
   3329616936.0292349     
   3203907027.6274014     
   3100497529.6842551     
   3123460815.8957744     
   3029922937.6251855     
   2952095730.5064030     
   2890022831.8989801     
   2843780714.1276979     
   2650213780.6213636     
   2629707041.7221146     
   2618010381.1830950     
   2615147279.3267970     
   2621148578.7908549     
   2211466243.7572551     
   2261583179.8420320     
   2313303380.0811996     
   2366633193.3211069     
   2421579526.4476323     
   1791233441.0263526     
   1910673489.3543818     
   2024368803.6353567     
   2132319383.8692727     
   2234525230.0561414     
   3100497529.6842551     
   2997611981.7491860     
   2909431142.6381879     
   2836130590.7382054     
   2777922434.7961516     
   2843780714.1276979     
   2787593701.6870017     
   2744290025.6024809     
   2713958282.3118162     
   2696693967.5153947     
   2621148578.7908549     
   2610271094.6955619     
   2610141327.5452304     
   2620780790.8880954     
   2642209960.2816310     
   2421579526.4476323     
   2454506251.3096356     
   2495911814.8870749     
   2545794228.0146422     
   2604151365.6619568     
   2234525230.0561414     
   2310015561.0188560     
   2391778137.1571765     
   2479812958.4710913     
   2574120024.9606009     
   2777922434.7961516     
   2691686388.3187289     
   2633256198.1136260     
   2603139708.9228611     
   2601875308.8271408     
   2696693967.5153947     
   2653012027.4574776     
   2628809278.5560622     
   2624223012.3305836     
   2639403350.7684641     
   2642209960.2816310     
   2634697039.7713475     
   2638366888.1802649     
   2653246526.4595790     
   2679367999.8062215     
   2604151365.6619568     
   2629086368.7479930     
   2656901545.1859350     
   2687601165.7866077     
   2721190407.1199889     
   2574120024.9606009     
   2629884482.6094708     
   2680176517.9503608     
   2724996130.9832697     
   2764343321.7081909     
   2601875308.8271408     
   2588208894.0131192     
   2585798073.2840319     
   2594677961.4304209     
   2614926966.5418525     
   2639403350.7684641     
   2626658201.8924022     
   2624535889.5755205     
   2633054062.8109832     
   2652255366.5063276     
   2679367999.8062215     
   2667503090.8452125     
   2665824038.9865484     
   2674337765.1360765     
   2693062443.3788772     
   2721190407.1199889     
   2710279675.9316816     
   2709301517.2646866     
   2718257424.3555727     
   2737151708.8608842     
   2764343321.7081909     
   2754559182.4836226     
   2754629518.5031457     
   2764554329.7667766     
   2784333616.2745152     
   2614926966.5418525     
   2576541833.3460426     
   2544526416.5468149     
   2519463230.6563559     
   2502166735.3702517     
   2652255366.5063276     
   2607695827.8919873     
   2568976351.2004967     
   2536426564.5735130     
   2510511010.3266559     
   2693062443.3788772     
   2644401779.4206505     
   2601201402.3747644     
   2563607345.1024094     
   2531826535.5936480     
   2737151708.8608842     
   2686506590.6983075     
   2641085239.5271826     
   2600923728.2877402     
   2566073323.0445137     
   2784333616.2745152     
   2733855078.2241402     
   2688500841.4278936     
   2648270905.8857703     
   2613165271.5977783     
   2502166735.3702517     
   2353140931.2878652     
   2212002418.0487742     
   2083660980.5873265     
   1974890858.8127069     
   2510511010.3266559     
   2344006247.2378855     
   2180901076.7025962     
   2024248802.9510243     
   1878538502.8001153     
   2531826535.5936480     
   2352877963.3325529     
   2173629977.0618639     
   1995530949.5123906     
   1820817665.5507379     
   2566073323.0445137     
   2379865186.7517281     
   2190651701.0712829     
   1998804972.3144560     
   1804917357.6595600     
   2613165271.5977783     
   2424944544.0496640     
   2232110836.9819441     
   2034664150.3945963     
   1832604484.2876639     
   2313934082.4412894     
   1292798674.8801920     
   448827749.49415243     
   217978693.71683174     
   707620654.75275612     
   891237453.63826871     
   937376869.86652327     
   1175460203.1223624     
   1439469302.6939979     
   1663296475.6496153     
   2723674568.1459718     
   2660916442.1986885     
   2621572382.4924159     
   2606613871.0351295     
   2616378979.7158985     
   4980953883.0367985     
   4495229321.3763428     
   4104040885.9032469     
   3809820872.3160815     
   3614221879.4323344     
   7509174118.8837767     
   6549110094.9285622     
   5764423756.8410873     
   5153840525.4029970     
   4715169992.3890448     
   707620654.75275612     
   1059808866.3726496     
   1357807067.9582148     
   1601615259.5094509     
   1791233441.0263526     
   1663296475.6496153     
   1833110718.5628788     
   1981340521.6256971     
   2107537799.9768970     
   2211466243.5287447     
   2616378979.7158985     
   2611930592.3017259     
   2616117036.7211027     
   2628899964.2840981     
   2650213780.1676636     
   3614221879.4323344     
   3434926149.8838825     
   3293555199.3473859     
   3189840768.2219090     
   3123460815.2107773     
   4715169992.3890448     
   4350616908.5612574     
   4051606336.0632162     
   3817421018.5119691     
   3647484848.5252242     
   1791233441.0263526     
   1910673489.3543818     
   2024368803.6353567     
   2132319383.8692727     
   2234525230.0561414     
   2211466243.5287447     
   2261583179.6500077     
   2313303379.9213710     
   2366633193.1892114     
   2421579526.3394461     
   2650213780.1676636     
   2629707041.3400865     
   2618010380.8642302     
   2615147279.0624905     
   2621148578.5724864     
   3123460815.2107773     
   3029922937.0457792     
   2952095730.0202641     
   2890022831.4934678     
   2843780713.7899194     
   3647484848.5252242     
   3477491340.2611017     
   3329616935.3581324     
   3203907027.0632205     
   3100497529.2103143     
   2234525230.0561414     
   2310015561.0188560     
   2391778137.1571765     
   2479812958.4710913     
   2574120024.9606009     
   2421579526.3394461     
   2454506251.2165074     
   2495911814.8075953     
   2545794227.9474936     
   2604151365.6058807     
   2621148578.5724864     
   2610271094.5060859     
   2610141327.3817406     
   2620780790.7478461     
   2642209960.1619473     
   2843780713.7899194     
   2787593701.3908243     
   2744290025.3435783     
   2713958282.0860381     
   2696693967.3186779     
   3100497529.2103143     
   2997611981.3283172     
   2909431142.2648616     
   2836130590.4070554     
   2777922434.5018106     
   2574120024.9606009     
   2629884482.6094708     
   2680176517.9503608     
   2724996130.9832697     
   2764343321.7081909     
   2604151365.6058807     
   2629086368.7051830     
   2656901545.1526356     
   2687601165.7590976     
   2721190407.0945845     
   2642209960.1619473     
   2634697039.6808591     
   2638366888.1118503     
   2653246526.4061942     
   2679367999.7609057     
   2696693967.3186779     
   2653012027.3100276     
   2628809278.4476418     
   2624223012.2510800     
   2639403350.7077765     
   2777922434.5018106     
   2691686388.0995555     
   2633256197.9564943     
   2603139708.8146648     
   2601875308.7545834     
   2764343321.7081909     
   2754559182.4836226     
   2754629518.5031457     
   2764554329.7667766     
   2784333616.2745152     
   2721190407.0945845     
   2710279675.9147253     
   2709301517.2553964     
   2718257424.3531365     
   2737151708.8644085     
   2679367999.7609057     
   2667503090.8155060     
   2665824038.9708281     
   2674337765.1326008     
   2693062443.3858519     
   2639403350.7077765     
   2626658201.8534899     
   2624535889.5557451     
   2633054062.8076282     
   2652255366.5165324     
   2601875308.7545834     
   2588208893.9677639     
   2585798073.2621217     
   2594677961.4280510     
   2614926966.5549798     
   2784333616.2745152     
   2733855078.2241402     
   2688500841.4278936     
   2648270905.8857703     
   2613165271.5977783     
   2737151708.8644085     
   2686506590.7023253     
   2641085239.5314102     
   2600923728.2918539     
   2566073323.0481415     
   2693062443.3858519     
   2644401779.4288325     
   2601201402.3835964     
   2563607345.1112385     
   2531826535.6017742     
   2652255366.5165324     
   2607695827.9044003     
   2568976351.2142797     
   2536426564.5877080     
   2510511010.3402228     
   2614926966.5549798     
   2576541833.3626914     
   2544526416.5658407     
   2519463230.6764870     
   2502166735.3901238     
   2613165271.5977783     
   2424944544.0496640     
   2232110836.9819441     
   2034664150.3945963     
   1832604484.2876639     
   2566073323.0481415     
   2379865186.7535563     
   2190651701.0706482     
   1998804972.3102522     
   1804917357.6502590     
   2531826535.6017742     
   2352877963.3369374     
   2173629977.0611134     
   1995530949.5045054     
   1820817665.5327177     
   2510511010.3402228     
   2344006247.2455525     
   2180901076.7023945     
   2024248802.9401131     
   1878538502.7745438     
   2502166735.3901238     
   2353140931.2995739     
   2212002418.0498714     
   2083660980.5743549     
   1974890858.7811766     
   7509174118.8837767     
   6549110094.9285622     
   5764423756.8410873     
   5153840525.4029970     
   4715169992.3890448     
   5096949680.0891819     
   4664196292.2726011     
   4296749199.4071989     
   3993374361.6258578     
   3753973954.7881155     
   3557190712.5132966     
   3415898458.0303316     
   3281427985.9956360     
   3152171776.0855055     
   3026628489.1664276     
   3640726725.2242932     
   3201036179.6373954     
   2902215475.2241178     
   2714581427.0107231     
   2597838761.8930163     
   5439699765.0654888     
   4319583725.3754778     
   3476191654.8604450     
   2919685586.2616329     
   2627542044.7516551     
   4715169992.3890448     
   4350616908.5612574     
   4051606336.0632162     
   3817421018.5119691     
   3647484848.5252242     
   3753973954.7881155     
   3566050124.5353160     
   3405208804.8180699     
   3271942168.3162775     
   3167121490.5821805     
   3026628489.1664276     
   2954873566.3728700     
   2888094923.9976692     
   2826418097.2682872     
   2769961801.8456087     
   2597838761.8930163     
   2532197310.8145456     
   2492894208.3886685     
   2469235111.4607086     
   2451421453.8000927     
   2627542044.7516551     
   2394362121.1158586     
   2267570802.0631289     
   2221092193.5211034     
   2223107846.0669470     
   3647484848.5252242     
   3477491340.2611017     
   3329616935.3581324     
   3203907027.0632205     
   3100497529.2103143     
   3167121490.5821805     
   3063933473.2515721     
   2972579356.6069398     
   2893405138.6169076     
   2826840384.5364599     
   2769961801.8456087     
   2717762181.3523808     
   2670485142.2923846     
   2628498650.5736356     
   2592176921.1824260     
   2451421453.8000927     
   2428022472.5976439     
   2409504401.0580926     
   2395042306.2862692     
   2383827542.6235027     
   2223107846.0669470     
   2195293168.4357276     
   2183715155.9011016     
   2184101479.3298197     
   2192337662.7337351     
   3100497529.2103143     
   2997611981.3283172     
   2909431142.2648616     
   2836130590.4070554     
   2777922434.5018106     
   2826840384.5364599     
   2761507431.5059433     
   2707650673.3942251     
   2665683728.3475876     
   2636033273.8911104     
   2592176921.1824260     
   2553887200.2339740     
   2525115463.1535811     
   2506491489.1445875     
   2498611770.4050903     
   2383827542.6235027     
   2361511199.5524487     
   2348723911.3880968     
   2346131716.5006256     
   2354306521.4471674     
   2192337662.7337351     
   2174138749.7457705     
   2168108840.5341430     
   2174639726.9159126     
   2193948481.4087887     
   2777922434.5018106     
   2691686388.0995555     
   2633256197.9564943     
   2603139708.8146648     
   2601875308.7545834     
   2636033273.8911104     
   2564970410.4649644     
   2512760661.2756324     
   2480211647.7924061     
   2468084130.7866979     
   2498611770.4050903     
   2442904993.8605304     
   2397985582.2193975     
   2364494447.5184526     
   2343005638.3188601     
   2354306521.4471674     
   2317888502.3492374     
   2284928582.2094646     
   2255271373.4153676     
   2228772516.0183220     
   2193948481.4087887     
   2183479344.0673976     
   2170013505.3585844     
   2151921209.5214753     
   2127837390.8322544     
   2601875308.7545834     
   2588208893.9677639     
   2585798073.2621217     
   2594677961.4280510     
   2614926966.5549798     
   2468084130.7866979     
   2452149457.3405914     
   2447636866.6673326     
   2454629620.1525559     
   2473231928.6650438     
   2343005638.3188601     
   2322639846.5323634     
   2314013091.7216172     
   2317288171.6481671     
   2332620165.8430557     
   2228772516.0183220     
   2201644819.0920639     
   2186676895.1142831     
   2184156186.4014125     
   2194328640.0720291     
   2127837390.8322544     
   2091507844.4411020     
   2067783502.1139793     
   2057137351.2395453     
   2059966709.4006393     
   2614926966.5549798     
   2576541833.3626914     
   2544526416.5658407     
   2519463230.6764870     
   2502166735.3901238     
   2473231928.6650438     
   2441753583.7592368     
   2418971029.8143530     
   2405836118.1308784     
   2403730963.1400356     
   2332620165.8430557     
   2310434461.7388320     
   2299557662.0733743     
   2301410090.4513264     
   2318083253.1340885     
   2194328640.0720291     
   2183221753.0947132     
   2186495471.4123869     
   2206140374.0770636     
   2245072169.8309464     
   2059966709.4006393     
   2060897755.6047828     
   2080012194.2490830     
   2119959431.0988452     
   2184532203.8138261     
   2502166735.3901238     
   2353140931.2995739     
   2212002418.0498714     
   2083660980.5743549     
   1974890858.7811766     
   2403730963.1400356     
   2279403211.5739427     
   2165330814.0352030     
   2068176104.2393520     
   1996601548.8409519     
   2318083253.1340885     
   2221942099.1832938     
   2138920409.7540886     
   2077304365.0727890     
   2047164161.6515868     
   2245072169.8309464     
   2180552894.3324323     
   2132305239.1952608     
   2109920823.5017071     
   2124242220.2005398     
   2184532203.8138261     
   2154947096.9062395     
   2144844752.0520544     
   2164681424.6274109     
   2225447429.2701936     
   5439699765.0654888     
   4319583725.3754778     
   3476191654.8604450     
   2919685586.2616329     
   2627542044.7516551     
   2463408894.8663902     
   1990734471.0306823     
   1783943628.8118584     
   1837272108.0329444     
   2062855012.5035646     
   1816148696.3114798     
   1743656091.5318143     
   1848152096.7263787     
   2085139794.4301457     
   2404736311.8927965     
   4241832682.1520433     
   3744420344.4393144     
   3453614672.0742621     
   3355690503.2395372     
   3421573654.1403594     
   7270198320.5134001     
   6266961704.5583353     
   5536842554.8545704     
   5058276077.7166214     
   4802470745.0634632     
   2627542044.7516551     
   2394362121.1158586     
   2267570802.0631289     
   2221092193.5211034     
   2223107846.0669470     
   2062855012.5035646     
   2109280944.8300762     
   2186831030.1149774     
   2280454128.0325718     
   2378480872.3229742     
   2404736311.8927965     
   2483252516.6913772     
   2563331579.1495867     
   2645110019.6789374     
   2728722725.3051076     
   3421573654.1403594     
   3331374587.1268978     
   3271936825.2074919     
   3239989365.8064675     
   3232846985.4972978     
   4802470745.0634632     
   4477180880.4808378     
   4217273886.3433404     
   4015820356.8959942     
   3866241833.8072896     
   2223107846.0669470     
   2195293168.4357276     
   2183715155.9011016     
   2184101479.3298197     
   2192337662.7337351     
   2378480872.3229742     
   2365219837.5321522     
   2356697136.9534001     
   2351826454.0458646     
   2349577483.3268423     
   2728722725.3051076     
   2686274627.0559826     
   2647561585.8484454     
   2612594692.6236887     
   2581413792.9784222     
   3232846985.4972978     
   3133442858.1598849     
   3042745748.8483682     
   2960546709.5265503     
   2886754169.4059486     
   3866241833.8072896     
   3693556287.2468181     
   3536717700.0217204     
   3394881440.3723478     
   3267374482.7559648     
   2192337662.7337351     
   2174138749.7457705     
   2168108840.5341430     
   2174639726.9159126     
   2193948481.4087887     
   2349577483.3268423     
   2297291691.5239673     
   2251780739.7221723     
   2214020452.3788061     
   2185046465.1240358     
   2581413792.9784222     
   2487705006.1052961     
   2398110229.5222249     
   2313423478.6112757     
   2234648085.5221806     
   2886754169.4059486     
   2747366120.7996731     
   2611685738.5666857     
   2479958979.5591235     
   2352652270.2602882     
   3267374482.7559648     
   3080197438.6619611     
   2898162735.2595425     
   2720952428.4750843     
   2548390483.0997224     
   2193948481.4087887     
   2183479344.0673976     
   2170013505.3585844     
   2151921209.5214753     
   2127837390.8322544     
   2185046465.1240358     
   2144726695.5260551     
   2105669639.2447307     
   2067391407.3370304     
   2029456422.6001935     
   2234648085.5221806     
   2159037871.6328325     
   2089264841.8897727     
   2025589472.3164892     
   1968324900.9032459     
   2352652270.2602882     
   2236972541.6255627     
   2131175246.7584727     
   2035809644.8975298     
   1951701463.4985497     
   2548390483.0997224     
   2387558119.1929803     
   2239714716.9439216     
   2105167053.0302570     
   1984885287.7046447     
   2127837390.8322544     
   2091507844.4411020     
   2067783502.1139793     
   2057137351.2395453     
   2059966709.4006393     
   2029456422.6001935     
   1969625476.0800676     
   1920733643.6026196     
   1883593843.2830646     
   1858948767.8380628     
   1968324900.9032459     
   1883064992.8570633     
   1805961838.3923390     
   1738048766.4467950     
   1680414470.9031560     
   1951701463.4985497     
   1841913503.2287450     
   1736531819.2862175     
   1636446208.6503189     
   1542750841.5732155     
   1984885287.7046447     
   1854937881.5376186     
   1725559396.8109219     
   1597156287.7675755     
   1470346857.9095764     
   2059966709.4006393     
   2060897755.6047828     
   2080012194.2490830     
   2119959431.0988452     
   2184532203.8138261     
   1858948767.8380628     
   1851268737.4619339     
   1865860643.2175221     
   1904943860.1611753     
   1971537664.0445421     
   1680414470.9031560     
   1653245046.0832326     
   1653400395.2160196     
   1683267759.7094340     
   1745470200.7495065     
   1542750841.5732155     
   1481729100.4674942     
   1453240857.6436169     
   1461310948.5616956     
   1509319449.5320833     
   1470346857.9095764     
   1359636172.7517955     
   1283882278.4592669     
   1251337231.8427656     
   1269288005.8342512     
   2184532203.8138261     
   2154947096.9062395     
   2144844752.0520544     
   2164681424.6274109     
   2225447429.2701936     
   1971537664.0445421     
   1968983294.6452124     
   2002896121.3900259     
   2091923423.3454185     
   2254676386.5249200     
   1745470200.7495065     
   1789168676.2125599     
   1884964982.4118836     
   2059796336.5514879     
   2338879849.8660078     
   1509319449.5320833     
   1616242125.1378362     
   1790322539.9798286     
   2066412053.5352066     
   2474739276.7124233     
   1269288005.8342512     
   1451279406.0049870     
   1718408072.9784455     
   2111478036.1195009     
   2662990361.1569486     
   7270198320.5134001     
   6266961704.5583353     
   5536842554.8545704     
   5058276077.7166214     
   4802470745.0634632     
   5889060521.3553524     
   5557914953.9454250     
   5282896463.5753212     
   5053807854.8099680     
   4863342174.2925959     
   5575851539.3768539     
   5399676419.2785225     
   5302018963.9819059     
   5201691903.7828770     
   5050408723.2936888     
   5473942255.9077368     
   5131591954.4992332     
   5161252814.3382559     
   5266818859.0491676     
   5286996576.7384787     
   5180985183.4882383     
   4413022109.0321865     
   4634409037.3938360     
   5128802274.5014515     
   5533076766.8685608     
   4802470745.0634632     
   4477180880.4808378     
   4217273886.3433404     
   4015820356.8959942     
   3866241833.8072896     
   4863342174.2925959     
   4604853176.6660795     
   4376606078.2998772     
   4175081882.4555216     
   3997296529.8247647     
   5050408723.2936888     
   4827522181.5286255     
   4614635282.0040817     
   4410907226.3877306     
   4215707661.9028597     
   5286996576.7384787     
   5080561078.2976713     
   4879080959.4257803     
   4682096692.3084955     
   4489413717.5842810     
   5533076766.8685608     
   5328588686.0628290     
   5138916336.1168003     
   4961162514.9058180     
   4793282018.0621777     
   3866241833.8072896     
   3693556287.2468181     
   3536717700.0217204     
   3394881440.3723478     
   3267374482.7559648     
   3997296529.8247647     
   3835446992.2902765     
   3683026703.7597084     
   3539514839.0886021     
   3404581820.8369298     
   4215707661.9028597     
   4052571326.4912705     
   3893712023.5030403     
   3738896889.5488377     
   3588070823.7873931     
   4489413717.5842810     
   4317161778.9223099     
   4145316911.0096755     
   3973808726.3563671     
   3802724198.6205397     
   4793282018.0621777     
   4607844513.3838968     
   4420019650.6705027     
   4229772848.2878718     
   4037217184.2242150     
   3267374482.7559648     
   3080197438.6619611     
   2898162735.2595425     
   2720952428.4750843     
   2548390483.0997224     
   3404581820.8369298     
   3218902154.8766055     
   3036929662.6904964     
   2858396533.5953608     
   2683134254.3107691     
   3588070823.7873931     
   3398888336.3873148     
   3212210754.6106319     
   3027841667.5594177     
   2845668616.5817285     
   3802724198.6205397     
   3604747788.9986434     
   3408369358.6978593     
   3213476439.7230515     
   3020049992.0147882     
   4037217184.2242150     
   3825221735.2547522     
   3614233645.7426701     
   3404231627.0804806     
   3195320387.0517201     
   2548390483.0997224     
   2387558119.1929803     
   2239714716.9439216     
   2105167053.0302570     
   1984885287.7046447     
   2683134254.3107691     
   2511136148.6529474     
   2345534481.0996814     
   2186707558.0966158     
   2035449143.0253704     
   2845668616.5817285     
   2665017936.1947732     
   2486337839.7129245     
   2309833228.5350771     
   2135858594.3629580     
   3020049992.0147882     
   2836317859.6258016     
   2652072309.7561703     
   2467335910.8931828     
   2282148923.7731228     
   3195320387.0517201     
   3015672215.3385286     
   2834702043.2430634     
   2652353774.6313548     
   2468652437.4830217     
   1984885287.7046447     
   1854937881.5376186     
   1725559396.8109219     
   1597156287.7675755     
   1470346857.9095764     
   2035449143.0253704     
   1895845398.4464977     
   1757470559.1380427     
   1620523449.5970314     
   1485285973.9714131     
   2135858594.3629580     
   1988640257.9509096     
   1843528454.5562272     
   1700564906.9619451     
   1559869377.5733235     
   2282148923.7731228     
   2127256114.8652027     
   1975261644.1944239     
   1826080519.2493384     
   1679808967.2605350     
   2468652437.4830217     
   2304129843.7339635     
   2143016737.0813417     
   1985130353.4088576     
   1830657025.1550441     
   1470346857.9095764     
   1359636172.7517955     
   1283882278.4592669     
   1251337231.8427656     
   1269288005.8342512     
   1485285973.9714131     
   1339338852.2849815     
   1207669623.7077787     
   1094912876.0728378     
   1007183556.2288091     
   1559869377.5733235     
   1408102399.4585068     
   1252452153.8308525     
   1090752370.2737823     
   921058122.93343353     
   1679808967.2605350     
   1562521937.0896065     
   1435694974.5315549     
   1299789216.6497402     
   1161115030.7027481     
   1830657025.1550441     
   1788476060.9344728     
   1742367832.7242980     
   1701191626.0915596     
   1683916668.3783000     
   1269288005.8342512     
   1451279406.0049870     
   1718408072.9784455     
   2111478036.1195009     
   2662990361.1569486     
   1007183556.2288091     
   1168425189.6061900     
   1427458090.0377834     
   1809304632.1209855     
   2334282292.2683158     
   921058122.93343353     
   965674942.73164606     
   1146247813.1054490     
   1476755321.1201241     
   1957329610.6914313     
   1161115030.7027481     
   1009990888.7316957     
   985942026.66423476     
   1161645665.5134549     
   1544644496.5786901     
   1683916668.3783000     
   1385244722.2814405     
   1129967506.9651418     
   1010176725.3769217     
   1154226914.2888155     
 </DataArray>
 <DataArray  type="Float64" Name="strain" NumberOfComponents="3" format="ascii">
   6.6075213578810743E-002   4.8295899391801789E-002  -3.8038992444614173E-002
   7.2314885925945815E-002   1.1681885223587152E-002  -2.0050501551387545E-002
   7.8554558273080777E-002  -1.3664754378801519E-002  -9.9105845447673979E-003
   8.4794230620215849E-002  -2.7744019415364272E-002  -7.6192414247531759E-003
   9.1033902967350810E-002  -3.0555909886100796E-002  -1.3176472191345101E-002
   8.7306726505012699E-002   2.7232229213082215E-002  -7.9837778980897944E-003
   8.7361150972145807E-002   1.9614542316659378E-003   4.1174899596814751E-003
   8.7415575439278859E-002  -1.5486325538164425E-002   1.1696835944055184E-002
   8.7469999906411994E-002  -2.5111110096409234E-002   1.4754260055030416E-002
   8.7524424373545018E-002  -2.6912899443068294E-002   1.3289762292608420E-002
   9.1442505500449411E-002   6.1685590343624752E-003   3.5136865512353316E-002
   8.8638334100788890E-002  -7.7589767602552762E-003   3.7906530980429232E-002
   8.5834162701128397E-002  -1.7307896697527511E-002   3.9480926588315327E-002
   8.3029991301467876E-002  -2.2478200777454587E-002   3.9860052336012246E-002
   8.0225819901807383E-002  -2.3269889000035904E-002   3.9043908223519580E-002
   7.8482550565120962E-002  -1.4895111144357209E-002   9.1322937786715325E-002
   7.6146435311875121E-002  -1.7479407752176462E-002   8.1316621510854947E-002
   7.3810320058629308E-002  -1.9129467856890563E-002   7.3441687388013557E-002
   7.1474204805383551E-002  -1.9845291458499580E-002   6.7698135418191432E-002
   6.9138089552137724E-002  -1.9626878557003569E-002   6.4085965601387795E-002
   4.8426861699027324E-002  -3.5958781323076894E-002  0.16057443892499534     
   4.9885454605404500E-002  -2.7199838744097704E-002  0.13434776155095929     
   5.1344047511781704E-002  -2.0951039016253531E-002  0.11357911834315015     
   5.2802640418158894E-002  -1.7212382139544839E-002   9.8268509301568274E-002
   5.4261233324536112E-002  -1.5983868113971123E-002   8.8415934426213649E-002
   9.1033902967350810E-002  -3.0555909886100796E-002  -1.3176472191345101E-002
   8.8244352116609193E-002  -2.8027593688447927E-002  -9.1952566838305883E-003
   8.5454801265867575E-002  -2.6086238719842586E-002  -6.0179371247189306E-003
   8.2665250415125957E-002  -2.4731844980284239E-002  -3.6445135140096285E-003
   7.9875699564384339E-002  -2.3964412469773322E-002  -2.0749858517031816E-003
   8.7524424373545018E-002  -2.6912899443068294E-002   1.3289762292608420E-002
   8.4270872505930655E-002  -2.4996670540847143E-002   1.3334786882284788E-002
   8.1017320638316237E-002  -2.3467400352450624E-002   1.3255705386617689E-002
   7.7763768770701791E-002  -2.2325088877879311E-002   1.3052517805607969E-002
   7.4510216903087456E-002  -2.1569736117132532E-002   1.2725224139254865E-002
   8.0225819901807383E-002  -2.3269889000035904E-002   3.9043908223519580E-002
   7.7188056880379746E-002  -2.1965747393246055E-002   3.5352744410579534E-002
   7.4150293858952110E-002  -2.0848561985058786E-002   3.2217264375356283E-002
   7.1112530837524501E-002  -1.9918332775474164E-002   2.9637468117849460E-002
   6.8074767816096893E-002  -1.9175059764492075E-002   2.7613355638059639E-002
   6.9138089552137724E-002  -1.9626878557003569E-002   6.4085965601387795E-002
   6.6995905239956410E-002  -1.8934824245645063E-002   5.6858615901054323E-002
   6.4853720927775124E-002  -1.8229723617666997E-002   5.0866739841496894E-002
   6.2711536615593838E-002  -1.7511576673069018E-002   4.6110337422715732E-002
   6.0569352303412524E-002  -1.6780383411851507E-002   4.2589408644710662E-002
   5.4261233324536112E-002  -1.5983868113971123E-002   8.8415934426213649E-002
   5.3694417584660675E-002  -1.5903901098044182E-002   7.7852401353708911E-002
   5.3127601844785308E-002  -1.5610885250275042E-002   6.9204131785039674E-002
   5.2560786104909905E-002  -1.5104820570664076E-002   6.2471125720206189E-002
   5.1993970365034503E-002  -1.4385707059210884E-002   5.7653383159208316E-002
   7.9875699564384339E-002  -2.3964412469773322E-002  -2.0749858517031816E-003
   7.6696535550703659E-002  -2.3405874446270347E-002  -2.0972842794935165E-003
   7.3517371537023091E-002  -2.2678164167736964E-002  -1.8512878185695802E-003
   7.0338207523342466E-002  -2.1781281634173706E-002  -1.3369964689315672E-003
   6.7159043509661842E-002  -2.0715226845579582E-002  -5.5441023057933858E-004
   7.4510216903087456E-002  -2.1569736117132532E-002   1.2725224139254865E-002
   7.1636393926390707E-002  -2.0962394062149170E-002   1.1800060212705354E-002
   6.8762570949694013E-002  -2.0264114704866693E-002   1.1217283471409573E-002
   6.5888747972997236E-002  -1.9474898045285551E-002   1.0976893915367603E-002
   6.3014924996300570E-002  -1.8594744083406001E-002   1.1078891544578973E-002
   6.8074767816096893E-002  -1.9175059764492075E-002   2.7613355638059639E-002
   6.5580378172923615E-002  -1.8518913678027688E-002   2.5707091260018827E-002
   6.3085988529750392E-002  -1.7850065241996296E-002   2.4217306363771576E-002
   6.0591598886577155E-002  -1.7168514456398058E-002   2.3144000949317560E-002
   5.8097209243403891E-002  -1.6474261321232475E-002   2.2487175016657118E-002
   6.0569352303412524E-002  -1.6780383411851507E-002   4.2589408644710662E-002
   5.8528488290302397E-002  -1.6075433293906358E-002   3.9623808862447311E-002
   5.6487624277192248E-002  -1.5436015779126074E-002   3.7148780858517291E-002
   5.4446760264082100E-002  -1.4862130867510233E-002   3.5164324632919713E-002
   5.2405896250971973E-002  -1.4353778559058922E-002   3.3670440185655022E-002
   5.1993970365034503E-002  -1.4385707059210884E-002   5.7653383159208316E-002
   5.0480724278527067E-002  -1.3631952909785083E-002   5.3550213019990800E-002
   4.8967478192019576E-002  -1.3021966316255518E-002   5.0011706955645829E-002
   4.7454232105512084E-002  -1.2555747278622242E-002   4.7037864966173071E-002
   4.5940986019004648E-002  -1.2233295796885424E-002   4.4628687051573024E-002
   6.7159043509661842E-002  -2.0715226845579582E-002  -5.5441023057933858E-004
   6.3636333286396951E-002  -1.9604090548098974E-002  -8.8114744563339009E-004
   6.0113623063132116E-002  -1.8571963487876458E-002  -9.3415720151995840E-004
   5.6590912839867280E-002  -1.7618845664911668E-002  -7.1343949823873820E-004
   5.3068202616602389E-002  -1.6744737079205763E-002  -2.1899433578953520E-004
   6.3014924996300570E-002  -1.8594744083406001E-002   1.1078891544578973E-002
   5.9768454277161431E-002  -1.7679426682037702E-002   9.9312593046577691E-003
   5.6521983558022182E-002  -1.6784719703989509E-002   9.0623786138204210E-003
   5.3275512838883016E-002  -1.5910623149262747E-002   8.4722494720670671E-003
   5.0029042119743905E-002  -1.5057137017857047E-002   8.1608718793964030E-003
   5.8097209243403891E-002  -1.6474261321232475E-002   2.2487175016657118E-002
   5.5132002118306322E-002  -1.5754762815975543E-002   2.0577046565806084E-002
   5.2166794993208698E-002  -1.4997475920102241E-002   1.8950693753954542E-002
   4.9201587868111102E-002  -1.4202400633613051E-002   1.7608116581103068E-002
   4.6236380743013533E-002  -1.3369536956508110E-002   1.6549315047250546E-002
   5.2405896250971973E-002  -1.4353778559058922E-002   3.3670440185655022E-002
   4.9726976809831763E-002  -1.3830098949913494E-002   3.1056214337811479E-002
   4.7048057368691665E-002  -1.3210232136215132E-002   2.8730788218882978E-002
   4.4369137927551483E-002  -1.2494178117963743E-002   2.6694161828869842E-002
   4.1690218486411357E-002  -1.1681936895159506E-002   2.4946335167772199E-002
   4.5940986019004648E-002  -1.2233295796885424E-002   4.4628687051573024E-002
   4.3553378351737865E-002  -1.1905435083851890E-002   4.1368762620673183E-002
   4.1165770684471026E-002  -1.1422988352327926E-002   3.8402662008604954E-002
   3.8778163017204187E-002  -1.0785955602314271E-002   3.5730385215367491E-002
   3.6390555349937403E-002  -9.9943368338105687E-003   3.3351932240961779E-002
   5.3068202616602389E-002  -1.6744737079205763E-002  -2.1899433578953520E-004
   5.0069929887554543E-002  -1.5861515062761899E-002   1.9888338117124427E-004
   4.7071657158506641E-002  -1.4881056947586235E-002   4.4025987148943457E-004
   4.4073384429458795E-002  -1.3803362733676466E-002   5.0513513516525776E-004
   4.1075111700410893E-002  -1.2628432421035729E-002   3.9350917219849180E-004
   5.0029042119743905E-002  -1.5057137017857047E-002   8.1608718793964030E-003
   4.6947928635991343E-002  -1.4189882743364191E-002   7.9916005925370071E-003
   4.3866815152238781E-002  -1.3274481759376927E-002   7.8331490229115452E-003
   4.0785701668486274E-002  -1.2310934065894528E-002   7.6855171705189351E-003
   3.7704588184733712E-002  -1.1299239662917682E-002   7.5487050353593155E-003
   4.6236380743013533E-002  -1.3369536956508110E-002   1.6549315047250546E-002
   4.3259747448432306E-002  -1.2518250423966260E-002   1.5743805367333247E-002
   4.0283114153851107E-002  -1.1667906571167841E-002   1.5136436348525406E-002
   3.7306480859269922E-002  -1.0818505398112147E-002   1.4727207990826691E-002
   3.4329847564688792E-002  -9.9700469047996343E-003   1.4516120294237489E-002
   4.1690218486411357E-002  -1.1681936895159506E-002   2.4946335167772199E-002
   3.9005386324877503E-002  -1.0846618104568884E-002   2.3455497705559276E-002
   3.6320554163343677E-002  -1.0061331382959088E-002   2.2350121848331558E-002
   3.3635722001809892E-002  -9.3260767303297645E-003   2.1630207596089419E-002
   3.0950889840275990E-002  -8.6408541466815869E-003   2.1295754948832624E-002
   3.6390555349937403E-002  -9.9943368338105687E-003   3.3351932240961779E-002
   3.4184845265326891E-002  -9.1749857851711192E-003   3.1126677607215492E-002
   3.1979135180716406E-002  -8.4547561947499461E-003   2.9474205522330488E-002
   2.9773425096105893E-002  -7.8336480625475630E-003   2.8394515986306518E-002
   2.7567715011495408E-002  -7.3116613885637616E-003   2.7887608999144220E-002
   4.1075111700410893E-002  -1.2628432421035729E-002   3.9350917219849180E-004
   3.8400467458615251E-002  -1.1527370080890553E-002  -1.3608571525791646E-004
   3.5725823216819608E-002  -1.0671279784471133E-002  -4.5877162571716923E-004
   3.3051178975023993E-002  -1.0060161531775608E-002  -5.7454855918026571E-004
   3.0376534733228322E-002  -9.6940153228053383E-003  -4.8341651564687282E-004
   3.7704588184733712E-002  -1.1299239662917682E-002   7.5487050353593155E-003
   3.5212581643079999E-002  -1.0342768237519784E-002   6.7888394124918650E-003
   3.2720575101426203E-002  -9.5448894767757864E-003   6.1873402129117294E-003
   3.0228568559772392E-002  -8.9056033806837465E-003   5.7442074366186591E-003
   2.7736562018118693E-002  -8.4249099492448298E-003   5.4594410836130702E-003
   3.4329847564688792E-002  -9.9700469047996343E-003   1.4516120294237489E-002
   3.1971936169467557E-002  -9.1581663941491809E-003   1.3612363315030462E-002
   2.9614024774246336E-002  -8.4184991690799404E-003   1.2818430205401243E-002
   2.7256113379025122E-002  -7.7510452295916493E-003   1.2134320965349971E-002
   2.4898201983803964E-002  -7.1558045756845434E-003   1.1560035594876894E-002
   3.0950889840275990E-002  -8.6408541466815869E-003   2.1295754948832624E-002
   2.8678531037778017E-002  -7.9735645507783837E-003   2.0334485992357862E-002
   2.6406172235280089E-002  -7.2921088613841223E-003   1.9434498351751692E-002
   2.4133813432782120E-002  -6.5964870784996701E-003   1.8595792027013981E-002
   2.1861454630284181E-002  -5.8866992021240350E-003   1.7818367018145431E-002
   2.7567715011495408E-002  -7.3116613885637616E-003   2.7887608999144220E-002
   2.5332366248011440E-002  -6.7889627074076975E-003   2.6955207444473661E-002
   2.3097017484527360E-002  -6.1657185536888315E-003   2.6035544651962506E-002
   2.0861668721043336E-002  -5.4419289274076563E-003   2.5128620621610864E-002
   1.8626319957559312E-002  -4.6175938285636375E-003   2.4234435353418182E-002
   3.0376534733228322E-002  -9.6940153228053383E-003  -4.8341651564687282E-004
   2.9736091199635051E-002  -9.2384199840088721E-003  -2.6178463629800142E-004
   2.9095647666041891E-002  -8.3589543418333134E-003  -1.7324957162321297E-003
   2.8455204132448647E-002  -7.0556183962800778E-003  -4.8955497554477589E-003
   2.7814760598855459E-002  -5.3284121473473611E-003  -9.7509467539467209E-003
   2.7736562018118693E-002  -8.4249099492448298E-003   5.4594410836130702E-003
   2.5678565815286325E-002  -7.9111178333778343E-003   6.0818061022439585E-003
   2.3620569612453901E-002  -7.1725356840004473E-003   5.5614087416787084E-003
   2.1562573409621588E-002  -6.2091635011123358E-003   3.8982490019184302E-003
   1.9504577206789220E-002  -5.0210012847144991E-003   1.0923268829610144E-003
   2.4898201983803964E-002  -7.1558045756845434E-003   1.1560035594876894E-002
   2.1972233691818860E-002  -6.5838156827471850E-003   1.2384053482922153E-002
   1.9046265399833770E-002  -5.9861170261669705E-003   1.2614889571858023E-002
   1.6120297107848715E-002  -5.3627086059457180E-003   1.2252543861684673E-002
   1.3194328815863632E-002  -4.7135904220814151E-003   1.1297016352401545E-002
   2.1861454630284181E-002  -5.8866992021240350E-003   1.7818367018145431E-002
   1.8617094829232732E-002  -5.2565135321158973E-003   1.8644957505737053E-002
   1.5372735028181397E-002  -4.7996983683340211E-003   1.9427946774305607E-002
   1.2128375227129994E-002  -4.5162537107780940E-003   2.0167334823850823E-002
   8.8840154260786050E-003  -4.4061795594482200E-003   2.0863121654373290E-002
   1.8626319957559312E-002  -4.6175938285636375E-003   2.4234435353418182E-002
   1.5613149227528045E-002  -3.9292113814852203E-003   2.4864518170687910E-002
   1.2599978497496750E-002  -3.6132797105011549E-003   2.6000580349021141E-002
   9.5868077674654689E-003  -3.6697988156109349E-003   2.7642621888417318E-002
   6.5736370374341879E-003  -4.0987686968152470E-003   2.9790642788877220E-002
   2.7814760598855459E-002  -5.3284121473473611E-003  -9.7509467539467209E-003
   2.3376179861439028E-002  -4.2135731399248755E-003  -4.2113190549588619E-003
   1.8937599124022708E-002  -4.7473389188994464E-003   2.5928834441768522E-003
   1.4499018386606360E-002  -6.9297094842712403E-003   1.0661660743461199E-002
   1.0060437649189957E-002  -1.0760684836039758E-002   1.9995012842894511E-002
   1.9504577206789220E-002  -5.0210012847144991E-003   1.0923268829610144E-003
   1.6258849878260095E-002  -4.6841294723336535E-003   6.7721803778577616E-003
   1.3013122549731027E-002  -6.2746285014981251E-003   1.3573165890380268E-002
   9.7673952212018467E-003  -9.7924983722064846E-003   2.1495283420529532E-002
   6.5216678926727223E-003  -1.5237739084459800E-002   3.0538532968303667E-002
   1.3194328815863632E-002  -4.7135904220814151E-003   1.1297016352401545E-002
   1.0998012113699662E-002  -5.1546858047428756E-003   1.6838329588058365E-002
   8.8016954115355678E-003  -7.8019180840961377E-003   2.3357332058820179E-002
   6.6053787093716329E-003  -1.2655287260142173E-002   3.0854023764684907E-002
   4.4090620072074760E-003  -1.9714793332880731E-002   3.9328404705654796E-002
   8.8840154260786050E-003  -4.4061795594482200E-003   2.0863121654373290E-002
   7.5936665677575482E-003  -5.6252421371514316E-003   2.5987128575643767E-002
   6.3033177094363839E-003  -9.3292076666944834E-003   3.1945381949495866E-002
   5.0129688511152733E-003  -1.5518076148077861E-002   3.8737881775930127E-002
   3.7226199927941628E-003  -2.4191847581301440E-002   4.6364628054946733E-002
   6.5736370374341879E-003  -4.0987686968152470E-003   2.9790642788877220E-002
   6.0458132404337950E-003  -6.0957984695597656E-003   3.4218577340613288E-002
   5.5179894434334853E-003  -1.0856497249292829E-002   3.9337315562409381E-002
   4.9901656464330507E-003  -1.8380865036013161E-002   4.5146857454263833E-002
   4.4623418494327272E-003  -2.8668901829721705E-002   5.1647203016179422E-002
   4.8426861699027324E-002  -3.5958781323076894E-002  0.16057443892499534     
   4.9885454605404500E-002  -2.7199838744097704E-002  0.13434776155095929     
   5.1344047511781704E-002  -2.0951039016253531E-002  0.11357911834315015     
   5.2802640418158894E-002  -1.7212382139544839E-002   9.8268509301568274E-002
   5.4261233324536112E-002  -1.5983868113971123E-002   8.8415934426213649E-002
   1.8300510031254436E-002  -3.1446565304560470E-002   9.2676433493411647E-002
   2.3883136640900110E-002  -2.4966403364320100E-002   7.9926733870577527E-002
   2.9465763250545868E-002  -2.0262958799435876E-002   6.9967067488053591E-002
   3.5048389860191556E-002  -1.7336231609907916E-002   6.2797434345839509E-002
   4.0631016469837272E-002  -1.6186221795735978E-002   5.8417834443935168E-002
   5.1285666908878758E-003  -2.6934349286044129E-002   2.2132934685199113E-002
   1.2167226077884966E-002  -2.2732967984542607E-002   2.3593638289346519E-002
   1.9205885464881993E-002  -1.9574878582618208E-002   2.5176374207886501E-002
   2.6244544851879058E-002  -1.7460081080270941E-002   2.6881142440819246E-002
   3.3283204238876117E-002  -1.6388575477500833E-002   2.8707942988144594E-002
   8.9110316779281058E-003  -2.2422133267527733E-002  -5.1056057499641434E-002
   1.4737722916359140E-002  -2.0499532604765086E-002  -3.4651525192733866E-002
   2.0564414154790281E-002  -1.8886798365800490E-002  -2.0792961497350659E-002
   2.6391105393221363E-002  -1.7583930550633994E-002  -9.4803664134921195E-003
   3.2217796631652508E-002  -1.6590929159265633E-002  -7.1373994115816325E-004
   2.9647904992374852E-002  -1.7909917249011365E-002 -0.12689054306111058     
   3.1594627156322719E-002  -1.8266097224987538E-002  -9.4808756575663566E-002
   3.3541349320270669E-002  -1.8198718148982843E-002  -6.7940939627658209E-002
   3.5488071484218606E-002  -1.7707780020997061E-002  -4.6287092217094775E-002
   3.7434793648166514E-002  -1.6793282841030543E-002  -2.9847214343973055E-002
   5.4261233324536112E-002  -1.5983868113971123E-002   8.8415934426213649E-002
   5.3694417584660675E-002  -1.5903901098044182E-002   7.7852401353708911E-002
   5.3127601844785308E-002  -1.5610885250275042E-002   6.9204131785039674E-002
   5.2560786104909905E-002  -1.5104820570664076E-002   6.2471125720206189E-002
   5.1993970365034503E-002  -1.4385707059210884E-002   5.7653383159208316E-002
   4.0631016469837272E-002  -1.6186221795735978E-002   5.8417834443935168E-002
   4.1510194997834080E-002  -1.5855455413175276E-002   5.3843076431192363E-002
   4.2389373525830859E-002  -1.5386458518480875E-002   5.0245043450358268E-002
   4.3268552053827673E-002  -1.4779231111652819E-002   4.7623735501432757E-002
   4.4147730581824446E-002  -1.4033773192691223E-002   4.5979152584416094E-002
   3.3283204238876117E-002  -1.6388575477500833E-002   2.8707942988144594E-002
   3.4669838562818134E-002  -1.5807009728306509E-002   3.0047141715455500E-002
   3.6056472886760116E-002  -1.5162031786686819E-002   3.1424527002748018E-002
   3.7443107210702119E-002  -1.4453641652641784E-002   3.2840098850022238E-002
   3.8829741534644108E-002  -1.3681839326171369E-002   3.4293857257278348E-002
   3.2217796631652508E-002  -1.6590929159265633E-002  -7.1373994115816325E-004
   3.3173348279612748E-002  -1.5758564043437756E-002   6.4645972064980885E-003
   3.4128899927573016E-002  -1.4937605054892708E-002   1.2742582442208883E-002
   3.5084451575533269E-002  -1.4128052193630721E-002   1.8120215765974626E-002
   3.6040003223493523E-002  -1.3329905459651584E-002   2.2597497177795106E-002
   3.7434793648166514E-002  -1.6793282841030543E-002  -2.9847214343973055E-002
   3.7020724148218054E-002  -1.5710118358568864E-002  -1.6904557095679923E-002
   3.6606654648269579E-002  -1.4713178323098597E-002  -5.8007902312588733E-003
   3.6192585148321084E-002  -1.3802462734619519E-002   3.4640862492898022E-003
   3.5778515648372616E-002  -1.2977971593131798E-002   1.0890072345966451E-002
   5.1993970365034503E-002  -1.4385707059210884E-002   5.7653383159208316E-002
   5.0480724278527067E-002  -1.3631952909785083E-002   5.3550213019990800E-002
   4.8967478192019576E-002  -1.3021966316255518E-002   5.0011706955645829E-002
   4.7454232105512084E-002  -1.2555747278622242E-002   4.7037864966173071E-002
   4.5940986019004648E-002  -1.2233295796885424E-002   4.4628687051573024E-002
   4.4147730581824446E-002  -1.4033773192691223E-002   4.5979152584416094E-002
   4.3075348664094237E-002  -1.3278710012114503E-002   4.4149039502732912E-002
   4.2002966746364015E-002  -1.2642666820441961E-002   4.2635990683731612E-002
   4.0930584828633793E-002  -1.2125643617673029E-002   4.1440006127412291E-002
   3.9858202910903529E-002  -1.1727640403808137E-002   4.0561085833774824E-002
   3.8829741534644108E-002  -1.3681839326171369E-002   3.4293857257278348E-002
   3.7950623973500644E-002  -1.2925467114444061E-002   3.4761548800121861E-002
   3.7071506412357166E-002  -1.2263367324628127E-002   3.5298704793456870E-002
   3.6192388851213703E-002  -1.1695539956723816E-002   3.5905325237283327E-002
   3.5313271290070225E-002  -1.1221985010730934E-002   3.6581410131601252E-002
   3.6040003223493523E-002  -1.3329905459651584E-002   2.2597497177795106E-002
   3.5106550206746301E-002  -1.2572224216773412E-002   2.5387740912157758E-002
   3.4173097189999023E-002  -1.1884067828814543E-002   2.7999849284821382E-002
   3.3239644173251745E-002  -1.1265436295774547E-002   3.0433822295786173E-002
   3.2306191156504516E-002  -1.0716329617653744E-002   3.2689659945051658E-002
   3.5778515648372616E-002  -1.2977971593131798E-002   1.0890072345966451E-002
   3.4543127363831083E-002  -1.2218981319102956E-002   1.6027615838840659E-002
   3.3307739079289606E-002  -1.1504768333000820E-002   2.0739424157825370E-002
   3.2072350794748086E-002  -1.0835332634825466E-002   2.5025497302920460E-002
   3.0836962510206567E-002  -1.0210674224576499E-002   2.8885835274126082E-002
   4.5940986019004648E-002  -1.2233295796885424E-002   4.4628687051573024E-002
   4.3553378351737865E-002  -1.1905435083851890E-002   4.1368762620673183E-002
   4.1165770684471026E-002  -1.1422988352327926E-002   3.8402662008604954E-002
   3.8778163017204187E-002  -1.0785955602314271E-002   3.5730385215367491E-002
   3.6390555349937403E-002  -9.9943368338105687E-003   3.3351932240961779E-002
   3.9858202910903529E-002  -1.1727640403808137E-002   4.0561085833774824E-002
   3.7727973809385501E-002  -1.1319462089766280E-002   3.8949545740934566E-002
   3.5597744707867363E-002  -1.0771913586466189E-002   3.7558938960760124E-002
   3.3467515606349245E-002  -1.0084994893908201E-002   3.6389265493251957E-002
   3.1337286504831197E-002  -9.2587060120920550E-003   3.5440525338410189E-002
   3.5313271290070225E-002  -1.1221985010730934E-002   3.6581410131601252E-002
   3.3367530248135706E-002  -1.0733489095680837E-002   3.6603038547587938E-002
   3.1421789206201201E-002  -1.0120838820604501E-002   3.6772709770075802E-002
   2.9476048164266681E-002  -9.3840341855020732E-003   3.7090423799064479E-002
   2.7530307122332176E-002  -8.5230751903735968E-003   3.7556180634554459E-002
   3.2306191156504516E-002  -1.0716329617653744E-002   3.2689659945051658E-002
   3.0472047667988555E-002  -1.0147516101595422E-002   3.4329241040633882E-002
   2.8637904179472543E-002  -9.4697640547428442E-003   3.6043974436551780E-002
   2.6803760690956573E-002  -8.6830734770959733E-003   3.7833860132805736E-002
   2.4969617202440564E-002  -7.7874443686551109E-003   3.9698898129395713E-002
   3.0836962510206567E-002  -1.0210674224576499E-002   2.8885835274126082E-002
   2.9041526068944001E-002  -9.5615431075100066E-003   3.2128153220071676E-002
   2.7246089627681408E-002  -8.8186892888812568E-003   3.5372732960187975E-002
   2.5450653186418828E-002  -7.9821127686898648E-003   3.8619574494475048E-002
   2.3655216745156249E-002  -7.0518135469366250E-003   4.1868677822933353E-002
   3.6390555349937403E-002  -9.9943368338105687E-003   3.3351932240961779E-002
   3.4184845265326891E-002  -9.1749857851711192E-003   3.1126677607215492E-002
   3.1979135180716406E-002  -8.4547561947499461E-003   2.9474205522330488E-002
   2.9773425096105893E-002  -7.8336480625475630E-003   2.8394515986306518E-002
   2.7567715011495408E-002  -7.3116613885637616E-003   2.7887608999144220E-002
   3.1337286504831197E-002  -9.2587060120920550E-003   3.5440525338410189E-002
   2.9586931343802386E-002  -8.4114964777980417E-003   3.4245807370730796E-002
   2.7836576182773617E-002  -7.6618158278062148E-003   3.3389016701353663E-002
   2.6086221021744800E-002  -7.0096640621170291E-003   3.2870153330278915E-002
   2.4335865860716038E-002  -6.4550411807300367E-003   3.2689217257505843E-002
   2.7530307122332176E-002  -8.5230751903735968E-003   3.7556180634554459E-002
   2.6000451634325919E-002  -7.6480071704249364E-003   3.7393591906858772E-002
   2.4470596146319620E-002  -6.8688754608627056E-003   3.7334075226906169E-002
   2.2940740658313342E-002  -6.1856800616863841E-003   3.7377630594696079E-002
   2.1410885170307023E-002  -5.5984209728963119E-003   3.7524258010229100E-002
   2.4969617202440564E-002  -7.7874443686551109E-003   3.9698898129395713E-002
   2.3425406136897559E-002  -6.8845178630520115E-003   4.0570031215599350E-002
   2.1881195071354501E-002  -6.0759350939188633E-003   4.1309381098987102E-002
   2.0336984005811423E-002  -5.3616960612559612E-003   4.1916947779558122E-002
   1.8792772940268383E-002  -4.7418007650627536E-003   4.2392731257313000E-002
   2.3655216745156249E-002  -7.0518135469366250E-003   4.1868677822933353E-002
   2.1861794851517180E-002  -6.1210285556786981E-003   4.3775125296953044E-002
   2.0068372957878139E-002  -5.2829947269754651E-003   4.5314934317596978E-002
   1.8274951064239084E-002  -4.5377120608249277E-003   4.6488104884865322E-002
   1.6481529170600029E-002  -3.8851805572289733E-003   4.7294636998758355E-002
   2.7567715011495408E-002  -7.3116613885637616E-003   2.7887608999144220E-002
   2.5332366248011440E-002  -6.7889627074076975E-003   2.6955207444473661E-002
   2.3097017484527360E-002  -6.1657185536888315E-003   2.6035544651962506E-002
   2.0861668721043336E-002  -5.4419289274076563E-003   2.5128620621610864E-002
   1.8626319957559312E-002  -4.6175938285636375E-003   2.4234435353418182E-002
   2.4335865860716038E-002  -6.4550411807300367E-003   3.2689217257505843E-002
   2.2134589439946228E-002  -5.9272354227168367E-003   3.2157237798819460E-002
   1.9933313019176307E-002  -5.3555350271485835E-003   3.1680664263401881E-002
   1.7732036598406394E-002  -4.7399399940256937E-003   3.1259496651253410E-002
   1.5530760177636577E-002  -4.0804503233480283E-003   3.0893734962373964E-002
   2.1410885170307023E-002  -5.5984209728963119E-003   3.7524258010229100E-002
   1.9286348253361008E-002  -5.0655081380258093E-003   3.7336049812518701E-002
   1.7161811336414992E-002  -4.5453515006083495E-003   3.7245914699186769E-002
   1.5037274419468991E-002  -4.0379510606440676E-003   3.7253852670233713E-002
   1.2912737502522975E-002  -3.5433068181326965E-003   3.7359863725659276E-002
   1.8792772940268383E-002  -4.7418007650627536E-003   4.2392731257313000E-002
   1.6787642688255888E-002  -4.2037808533348653E-003   4.2491643485570607E-002
   1.4782512436243418E-002  -3.7351679740683305E-003   4.2731295959316781E-002
   1.2777382184230907E-002  -3.3359621272622732E-003   4.3111688678551544E-002
   1.0772251932218448E-002  -3.0061633129171705E-003   4.3632821643274443E-002
   1.6481529170600029E-002  -3.8851805572289733E-003   4.7294636998758355E-002
   1.4638472744630815E-002  -3.3420535686438102E-003   4.7624018817976288E-002
   1.2795416318661573E-002  -2.9249844475279785E-003   4.8136808043792667E-002
   1.0952359892692345E-002  -2.6339731938803956E-003   4.8833004676206798E-002
   9.1093034667230621E-003  -2.4690198077018666E-003   4.9712608715219209E-002
   1.8626319957559312E-002  -4.6175938285636375E-003   2.4234435353418182E-002
   1.5613149227528045E-002  -3.9292113814852203E-003   2.4864518170687910E-002
   1.2599978497496750E-002  -3.6132797105011549E-003   2.6000580349021141E-002
   9.5868077674654689E-003  -3.6697988156109349E-003   2.7642621888417318E-002
   6.5736370374341879E-003  -4.0987686968152470E-003   2.9790642788877220E-002
   1.5530760177636577E-002  -4.0804503233480283E-003   3.0893734962373964E-002
   1.2998408780792475E-002  -3.6133265273103343E-003   3.1575656275112440E-002
   1.0466057383948332E-002  -3.5748291181068592E-003   3.2713236893162106E-002
   7.9337059871042032E-003  -3.9649580957377278E-003   3.4306476816522727E-002
   5.4013545902600879E-003  -4.7837134602026765E-003   3.6355376045194232E-002
   1.2912737502522975E-002  -3.5433068181326965E-003   3.7359863725659276E-002
   1.0810885383113797E-002  -3.2974416731351430E-003   3.8037447923126355E-002
   8.7090332637045839E-003  -3.5363785257123553E-003   3.9120371370152299E-002
   6.6071811442953883E-003  -4.2601173758640802E-003   4.0608634066736975E-002
   4.5053290248861927E-003  -5.4686582235902170E-003   4.2502236012880501E-002
   1.0772251932218448E-002  -3.0061633129171705E-003   4.3632821643274443E-002
   9.0505790344919367E-003  -2.9815568189599378E-003   4.4249893114729558E-002
   7.3289061367654267E-003  -3.4979279333179000E-003   4.5221983779991773E-002
   5.6072332390389142E-003  -4.5552766559902088E-003   4.6549093639060152E-002
   3.8855603413124017E-003  -6.1536029869777020E-003   4.8231222691935291E-002
   9.1093034667230621E-003  -2.4690198077018666E-003   4.9712608715219209E-002
   7.7174897349270299E-003  -2.6656719647851768E-003   5.0212991849922672E-002
   6.3256760031309422E-003  -3.4594773409234725E-003   5.1018074122680335E-002
   4.9338622713348684E-003  -4.8504359361172603E-003   5.2127855533492501E-002
   3.5420485395387669E-003  -6.8385477503654091E-003   5.3542336082359032E-002
   6.5736370374341879E-003  -4.0987686968152470E-003   2.9790642788877220E-002
   6.0458132404337950E-003  -6.0957984695597656E-003   3.4218577340613288E-002
   5.5179894434334853E-003  -1.0856497249292829E-002   3.9337315562409381E-002
   4.9901656464330507E-003  -1.8380865036013161E-002   4.5146857454263833E-002
   4.4623418494327272E-003  -2.8668901829721705E-002   5.1647203016179422E-002
   5.4013545902600879E-003  -4.7837134602026765E-003   3.6355376045194232E-002
   5.4597835515703408E-003  -6.9319021352907684E-003   3.8458061946281930E-002
   5.5182125128805104E-003  -1.1310331044791122E-002   4.1042449693930338E-002
   5.5766414741907563E-003  -1.7919000188702697E-002   4.4108539288140763E-002
   5.6350704355009884E-003  -2.6757909567026061E-002   4.7656330728912621E-002
   4.5053290248861927E-003  -5.4686582235902170E-003   4.2502236012880501E-002
   4.9409089210087215E-003  -7.7680058010217712E-003   4.2813102035895056E-002
   5.3764888171312850E-003  -1.1764164840289082E-002   4.3396568081972758E-002
   5.8120687132539837E-003  -1.7457135341391955E-002   4.4252634151113746E-002
   6.2476486093763217E-003  -2.4846917304330862E-002   4.5381300243317879E-002
   3.8855603413124017E-003  -6.1536029869777020E-003   4.8231222691935291E-002
   4.4891893487491279E-003  -8.6041094667523299E-003   4.7283697609452877E-002
   5.0928183561858558E-003  -1.2217998635787097E-002   4.6399670726536169E-002
   5.6964473636226106E-003  -1.6995270494081463E-002   4.5579142043183946E-002
   6.3000763710593100E-003  -2.2935925041635330E-002   4.4822111559396860E-002
   3.5420485395387669E-003  -6.8385477503654091E-003   5.3542336082359032E-002
   4.1046248347914316E-003  -9.4402131324834437E-003   5.1869848666955432E-002
   4.6672011300441241E-003  -1.2671832431285335E-002   5.0051757627619597E-002
   5.2297774252967610E-003  -1.6533405646770638E-002   4.8088062964350475E-002
   5.7923537205494258E-003  -2.1024932778940020E-002   4.5978764677148121E-002
   2.9647904992374852E-002  -1.7909917249011365E-002 -0.12689054306111058     
   3.1594627156322719E-002  -1.8266097224987538E-002  -9.4808756575663566E-002
   3.3541349320270669E-002  -1.8198718148982843E-002  -6.7940939627658209E-002
   3.5488071484218606E-002  -1.7707780020997061E-002  -4.6287092217094775E-002
   3.7434793648166514E-002  -1.6793282841030543E-002  -2.9847214343973055E-002
   5.1101447692815688E-002  -1.5045951246067946E-002  -4.9259974868248846E-002
   4.9028009018949575E-002  -1.5257393163503857E-002  -3.1142981925957713E-002
   4.6954570345083338E-002  -1.5167459507651526E-002  -1.5852341121852784E-002
   4.4881131671217135E-002  -1.4776150278510689E-002  -3.3880524559344871E-003
   4.2807692997350960E-002  -1.4083465476081525E-002   6.2498840717975790E-003
   5.7033920837838634E-002  -1.2181985243124471E-002   2.8576423122499209E-002
   5.3327938725413596E-002  -1.2248689102020219E-002   3.2606439042942179E-002
   4.9621956612988606E-002  -1.2136200866320203E-002   3.6197720224453882E-002
   4.5915974500563617E-002  -1.1844520536024314E-002   3.9350266667034575E-002
   4.2209992388138599E-002  -1.1373648111132673E-002   4.2064078370684169E-002
   4.7445324427443300E-002  -9.3180192401810386E-003  0.10661865091113380     
   4.4494416275714890E-002  -9.2399850405365594E-003   9.6439506331035693E-002
   4.1543508123986397E-002  -9.1049422249888552E-003   8.8209244411262142E-002
   3.8592599972257932E-002  -8.9128907935378844E-003   8.1927865151812565E-002
   3.5641691820529474E-002  -8.6638307461837649E-003   7.7595368552687172E-002
   2.2335658461629965E-002  -6.4540532372375781E-003  0.18486670849765491     
   2.2527441669853376E-002  -6.2312809790528445E-003  0.16035621993832339     
   2.2719224878076774E-002  -6.0736835836575215E-003  0.14018223143857159     
   2.2911008086300179E-002  -5.9812610510515292E-003  0.12434474299839916     
   2.3102791294523584E-002  -5.9540133812348572E-003  0.11284375461780638     
   3.7434793648166514E-002  -1.6793282841030543E-002  -2.9847214343973055E-002
   3.7020724148218054E-002  -1.5710118358568864E-002  -1.6904557095679923E-002
   3.6606654648269579E-002  -1.4713178323098597E-002  -5.8007902312588733E-003
   3.6192585148321084E-002  -1.3802462734619519E-002   3.4640862492898022E-003
   3.5778515648372616E-002  -1.2977971593131798E-002   1.0890072345966451E-002
   4.2807692997350960E-002  -1.4083465476081525E-002   6.2498840717975790E-003
   4.0997199319772651E-002  -1.3266650726339341E-002   1.3594737505109505E-002
   3.9186705642194383E-002  -1.2502951655259081E-002   1.9985632967034470E-002
   3.7376211964616081E-002  -1.1792368262840712E-002   2.5422570457571840E-002
   3.5565718287037820E-002  -1.1134900549084503E-002   2.9905549976721763E-002
   4.2209992388138599E-002  -1.1373648111132673E-002   4.2064078370684169E-002
   3.9888006945415333E-002  -1.0823183094109526E-002   4.3844236757344598E-002
   3.7566021502692046E-002  -1.0292724987419233E-002   4.5555369585102326E-002
   3.5244036059968786E-002  -9.7822737910618490E-003   4.7197476853957518E-002
   3.2922050617245485E-002  -9.2918295050372357E-003   4.8770558563910327E-002
   3.5641691820529474E-002  -8.6638307461837649E-003   7.7595368552687172E-002
   3.3693147025146045E-002  -8.3797154618798012E-003   7.3843940661024898E-002
   3.1744602229762622E-002  -8.0824983195795230E-003   7.0908419622944890E-002
   2.9796057434379155E-002  -7.7721793192829028E-003   6.8788805438447259E-002
   2.7847512638995760E-002  -7.4487584609900098E-003   6.7485098107531588E-002
   2.3102791294523584E-002  -5.9540133812348572E-003  0.11284375461780638     
   2.2412619558964800E-002  -5.9362478296501875E-003  0.10359384921615067     
   2.1722447823406030E-002  -5.8722716517398271E-003   9.6044783080561996E-002
   2.1032276087847246E-002  -5.7620848475041404E-003   9.0196556211040488E-002
   2.0342104352288476E-002  -5.6056874169426729E-003   8.6049168607586046E-002
   3.5778515648372616E-002  -1.2977971593131798E-002   1.0890072345966451E-002
   3.4543127363831083E-002  -1.2218981319102956E-002   1.6027615838840659E-002
   3.3307739079289606E-002  -1.1504768333000820E-002   2.0739424157825370E-002
   3.2072350794748086E-002  -1.0835332634825466E-002   2.5025497302920460E-002
   3.0836962510206567E-002  -1.0210674224576499E-002   2.8885835274126082E-002
   3.5565718287037820E-002  -1.1134900549084503E-002   2.9905549976721763E-002
   3.4032008851080486E-002  -1.0512905138424039E-002   3.2708334075884360E-002
   3.2498299415123132E-002  -9.9087386552925150E-003   3.5340211046104505E-002
   3.0964589979165780E-002  -9.3224010996905693E-003   3.7801180887382636E-002
   2.9430880543208443E-002  -8.7538924716178412E-003   4.0091243599718551E-002
   3.2922050617245485E-002  -9.2918295050372357E-003   4.8770558563910327E-002
   3.1344848074819659E-002  -8.8068289577451081E-003   4.9265531629758330E-002
   2.9767645532393847E-002  -8.3127089775845570E-003   4.9844425611611662E-002
   2.8190442989968024E-002  -7.8094695645560090E-003   5.0507240509470079E-002
   2.6613240447542208E-002  -7.2971107186590445E-003   5.1253976323333797E-002
   2.7847512638995760E-002  -7.4487584609900098E-003   6.7485098107531588E-002
   2.6481645035048754E-002  -7.1007527770660731E-003   6.5699208500462916E-002
   2.5115777431101757E-002  -6.7166792998764255E-003   6.4252067854346645E-002
   2.3749909827154757E-002  -6.2965380294212250E-003   6.3143676169182858E-002
   2.2384042223207754E-002  -5.8403289657004281E-003   6.2374033444971694E-002
   2.0342104352288476E-002  -5.6056874169426729E-003   8.6049168607586046E-002
   1.9442399731767673E-002  -5.3946765963871768E-003   8.2009364687997799E-002
   1.8542695111246857E-002  -5.1206496221682940E-003   7.8563137774309511E-002
   1.7642990490726054E-002  -4.7836064942866907E-003   7.5710487866520904E-002
   1.6743285870205266E-002  -4.3835472127415898E-003   7.3451414964632256E-002
   3.0836962510206567E-002  -1.0210674224576499E-002   2.8885835274126082E-002
   2.9041526068944001E-002  -9.5615431075100066E-003   3.2128153220071676E-002
   2.7246089627681408E-002  -8.8186892888812568E-003   3.5372732960187975E-002
   2.5450653186418828E-002  -7.9821127686898648E-003   3.8619574494475048E-002
   2.3655216745156249E-002  -7.0518135469366250E-003   4.1868677822933353E-002
   2.9430880543208443E-002  -8.7538924716178412E-003   4.0091243599718551E-002
   2.7683581558554701E-002  -8.1683283326536016E-003   4.2040710404871035E-002
   2.5936282573900918E-002  -7.5308242443774265E-003   4.4084190329070322E-002
   2.4188983589247169E-002  -6.8413802067891424E-003   4.6221683372316580E-002
   2.2441684604593393E-002  -6.0999962198889923E-003   4.8453189534609475E-002
   2.6613240447542208E-002  -7.2971107186590445E-003   5.1253976323333797E-002
   2.5005830244373251E-002  -6.7751135577972521E-003   5.1868809235442986E-002
   2.3398420041204321E-002  -6.2429591998735892E-003   5.2669406591474892E-002
   2.1791009838035360E-002  -5.7006476448884184E-003   5.3655768391429812E-002
   2.0183599634866434E-002  -5.1481788928414707E-003   5.4827894635307212E-002
   2.2384042223207754E-002  -5.8403289657004281E-003   6.2374033444971694E-002
   2.1008272126399649E-002  -5.3818987829407083E-003   6.1612449711787316E-002
   1.9632502029591506E-002  -4.9550941553699775E-003   6.1128381747401754E-002
   1.8256731932783366E-002  -4.5599150829876952E-003   6.0921829551814785E-002
   1.6880961835975230E-002  -4.1963615657940045E-003   6.0992793125027020E-002
   1.6743285870205266E-002  -4.3835472127415898E-003   7.3451414964632256E-002
   1.5690907204633911E-002  -3.9886840080843866E-003   7.1271631833904114E-002
   1.4638528539062556E-002  -3.6672291108662269E-003   6.9461115796850548E-002
   1.3586149873491223E-002  -3.4191825210869373E-003   6.8019866853471750E-002
   1.2533771207919875E-002  -3.2445442387464274E-003   6.6947885003768026E-002
   2.3655216745156249E-002  -7.0518135469366250E-003   4.1868677822933353E-002
   2.1861794851517180E-002  -6.1210285556786981E-003   4.3775125296953044E-002
   2.0068372957878139E-002  -5.2829947269754651E-003   4.5314934317596978E-002
   1.8274951064239084E-002  -4.5377120608249277E-003   4.6488104884865322E-002
   1.6481529170600029E-002  -3.8851805572289733E-003   4.7294636998758355E-002
   2.2441684604593393E-002  -6.0999962198889923E-003   4.8453189534609475E-002
   2.0414970393108953E-002  -5.3591271278689567E-003   4.9375569864182123E-002
   1.8388256181624499E-002  -4.6712277749211828E-003   5.0198004011439645E-002
   1.6361541970140052E-002  -4.0362981610454068E-003   5.0920491976381724E-002
   1.4334827758655577E-002  -3.4543382862420868E-003   5.1543033759008927E-002
   2.0183599634866434E-002  -5.1481788928414707E-003   5.4827894635307212E-002
   1.8190285376596949E-002  -4.5972257000589101E-003   5.4805989243914555E-002
   1.6196971118327463E-002  -4.0594608228671225E-003   5.4950829941267071E-002
   1.4203656860057996E-002  -3.5348842612658860E-003   5.5262416727364511E-002
   1.2210342601788493E-002  -3.0234960152551449E-003   5.5740749602207401E-002
   1.6880961835975230E-002  -4.1963615657940045E-003   6.0992793125027020E-002
   1.5187739801981126E-002  -3.8353242722490716E-003   6.0066383436150270E-002
   1.3494517767987003E-002  -3.4476938708130067E-003   5.9573412107079296E-002
   1.1801295733992894E-002  -3.0334703614861430E-003   5.9513879137813877E-002
   1.0108073699998776E-002  -2.5926537442683417E-003   5.9887784528353791E-002
   1.2533771207919875E-002  -3.2445442387464274E-003   6.6947885003768026E-002
   1.1407333669261499E-002  -3.0734228444390665E-003   6.5156752440889365E-002
   1.0280896130603151E-002  -2.8359269187588632E-003   6.4065750508876362E-002
   9.1544585919447960E-003  -2.5320564617066429E-003   6.3674879207729684E-002
   8.0280210532864271E-003  -2.1618114732813165E-003   6.3984138537448887E-002
   1.6481529170600029E-002  -3.8851805572289733E-003   4.7294636998758355E-002
   1.4638472744630815E-002  -3.3420535686438102E-003   4.7624018817976288E-002
   1.2795416318661573E-002  -2.9249844475279785E-003   4.8136808043792667E-002
   1.0952359892692345E-002  -2.6339731938803956E-003   4.8833004676206798E-002
   9.1093034667230621E-003  -2.4690198077018666E-003   4.9712608715219209E-002
   1.4334827758655577E-002  -3.4543382862420868E-003   5.1543033759008927E-002
   1.2682976344870575E-002  -2.9638338145982490E-003   5.1774429971532643E-002
   1.1031124931085615E-002  -2.6032704102025572E-003   5.2204828801826308E-002
   9.3792735173006403E-003  -2.3726480730532559E-003   5.2834230249890674E-002
   7.7274221035156521E-003  -2.2719668031518925E-003   5.3662634315725710E-002
   1.2210342601788493E-002  -3.0234960152551449E-003   5.5740749602207401E-002
   1.0765291411360095E-002  -2.5856140605527433E-003   5.5870277008257835E-002
   9.3202402209316762E-003  -2.2815563728765809E-003   5.6214402243251055E-002
   7.8751890305032747E-003  -2.1113229522262272E-003   5.6773125307187033E-002
   6.4301378400748593E-003  -2.0749137986018629E-003   5.7546446200065632E-002
   1.0108073699998776E-002  -2.5926537442683417E-003   5.9887784528353791E-002
   8.8854179440992914E-003  -2.2073943065073209E-003   5.9911559928152842E-002
   7.6627621881997770E-003  -1.9598423355510486E-003   6.0165528368066407E-002
   6.4401064323002652E-003  -1.8499978313990320E-003   6.0649689848095122E-002
   5.2174506764007776E-003  -1.8778607940518610E-003   6.1364044368238953E-002
   8.0280210532864271E-003  -2.1618114732813165E-003   6.3984138537448887E-002
   7.0433559430881504E-003  -1.8291745524614544E-003   6.3898278731217117E-002
   6.0586908328898875E-003  -1.6381282982251277E-003   6.4058207176272530E-002
   5.0740257226916177E-003  -1.5886727105719339E-003   6.4463923872615486E-002
   4.0893606124933479E-003  -1.6808077895018592E-003   6.5115428820245680E-002
   9.1093034667230621E-003  -2.4690198077018666E-003   4.9712608715219209E-002
   7.7174897349270299E-003  -2.6656719647851768E-003   5.0212991849922672E-002
   6.3256760031309422E-003  -3.4594773409234725E-003   5.1018074122680335E-002
   4.9338622713348684E-003  -4.8504359361172603E-003   5.2127855533492501E-002
   3.5420485395387669E-003  -6.8385477503654091E-003   5.3542336082359032E-002
   7.7274221035156521E-003  -2.2719668031518925E-003   5.3662634315725710E-002
   6.6186579510885274E-003  -2.4897515657980041E-003   5.3673892883058849E-002
   5.5098937986614582E-003  -3.2145273262923491E-003   5.3946551471075688E-002
   4.4011296462343405E-003  -4.4462940846346222E-003   5.4480610079776198E-002
   3.2923654938072644E-003  -6.1850518408246291E-003   5.5276068709160353E-002
   6.4301378400748593E-003  -2.0749137986018629E-003   5.7546446200065632E-002
   5.5611241496460601E-003  -2.3138311668109979E-003   5.7158742421235809E-002
   4.6921104592172885E-003  -2.9695773116611007E-003   5.6989139545718867E-002
   3.8230967687885066E-003  -4.0421522331519806E-003   5.7037637573515008E-002
   2.9540830783597177E-003  -5.5315559312837381E-003   5.7304236504624073E-002
   5.2174506764007776E-003  -1.8778607940518610E-003   6.1364044368238953E-002
   4.5448883305996175E-003  -2.1379107678241860E-003   6.0667540464453051E-002
   3.8723259847984991E-003  -2.7246272970299704E-003   6.0145838346609679E-002
   3.1997636389973398E-003  -3.6380103816698959E-003   5.9798938014708446E-002
   2.5272012931962205E-003  -4.8780600217431247E-003   5.9626839468749721E-002
   4.0893606124933479E-003  -1.6808077895018592E-003   6.5115428820245680E-002
   3.5699504939491894E-003  -1.9619903688369300E-003   6.4200287012711299E-002
   3.0505403754050309E-003  -2.4796772823988400E-003   6.3416647873748122E-002
   2.5311302568608862E-003  -3.2338685301870618E-003   6.2764511403356760E-002
   2.0117201383167416E-003  -4.2245641122020672E-003   6.2243877601537045E-002
   3.5420485395387669E-003  -6.8385477503654091E-003   5.3542336082359032E-002
   4.1046248347914316E-003  -9.4402131324834437E-003   5.1869848666955432E-002
   4.6672011300441241E-003  -1.2671832431285335E-002   5.0051757627619597E-002
   5.2297774252967610E-003  -1.6533405646770638E-002   4.8088062964350475E-002
   5.7923537205494258E-003  -2.1024932778940020E-002   4.5978764677148121E-002
   3.2923654938072644E-003  -6.1850518408246291E-003   5.5276068709160353E-002
   3.7262714530081759E-003  -8.4620068216170186E-003   5.2932236527903020E-002
   4.1601774122091290E-003  -1.1308365253765884E-002   5.0476667298474720E-002
   4.5940833714099918E-003  -1.4724127137271364E-002   4.7909361020876173E-002
   5.0279893306109380E-003  -1.8709292472133043E-002   4.5230317695107658E-002
   2.9540830783597177E-003  -5.5315559312837381E-003   5.7304236504624073E-002
   3.2931852772716610E-003  -7.4838005107505379E-003   5.4349610022838890E-002
   3.6322874761835974E-003  -9.9448980762464334E-003   5.1317113068646392E-002
   3.9713896750955338E-003  -1.2914848627771869E-002   4.8206745642046064E-002
   4.3104918740075049E-003  -1.6393652165326067E-002   4.5018507743038394E-002
   2.5272012931962205E-003  -4.8780600217431247E-003   5.9626839468749721E-002
   2.8053663075819722E-003  -6.5055941998841960E-003   5.6121969151764456E-002
   3.0835313219677359E-003  -8.5814308987270937E-003   5.2573094938134390E-002
   3.3616963363534650E-003  -1.1105570118272373E-002   4.8980216827859621E-002
   3.6398613507392236E-003  -1.4078011858519202E-002   4.5343334820939857E-002
   2.0117201383167416E-003  -4.2245641122020672E-003   6.2243877601537045E-002
   2.2628145439390623E-003  -5.5273878890178541E-003   5.8249313914679135E-002
   2.5139089495613970E-003  -7.2179637212075320E-003   5.4244612906938827E-002
   2.7650033551837247E-003  -9.2962916087730996E-003   5.0229774578316899E-002
   3.0160977608060802E-003  -1.1762371551712114E-002   4.6204798928812796E-002
   2.2335658461629965E-002  -6.4540532372375781E-003  0.18486670849765491     
   2.2527441669853376E-002  -6.2312809790528445E-003  0.16035621993832339     
   2.2719224878076774E-002  -6.0736835836575215E-003  0.14018223143857159     
   2.2911008086300179E-002  -5.9812610510515292E-003  0.12434474299839916     
   2.3102791294523584E-002  -5.9540133812348572E-003  0.11284375461780638     
  -3.7129707498473052E-003  -4.8405399346752587E-003  0.12427299454470286     
  -2.8079894747928130E-004  -4.6734607387682592E-003  0.11225250957882249     
   3.1513728548887565E-003  -4.5552626904806770E-003  0.10237630174165191     
   6.5835446572567874E-003  -4.4859457898122068E-003   9.4644371033190927E-002
   1.0015716459624825E-002  -4.4655100367630429E-003   8.9056717453439738E-002
  -1.6118456897234283E-002  -3.2270266321129670E-003   6.3615440671888165E-002
  -1.1638119431591442E-002  -3.1156404984836461E-003   6.4101253014628878E-002
  -7.1577819659485904E-003  -3.0368417973036035E-003   6.4539119555209523E-002
  -2.6774445003057441E-003  -2.9906305285727717E-003   6.4929040293630072E-002
   1.8028929653370884E-003  -2.9770066922912009E-003   6.5271015229890497E-002
  -1.4880799980530953E-002  -1.6135133295506615E-003   2.8940468792107120E-003
  -1.1544519782483102E-002  -1.5578202581990469E-003   1.5902450245742564E-002
  -8.2082395844352771E-003  -1.5184209041265613E-003   2.6670684879244552E-002
  -4.8719593863874328E-003  -1.4953152673333097E-003   3.5198750779716702E-002
  -1.5356791883396025E-003  -1.4885033478193171E-003   4.1486647947158867E-002
   2.6267876762631204E-013  -2.6988355994461699E-011  -5.7891186833329555E-002
  -1.5430712263508894E-013  -1.7914392191897832E-011  -3.2343898727836384E-002
  -5.7128607400258602E-013  -1.0949671724880261E-011  -1.1229002286242989E-002
  -9.8826155592313114E-013  -6.0939690793571089E-012   5.4535024914506847E-003
  -1.4052509156314841E-012  -3.3475444638497720E-012   1.7703615605244527E-002
   2.3102791294523584E-002  -5.9540133812348572E-003  0.11284375461780638     
   2.2412619558964800E-002  -5.9362478296501875E-003  0.10359384921615067     
   2.1722447823406030E-002  -5.8722716517398271E-003   9.6044783080561996E-002
   2.1032276087847246E-002  -5.7620848475041404E-003   9.0196556211040488E-002
   2.0342104352288476E-002  -5.6056874169426729E-003   8.6049168607586046E-002
   1.0015716459624825E-002  -4.4655100367630429E-003   8.9056717453439738E-002
   1.0644309907104223E-002  -4.4521858726938174E-003   8.4339423607358729E-002
   1.1272903354583627E-002  -4.4042037389651623E-003   8.0558820861286851E-002
   1.1901496802063032E-002  -4.3215636355768139E-003   7.7714909215224434E-002
   1.2530090249542436E-002  -4.2042655625291747E-003   7.5807688669171286E-002
   1.8028929653370884E-003  -2.9770066922912009E-003   6.5271015229890497E-002
   2.9861034297969068E-003  -2.9681239157375860E-003   6.5074780282718139E-002
   4.1693138942567286E-003  -2.9361358261903794E-003   6.5051088269497265E-002
   5.3525243587165434E-003  -2.8810424236497077E-003   6.5199939190227832E-002
   6.5357348231763687E-003  -2.8028437081156210E-003   6.5521333044910035E-002
  -1.5356791883396025E-003  -1.4885033478193171E-003   4.1486647947158867E-002
  -5.6199987295714590E-004  -1.4840619587812853E-003   4.5799919242229058E-002
   4.1167944242531066E-004  -1.4680679134156834E-003   4.9521585305193093E-002
   1.3853587578077633E-003  -1.4405212117226300E-003   5.2651646136050716E-002
   2.3590380731902099E-003  -1.4014218537020395E-003   5.5190101734802210E-002
  -1.4052509156314841E-012  -3.3475444638497720E-012   1.7703615605244527E-002
  -1.1579417980023265E-012  -1.8250123634544480E-012   2.6514840485891394E-002
  -9.1061533313840926E-013  -6.4093175211610287E-013   3.3970311968374245E-002
  -6.6329754189187184E-013   2.0458634786280072E-013   4.0070030052693065E-002
  -4.1597975064533443E-013   7.1148642533103157E-013   4.4813994738847729E-002
   2.0342104352288476E-002  -5.6056874169426729E-003   8.6049168607586046E-002
   1.9442399731767673E-002  -5.3946765963871768E-003   8.2009364687997799E-002
   1.8542695111246857E-002  -5.1206496221682940E-003   7.8563137774309511E-002
   1.7642990490726054E-002  -4.7836064942866907E-003   7.5710487866520904E-002
   1.6743285870205266E-002  -4.3835472127415898E-003   7.3451414964632256E-002
   1.2530090249542436E-002  -4.2042655625291747E-003   7.5807688669171286E-002
   1.2131799922213020E-002  -4.0460074470327345E-003   7.3548519847705135E-002
   1.1733509594883604E-002  -3.8404872162983439E-003   7.1698602606721992E-002
   1.1335219267554181E-002  -3.5877048703259126E-003   7.0257936946221622E-002
   1.0936928940224772E-002  -3.2876604091154338E-003   6.9226522866204232E-002
   6.5357348231763687E-003  -2.8028437081156210E-003   6.5521333044910035E-002
   6.4545333636213884E-003  -2.6973382976783339E-003   6.5027045283140766E-002
   6.3733319040664253E-003  -2.5603248104282272E-003   6.4757683676437444E-002
   6.2921304445114588E-003  -2.3918032463653011E-003   6.4713248224800249E-002
   6.2109289849564819E-003  -2.1917736054896109E-003   6.4893738928228833E-002
   2.3590380731902099E-003  -1.4014218537020395E-003   5.5190101734802210E-002
   2.4106000559927666E-003  -1.3486691483239402E-003   5.6444940994304617E-002
   2.4621620387953189E-003  -1.2801624045581106E-003   5.7740380983456185E-002
   2.5137240215978738E-003  -1.1959016224047173E-003   5.9076421702256764E-002
   2.5652860044004210E-003  -1.0958868018635104E-003   6.0453063150706400E-002
  -4.1597975064533443E-013   7.1148642533103157E-013   4.4813994738847729E-002
  -6.7284372518017221E-013   1.0304535003058390E-012   4.7802206981196804E-002
  -9.2970423026805804E-013   1.3118950370483162E-012   5.0646694527778008E-002
  -1.1865647353559439E-012   1.5559081800731178E-012   5.3347457378591201E-002
  -1.4434287098907816E-012   1.7623125181387422E-012   5.5904495533636689E-002
   1.6743285870205266E-002  -4.3835472127415898E-003   7.3451414964632256E-002
   1.5690907204633911E-002  -3.9886840080843866E-003   7.1271631833904114E-002
   1.4638528539062556E-002  -3.6672291108662269E-003   6.9461115796850548E-002
   1.3586149873491223E-002  -3.4191825210869373E-003   6.8019866853471750E-002
   1.2533771207919875E-002  -3.2445442387464274E-003   6.6947885003768026E-002
   1.0936928940224772E-002  -3.2876604091154338E-003   6.9226522866204232E-002
   1.0227274261505187E-002  -2.9915130055866435E-003   6.8036321334345173E-002
   9.5176195827856164E-003  -2.7504218326586116E-003   6.7162300682515025E-002
   8.8079649040660318E-003  -2.5643868903316436E-003   6.6604460910713564E-002
   8.0983102253464612E-003  -2.4334081786052675E-003   6.6362802018940792E-002
   6.2109289849564819E-003  -2.1917736054896109E-003   6.4893738928228833E-002
   5.7909120794426630E-003  -1.9943420030887338E-003   6.4711471072077142E-002
   5.3708951739288302E-003  -1.8336145544510102E-003   6.4792297882308156E-002
   4.9508782684150095E-003  -1.7095912595762423E-003   6.5136219358921971E-002
   4.5308613629011785E-003  -1.6222721184643851E-003   6.5743235501918434E-002
   2.5652860044004210E-003  -1.0958868018635104E-003   6.0453063150706400E-002
   2.3818206584463181E-003  -9.9717100059101837E-004   6.1297081047099938E-002
   2.1983553124922273E-003  -9.1680727624351283E-004   6.2351107396230149E-002
   2.0148899665381240E-003  -8.5479562882089487E-004   6.3615142198097177E-002
   1.8314246205840337E-003  -8.1113605832336400E-004   6.5089185452700815E-002
  -1.4434287098907816E-012   1.7623125181387422E-012   5.5904495533636689E-002
  -1.4838200113054256E-012   1.9067525336424751E-012   5.7793151259413311E-002
  -1.5242217210609255E-012   1.9642204529546348E-012   5.9838729224280823E-002
  -1.5646286349868532E-012   1.9343450452513622E-012   6.2041229428238961E-002
  -1.6050147322310693E-012   1.8176571359163063E-012   6.4400651871287740E-002
   1.2533771207919875E-002  -3.2445442387464274E-003   6.6947885003768026E-002
   1.1407333669261499E-002  -3.0734228444390665E-003   6.5156752440889365E-002
   1.0280896130603151E-002  -2.8359269187588632E-003   6.4065750508876362E-002
   9.1544585919447960E-003  -2.5320564617066429E-003   6.3674879207729684E-002
   8.0280210532864271E-003  -2.1618114732813165E-003   6.3984138537448887E-002
   8.0983102253464612E-003  -2.4334081786052675E-003   6.6362802018940792E-002
   7.5673730060273822E-003  -2.3050671329210015E-003   6.5393128979608528E-002
   7.0364357867083102E-003  -2.1269451887196422E-003   6.4914325948088797E-002
   6.5054985673892174E-003  -1.8990423460010925E-003   6.4926392924381585E-002
   5.9745613480701593E-003  -1.6213586047649775E-003   6.5429329908487266E-002
   4.5308613629011785E-003  -1.6222721184643851E-003   6.5743235501918434E-002
   4.3861638398680382E-003  -1.5367114214030753E-003   6.5578428353276985E-002
   4.2414663168349222E-003  -1.4179634586799911E-003   6.5695230589394873E-002
   4.0967687938017906E-003  -1.2660282302953234E-003   6.6093642210272113E-002
   3.9520712707686659E-003  -1.0809057362487495E-003   6.6773663215908496E-002
   1.8314246205840337E-003  -8.1113605832336400E-004   6.5089185452700815E-002
   1.8637061707835051E-003  -7.6835570988535717E-004   6.5712650561894931E-002
   1.8959877209829825E-003  -7.0898172864022196E-004   6.6408464432794870E-002
   1.9282692711824500E-003  -6.3301411458977462E-004   6.7176627065400868E-002
   1.9605508213819314E-003  -5.4045286773241052E-004   6.8017138459712703E-002
  -1.6050147322310693E-012   1.8176571359163063E-012   6.4400651871287740E-002
  -1.2262621473801971E-012   1.6329715357699115E-012   6.5795795605461893E-002
  -8.4751303197627692E-013   1.3991308112082379E-012   6.7054027478288702E-002
  -4.6876218184888074E-013   1.1162251678520363E-012   6.8175347489768112E-002
  -9.0011331721484567E-014   7.8392847768782303E-013   6.9159755639899956E-002
   8.0280210532864271E-003  -2.1618114732813165E-003   6.3984138537448887E-002
   7.0433559430881504E-003  -1.8291745524614544E-003   6.3898278731217117E-002
   6.0586908328898875E-003  -1.6381282982251277E-003   6.4058207176272530E-002
   5.0740257226916177E-003  -1.5886727105719339E-003   6.4463923872615486E-002
   4.0893606124933479E-003  -1.6808077895018592E-003   6.5115428820245680E-002
   5.9745613480701593E-003  -1.6213586047649775E-003   6.5429329908487266E-002
   5.2357789957291068E-003  -1.3718809142306276E-003   6.5250642403488268E-002
   4.4969966433880404E-003  -1.2285962236163184E-003   6.5317932162916426E-002
   3.7582142910469810E-003  -1.1915045329220636E-003   6.5631199186771266E-002
   3.0194319387059215E-003  -1.2606058421479327E-003   6.6190443475053651E-002
   3.9520712707686659E-003  -1.0809057362487495E-003   6.6773663215908496E-002
   3.4593606894244497E-003  -9.1458727599968981E-004   6.6537545678805599E-002
   2.9666501080802543E-003  -8.1906414900753677E-004   6.6547594419269468E-002
   2.4739395267360433E-003  -7.9433635527231122E-004   6.6803809437300077E-002
   1.9812289453918427E-003  -8.4040389479378419E-004   6.7306190732897231E-002
   1.9605508213819314E-003  -5.4045286773241052E-004   6.8017138459712703E-002
   1.7141010241742208E-003  -4.5729363776869647E-004   6.7758988557169289E-002
   1.4676512269664981E-003  -4.0953207439890782E-004   6.7747193945332185E-002
   1.2212014297587888E-003  -3.9716817762249987E-004   6.7981754624201265E-002
   9.7475163255106474E-004  -4.2020194743985773E-004   6.8462670593776837E-002
  -9.0011331721484567E-014   7.8392847768782303E-013   6.9159755639899956E-002
  -2.1600776722863202E-014   4.6218584515145267E-013   6.8914971038579242E-002
   4.6806308828806209E-014   2.1008195183469525E-013   6.8916730741104160E-002
   1.1520992493352367E-013   2.7151891845988985E-014   6.9165034747475068E-002
   1.8362394937909698E-013  -8.5598195198599569E-014   6.9659883057691996E-002
   4.0893606124933479E-003  -1.6808077895018592E-003   6.5115428820245680E-002
   3.5699504939491894E-003  -1.9619903688369300E-003   6.4200287012711299E-002
   3.0505403754050309E-003  -2.4796772823988400E-003   6.3416647873748122E-002
   2.5311302568608862E-003  -3.2338685301870618E-003   6.2764511403356760E-002
   2.0117201383167416E-003  -4.2245641122020672E-003   6.2243877601537045E-002
   3.0194319387059215E-003  -1.2606058421479327E-003   6.6190443475053651E-002
   2.6311119539995792E-003  -1.4714927766696362E-003   6.5099673520809476E-002
   2.2427919692932022E-003  -1.8597579618621907E-003   6.4139581165669257E-002
   1.8544719845868460E-003  -2.4254013977258390E-003   6.3310166409633051E-002
   1.4661519998804690E-003  -3.1684230842607963E-003   6.2611429252700579E-002
   1.9812289453918427E-003  -8.4040389479378419E-004   6.7306190732897231E-002
   1.7231740250555592E-003  -9.8099518450173173E-004   6.6098918715499139E-002
   1.4651191047192619E-003  -1.2398386413253193E-003   6.5021499227737201E-002
   1.2070641843829714E-003  -1.6169342652645052E-003   6.4073932269611764E-002
   9.4900926404668101E-004  -2.1122820563195255E-003   6.3256217841122175E-002
   9.7475163255106474E-004  -4.2020194743985773E-004   6.8462670593776837E-002
   8.4613670711714169E-004  -4.9049759233407708E-004   6.7198022596780094E-002
   7.1752178168319955E-004  -6.1991932078850343E-004   6.6062402059951883E-002
   5.8890685624927389E-004  -8.0846713280333798E-004   6.5055808983292274E-002
   4.6029193081533436E-004  -1.0561410283782546E-003   6.4178243366800974E-002
   1.8362394937909698E-013  -8.5598195198599569E-014   6.9659883057691996E-002
   1.8433865545119943E-013  -1.6642243139131097E-013   6.8396985164652424E-002
   1.8503948373549406E-013  -2.5190960428744802E-013   6.7262289662313623E-002
   1.8574725091369260E-013  -3.4208746946262636E-013   6.6255796550675483E-002
   1.8645501809189113E-013  -4.3687276018999910E-013   6.5377505829738225E-002
   2.0117201383167416E-003  -4.2245641122020672E-003   6.2243877601537045E-002
   2.2628145439390623E-003  -5.5273878890178541E-003   5.8249313914679135E-002
   2.5139089495613970E-003  -7.2179637212075320E-003   5.4244612906938827E-002
   2.7650033551837247E-003  -9.2962916087730996E-003   5.0229774578316899E-002
   3.0160977608060802E-003  -1.1762371551712114E-002   4.6204798928812796E-002
   1.4661519998804690E-003  -3.1684230842607963E-003   6.2611429252700579E-002
   1.6939500144908942E-003  -4.1455409168982271E-003   5.8292848849861467E-002
   1.9217480291013195E-003  -5.4134727910684077E-003   5.3937812985880351E-002
   2.1495460437117447E-003  -6.9722187067720043E-003   4.9546321660757509E-002
   2.3773440583221561E-003  -8.8217786640092388E-003   4.5118374874492773E-002
   9.4900926404668101E-004  -2.1122820563195255E-003   6.3256217841122175E-002
   1.1271927473853714E-003  -2.7636939447782671E-003   5.8710558736142809E-002
   1.3053762307240653E-003  -3.6089818609290614E-003   5.4102126029761693E-002
   1.4835597140627540E-003  -4.6481458047715751E-003   4.9430919721978786E-002
   1.6617431974014635E-003  -5.8811857763061415E-003   4.4696939812794656E-002
   4.6029193081533436E-004  -1.0561410283782546E-003   6.4178243366800974E-002
   5.6254274262251824E-004  -1.3818469726585847E-003   5.9502443573523425E-002
   6.6479355442969432E-004  -1.8044909307897150E-003   5.4737552038583479E-002
   7.6704436623687344E-004  -2.3240729027709239E-003   4.9883568761983188E-002
   8.6929517804406817E-004  -2.9405928886031552E-003   4.4940493743720389E-002
   1.8645501809189113E-013  -4.3687276018999910E-013   6.5377505829738225E-002
   2.0232426845012697E-013  -5.3879123385058847E-013   6.0668503362002801E-002
   2.1818311046750694E-013  -6.5045191455226359E-013   5.5844091012346275E-002
   2.3404715665531484E-013  -7.7023804001541407E-013   5.0904268780768064E-002
   2.4991120284312274E-013  -9.0016882836607692E-013   4.5849036667269250E-002
   2.6267876762631204E-013  -2.6988355994461699E-011  -5.7891186833329555E-002
  -1.5430712263508894E-013  -1.7914392191897832E-011  -3.2343898727836384E-002
  -5.7128607400258602E-013  -1.0949671724880261E-011  -1.1229002286242989E-002
  -9.8826155592313114E-013  -6.0939690793571089E-012   5.4535024914506847E-003
  -1.4052509156314841E-012  -3.3475444638497720E-012   1.7703615605244527E-002
   1.4880799981797255E-002   1.6135132860474743E-003   2.8940468776330885E-003
   1.1544519782973446E-002   1.5578202284168563E-003   1.5902450242035238E-002
   8.2082395841496306E-003   1.5184208849445269E-003   2.6670684873523462E-002
   4.8719593853258254E-003   1.4953152556305346E-003   3.5198750772097782E-002
   1.5356791865020168E-003   1.4885033404746228E-003   4.1486647937758164E-002
   1.6118456900723426E-002   3.2270265990832492E-003   6.3615440663757530E-002
   1.1638119434478577E-002   3.1156404747481742E-003   6.4101253003336134E-002
   7.1577819682337538E-003   3.0368417808387463E-003   6.4539119540986567E-002
   2.6774445019889142E-003   2.9906305173549533E-003   6.4929040276708858E-002
  -1.8028929642559099E-003   2.9770066842967902E-003   6.5271015210503103E-002
   3.7129707570411992E-003   4.8405399121190379E-003  0.12427299452504369     
   2.8079895436114010E-004   4.6734607210794712E-003  0.11225250955606611     
  -3.1513728483189059E-003   4.5552626767328998E-003  0.10237630171614623     
  -6.5835446509989659E-003   4.4859457790793868E-003   9.4644371005283986E-002
  -1.0015716453679012E-002   4.4655100281189020E-003   8.9056717423479384E-002
  -2.2335658449249465E-002   6.4540532251548544E-003  0.18486670846149156     
  -2.2527441657378910E-002   6.2312809674107683E-003  0.16035621990022531     
  -2.2719224865508376E-002   6.0736835726271643E-003  0.14018223139900243     
  -2.2911008073637860E-002   5.9812610408038758E-003  0.12434474295782308     
  -2.3102791281767322E-002   5.9540133719411248E-003  0.11284375457668722     
  -1.4052509156314841E-012  -3.3475444638497720E-012   1.7703615605244527E-002
  -1.1579417980023265E-012  -1.8250123634544480E-012   2.6514840485891394E-002
  -9.1061533313840926E-013  -6.4093175211610287E-013   3.3970311968374245E-002
  -6.6329754189187184E-013   2.0458634786280072E-013   4.0070030052693065E-002
  -4.1597975064533443E-013   7.1148642533103157E-013   4.4813994738847729E-002
   1.5356791865020168E-003   1.4885033404746228E-003   4.1486647937758164E-002
   5.6199987149386371E-004   1.4840619540142375E-003   4.5799919234095321E-002
  -4.1167944351430154E-004   1.4680679107862693E-003   4.9521585298085535E-002
  -1.3853587585224607E-003   1.4405212107909751E-003   5.2651646129728925E-002
  -2.3590380735306130E-003   1.4014218540282508E-003   5.5190101729025276E-002
  -1.8028929642559099E-003   2.9770066842967902E-003   6.5271015210503103E-002
  -2.9861034287024558E-003   2.9681239098532236E-003   6.5074780266101848E-002
  -4.1693138931490070E-003   2.9361358222134704E-003   6.5051088255170711E-002
  -5.3525243575955547E-003   2.8810424213774749E-003   6.5199939177709706E-002
  -6.5357348220421042E-003   2.8028437073451540E-003   6.5521333033718793E-002
  -1.0015716453679012E-002   4.4655100281189020E-003   8.9056717423479384E-002
  -1.0644309901746866E-002   4.4521858656923971E-003   8.4339423581910739E-002
  -1.1272903349814721E-002   4.4042037336407547E-003   8.0558820839629425E-002
  -1.1901496797882574E-002   4.3215636319638637E-003   7.7714909196635179E-002
  -1.2530090245950424E-002   4.2042655606620710E-003   7.5807688652928334E-002
  -2.3102791281767322E-002   5.9540133719411248E-003  0.11284375457668722     
  -2.2412619547639387E-002   5.9362478215314596E-003  0.10359384918152229     
  -2.1722447813511448E-002   5.8722716450678447E-003   9.6044783051461746E-002
  -2.1032276079383509E-002   5.7620848425504120E-003   9.0196556186505655E-002
  -2.0342104345255574E-002   5.6056874139788215E-003   8.6049168586653679E-002
  -4.1597975064533443E-013   7.1148642533103157E-013   4.4813994738847729E-002
  -6.7284372518017221E-013   1.0304535003058390E-012   4.7802206981196804E-002
  -9.2970423026805804E-013   1.3118950370483162E-012   5.0646694527778008E-002
  -1.1865647353559439E-012   1.5559081800731178E-012   5.3347457378591201E-002
  -1.4434287098907816E-012   1.7623125181387422E-012   5.5904495533636689E-002
  -2.3590380735306130E-003   1.4014218540282508E-003   5.5190101729025276E-002
  -2.4106000568940023E-003   1.3486691496132075E-003   5.6444940989351350E-002
  -2.4621620402573968E-003   1.2801624066604150E-003   5.7740380979232203E-002
  -2.5137240236207913E-003   1.1959016251698075E-003   5.9076421698667864E-002
  -2.5652860069841806E-003   1.0958868051417769E-003   6.0453063147658248E-002
  -6.5357348220421042E-003   2.8028437073451540E-003   6.5521333033718793E-002
  -6.4545333631893034E-003   2.6973382981958227E-003   6.5027045273521697E-002
  -6.3733319043365174E-003   2.5603248120086575E-003   6.4757683668202046E-002
  -6.2921304454837176E-003   2.3918032487837623E-003   6.4713248217759950E-002
  -6.2109289866309168E-003   2.1917736085211581E-003   6.4893738922195313E-002
  -1.2530090245950424E-002   4.2042655606620710E-003   7.5807688652928334E-002
  -1.2131799919558726E-002   4.0460074467785628E-003   7.3548519833707790E-002
  -1.1733509593167046E-002   3.8404872173572052E-003   7.1698602594687494E-002
  -1.1335219266775351E-002   3.5877048723977449E-003   7.0257936935867613E-002
  -1.0936928940383667E-002   3.2876604119005254E-003   6.9226522857247744E-002
  -2.0342104345255574E-002   5.6056874139788215E-003   8.6049168586653679E-002
  -1.9442399726002278E-002   5.3946765953611642E-003   8.2009364669909712E-002
  -1.8542695106748990E-002   5.1206496227053921E-003   7.8563137758688673E-002
  -1.7642990487495697E-002   4.7836064960116373E-003   7.5710487852990505E-002
  -1.6743285868242405E-002   4.3835472152798927E-003   7.3451414952815375E-002
  -1.4434287098907816E-012   1.7623125181387422E-012   5.5904495533636689E-002
  -1.4838200113054256E-012   1.9067525336424751E-012   5.7793151259413311E-002
  -1.5242217210609255E-012   1.9642204529546348E-012   5.9838729224280823E-002
  -1.5646286349868532E-012   1.9343450452513622E-012   6.2041229428238961E-002
  -1.6050147322310693E-012   1.8176571359163063E-012   6.4400651871287740E-002
  -2.5652860069841806E-003   1.0958868051417769E-003   6.0453063147658248E-002
  -2.3818206611249532E-003   9.9717100419371985E-004   6.1297081044443535E-002
  -2.1983553152657362E-003   9.1680727994393474E-004   6.2351107393937177E-002
  -2.0148899694065071E-003   8.5479563239174508E-004   6.3615142196139438E-002
  -1.8314246235472779E-003   8.1113606153748741E-004   6.5089185451050247E-002
  -6.2109289866309168E-003   2.1917736085211581E-003   6.4893738922195313E-002
  -5.7909120812542295E-003   1.9943420064808814E-003   6.4711471066773815E-002
  -5.3708951758775344E-003   1.8336145579236421E-003   6.4792297877678540E-002
  -4.9508782705008341E-003   1.7095912628489213E-003   6.5136219354909847E-002
  -4.5308613651241520E-003   1.6222721212572067E-003   6.5743235498467223E-002
  -1.0936928940383667E-002   3.2876604119005254E-003   6.9226522857247744E-002
  -1.0227274261871653E-002   2.9915130087680569E-003   6.8036321326404414E-002
  -9.5176195833596381E-003   2.7504218359032974E-003   6.7162300675505243E-002
  -8.8079649048476080E-003   2.5643868933062095E-003   6.6604460904550133E-002
  -8.0983102263356074E-003   2.4334081809768704E-003   6.6362802013539640E-002
  -1.6743285868242405E-002   4.3835472152798927E-003   7.3451414952815375E-002
  -1.5690907202977208E-002   3.9886840110552324E-003   7.1271631823335069E-002
  -1.4638528537712026E-002   3.6672291138831470E-003   6.9461115787416816E-002
  -1.3586149872446839E-002   3.4191825237635740E-003   6.8019866845060617E-002
  -1.2533771207181646E-002   3.2445442406967562E-003   6.6947884996266582E-002
  -1.6050147322310693E-012   1.8176571359163063E-012   6.4400651871287740E-002
  -1.2262621473801971E-012   1.6329715357699115E-012   6.5795795605461893E-002
  -8.4751303197627692E-013   1.3991308112082379E-012   6.7054027478288702E-002
  -4.6876218184888074E-013   1.1162251678520363E-012   6.8175347489768112E-002
  -9.0011331721484567E-014   7.8392847768782303E-013   6.9159755639899956E-002
  -1.8314246235472779E-003   8.1113606153748741E-004   6.5089185451050247E-002
  -1.8637061730359221E-003   7.6835571261946178E-004   6.5712650560632357E-002
  -1.8959877225245628E-003   7.0898173087544092E-004   6.6408464431827074E-002
  -1.9282692720132060E-003   6.3301411630573706E-004   6.7176627064634467E-002
  -1.9605508215018337E-003   5.4045286891035715E-004   6.8017138459054216E-002
  -4.5308613651241520E-003   1.6222721212572067E-003   6.5743235498467223E-002
  -4.3861638415201671E-003   1.5367114236054802E-003   6.5578428350680784E-002
  -4.2414663179161831E-003   1.4179634603516261E-003   6.5695230587467110E-002
  -4.0967687943121982E-003   1.2660282314954675E-003   6.6093642208825881E-002
  -3.9520712707082142E-003   1.0809057370369524E-003   6.6773663214757445E-002
  -8.0983102263356074E-003   2.4334081809768704E-003   6.6362802013539640E-002
  -7.5673730066789929E-003   2.3050671345917345E-003   6.5393128975607867E-002
  -7.0364357870223767E-003   2.1269451898280958E-003   6.4914325945208837E-002
  -6.5054985673657570E-003   1.8990423466850887E-003   6.4926392922342424E-002
  -5.9745613477091442E-003   1.6213586051634643E-003   6.5429329907008671E-002
  -1.2533771207181646E-002   3.2445442406967562E-003   6.6947884996266582E-002
  -1.1407333668512390E-002   3.0734228455779888E-003   6.5156752435413079E-002
  -1.0280896129843141E-002   2.8359269193044545E-003   6.4065750505052144E-002
  -9.1544585911738988E-003   2.5320564618747377E-003   6.3674879205183971E-002
  -8.0280210525046358E-003   2.1618114732898652E-003   6.3984138535808532E-002
  -9.0011331721484567E-014   7.8392847768782303E-013   6.9159755639899956E-002
  -2.1600776722863202E-014   4.6218584515145267E-013   6.8914971038579242E-002
   4.6806308828806209E-014   2.1008195183469525E-013   6.8916730741104160E-002
   1.1520992493352367E-013   2.7151891845988985E-014   6.9165034747475068E-002
   1.8362394937909698E-013  -8.5598195198599569E-014   6.9659883057691996E-002
  -1.9605508215018337E-003   5.4045286891035715E-004   6.8017138459054216E-002
  -1.7141010241695058E-003   4.5729363844826398E-004   6.7758988556737731E-002
  -1.4676512268371675E-003   4.0953207467794850E-004   6.7747193945102813E-002
  -1.2212014295048378E-003   3.9716817759954254E-004   6.7981754624150098E-002
  -9.7475163217250124E-004   4.2020194721292814E-004   6.8462670593878783E-002
  -3.9520712707082142E-003   1.0809057370369524E-003   6.6773663214757445E-002
  -3.4593606892759973E-003   9.1458727643439763E-004   6.6537545678066995E-002
  -2.9666501078437673E-003   8.1906414914591219E-004   6.6547594418894782E-002
  -2.4739395264115295E-003   7.9433635517170767E-004   6.6803809437240264E-002
  -1.9812289449793064E-003   8.4040389451162101E-004   6.7306190733103566E-002
  -5.9745613477091442E-003   1.6213586051634643E-003   6.5429329907008671E-002
  -5.2357789953410630E-003   1.3718809144204480E-003   6.5250642402567227E-002
  -4.4969966429729610E-003   1.2285962236139938E-003   6.5317932162479414E-002
  -3.7582142906048754E-003   1.1915045327437635E-003   6.5631199186745662E-002
  -3.0194319382367764E-003   1.2606058418103971E-003   6.6190443475365776E-002
  -8.0280210525046358E-003   2.1618114732898652E-003   6.3984138535808532E-002
  -7.0433559423647013E-003   1.8291745524066094E-003   6.3898278730238012E-002
  -6.0586908322247807E-003   1.6381282980817979E-003   6.4058207175857473E-002
  -5.0740257220848496E-003   1.5886727103161663E-003   6.4463923872666751E-002
  -4.0893606119449255E-003   1.6808077891089512E-003   6.5115428820665677E-002
   1.8362394937909698E-013  -8.5598195198599569E-014   6.9659883057691996E-002
   1.8433865545119943E-013  -1.6642243139131097E-013   6.8396985164652424E-002
   1.8503948373549406E-013  -2.5190960428744802E-013   6.7262289662313623E-002
   1.8574725091369260E-013  -3.4208746946262636E-013   6.6255796550675483E-002
   1.8645501809189113E-013  -4.3687276018999910E-013   6.5377505829738225E-002
  -9.7475163217250124E-004   4.2020194721292814E-004   6.8462670593878783E-002
  -8.4613670673969188E-004   4.9049759195041176E-004   6.7198022596895723E-002
  -7.1752178130689466E-004   6.1991932024454965E-004   6.6062402060076020E-002
  -5.8890685587409310E-004   8.0846713209487692E-004   6.5055808983419783E-002
  -4.6029193044128808E-004   1.0561410275015115E-003   6.4178243366926679E-002
  -1.9812289449793064E-003   8.4040389451162101E-004   6.7306190733103566E-002
  -1.7231740246517755E-003   9.8099518406741248E-004   6.6098918715737920E-002
  -1.4651191043242359E-003   1.2398386407407869E-003   6.5021499227998353E-002
  -1.2070641839967040E-003   1.6169342645315082E-003   6.4073932269884754E-002
  -9.4900926366916528E-004   2.1122820554398403E-003   6.3256217841397205E-002
  -3.0194319382367764E-003   1.2606058418103971E-003   6.6190443475365776E-002
  -2.6311119535518956E-003   1.4714927761842189E-003   6.5099673521178736E-002
  -2.2427919688670149E-003   1.8597579612371351E-003   6.4139581166080678E-002
  -1.8544719841821202E-003   2.4254013969681951E-003   6.3310166410071256E-002
  -1.4661519994972534E-003   3.1684230833784188E-003   6.2611429253150358E-002
  -4.0893606119449255E-003   1.6808077891089512E-003   6.5115428820665677E-002
  -3.5699504934400411E-003   1.9619903683011919E-003   6.4200287013218782E-002
  -3.0505403749351984E-003   2.4796772817334001E-003   6.3416647874322940E-002
  -2.5311302564303244E-003   3.2338685294051941E-003   6.2764511403978457E-002
  -2.0117201379254712E-003   4.2245641113165533E-003   6.2243877602185194E-002
   1.8645501809189113E-013  -4.3687276018999910E-013   6.5377505829738225E-002
   2.0232426845012697E-013  -5.3879123385058847E-013   6.0668503362002801E-002
   2.1818311046750694E-013  -6.5045191455226359E-013   5.5844091012346275E-002
   2.3404715665531484E-013  -7.7023804001541407E-013   5.0904268780768064E-002
   2.4991120284312274E-013  -9.0016882836607692E-013   4.5849036667269250E-002
  -4.6029193044128808E-004   1.0561410275015115E-003   6.4178243366926679E-002
  -5.6254274221813338E-004   1.3818469715993764E-003   5.9502443573627384E-002
  -6.6479355399498910E-004   1.8044909295219513E-003   5.4737552038664317E-002
  -7.6704436577182400E-004   2.3240729012699302E-003   4.9883568762036756E-002
  -8.6929517754867625E-004   2.9405928868433406E-003   4.4940493743744758E-002
  -9.4900926366916528E-004   2.1122820554398403E-003   6.3256217841397205E-002
  -1.1271927469817360E-003   2.7636939437369334E-003   5.8710558736368990E-002
  -1.3053762302942780E-003   3.6089818596934525E-003   5.4102126029933542E-002
  -1.4835597136068569E-003   4.6481458033102059E-003   4.9430919722091370E-002
  -1.6617431969193908E-003   5.8811857745864060E-003   4.4696939812841063E-002
  -1.4661519994972534E-003   3.1684230833784188E-003   6.2611429253150358E-002
  -1.6939500140885000E-003   4.1455409158747958E-003   5.8292848850227313E-002
  -1.9217480286797602E-003   5.4134727898654048E-003   5.3937812986154340E-002
  -2.1495460432710313E-003   6.9722187053504279E-003   4.9546321660931099E-002
  -2.3773440578622809E-003   8.8217786623295824E-003   4.5118374874557721E-002
  -2.0117201379254712E-003   4.2245641113165533E-003   6.2243877602185194E-002
  -2.2628145435384384E-003   5.5273878880126581E-003   5.8249313915202161E-002
  -2.5139089491513916E-003   7.2179637200371349E-003   5.4244612907326184E-002
  -2.7650033547643275E-003   9.2962916073908164E-003   5.0229774578556652E-002
  -3.0160977603773120E-003   1.1762371550072981E-002   4.6204798928894064E-002
  -2.2335658449249465E-002   6.4540532251548544E-003  0.18486670846149156     
  -2.2527441657378910E-002   6.2312809674107683E-003  0.16035621990022531     
  -2.2719224865508376E-002   6.0736835726271643E-003  0.14018223139900243     
  -2.2911008073637860E-002   5.9812610408038758E-003  0.12434474295782308     
  -2.3102791281767322E-002   5.9540133719411248E-003  0.11284375457668722     
  -4.7445324410196527E-002   9.3180192465016076E-003  0.10661865090165251     
  -4.4494416258014743E-002   9.2399850406008621E-003   9.6439506318410084E-002
  -4.1543508105832967E-002   9.1049422206609387E-003   8.8209244395746733E-002
  -3.8592599953651163E-002   8.9128907866818374E-003   8.1927865133662292E-002
  -3.5641691801469373E-002   8.6638307386635305E-003   7.7595368532156983E-002
  -5.7033920817848124E-002   1.2181985267848361E-002   2.8576423132156720E-002
  -5.3327938704819583E-002   1.2248689113790956E-002   3.2606439049938485E-002
  -4.9621956591790937E-002   1.2136200868694824E-002   3.6197720228834884E-002
  -4.5915974478762375E-002   1.1844520532559799E-002   3.9350266668845835E-002
  -4.2209992365733792E-002   1.1373648105385936E-002   4.2064078369971475E-002
  -5.1101447672204287E-002   1.5045951289195086E-002  -4.9259974846995958E-002
  -4.9028008997793332E-002   1.5257393186981022E-002  -3.1142981905189614E-002
  -4.6954570323382384E-002   1.5167459516728571E-002  -1.5852341101732968E-002
  -4.4881131648971423E-002   1.4776150278437733E-002  -3.3880524366262403E-003
  -4.2807692974560489E-002   1.4083465472108342E-002   6.2498840901305600E-003
  -2.9647904973264916E-002   1.7909917310541867E-002 -0.12689054303580555     
  -3.1594627136936032E-002   1.8266097260171144E-002  -9.4808756546974043E-002
  -3.3541349300607218E-002   1.8198718164762498E-002  -6.7940939595956956E-002
  -3.5488071464278396E-002   1.7707780024315768E-002  -4.6287092182754203E-002
  -3.7434793627949534E-002   1.6793282838830803E-002  -2.9847214307365699E-002
  -2.3102791281767322E-002   5.9540133719411248E-003  0.11284375457668722     
  -2.2412619547639387E-002   5.9362478215314596E-003  0.10359384918152229     
  -2.1722447813511448E-002   5.8722716450678447E-003   9.6044783051461746E-002
  -2.1032276079383509E-002   5.7620848425504120E-003   9.0196556186505655E-002
  -2.0342104345255574E-002   5.6056874139788215E-003   8.6049168586653679E-002
  -3.5641691801469373E-002   8.6638307386635305E-003   7.7595368532156983E-002
  -3.3693147008304405E-002   8.3797154548125030E-003   7.3843940644522460E-002
  -3.1744602215139403E-002   8.0824983133354969E-003   7.0908419609857692E-002
  -2.9796057421974421E-002   7.7721793142323612E-003   6.8788805428162653E-002
  -2.7847512628809433E-002   7.4487584575030352E-003   6.7485098099437507E-002
  -4.2209992365733792E-002   1.1373648105385936E-002   4.2064078369971475E-002
  -3.9888006925666318E-002   1.0823183088093602E-002   4.3844236758295151E-002
  -3.7566021485598837E-002   1.0292724981602983E-002   4.5555369587454000E-002
  -3.5244036045531398E-002   9.7822737859143104E-003   4.7197476857448149E-002
  -3.2922050605463909E-002   9.2918295010273044E-003   4.8770558568277445E-002
  -4.2807692974560489E-002   1.4083465472108342E-002   6.2498840901305600E-003
  -4.0997199299725118E-002   1.3266650721374645E-002   1.3594737522840303E-002
  -3.9186705624889726E-002   1.2502951649870579E-002   1.9985632984250847E-002
  -3.7376211950054368E-002   1.1792368257596204E-002   2.5422570474361819E-002
  -3.5565718275218962E-002   1.1134900544551574E-002   2.9905549993173609E-002
  -3.7434793627949534E-002   1.6793282838830803E-002  -2.9847214307365699E-002
  -3.7020724130480825E-002   1.5710118354655689E-002  -1.6904557061841796E-002
  -3.6606654633012083E-002   1.4713178318138079E-002  -5.8007901997519651E-003
  -3.6192585135543354E-002   1.3802462729278226E-002   3.4640862789040300E-003
  -3.5778515638074632E-002   1.2977971588075787E-002   1.0890072374125981E-002
  -2.0342104345255574E-002   5.6056874139788215E-003   8.6049168586653679E-002
  -1.9442399726002278E-002   5.3946765953611642E-003   8.2009364669909712E-002
  -1.8542695106748990E-002   5.1206496227053921E-003   7.8563137758688673E-002
  -1.7642990487495697E-002   4.7836064960116373E-003   7.5710487852990505E-002
  -1.6743285868242405E-002   4.3835472152798927E-003   7.3451414952815375E-002
  -2.7847512628809433E-002   7.4487584575030352E-003   6.7485098099437507E-002
  -2.6481645026425537E-002   7.1007527751780763E-003   6.5699208493398803E-002
  -2.5115777424041637E-002   6.7166792992879309E-003   6.4252067848098462E-002
  -2.3749909821657755E-002   6.2965380298325296E-003   6.3143676163536278E-002
  -2.2384042219273849E-002   5.8403289668117475E-003   6.2374033439712540E-002
  -3.2922050605463909E-002   9.2918295010273044E-003   4.8770558568277445E-002
  -3.1344848064734115E-002   8.8068289549950024E-003   4.9265531633417098E-002
  -2.9767645524004280E-002   8.3127089758703726E-003   4.9844425614510204E-002
  -2.8190442983274479E-002   7.8094695636532589E-003   5.0507240511556882E-002
  -2.6613240442544674E-002   7.2971107183439909E-003   5.1253976324557166E-002
  -3.5565718275218962E-002   1.1134900544551574E-002   2.9905549993173609E-002
  -3.4032008840927962E-002   1.0512905134811977E-002   3.2708334089964285E-002
  -3.2498299406636934E-002   9.9087386524528073E-003   3.5340211057923940E-002
  -3.0964589972345923E-002   9.3224010974742363E-003   3.7801180897052367E-002
  -2.9430880538054913E-002   8.7538924698760401E-003   4.0091243607349773E-002
  -3.5778515638074632E-002   1.2977971588075787E-002   1.0890072374125981E-002
  -3.4543127355007086E-002   1.2218981314628785E-002   1.6027615863040745E-002
  -3.3307739071939582E-002   1.1504768329035187E-002   2.0739424178339627E-002
  -3.2072350788872057E-002   1.0835332631294811E-002   2.5025497320022697E-002
  -3.0836962505804533E-002   1.0210674221408200E-002   2.8885835288089967E-002
  -1.6743285868242405E-002   4.3835472152798927E-003   7.3451414952815375E-002
  -1.5690907202977208E-002   3.9886840110552324E-003   7.1271631823335069E-002
  -1.4638528537712026E-002   3.6672291138831470E-003   6.9461115787416816E-002
  -1.3586149872446839E-002   3.4191825237635740E-003   6.8019866845060617E-002
  -1.2533771207181646E-002   3.2445442406967562E-003   6.6947884996266582E-002
  -2.2384042219273849E-002   5.8403289668117475E-003   6.2374033439712540E-002
  -2.1008272122860945E-002   5.3818987844616306E-003   6.1612449706557687E-002
  -1.9632502026448048E-002   4.9550941570171148E-003   6.1128381742136029E-002
  -1.8256731930035134E-002   4.5599150844786163E-003   6.0921829546447731E-002
  -1.6880961833622248E-002   4.1963615668461074E-003   6.0992793119492683E-002
  -2.6613240442544674E-002   7.2971107183439909E-003   5.1253976324557166E-002
  -2.5005830239812833E-002   6.7751135578680843E-003   5.1868809235581126E-002
  -2.3398420037081015E-002   6.2429592001512074E-003   5.2669406590509560E-002
  -2.1791009834349215E-002   5.7006476451937731E-003   5.3655768389342447E-002
  -2.0183599631617352E-002   5.1481788929953476E-003   5.4827894632079960E-002
  -2.9430880538054913E-002   8.7538924698760401E-003   4.0091243607349773E-002
  -2.7683581553832919E-002   8.1683283312745658E-003   4.2040710410405663E-002
  -2.5936282569610961E-002   7.5308242432853487E-003   4.4084190332537382E-002
  -2.4188983585388981E-002   6.8413802059088726E-003   4.6221683373744896E-002
  -2.2441684601167005E-002   6.0999962191448653E-003   4.8453189534027885E-002
  -3.0836962505804533E-002   1.0210674221408200E-002   2.8885835288089967E-002
  -2.9041526064921205E-002   9.5615431046808252E-003   3.2128153231031131E-002
  -2.7246089624037850E-002   8.8186892864194621E-003   3.5372732968219578E-002
  -2.5450653183154495E-002   7.9821127666239375E-003   3.8619574499654918E-002
  -2.3655216742271168E-002   7.0518135452940500E-003   4.1868677825336986E-002
  -1.2533771207181646E-002   3.2445442406967562E-003   6.6947884996266582E-002
  -1.1407333668512390E-002   3.0734228455779888E-003   6.5156752435413079E-002
  -1.0280896129843141E-002   2.8359269193044545E-003   6.4065750505052144E-002
  -9.1544585911738988E-003   2.5320564618747377E-003   6.3674879205183971E-002
  -8.0280210525046358E-003   2.1618114732898652E-003   6.3984138535808532E-002
  -1.6880961833622248E-002   4.1963615668461074E-003   6.0992793119492683E-002
  -1.5187739799924743E-002   3.8353242727893755E-003   6.0066383432165582E-002
  -1.3494517766227242E-002   3.4476938709787353E-003   5.9573412104402368E-002
  -1.1801295732529740E-002   3.0334703614144573E-003   5.9513879136202791E-002
  -1.0108073698832241E-002   2.5926537440956743E-003   5.9887784527567267E-002
  -2.0183599631617352E-002   5.1481788929953476E-003   5.4827894632079960E-002
  -1.8190285373820399E-002   4.5972257000003180E-003   5.4805989241680730E-002
  -1.6196971116023445E-002   4.0594608226532380E-003   5.4950829939916512E-002
  -1.4203656858226492E-002   3.5348842609535108E-003   5.5262416726787264E-002
  -1.2210342600429538E-002   3.0234960149013168E-003   5.5740749602293249E-002
  -2.2441684601167005E-002   6.0999962191448653E-003   4.8453189534027885E-002
  -2.0414970390199391E-002   5.3591271272114827E-003   4.9375569863958337E-002
  -1.8388256179231739E-002   4.6712277743276298E-003   5.0198004011594785E-002
  -1.6361541968264094E-002   4.0362981604928419E-003   5.0920491976937605E-002
  -1.4334827757296473E-002   3.4543382857072091E-003   5.1543033759986895E-002
  -2.3655216742271168E-002   7.0518135452940500E-003   4.1868677825336986E-002
  -2.1861794849061644E-002   6.1210285544227028E-003   4.3775125298998352E-002
  -2.0068372955852135E-002   5.2829947260019661E-003   4.5314934319437228E-002
  -1.8274951062642625E-002   4.5377120600322146E-003   4.6488104886653336E-002
  -1.6481529169433101E-002   3.8851805565127684E-003   4.7294637000647177E-002
  -8.0280210525046358E-003   2.1618114732898652E-003   6.3984138535808532E-002
  -7.0433559423647013E-003   1.8291745524066094E-003   6.3898278730238012E-002
  -6.0586908322247807E-003   1.6381282980817979E-003   6.4058207175857473E-002
  -5.0740257220848496E-003   1.5886727103161663E-003   6.4463923872666751E-002
  -4.0893606119449255E-003   1.6808077891089512E-003   6.5115428820665677E-002
  -1.0108073698832241E-002   2.5926537440956743E-003   5.9887784527567267E-002
  -8.8854179430708190E-003   2.2073943062929091E-003   5.9911559927831037E-002
  -7.6627621873093573E-003   1.9598423352756300E-003   6.0165528368147925E-002
  -6.4401064315478965E-003   1.8499978310433790E-003   6.0649689848517846E-002
  -5.2174506757864739E-003   1.8778607935969749E-003   6.1364044368941217E-002
  -1.2210342600429538E-002   3.0234960149013168E-003   5.5740749602293249E-002
  -1.0765291410183134E-002   2.5856140601790978E-003   5.5870277008617797E-002
  -9.3202402199367915E-003   2.2815563724689902E-003   5.6214402243858930E-002
  -7.8751890296904596E-003   2.1113229517709178E-003   5.6773125308016564E-002
  -6.4301378394440722E-003   2.0749137980849430E-003   5.7546446201091145E-002
  -1.4334827757296473E-002   3.4543382857072091E-003   5.1543033759986895E-002
  -1.2682976343701819E-002   2.9638338140655640E-003   5.1774429972598471E-002
  -1.1031124930107166E-002   2.6032704096625309E-003   5.2204828802990426E-002
  -9.3792735165124843E-003   2.3726480724981826E-003   5.2834230251162281E-002
  -7.7274221029178585E-003   2.2719668025728834E-003   5.3662634317114273E-002
  -1.6481529169433101E-002   3.8851805565127684E-003   4.7294637000647177E-002
  -1.4638472743626757E-002   3.3420535679515861E-003   4.7624018819773184E-002
  -1.2795416317820399E-002   2.9249844468561548E-003   4.8136808045542601E-002
  -1.0952359892014055E-002   2.6339731932257179E-003   4.8833004677955427E-002
  -9.1093034662076966E-003   2.4690198070608238E-003   4.9712608717011553E-002
  -4.0893606119449255E-003   1.6808077891089512E-003   6.5115428820665677E-002
  -3.5699504934400411E-003   1.9619903683011919E-003   6.4200287013218782E-002
  -3.0505403749351984E-003   2.4796772817334001E-003   6.3416647874322940E-002
  -2.5311302564303244E-003   3.2338685294051941E-003   6.2764511403978457E-002
  -2.0117201379254712E-003   4.2245641113165533E-003   6.2243877602185194E-002
  -5.2174506757864739E-003   1.8778607935969749E-003   6.1364044368941217E-002
  -4.5448883300413453E-003   2.1379107672636066E-003   6.0667540465207503E-002
  -3.8723259842961925E-003   2.7246272963704077E-003   6.0145838347402641E-002
  -3.1997636385510501E-003   3.6380103809182246E-003   5.9798938015526951E-002
  -2.5272012928059112E-003   4.8780600209059610E-003   5.9626839469580917E-002
  -6.4301378394440722E-003   2.0749137980849430E-003   5.7546446201091145E-002
  -5.5611241490807119E-003   2.3138311662258271E-003   5.7158742422270814E-002
  -4.6921104587173516E-003   2.9695773110076235E-003   5.6989139546757675E-002
  -3.8230967683539905E-003   4.0421522324310295E-003   5.7037637574551638E-002
  -2.9540830779906310E-003   5.5315559304953688E-003   5.7304236505653083E-002
  -7.7274221029178585E-003   2.2719668025728834E-003   5.3662634317114273E-002
  -6.6186579505582823E-003   2.4897515651880336E-003   5.3673892884408533E-002
  -5.5098937981987346E-003   3.2145273256449572E-003   5.3946551472388041E-002
  -4.4011296458391705E-003   4.4462940839439472E-003   5.4480610081052754E-002
  -3.2923654934796081E-003   6.1850518400848875E-003   5.5276068710402859E-002
  -9.1093034662076966E-003   2.4690198070608238E-003   4.9712608717011553E-002
  -7.7174897344739757E-003   2.6656719641502402E-003   5.0212991851621203E-002
  -6.3256760027402825E-003   3.4594773402817636E-003   5.1018074124293877E-002
  -4.9338622710065685E-003   4.8504359354570106E-003   5.2127855535029771E-002
  -3.5420485392728684E-003   6.8385477496739622E-003   5.3542336083828523E-002
  -2.0117201379254712E-003   4.2245641113165533E-003   6.2243877602185194E-002
  -2.2628145435384384E-003   5.5273878880126581E-003   5.8249313915202161E-002
  -2.5139089491513916E-003   7.2179637200371349E-003   5.4244612907326184E-002
  -2.7650033547643275E-003   9.2962916073908164E-003   5.0229774578556652E-002
  -3.0160977603773120E-003   1.1762371550072981E-002   4.6204798928894064E-002
  -2.5272012928059112E-003   4.8780600209059610E-003   5.9626839469580917E-002
  -2.8053663071910886E-003   6.5055941989451971E-003   5.6121969152410189E-002
  -3.0835313215762036E-003   8.5814308976476794E-003   5.2573094938588416E-002
  -3.3616963359613863E-003   1.1105570117011784E-002   4.8980216828115236E-002
  -3.6398613503464960E-003   1.4078011857038275E-002   4.5343334820991066E-002
  -2.9540830779906310E-003   5.5315559304953688E-003   5.7304236505653083E-002
  -3.2931852769059120E-003   7.4838005098785132E-003   5.4349610023628286E-002
  -3.6322874758212519E-003   9.9448980752575578E-003   5.1317113069194342E-002
  -3.9713896747365180E-003   1.2914848626632697E-002   4.8206745642351306E-002
  -4.3104918736518449E-003   1.6393652164003569E-002   4.5018507743098901E-002
  -3.2923654934796081E-003   6.1850518400848875E-003   5.5276068710402859E-002
  -3.7262714526830809E-003   8.4620068208117738E-003   5.2932236528857257E-002
  -4.1601774118864843E-003   1.1308365252867880E-002   5.0476667299144518E-002
  -4.5940833710899623E-003   1.4724127136253526E-002   4.7909361021264946E-002
  -5.0279893302933587E-003   1.8709292470968863E-002   4.5230317695218014E-002
  -3.5420485392728684E-003   6.8385477496739622E-003   5.3542336083828523E-002
  -4.1046248345224245E-003   9.4402131317448124E-003   5.1869848668096186E-002
  -4.6672011297719529E-003   1.2671832430477703E-002   5.0051757628438720E-002
  -5.2297774250214882E-003   1.6533405645874674E-002   4.8088062964856237E-002
  -5.7923537202710373E-003   2.1024932777934158E-002   4.5978764677348405E-002
  -2.9647904973264916E-002   1.7909917310541867E-002 -0.12689054303580555     
  -3.1594627136936032E-002   1.8266097260171144E-002  -9.4808756546974043E-002
  -3.3541349300607218E-002   1.8198718164762498E-002  -6.7940939595956956E-002
  -3.5488071464278396E-002   1.7707780024315768E-002  -4.6287092182754203E-002
  -3.7434793627949534E-002   1.6793282838830803E-002  -2.9847214307365699E-002
  -8.9110316620922350E-003   2.2422133297641311E-002  -5.1056057485381168E-002
  -1.4737722900581923E-002   2.0499532620287725E-002  -3.4651525171026626E-002
  -2.0564414139071664E-002   1.8886798370684604E-002  -2.0792961468494880E-002
  -2.6391105377561404E-002   1.7583930548831818E-002  -9.4803663777858760E-003
  -3.2217796616051043E-002   1.6590929154729539E-002  -7.1373989889972345E-004
  -5.1285666797483004E-003   2.6934349284740783E-002   2.2132934701666121E-002
  -1.2167226067065197E-002   2.2732967980404278E-002   2.3593638314332269E-002
  -1.9205885454381875E-002   1.9574878576606732E-002   2.5176374241167081E-002
  -2.6244544841698643E-002   1.7460081073348031E-002   2.6881142482170720E-002
  -3.3283204229015456E-002   1.6388575470628247E-002   2.8707943037342962E-002
  -1.8300510026233438E-002   3.1446565271840213E-002   9.2676433525336263E-002
  -2.3883136636385648E-002   2.4966403340520790E-002   7.9926733909102349E-002
  -2.9465763246537918E-002   2.0262958782528890E-002   6.9967067533028740E-002
  -3.5048389856690183E-002   1.7336231597864276E-002   6.2797434397115520E-002
  -4.0631016466842397E-002   1.6186221786527025E-002   5.8417834501362523E-002
  -4.8426861701547308E-002   3.5958781258939698E-002  0.16057443898562918     
  -4.9885454608543489E-002   2.7199838700637413E-002  0.13434776161328399     
  -5.1344047515539726E-002   2.0951038988450993E-002  0.11357911840709040     
  -5.2802640422535935E-002   1.7212382122380389E-002   9.8268509367048729E-002
  -5.4261233329532144E-002   1.5983868102425691E-002   8.8415934493158821E-002
  -3.7434793627949534E-002   1.6793282838830803E-002  -2.9847214307365699E-002
  -3.7020724130480825E-002   1.5710118354655689E-002  -1.6904557061841796E-002
  -3.6606654633012083E-002   1.4713178318138079E-002  -5.8007901997519651E-003
  -3.6192585135543354E-002   1.3802462729278226E-002   3.4640862789040300E-003
  -3.5778515638074632E-002   1.2977971588075787E-002   1.0890072374125981E-002
  -3.2217796616051043E-002   1.6590929154729539E-002  -7.1373989889972345E-004
  -3.3173348265978675E-002   1.5758564038363343E-002   6.4645972454886597E-003
  -3.4128899915906244E-002   1.4937605049718916E-002   1.2742582478518505E-002
  -3.5084451565833813E-002   1.4128052188796494E-002   1.8120215800189667E-002
  -3.6040003215761389E-002   1.3329905455595592E-002   2.2597497210502249E-002
  -3.3283204229015456E-002   1.6388575470628247E-002   2.8707943037342962E-002
  -3.4669838554263997E-002   1.5807009722070969E-002   3.0047141760660312E-002
  -3.6056472879512538E-002   1.5162031781299747E-002   3.1424527044694249E-002
  -3.7443107204761059E-002   1.4453641648314594E-002   3.2840098889444877E-002
  -3.8829741530009627E-002   1.3681839323115508E-002   3.4293857294912189E-002
  -4.0631016466842397E-002   1.6186221786527025E-002   5.8417834501362523E-002
  -4.1510194995336668E-002   1.5855455405778554E-002   5.3843076483672911E-002
  -4.2389373523830966E-002   1.5386458512880580E-002   5.0245043498775323E-002
  -4.3268552052325271E-002   1.4779231107832805E-002   4.7623735546669634E-002
  -4.4147730580819534E-002   1.4033773190635451E-002   4.5979152627355899E-002
  -5.4261233329532144E-002   1.5983868102425691E-002   8.8415934493158821E-002
  -5.3694417589196852E-002   1.5903901089486194E-002   7.7852401414526651E-002
  -5.3127601848861533E-002   1.5610885244461414E-002   6.9204131840761685E-002
  -5.2560786108526228E-002   1.5104820567351129E-002   6.2471125771863978E-002
  -5.1993970368190923E-002   1.4385707058155228E-002   5.7653383207833364E-002
  -3.5778515638074632E-002   1.2977971588075787E-002   1.0890072374125981E-002
  -3.4543127355007086E-002   1.2218981314628785E-002   1.6027615863040745E-002
  -3.3307739071939582E-002   1.1504768329035187E-002   2.0739424178339627E-002
  -3.2072350788872057E-002   1.0835332631294811E-002   2.5025497320022697E-002
  -3.0836962505804533E-002   1.0210674221408200E-002   2.8885835288089967E-002
  -3.6040003215761389E-002   1.3329905455595592E-002   2.2597497210502249E-002
  -3.5106550200195513E-002   1.2572224213637739E-002   2.5387740940278125E-002
  -3.4173097184629700E-002   1.1884067826443481E-002   2.7999849308666530E-002
  -3.3239644169063859E-002   1.1265436294013362E-002   3.0433822315667367E-002
  -3.2306191153498018E-002   1.0716329616346665E-002   3.2689659961280704E-002
  -3.8829741530009627E-002   1.3681839323115508E-002   3.4293857294912189E-002
  -3.7950623969717205E-002   1.2925467112646555E-002   3.4761548832459632E-002
  -3.7071506409424679E-002   1.2263367323851887E-002   3.5298704820847987E-002
  -3.6192388849132201E-002   1.1695539956731414E-002   3.5905325260077108E-002
  -3.5313271288839779E-002   1.1221985011285185E-002   3.6581410150147042E-002
  -4.4147730580819534E-002   1.4033773190635451E-002   4.5979152627355899E-002
  -4.3075348663572086E-002   1.3278710011655412E-002   4.4149039539585530E-002
  -4.2002966746324637E-002   1.2642666821260126E-002   4.2635990714884150E-002
  -4.0930584829077223E-002   1.2125643619449549E-002   4.1440006153252024E-002
  -3.9858202911829801E-002   1.1727640406223677E-002   4.0561085854688948E-002
  -5.1993970368190923E-002   1.4385707058155228E-002   5.7653383207833364E-002
  -5.0480724281760203E-002   1.3631952910664297E-002   5.3550213061655527E-002
  -4.8967478195329511E-002   1.3021966318668504E-002   5.0011706990774951E-002
  -4.7454232108898833E-002   1.2555747282167830E-002   4.7037864995191858E-002
  -4.5940986022468100E-002   1.2233295801162170E-002   4.4628687074906304E-002
  -3.0836962505804533E-002   1.0210674221408200E-002   2.8885835288089967E-002
  -2.9041526064921205E-002   9.5615431046808252E-003   3.2128153231031131E-002
  -2.7246089624037850E-002   8.8186892864194621E-003   3.5372732968219578E-002
  -2.5450653183154495E-002   7.9821127666239375E-003   3.8619574499654918E-002
  -2.3655216742271168E-002   7.0518135452940500E-003   4.1868677825336986E-002
  -3.2306191153498018E-002   1.0716329616346665E-002   3.2689659961280704E-002
  -3.0472047665258205E-002   1.0147516100619924E-002   3.4329241053474069E-002
  -2.8637904177018371E-002   9.4697640540087891E-003   3.6043974446133220E-002
  -2.6803760688778513E-002   8.6830734765136197E-003   3.7833860139258574E-002
  -2.4969617200538724E-002   7.7874443681340000E-003   3.9698898132849714E-002
  -3.5313271288839779E-002   1.1221985011285185E-002   3.6581410150147042E-002
  -3.3367530247024504E-002   1.0733489096558857E-002   3.6603038562242285E-002
  -3.1421789205209154E-002   1.0120838821598185E-002   3.6772709781022386E-002
  -2.9476048163393897E-002   9.3840341864030834E-003   3.7090423806487423E-002
  -2.7530307121578584E-002   8.5230751909736724E-003   3.7556180638637665E-002
  -3.9858202911829801E-002   1.1727640406223677E-002   4.0561085854688948E-002
  -3.7727973810220007E-002   1.1319462092497762E-002   3.8949545757335835E-002
  -3.5597744708610289E-002   1.0771913589187658E-002   3.7558938972886841E-002
  -3.3467515607000488E-002   1.0084994896292823E-002   3.6389265501341729E-002
  -3.1337286505390770E-002   9.2587060138133170E-003   3.5440525342700549E-002
  -4.5940986022468100E-002   1.2233295801162170E-002   4.4628687074906304E-002
  -4.3553378354844935E-002   1.1905435088436833E-002   4.1368762638754830E-002
  -4.1165770687221687E-002   1.1422988356776853E-002   3.8402662021726375E-002
  -3.8778163019598494E-002   1.0785955606182271E-002   3.5730385223821021E-002
  -3.6390555351975273E-002   9.9943368366531837E-003   3.3351932245038629E-002
  -2.3655216742271168E-002   7.0518135452940500E-003   4.1868677825336986E-002
  -2.1861794849061644E-002   6.1210285544227028E-003   4.3775125298998352E-002
  -2.0068372955852135E-002   5.2829947260019661E-003   4.5314934319437228E-002
  -1.8274951062642625E-002   4.5377120600322146E-003   4.6488104886653336E-002
  -1.6481529169433101E-002   3.8851805565127684E-003   4.7294637000647177E-002
  -2.4969617200538724E-002   7.7874443681340000E-003   3.9698898132849714E-002
  -2.3425406135257759E-002   6.8845178625434600E-003   4.0570031218489566E-002
  -2.1881195069976746E-002   6.0759350934158768E-003   4.1309381101494819E-002
  -2.0336984004695705E-002   5.3616960607508792E-003   4.1916947781865430E-002
  -1.8792772939414712E-002   4.7418007645486648E-003   4.2392731259601635E-002
  -2.7530307121578584E-002   8.5230751909736724E-003   3.7556180638637665E-002
  -2.6000451633638101E-002   7.6480071706644115E-003   3.7393591910267823E-002
  -2.4470596145697618E-002   6.8688754608296765E-003   3.7334075229851299E-002
  -2.2940740657757155E-002   6.1856800614696547E-003   3.7377630597388356E-002
  -2.1410885169816658E-002   5.5984209725843392E-003   3.7524258012878925E-002
  -3.1337286505390770E-002   9.2587060138133170E-003   3.5440525342700549E-002
  -2.9586931344202830E-002   8.4114964787849883E-003   3.4245807374333026E-002
  -2.7836576183014827E-002   7.6618158282434207E-003   3.3389016704506842E-002
  -2.6086221021826870E-002   7.0096640621886523E-003   3.2870153333222296E-002
  -2.4335865860638878E-002   6.4550411806199581E-003   3.2689217260479318E-002
  -3.6390555351975273E-002   9.9943368366531837E-003   3.3351932245038629E-002
  -3.4184845266951785E-002   9.1749857869060092E-003   3.1126677610685383E-002
  -3.1979135181928325E-002   8.4547561956572759E-003   2.9474205525461428E-002
  -2.9773425096904838E-002   7.8336480629071781E-003   2.8394515989367208E-002
  -2.7567715011881377E-002   7.3116613886557991E-003   2.7887609002402391E-002
  -1.6481529169433101E-002   3.8851805565127684E-003   4.7294637000647177E-002
  -1.4638472743626757E-002   3.3420535679515861E-003   4.7624018819773184E-002
  -1.2795416317820399E-002   2.9249844468561548E-003   4.8136808045542601E-002
  -1.0952359892014055E-002   2.6339731932257179E-003   4.8833004677955427E-002
  -9.1093034662076966E-003   2.4690198070608238E-003   4.9712608717011553E-002
  -1.8792772939414712E-002   4.7418007645486648E-003   4.2392731259601635E-002
  -1.6787642687521448E-002   4.2037808528119225E-003   4.2491643487717723E-002
  -1.4782512435628024E-002   3.7351679735425913E-003   4.2731295961364157E-002
  -1.2777382183734684E-002   3.3359621267416220E-003   4.3111688680541271E-002
  -1.0772251931841337E-002   3.0061633124081055E-003   4.3632821645249065E-002
  -2.1410885169816658E-002   5.5984209725843392E-003   3.7524258012878925E-002
  -1.9286348252949122E-002   5.0655081376713706E-003   3.7336049814987310E-002
  -1.7161811336081592E-002   4.5453515002291528E-003   3.7245914701513547E-002
  -1.5037274419214052E-002   4.0379510602569745E-003   3.7253852672457503E-002
  -1.2912737502346519E-002   3.5433068177554428E-003   3.7359863727819326E-002
  -2.4335865860638878E-002   6.4550411806199581E-003   3.2689217260479318E-002
  -2.2134589439909980E-002   5.9272354225312074E-003   3.2157237801582618E-002
  -1.9933313019181029E-002   5.3555350269155963E-003   3.1680664265990977E-002
  -1.7732036598452093E-002   4.7399399937724917E-003   3.1259496653704234E-002
  -1.5530760177723179E-002   4.0804503231025302E-003   3.0893734964722384E-002
  -2.7567715011881377E-002   7.3116613886557991E-003   2.7887609002402391E-002
  -2.5332366248403848E-002   6.7889627073910996E-003   2.6955207447503127E-002
  -2.3097017484926402E-002   6.1657185536021231E-003   2.6035544654796072E-002
  -2.0861668721448914E-002   5.4419289272882240E-003   2.5128620624281256E-002
  -1.8626319957971427E-002   4.6175938284500617E-003   2.4234435355958595E-002
  -9.1093034662076966E-003   2.4690198070608238E-003   4.9712608717011553E-002
  -7.7174897344739757E-003   2.6656719641502402E-003   5.0212991851621203E-002
  -6.3256760027402825E-003   3.4594773402817636E-003   5.1018074124293877E-002
  -4.9338622710065685E-003   4.8504359354570106E-003   5.2127855535029771E-002
  -3.5420485392728684E-003   6.8385477496739622E-003   5.3542336083828523E-002
  -1.0772251931841337E-002   3.0061633124081055E-003   4.3632821645249065E-002
  -9.0505790341615239E-003   2.9815568184591301E-003   4.4249893116541539E-002
  -7.3289061364816624E-003   3.4979279328093416E-003   4.5221983781663089E-002
  -5.6072332388018183E-003   4.5552766554605162E-003   4.6549093640613853E-002
  -3.8855603411219880E-003   6.1536029864113218E-003   4.8231222693393749E-002
  -1.2912737502346519E-002   3.5433068177554428E-003   3.7359863727819326E-002
  -1.0810885382954549E-002   3.2974416727677980E-003   3.8037447925051954E-002
  -8.7090332635624892E-003   3.5363785253370167E-003   3.9120371371879917E-002
  -6.6071811441704448E-003   4.2601173754642403E-003   4.0608634068303014E-002
  -4.5053290247784594E-003   5.4686582231483483E-003   4.2502236014321293E-002
  -1.5530760177723179E-002   4.0804503231025302E-003   3.0893734964722384E-002
  -1.2998408780852969E-002   3.6133265270763548E-003   3.1575656277152628E-002
  -1.0466057383982787E-002   3.5748291178646432E-003   3.2713236894943890E-002
  -7.9337059871125628E-003   3.9649580954675221E-003   3.4306476818096468E-002
  -5.4013545902423937E-003   4.7837134598853193E-003   3.6355376046610405E-002
  -1.8626319957971427E-002   4.6175938284500617E-003   2.4234435355958595E-002
  -1.5613149227857004E-002   3.9292113813853002E-003   2.4864518172843519E-002
  -1.2599978497742526E-002   3.6132797103922698E-003   2.6000580350855507E-002
  -9.5868077676280750E-003   3.6697988154716366E-003   2.7642621889995000E-002
  -6.5736370375136244E-003   4.0987686966225123E-003   2.9790642790261668E-002
  -3.5420485392728684E-003   6.8385477496739622E-003   5.3542336083828523E-002
  -4.1046248345224245E-003   9.4402131317448124E-003   5.1869848668096186E-002
  -4.6672011297719529E-003   1.2671832430477703E-002   5.0051757628438720E-002
  -5.2297774250214882E-003   1.6533405645874674E-002   4.8088062964856237E-002
  -5.7923537202710373E-003   2.1024932777934158E-002   4.5978764677348405E-002
  -3.8855603411219880E-003   6.1536029864113218E-003   4.8231222693393749E-002
  -4.4891893485469320E-003   8.6041094661384876E-003   4.7283697610561670E-002
  -5.0928183559718551E-003   1.2217998635118799E-002   4.6399670727303888E-002
  -5.6964473633968581E-003   1.6995270493351602E-002   4.5579142043620485E-002
  -6.3000763708217777E-003   2.2935925040837635E-002   4.4822111559510880E-002
  -4.5053290247784594E-003   5.4686582231483483E-003   4.2502236014321293E-002
  -4.9409089208793874E-003   7.7680058005327179E-003   4.2813102036979134E-002
  -5.3764888169803363E-003   1.1764164839759145E-002   4.3396568082710391E-002
  -5.8120687130812868E-003   1.7457135340828649E-002   4.4252634151515674E-002
  -6.2476486091821576E-003   2.4846917303740668E-002   4.5381300243394596E-002
  -5.4013545902423937E-003   4.7837134598853193E-003   3.6355376046610405E-002
  -5.4597835515199766E-003   6.9319021349265597E-003   3.8458061947348021E-002
  -5.5182125127974735E-003   1.1310331044399755E-002   4.1042449694658749E-002
  -5.5766414740751110E-003   1.7919000188305747E-002   4.4108539288542525E-002
  -5.6350704353526106E-003   2.6757909566643812E-002   4.7656330728999191E-002
  -6.5736370375136244E-003   4.0987686966225123E-003   2.9790642790261668E-002
  -6.0458132404684339E-003   6.0957984693208456E-003   3.4218577341668999E-002
  -5.5179894434232435E-003   1.0856497249040364E-002   3.9337315563148789E-002
  -4.9901656463780530E-003   1.8380865035782679E-002   4.5146857454700540E-002
  -4.4623418493328071E-003   2.8668901829547178E-002   5.1647203016325527E-002
  -4.8426861701547308E-002   3.5958781258939698E-002  0.16057443898562918     
  -4.9885454608543489E-002   2.7199838700637413E-002  0.13434776161328399     
  -5.1344047515539726E-002   2.0951038988450993E-002  0.11357911840709040     
  -5.2802640422535935E-002   1.7212382122380389E-002   9.8268509367048729E-002
  -5.4261233329532144E-002   1.5983868102425691E-002   8.8415934493158821E-002
  -7.8482550574158233E-002   1.4895111091141389E-002   9.1322937834584506E-002
  -7.6146435321674755E-002   1.7479407717210599E-002   8.1316621559035657E-002
  -7.3810320069191235E-002   1.9129467835631297E-002   7.3441687436294284E-002
  -7.1474204816707687E-002   1.9845291446403623E-002   6.7698135466360609E-002
  -6.9138089564224153E-002   1.9626878549527604E-002   6.4085965649234827E-002
  -9.1442505512534578E-002  -6.1685590766569209E-003   3.5136865544793422E-002
  -8.8638334113915362E-002   7.7589767337836457E-003   3.7906531012276590E-002
  -8.5834162715296244E-002   1.7307896682811644E-002   3.9480926619223186E-002
  -8.3029991316677043E-002   2.2478200770426827E-002   3.9860052365633385E-002
  -8.0225819918057897E-002   2.3269888996629351E-002   3.9043908251507137E-002
  -8.7306726516676286E-002  -2.7232229244455314E-002  -7.9837778837438741E-003
  -8.7361150985265576E-002  -1.9614542496431131E-003   4.1174899730068368E-003
  -8.7415575453854866E-002   1.5486325529991886E-002   1.1696835955877057E-002
  -8.7469999922444183E-002   2.5111110094450100E-002   1.4754260064866702E-002
  -8.7524424391033501E-002   2.6912899443730959E-002   1.3289762299975937E-002
  -6.6075213586583192E-002  -4.8295899412253540E-002  -3.8038992451027820E-002
  -7.2314885935725104E-002  -1.1681885233070011E-002  -2.0050501558773526E-002
  -7.8554558284867015E-002   1.3664754377172239E-002  -9.9105845537439397E-003
  -8.4794230634008927E-002   2.7744019418473168E-002  -7.6192414359390614E-003
  -9.1033902983150838E-002   3.0555909890832900E-002  -1.3176472205358891E-002
  -5.4261233329532144E-002   1.5983868102425691E-002   8.8415934493158821E-002
  -5.3694417589196852E-002   1.5903901089486194E-002   7.7852401414526651E-002
  -5.3127601848861533E-002   1.5610885244461414E-002   6.9204131840761685E-002
  -5.2560786108526228E-002   1.5104820567351129E-002   6.2471125771863978E-002
  -5.1993970368190923E-002   1.4385707058155228E-002   5.7653383207833364E-002
  -6.9138089564224153E-002   1.9626878549527604E-002   6.4085965649234827E-002
  -6.6995905250724186E-002   1.8934824240403145E-002   5.6858615945291499E-002
  -6.4853720937224163E-002   1.8229723614430537E-002   5.0866739882810236E-002
  -6.2711536623724196E-002   1.7511576671609838E-002   4.6110337461791273E-002
  -6.0569352310224173E-002   1.6780383411940936E-002   4.2589408682234237E-002
  -8.0225819918057897E-002   2.3269888996629351E-002   3.9043908251507137E-002
  -7.7188056894798282E-002   2.1965747391319984E-002   3.5352744437489952E-002
  -7.4150293871538764E-002   2.0848561984399661E-002   3.2217264401529805E-002
  -7.1112530848279232E-002   1.9918332775868602E-002   2.9637468143626833E-002
  -6.8074767825019603E-002   1.9175059765726810E-002   2.7613355663780648E-002
  -8.7524424391033501E-002   2.6912899443730959E-002   1.3289762299975937E-002
  -8.4270872521419488E-002   2.4996670542236712E-002   1.3334786891122236E-002
  -8.1017320651805350E-002   2.3467400354368784E-002   1.3255705396920333E-002
  -7.7763768782191281E-002   2.2325088880127616E-002   1.3052517817370549E-002
  -7.4510216912577198E-002   2.1569736119512656E-002   1.2725224152472715E-002
  -9.1033902983150838E-002   3.0555909890832900E-002  -1.3176472205358891E-002
  -8.8244352130587345E-002   2.8027593693153718E-002  -9.1952566938119373E-003
  -8.5454801278023906E-002   2.6086238724338101E-002  -6.0179371310179475E-003
  -8.2665250425460468E-002   2.4731844984386291E-002  -3.6445135169771159E-003
  -7.9875699572896974E-002   2.3964412473298280E-002  -2.0749858516895259E-003
  -5.1993970368190923E-002   1.4385707058155228E-002   5.7653383207833364E-002
  -5.0480724281760203E-002   1.3631952910664297E-002   5.3550213061655527E-002
  -4.8967478195329511E-002   1.3021966318668504E-002   5.0011706990774951E-002
  -4.7454232108898833E-002   1.2555747282167830E-002   4.7037864995191858E-002
  -4.5940986022468100E-002   1.2233295801162170E-002   4.4628687074906304E-002
  -6.0569352310224173E-002   1.6780383411940936E-002   4.2589408682234237E-002
  -5.8528488296734738E-002   1.6075433295295066E-002   3.9623808894249962E-002
  -5.6487624283245275E-002   1.5436015781542523E-002   3.7148780885085539E-002
  -5.4446760269755798E-002   1.4862130870683943E-002   3.5164324654741376E-002
  -5.2405896256266377E-002   1.4353778562718966E-002   3.3670440203217189E-002
  -6.8074767825019603E-002   1.9175059765726810E-002   2.7613355663780648E-002
  -6.5580378180948778E-002   1.8518913679925572E-002   2.5707091281388594E-002
  -6.3085988536877941E-002   1.7850065244416527E-002   2.4217306381339052E-002
  -6.0591598892807116E-002   1.7168514459199997E-002   2.3144000963632165E-002
  -5.8097209248736292E-002   1.6474261324275763E-002   2.2487175028268080E-002
  -7.4510216912577198E-002   2.1569736119512656E-002   1.2725224152472715E-002
  -7.1636393934402409E-002   2.0962394064556043E-002   1.1800060223071430E-002
  -6.8762570956227551E-002   2.0264114707290816E-002   1.1217283479535232E-002
  -6.5888747978052720E-002   1.9474898047715967E-002   1.0976893921864407E-002
  -6.3014924999877903E-002   1.8594744085832671E-002   1.1078891550058825E-002
  -7.9875699572896974E-002   2.3964412473298280E-002  -2.0749858516895259E-003
  -7.6696535557095546E-002   2.3405874449186959E-002  -2.0972842807018832E-003
  -7.3517371541294063E-002   2.2678164170164439E-002  -1.8512878203259531E-003
  -7.0338207525492635E-002   2.1781281636232358E-002  -1.3369964705620963E-003
  -6.7159043509691152E-002   2.0715226847389356E-002  -5.5441023141034051E-004
  -4.5940986022468100E-002   1.2233295801162170E-002   4.4628687074906304E-002
  -4.3553378354844935E-002   1.1905435088436833E-002   4.1368762638754830E-002
  -4.1165770687221687E-002   1.1422988356776853E-002   3.8402662021726375E-002
  -3.8778163019598494E-002   1.0785955606182271E-002   3.5730385223821021E-002
  -3.6390555351975273E-002   9.9943368366531837E-003   3.3351932245038629E-002
  -5.2405896256266377E-002   1.4353778562718966E-002   3.3670440203217189E-002
  -4.9726976814619503E-002   1.3830098953763525E-002   3.1056214351390443E-002
  -4.7048057372972629E-002   1.3210232139934011E-002   2.8730788228488013E-002
  -4.4369137931325749E-002   1.2494178121230080E-002   2.6694161834510052E-002
  -4.1690218489678937E-002   1.1681936897651513E-002   2.4946335169456435E-002
  -5.8097209248736292E-002   1.6474261324275763E-002   2.2487175028268080E-002
  -5.5132002123264322E-002   1.5754762819090357E-002   2.0577046574826202E-002
  -5.2166794997792351E-002   1.4997475923091280E-002   1.8950693760109952E-002
  -4.9201587872320422E-002   1.4202400636277888E-002   1.7608116584119815E-002
  -4.6236380746848396E-002   1.3369536958649897E-002   1.6549315046855084E-002
  -6.3014924999877903E-002   1.8594744085832671E-002   1.1078891550058825E-002
  -5.9768454280779384E-002   1.7679426684417562E-002   9.9312593090618954E-003
  -5.6521983561680880E-002   1.6784719706248216E-002   9.0623786165920789E-003
  -5.3275512842582355E-002   1.5910623151325531E-002   8.4722494726497920E-003
  -5.0029042123483851E-002   1.5057137019648587E-002   8.1608718772344588E-003
  -6.7159043509691152E-002   2.0715226847389356E-002  -5.5441023141034051E-004
  -6.3636333287164670E-002   1.9604090549743880E-002  -8.8114744590173100E-004
  -6.0113623064638189E-002   1.8571963489405874E-002  -9.3415720206491137E-004
  -5.6590912842111735E-002   1.7618845666373215E-002  -7.1343949989910449E-004
  -5.3068202619585225E-002   1.6744737080646832E-002  -2.1899433940486546E-004
  -3.6390555351975273E-002   9.9943368366531837E-003   3.3351932245038629E-002
  -3.4184845266951785E-002   9.1749857869060092E-003   3.1126677610685383E-002
  -3.1979135181928325E-002   8.4547561956572759E-003   2.9474205525461428E-002
  -2.9773425096904838E-002   7.8336480629071781E-003   2.8394515989367208E-002
  -2.7567715011881377E-002   7.3116613886557991E-003   2.7887609002402391E-002
  -4.1690218489678937E-002   1.1681936897651513E-002   2.4946335169456435E-002
  -3.9005386327569683E-002   1.0846618106224670E-002   2.3455497707431383E-002
  -3.6320554165460400E-002   1.0061331383975386E-002   2.2350121850448490E-002
  -3.3635722003351104E-002   9.3260767309031947E-003   2.1630207598507589E-002
  -3.0950889841241919E-002   8.6408541470085476E-003   2.1295754951609014E-002
  -4.6236380746848396E-002   1.3369536958649897E-002   1.6549315046855084E-002
  -4.3259747451740806E-002   1.2518250425543387E-002   1.5743805367837399E-002
  -4.0283114156633271E-002   1.1667906572293274E-002   1.5136436349774143E-002
  -3.7306480861525743E-002   1.0818505398899211E-002   1.4727207992665539E-002
  -3.4329847566418145E-002   9.9700469053615737E-003   1.4516120296511836E-002
  -5.0029042123483851E-002   1.5057137019648587E-002   8.1608718772344588E-003
  -4.6947928639465418E-002   1.4189882744862020E-002   7.9916005919029517E-003
  -4.3866815155446937E-002   1.3274481760611384E-002   7.8331490234385057E-003
  -4.0785701671428455E-002   1.2310934066895228E-002   7.6855171718410234E-003
  -3.7704588187410029E-002   1.1299239663714572E-002   7.5487050371106437E-003
  -5.3068202619585225E-002   1.6744737080646832E-002  -2.1899433940486546E-004
  -5.0069929890743325E-002   1.5861515064180876E-002   1.9888337962820080E-004
  -4.7071657161901426E-002   1.4881056948929550E-002   4.4025987144130641E-004
  -4.4073384433059554E-002   1.3803362734891259E-002   5.0513513603374360E-004
  -4.1075111704217626E-002   1.2628432422067348E-002   3.9350917340630343E-004
  -2.7567715011881377E-002   7.3116613886557991E-003   2.7887609002402391E-002
  -2.5332366248403848E-002   6.7889627073910996E-003   2.6955207447503127E-002
  -2.3097017484926402E-002   6.1657185536021231E-003   2.6035544654796072E-002
  -2.0861668721448914E-002   5.4419289272882240E-003   2.5128620624281256E-002
  -1.8626319957971427E-002   4.6175938284500617E-003   2.4234435355958595E-002
  -3.0950889841241919E-002   8.6408541470085476E-003   2.1295754951609014E-002
  -2.8678531038682717E-002   7.9735645509757536E-003   2.0334485994793927E-002
  -2.6406172236123390E-002   7.2921088614877616E-003   1.9434498353950308E-002
  -2.4133813433564182E-002   6.5964870785453697E-003   1.8595792029078184E-002
  -2.1861454631004973E-002   5.8866992021484599E-003   1.7818367020177084E-002
  -3.4329847566418145E-002   9.9700469053615737E-003   1.4516120296511836E-002
  -3.1971936170997944E-002   9.1581663945597691E-003   1.3612363316851145E-002
  -2.9614024775577792E-002   8.4184991693734140E-003   1.2818430206940915E-002
  -2.7256113380157671E-002   7.7510452298021858E-003   1.2134320966781152E-002
  -2.4898201984737439E-002   7.1558045758468580E-003   1.1560035596372253E-002
  -3.7704588187410029E-002   1.1299239663714572E-002   7.5487050371106437E-003
  -3.5212581645349850E-002   1.0342768238143604E-002   6.7888394136746688E-003
  -3.2720575103289545E-002   9.5448894772593371E-003   6.1873402137678571E-003
  -3.0228568561229380E-002   8.9056033810591666E-003   5.7442074373910672E-003
  -2.7736562019169068E-002   8.4249099495454782E-003   5.4594410845436869E-003
  -4.1075111704217626E-002   1.2628432422067348E-002   3.9350917340630343E-004
  -3.8400467461738086E-002   1.1527370081728550E-002  -1.3608571473577857E-004
  -3.5725823219258712E-002   1.0671279785144538E-002  -4.5877162556878792E-004
  -3.3051178976779255E-002   1.0060161532316106E-002  -5.7454855909287728E-004
  -3.0376534734299798E-002   9.6940153232438764E-003  -4.8341651530814378E-004
  -1.8626319957971427E-002   4.6175938284500617E-003   2.4234435355958595E-002
  -1.5613149227857004E-002   3.9292113813853002E-003   2.4864518172843519E-002
  -1.2599978497742526E-002   3.6132797103922698E-003   2.6000580350855507E-002
  -9.5868077676280750E-003   3.6697988154716366E-003   2.7642621889995000E-002
  -6.5736370375136244E-003   4.0987686966225123E-003   2.9790642790261668E-002
  -2.1861454631004973E-002   5.8866992021484599E-003   1.7818367020177084E-002
  -1.8617094829814204E-002   5.2565135321294143E-003   1.8644957507453208E-002
  -1.5372735028623352E-002   4.7996983683207817E-003   1.9427946775754740E-002
  -1.2128375227432528E-002   4.5162537107227424E-003   2.0167334825081554E-002
  -8.8840154262417315E-003   4.4061795593355324E-003   2.0863121655434247E-002
  -2.4898201984737439E-002   7.1558045758468580E-003   1.1560035596372253E-002
  -2.1972233692572153E-002   6.5838156828740002E-003   1.2384053484178287E-002
  -1.9046265400406881E-002   5.9861170262494046E-003   1.2614889572907614E-002
  -1.6120297108241664E-002   5.3627086059747364E-003   1.2252543862560722E-002
  -1.3194328816076323E-002   4.7135904220486635E-003   1.1297016353137290E-002
  -2.7736562019169068E-002   8.4249099495454782E-003   5.4594410845436869E-003
  -2.5678565816131114E-002   7.9111178336181281E-003   6.0818061030180476E-003
  -2.3620569613093164E-002   7.1725356841783050E-003   5.5614087423142070E-003
  -2.1562573410055276E-002   6.2091635012260643E-003   3.8982490024320748E-003
  -1.9504577207017267E-002   5.0210012847617391E-003   1.0923268833715055E-003
  -3.0376534734299798E-002   9.6940153232438764E-003  -4.8341651530814378E-004
  -2.9736091200491033E-002   9.2384199843624781E-003  -2.6178463602694046E-004
  -2.9095647666682212E-002   8.3589543421069279E-003  -1.7324957160257670E-003
  -2.8455204132873363E-002   7.0556183964777114E-003  -4.8955497553046859E-003
  -2.7814760599064625E-002   5.3284121474752588E-003  -9.7509467538635652E-003
  -6.5736370375136244E-003   4.0987686966225123E-003   2.9790642790261668E-002
  -6.0458132404684339E-003   6.0957984693208456E-003   3.4218577341668999E-002
  -5.5179894434232435E-003   1.0856497249040364E-002   3.9337315563148789E-002
  -4.9901656463780530E-003   1.8380865035782679E-002   4.5146857454700540E-002
  -4.4623418493328071E-003   2.8668901829547178E-002   5.1647203016325527E-002
  -8.8840154262417315E-003   4.4061795593355324E-003   2.0863121655434247E-002
  -7.5936665678645321E-003   5.6252421369904493E-003   2.5987128576442753E-002
  -6.3033177094872217E-003   9.3292076665197343E-003   3.1945381950043261E-002
  -5.0129688511099252E-003   1.5518076147923568E-002   3.8737881776235383E-002
  -3.7226199927327119E-003   2.4191847581201742E-002   4.6364628055018953E-002
  -1.3194328816076323E-002   4.7135904220486635E-003   1.1297016353137290E-002
  -1.0998012113847766E-002   5.1546858046606081E-003   1.6838329588600071E-002
  -8.8016954116192647E-003   7.8019180839988822E-003   2.3357332059173369E-002
  -6.6053787093905969E-003   1.2655287260064513E-002   3.0854023764857824E-002
  -4.4090620071623177E-003   1.9714793332856528E-002   3.9328404705653131E-002
  -1.9504577207017267E-002   5.0210012847617391E-003   1.0923268833715055E-003
  -1.6258849878418274E-002   4.6841294723311555E-003   6.7721803781401746E-003
  -1.3013122549819310E-002   6.2746285014782521E-003   1.3573165890538717E-002
  -9.7673952212201098E-003   9.7924983722053188E-003   2.1495283420567668E-002
  -6.5216678926213537E-003   1.5237739084511315E-002   3.0538532968226673E-002
  -2.7814760599064625E-002   5.3284121474752588E-003  -9.7509467538635652E-003
  -2.3376179861575919E-002   4.2135731400012588E-003  -4.2113190549364354E-003
  -1.8937599124087101E-002   4.7473389189575110E-003   2.5928834441394377E-003
  -1.4499018386598284E-002   6.9297094843461526E-003   1.0661660743364859E-002
  -1.0060437649109577E-002   1.0760684836165879E-002   1.9995012842739968E-002
 </DataArray>
 </PointData>
 </Piece>
 </UnstructuredGrid>
 </VTKFile>
