 <VTKFile type="UnstructuredGrid"  version="0.1"   >
 <UnstructuredGrid>
 <Piece  NumberOfPoints="          1600 "  NumberOfCells="         1024 ">
 <Points>
 <DataArray  type="Float64" NumberOfComponents="3"  format="ascii" >
   0.0000000000000000        0.0000000000000000        0.0000000000000000     
   3.1250000000000000E-002   0.0000000000000000        0.0000000000000000     
   6.2500000000000000E-002   0.0000000000000000        0.0000000000000000     
   9.3750000000000000E-002   0.0000000000000000        0.0000000000000000     
  0.12500000000000000        0.0000000000000000        0.0000000000000000     
   0.0000000000000000        3.1250000000000000E-002   0.0000000000000000     
   3.1250000000000000E-002   3.1250000000000000E-002   0.0000000000000000     
   6.2500000000000000E-002   3.1250000000000000E-002   0.0000000000000000     
   9.3750000000000000E-002   3.1250000000000000E-002   0.0000000000000000     
  0.12500000000000000        3.1250000000000000E-002   0.0000000000000000     
   0.0000000000000000        6.2500000000000000E-002   0.0000000000000000     
   3.1250000000000000E-002   6.2500000000000000E-002   0.0000000000000000     
   6.2500000000000000E-002   6.2500000000000000E-002   0.0000000000000000     
   9.3750000000000000E-002   6.2500000000000000E-002   0.0000000000000000     
  0.12500000000000000        6.2500000000000000E-002   0.0000000000000000     
   0.0000000000000000        9.3750000000000000E-002   0.0000000000000000     
   3.1250000000000000E-002   9.3750000000000000E-002   0.0000000000000000     
   6.2500000000000000E-002   9.3750000000000000E-002   0.0000000000000000     
   9.3750000000000000E-002   9.3750000000000000E-002   0.0000000000000000     
  0.12500000000000000        9.3750000000000000E-002   0.0000000000000000     
   0.0000000000000000       0.12500000000000000        0.0000000000000000     
   3.1250000000000000E-002  0.12500000000000000        0.0000000000000000     
   6.2500000000000000E-002  0.12500000000000000        0.0000000000000000     
   9.3750000000000000E-002  0.12500000000000000        0.0000000000000000     
  0.12500000000000000       0.12500000000000000        0.0000000000000000     
  0.12500000000000000        0.0000000000000000        0.0000000000000000     
  0.15625000000000000        0.0000000000000000        0.0000000000000000     
  0.18750000000000000        0.0000000000000000        0.0000000000000000     
  0.21875000000000000        0.0000000000000000        0.0000000000000000     
  0.25000000000000000        0.0000000000000000        0.0000000000000000     
  0.12500000000000000        3.1250000000000000E-002   0.0000000000000000     
  0.15625000000000000        3.1250000000000000E-002   0.0000000000000000     
  0.18750000000000000        3.1250000000000000E-002   0.0000000000000000     
  0.21875000000000000        3.1250000000000000E-002   0.0000000000000000     
  0.25000000000000000        3.1250000000000000E-002   0.0000000000000000     
  0.12500000000000000        6.2500000000000000E-002   0.0000000000000000     
  0.15625000000000000        6.2500000000000000E-002   0.0000000000000000     
  0.18750000000000000        6.2500000000000000E-002   0.0000000000000000     
  0.21875000000000000        6.2500000000000000E-002   0.0000000000000000     
  0.25000000000000000        6.2500000000000000E-002   0.0000000000000000     
  0.12500000000000000        9.3750000000000000E-002   0.0000000000000000     
  0.15625000000000000        9.3750000000000000E-002   0.0000000000000000     
  0.18750000000000000        9.3750000000000000E-002   0.0000000000000000     
  0.21875000000000000        9.3750000000000000E-002   0.0000000000000000     
  0.25000000000000000        9.3750000000000000E-002   0.0000000000000000     
  0.12500000000000000       0.12500000000000000        0.0000000000000000     
  0.15625000000000000       0.12500000000000000        0.0000000000000000     
  0.18750000000000000       0.12500000000000000        0.0000000000000000     
  0.21875000000000000       0.12500000000000000        0.0000000000000000     
  0.25000000000000000       0.12500000000000000        0.0000000000000000     
  0.25000000000000000        0.0000000000000000        0.0000000000000000     
  0.28125000000000000        0.0000000000000000        0.0000000000000000     
  0.31250000000000000        0.0000000000000000        0.0000000000000000     
  0.34375000000000000        0.0000000000000000        0.0000000000000000     
  0.37500000000000000        0.0000000000000000        0.0000000000000000     
  0.25000000000000000        3.1250000000000000E-002   0.0000000000000000     
  0.28125000000000000        3.1250000000000000E-002   0.0000000000000000     
  0.31250000000000000        3.1250000000000000E-002   0.0000000000000000     
  0.34375000000000000        3.1250000000000000E-002   0.0000000000000000     
  0.37500000000000000        3.1250000000000000E-002   0.0000000000000000     
  0.25000000000000000        6.2500000000000000E-002   0.0000000000000000     
  0.28125000000000000        6.2500000000000000E-002   0.0000000000000000     
  0.31250000000000000        6.2500000000000000E-002   0.0000000000000000     
  0.34375000000000000        6.2500000000000000E-002   0.0000000000000000     
  0.37500000000000000        6.2500000000000000E-002   0.0000000000000000     
  0.25000000000000000        9.3750000000000000E-002   0.0000000000000000     
  0.28125000000000000        9.3750000000000000E-002   0.0000000000000000     
  0.31250000000000000        9.3750000000000000E-002   0.0000000000000000     
  0.34375000000000000        9.3750000000000000E-002   0.0000000000000000     
  0.37500000000000000        9.3750000000000000E-002   0.0000000000000000     
  0.25000000000000000       0.12500000000000000        0.0000000000000000     
  0.28125000000000000       0.12500000000000000        0.0000000000000000     
  0.31250000000000000       0.12500000000000000        0.0000000000000000     
  0.34375000000000000       0.12500000000000000        0.0000000000000000     
  0.37500000000000000       0.12500000000000000        0.0000000000000000     
  0.37500000000000000        0.0000000000000000        0.0000000000000000     
  0.40625000000000000        0.0000000000000000        0.0000000000000000     
  0.43750000000000000        0.0000000000000000        0.0000000000000000     
  0.46875000000000000        0.0000000000000000        0.0000000000000000     
  0.50000000000000000        0.0000000000000000        0.0000000000000000     
  0.37500000000000000        3.1250000000000000E-002   0.0000000000000000     
  0.40625000000000000        3.1250000000000000E-002   0.0000000000000000     
  0.43750000000000000        3.1250000000000000E-002   0.0000000000000000     
  0.46875000000000000        3.1250000000000000E-002   0.0000000000000000     
  0.50000000000000000        3.1250000000000000E-002   0.0000000000000000     
  0.37500000000000000        6.2500000000000000E-002   0.0000000000000000     
  0.40625000000000000        6.2500000000000000E-002   0.0000000000000000     
  0.43750000000000000        6.2500000000000000E-002   0.0000000000000000     
  0.46875000000000000        6.2500000000000000E-002   0.0000000000000000     
  0.50000000000000000        6.2500000000000000E-002   0.0000000000000000     
  0.37500000000000000        9.3750000000000000E-002   0.0000000000000000     
  0.40625000000000000        9.3750000000000000E-002   0.0000000000000000     
  0.43750000000000000        9.3750000000000000E-002   0.0000000000000000     
  0.46875000000000000        9.3750000000000000E-002   0.0000000000000000     
  0.50000000000000000        9.3750000000000000E-002   0.0000000000000000     
  0.37500000000000000       0.12500000000000000        0.0000000000000000     
  0.40625000000000000       0.12500000000000000        0.0000000000000000     
  0.43750000000000000       0.12500000000000000        0.0000000000000000     
  0.46875000000000000       0.12500000000000000        0.0000000000000000     
  0.50000000000000000       0.12500000000000000        0.0000000000000000     
  0.50000000000000000        0.0000000000000000        0.0000000000000000     
  0.53125000000000000        0.0000000000000000        0.0000000000000000     
  0.56250000000000000        0.0000000000000000        0.0000000000000000     
  0.59375000000000000        0.0000000000000000        0.0000000000000000     
  0.62500000000000000        0.0000000000000000        0.0000000000000000     
  0.50000000000000000        3.1250000000000000E-002   0.0000000000000000     
  0.53125000000000000        3.1250000000000000E-002   0.0000000000000000     
  0.56250000000000000        3.1250000000000000E-002   0.0000000000000000     
  0.59375000000000000        3.1250000000000000E-002   0.0000000000000000     
  0.62500000000000000        3.1250000000000000E-002   0.0000000000000000     
  0.50000000000000000        6.2500000000000000E-002   0.0000000000000000     
  0.53125000000000000        6.2500000000000000E-002   0.0000000000000000     
  0.56250000000000000        6.2500000000000000E-002   0.0000000000000000     
  0.59375000000000000        6.2500000000000000E-002   0.0000000000000000     
  0.62500000000000000        6.2500000000000000E-002   0.0000000000000000     
  0.50000000000000000        9.3750000000000000E-002   0.0000000000000000     
  0.53125000000000000        9.3750000000000000E-002   0.0000000000000000     
  0.56250000000000000        9.3750000000000000E-002   0.0000000000000000     
  0.59375000000000000        9.3750000000000000E-002   0.0000000000000000     
  0.62500000000000000        9.3750000000000000E-002   0.0000000000000000     
  0.50000000000000000       0.12500000000000000        0.0000000000000000     
  0.53125000000000000       0.12500000000000000        0.0000000000000000     
  0.56250000000000000       0.12500000000000000        0.0000000000000000     
  0.59375000000000000       0.12500000000000000        0.0000000000000000     
  0.62500000000000000       0.12500000000000000        0.0000000000000000     
  0.62500000000000000        0.0000000000000000        0.0000000000000000     
  0.65625000000000000        0.0000000000000000        0.0000000000000000     
  0.68750000000000000        0.0000000000000000        0.0000000000000000     
  0.71875000000000000        0.0000000000000000        0.0000000000000000     
  0.75000000000000000        0.0000000000000000        0.0000000000000000     
  0.62500000000000000        3.1250000000000000E-002   0.0000000000000000     
  0.65625000000000000        3.1250000000000000E-002   0.0000000000000000     
  0.68750000000000000        3.1250000000000000E-002   0.0000000000000000     
  0.71875000000000000        3.1250000000000000E-002   0.0000000000000000     
  0.75000000000000000        3.1250000000000000E-002   0.0000000000000000     
  0.62500000000000000        6.2500000000000000E-002   0.0000000000000000     
  0.65625000000000000        6.2500000000000000E-002   0.0000000000000000     
  0.68750000000000000        6.2500000000000000E-002   0.0000000000000000     
  0.71875000000000000        6.2500000000000000E-002   0.0000000000000000     
  0.75000000000000000        6.2500000000000000E-002   0.0000000000000000     
  0.62500000000000000        9.3750000000000000E-002   0.0000000000000000     
  0.65625000000000000        9.3750000000000000E-002   0.0000000000000000     
  0.68750000000000000        9.3750000000000000E-002   0.0000000000000000     
  0.71875000000000000        9.3750000000000000E-002   0.0000000000000000     
  0.75000000000000000        9.3750000000000000E-002   0.0000000000000000     
  0.62500000000000000       0.12500000000000000        0.0000000000000000     
  0.65625000000000000       0.12500000000000000        0.0000000000000000     
  0.68750000000000000       0.12500000000000000        0.0000000000000000     
  0.71875000000000000       0.12500000000000000        0.0000000000000000     
  0.75000000000000000       0.12500000000000000        0.0000000000000000     
  0.75000000000000000        0.0000000000000000        0.0000000000000000     
  0.78125000000000000        0.0000000000000000        0.0000000000000000     
  0.81250000000000000        0.0000000000000000        0.0000000000000000     
  0.84375000000000000        0.0000000000000000        0.0000000000000000     
  0.87500000000000000        0.0000000000000000        0.0000000000000000     
  0.75000000000000000        3.1250000000000000E-002   0.0000000000000000     
  0.78125000000000000        3.1250000000000000E-002   0.0000000000000000     
  0.81250000000000000        3.1250000000000000E-002   0.0000000000000000     
  0.84375000000000000        3.1250000000000000E-002   0.0000000000000000     
  0.87500000000000000        3.1250000000000000E-002   0.0000000000000000     
  0.75000000000000000        6.2500000000000000E-002   0.0000000000000000     
  0.78125000000000000        6.2500000000000000E-002   0.0000000000000000     
  0.81250000000000000        6.2500000000000000E-002   0.0000000000000000     
  0.84375000000000000        6.2500000000000000E-002   0.0000000000000000     
  0.87500000000000000        6.2500000000000000E-002   0.0000000000000000     
  0.75000000000000000        9.3750000000000000E-002   0.0000000000000000     
  0.78125000000000000        9.3750000000000000E-002   0.0000000000000000     
  0.81250000000000000        9.3750000000000000E-002   0.0000000000000000     
  0.84375000000000000        9.3750000000000000E-002   0.0000000000000000     
  0.87500000000000000        9.3750000000000000E-002   0.0000000000000000     
  0.75000000000000000       0.12500000000000000        0.0000000000000000     
  0.78125000000000000       0.12500000000000000        0.0000000000000000     
  0.81250000000000000       0.12500000000000000        0.0000000000000000     
  0.84375000000000000       0.12500000000000000        0.0000000000000000     
  0.87500000000000000       0.12500000000000000        0.0000000000000000     
  0.87500000000000000        0.0000000000000000        0.0000000000000000     
  0.90625000000000000        0.0000000000000000        0.0000000000000000     
  0.93750000000000000        0.0000000000000000        0.0000000000000000     
  0.96875000000000000        0.0000000000000000        0.0000000000000000     
   1.0000000000000000        0.0000000000000000        0.0000000000000000     
  0.87500000000000000        3.1250000000000000E-002   0.0000000000000000     
  0.90625000000000000        3.1250000000000000E-002   0.0000000000000000     
  0.93750000000000000        3.1250000000000000E-002   0.0000000000000000     
  0.96875000000000000        3.1250000000000000E-002   0.0000000000000000     
   1.0000000000000000        3.1250000000000000E-002   0.0000000000000000     
  0.87500000000000000        6.2500000000000000E-002   0.0000000000000000     
  0.90625000000000000        6.2500000000000000E-002   0.0000000000000000     
  0.93750000000000000        6.2500000000000000E-002   0.0000000000000000     
  0.96875000000000000        6.2500000000000000E-002   0.0000000000000000     
   1.0000000000000000        6.2500000000000000E-002   0.0000000000000000     
  0.87500000000000000        9.3750000000000000E-002   0.0000000000000000     
  0.90625000000000000        9.3750000000000000E-002   0.0000000000000000     
  0.93750000000000000        9.3750000000000000E-002   0.0000000000000000     
  0.96875000000000000        9.3750000000000000E-002   0.0000000000000000     
   1.0000000000000000        9.3750000000000000E-002   0.0000000000000000     
  0.87500000000000000       0.12500000000000000        0.0000000000000000     
  0.90625000000000000       0.12500000000000000        0.0000000000000000     
  0.93750000000000000       0.12500000000000000        0.0000000000000000     
  0.96875000000000000       0.12500000000000000        0.0000000000000000     
   1.0000000000000000       0.12500000000000000        0.0000000000000000     
   0.0000000000000000       0.12500000000000000        0.0000000000000000     
   3.1250000000000000E-002  0.12500000000000000        0.0000000000000000     
   6.2500000000000000E-002  0.12500000000000000        0.0000000000000000     
   9.3750000000000000E-002  0.12500000000000000        0.0000000000000000     
  0.12500000000000000       0.12500000000000000        0.0000000000000000     
   0.0000000000000000       0.15625000000000000        0.0000000000000000     
   3.1250000000000000E-002  0.15625000000000000        0.0000000000000000     
   6.2500000000000000E-002  0.15625000000000000        0.0000000000000000     
   9.3750000000000000E-002  0.15625000000000000        0.0000000000000000     
  0.12500000000000000       0.15625000000000000        0.0000000000000000     
   0.0000000000000000       0.18750000000000000        0.0000000000000000     
   3.1250000000000000E-002  0.18750000000000000        0.0000000000000000     
   6.2500000000000000E-002  0.18750000000000000        0.0000000000000000     
   9.3750000000000000E-002  0.18750000000000000        0.0000000000000000     
  0.12500000000000000       0.18750000000000000        0.0000000000000000     
   0.0000000000000000       0.21875000000000000        0.0000000000000000     
   3.1250000000000000E-002  0.21875000000000000        0.0000000000000000     
   6.2500000000000000E-002  0.21875000000000000        0.0000000000000000     
   9.3750000000000000E-002  0.21875000000000000        0.0000000000000000     
  0.12500000000000000       0.21875000000000000        0.0000000000000000     
   0.0000000000000000       0.25000000000000000        0.0000000000000000     
   3.1250000000000000E-002  0.25000000000000000        0.0000000000000000     
   6.2500000000000000E-002  0.25000000000000000        0.0000000000000000     
   9.3750000000000000E-002  0.25000000000000000        0.0000000000000000     
  0.12500000000000000       0.25000000000000000        0.0000000000000000     
  0.12500000000000000       0.12500000000000000        0.0000000000000000     
  0.15625000000000000       0.12500000000000000        0.0000000000000000     
  0.18750000000000000       0.12500000000000000        0.0000000000000000     
  0.21875000000000000       0.12500000000000000        0.0000000000000000     
  0.25000000000000000       0.12500000000000000        0.0000000000000000     
  0.12500000000000000       0.15625000000000000        0.0000000000000000     
  0.15625000000000000       0.15625000000000000        0.0000000000000000     
  0.18750000000000000       0.15625000000000000        0.0000000000000000     
  0.21875000000000000       0.15625000000000000        0.0000000000000000     
  0.25000000000000000       0.15625000000000000        0.0000000000000000     
  0.12500000000000000       0.18750000000000000        0.0000000000000000     
  0.15625000000000000       0.18750000000000000        0.0000000000000000     
  0.18750000000000000       0.18750000000000000        0.0000000000000000     
  0.21875000000000000       0.18750000000000000        0.0000000000000000     
  0.25000000000000000       0.18750000000000000        0.0000000000000000     
  0.12500000000000000       0.21875000000000000        0.0000000000000000     
  0.15625000000000000       0.21875000000000000        0.0000000000000000     
  0.18750000000000000       0.21875000000000000        0.0000000000000000     
  0.21875000000000000       0.21875000000000000        0.0000000000000000     
  0.25000000000000000       0.21875000000000000        0.0000000000000000     
  0.12500000000000000       0.25000000000000000        0.0000000000000000     
  0.15625000000000000       0.25000000000000000        0.0000000000000000     
  0.18750000000000000       0.25000000000000000        0.0000000000000000     
  0.21875000000000000       0.25000000000000000        0.0000000000000000     
  0.25000000000000000       0.25000000000000000        0.0000000000000000     
  0.25000000000000000       0.12500000000000000        0.0000000000000000     
  0.28125000000000000       0.12500000000000000        0.0000000000000000     
  0.31250000000000000       0.12500000000000000        0.0000000000000000     
  0.34375000000000000       0.12500000000000000        0.0000000000000000     
  0.37500000000000000       0.12500000000000000        0.0000000000000000     
  0.25000000000000000       0.15625000000000000        0.0000000000000000     
  0.28125000000000000       0.15625000000000000        0.0000000000000000     
  0.31250000000000000       0.15625000000000000        0.0000000000000000     
  0.34375000000000000       0.15625000000000000        0.0000000000000000     
  0.37500000000000000       0.15625000000000000        0.0000000000000000     
  0.25000000000000000       0.18750000000000000        0.0000000000000000     
  0.28125000000000000       0.18750000000000000        0.0000000000000000     
  0.31250000000000000       0.18750000000000000        0.0000000000000000     
  0.34375000000000000       0.18750000000000000        0.0000000000000000     
  0.37500000000000000       0.18750000000000000        0.0000000000000000     
  0.25000000000000000       0.21875000000000000        0.0000000000000000     
  0.28125000000000000       0.21875000000000000        0.0000000000000000     
  0.31250000000000000       0.21875000000000000        0.0000000000000000     
  0.34375000000000000       0.21875000000000000        0.0000000000000000     
  0.37500000000000000       0.21875000000000000        0.0000000000000000     
  0.25000000000000000       0.25000000000000000        0.0000000000000000     
  0.28125000000000000       0.25000000000000000        0.0000000000000000     
  0.31250000000000000       0.25000000000000000        0.0000000000000000     
  0.34375000000000000       0.25000000000000000        0.0000000000000000     
  0.37500000000000000       0.25000000000000000        0.0000000000000000     
  0.37500000000000000       0.12500000000000000        0.0000000000000000     
  0.40625000000000000       0.12500000000000000        0.0000000000000000     
  0.43750000000000000       0.12500000000000000        0.0000000000000000     
  0.46875000000000000       0.12500000000000000        0.0000000000000000     
  0.50000000000000000       0.12500000000000000        0.0000000000000000     
  0.37500000000000000       0.15625000000000000        0.0000000000000000     
  0.40625000000000000       0.15625000000000000        0.0000000000000000     
  0.43750000000000000       0.15625000000000000        0.0000000000000000     
  0.46875000000000000       0.15625000000000000        0.0000000000000000     
  0.50000000000000000       0.15625000000000000        0.0000000000000000     
  0.37500000000000000       0.18750000000000000        0.0000000000000000     
  0.40625000000000000       0.18750000000000000        0.0000000000000000     
  0.43750000000000000       0.18750000000000000        0.0000000000000000     
  0.46875000000000000       0.18750000000000000        0.0000000000000000     
  0.50000000000000000       0.18750000000000000        0.0000000000000000     
  0.37500000000000000       0.21875000000000000        0.0000000000000000     
  0.40625000000000000       0.21875000000000000        0.0000000000000000     
  0.43750000000000000       0.21875000000000000        0.0000000000000000     
  0.46875000000000000       0.21875000000000000        0.0000000000000000     
  0.50000000000000000       0.21875000000000000        0.0000000000000000     
  0.37500000000000000       0.25000000000000000        0.0000000000000000     
  0.40625000000000000       0.25000000000000000        0.0000000000000000     
  0.43750000000000000       0.25000000000000000        0.0000000000000000     
  0.46875000000000000       0.25000000000000000        0.0000000000000000     
  0.50000000000000000       0.25000000000000000        0.0000000000000000     
  0.50000000000000000       0.12500000000000000        0.0000000000000000     
  0.53125000000000000       0.12500000000000000        0.0000000000000000     
  0.56250000000000000       0.12500000000000000        0.0000000000000000     
  0.59375000000000000       0.12500000000000000        0.0000000000000000     
  0.62500000000000000       0.12500000000000000        0.0000000000000000     
  0.50000000000000000       0.15625000000000000        0.0000000000000000     
  0.53125000000000000       0.15625000000000000        0.0000000000000000     
  0.56250000000000000       0.15625000000000000        0.0000000000000000     
  0.59375000000000000       0.15625000000000000        0.0000000000000000     
  0.62500000000000000       0.15625000000000000        0.0000000000000000     
  0.50000000000000000       0.18750000000000000        0.0000000000000000     
  0.53125000000000000       0.18750000000000000        0.0000000000000000     
  0.56250000000000000       0.18750000000000000        0.0000000000000000     
  0.59375000000000000       0.18750000000000000        0.0000000000000000     
  0.62500000000000000       0.18750000000000000        0.0000000000000000     
  0.50000000000000000       0.21875000000000000        0.0000000000000000     
  0.53125000000000000       0.21875000000000000        0.0000000000000000     
  0.56250000000000000       0.21875000000000000        0.0000000000000000     
  0.59375000000000000       0.21875000000000000        0.0000000000000000     
  0.62500000000000000       0.21875000000000000        0.0000000000000000     
  0.50000000000000000       0.25000000000000000        0.0000000000000000     
  0.53125000000000000       0.25000000000000000        0.0000000000000000     
  0.56250000000000000       0.25000000000000000        0.0000000000000000     
  0.59375000000000000       0.25000000000000000        0.0000000000000000     
  0.62500000000000000       0.25000000000000000        0.0000000000000000     
  0.62500000000000000       0.12500000000000000        0.0000000000000000     
  0.65625000000000000       0.12500000000000000        0.0000000000000000     
  0.68750000000000000       0.12500000000000000        0.0000000000000000     
  0.71875000000000000       0.12500000000000000        0.0000000000000000     
  0.75000000000000000       0.12500000000000000        0.0000000000000000     
  0.62500000000000000       0.15625000000000000        0.0000000000000000     
  0.65625000000000000       0.15625000000000000        0.0000000000000000     
  0.68750000000000000       0.15625000000000000        0.0000000000000000     
  0.71875000000000000       0.15625000000000000        0.0000000000000000     
  0.75000000000000000       0.15625000000000000        0.0000000000000000     
  0.62500000000000000       0.18750000000000000        0.0000000000000000     
  0.65625000000000000       0.18750000000000000        0.0000000000000000     
  0.68750000000000000       0.18750000000000000        0.0000000000000000     
  0.71875000000000000       0.18750000000000000        0.0000000000000000     
  0.75000000000000000       0.18750000000000000        0.0000000000000000     
  0.62500000000000000       0.21875000000000000        0.0000000000000000     
  0.65625000000000000       0.21875000000000000        0.0000000000000000     
  0.68750000000000000       0.21875000000000000        0.0000000000000000     
  0.71875000000000000       0.21875000000000000        0.0000000000000000     
  0.75000000000000000       0.21875000000000000        0.0000000000000000     
  0.62500000000000000       0.25000000000000000        0.0000000000000000     
  0.65625000000000000       0.25000000000000000        0.0000000000000000     
  0.68750000000000000       0.25000000000000000        0.0000000000000000     
  0.71875000000000000       0.25000000000000000        0.0000000000000000     
  0.75000000000000000       0.25000000000000000        0.0000000000000000     
  0.75000000000000000       0.12500000000000000        0.0000000000000000     
  0.78125000000000000       0.12500000000000000        0.0000000000000000     
  0.81250000000000000       0.12500000000000000        0.0000000000000000     
  0.84375000000000000       0.12500000000000000        0.0000000000000000     
  0.87500000000000000       0.12500000000000000        0.0000000000000000     
  0.75000000000000000       0.15625000000000000        0.0000000000000000     
  0.78125000000000000       0.15625000000000000        0.0000000000000000     
  0.81250000000000000       0.15625000000000000        0.0000000000000000     
  0.84375000000000000       0.15625000000000000        0.0000000000000000     
  0.87500000000000000       0.15625000000000000        0.0000000000000000     
  0.75000000000000000       0.18750000000000000        0.0000000000000000     
  0.78125000000000000       0.18750000000000000        0.0000000000000000     
  0.81250000000000000       0.18750000000000000        0.0000000000000000     
  0.84375000000000000       0.18750000000000000        0.0000000000000000     
  0.87500000000000000       0.18750000000000000        0.0000000000000000     
  0.75000000000000000       0.21875000000000000        0.0000000000000000     
  0.78125000000000000       0.21875000000000000        0.0000000000000000     
  0.81250000000000000       0.21875000000000000        0.0000000000000000     
  0.84375000000000000       0.21875000000000000        0.0000000000000000     
  0.87500000000000000       0.21875000000000000        0.0000000000000000     
  0.75000000000000000       0.25000000000000000        0.0000000000000000     
  0.78125000000000000       0.25000000000000000        0.0000000000000000     
  0.81250000000000000       0.25000000000000000        0.0000000000000000     
  0.84375000000000000       0.25000000000000000        0.0000000000000000     
  0.87500000000000000       0.25000000000000000        0.0000000000000000     
  0.87500000000000000       0.12500000000000000        0.0000000000000000     
  0.90625000000000000       0.12500000000000000        0.0000000000000000     
  0.93750000000000000       0.12500000000000000        0.0000000000000000     
  0.96875000000000000       0.12500000000000000        0.0000000000000000     
   1.0000000000000000       0.12500000000000000        0.0000000000000000     
  0.87500000000000000       0.15625000000000000        0.0000000000000000     
  0.90625000000000000       0.15625000000000000        0.0000000000000000     
  0.93750000000000000       0.15625000000000000        0.0000000000000000     
  0.96875000000000000       0.15625000000000000        0.0000000000000000     
   1.0000000000000000       0.15625000000000000        0.0000000000000000     
  0.87500000000000000       0.18750000000000000        0.0000000000000000     
  0.90625000000000000       0.18750000000000000        0.0000000000000000     
  0.93750000000000000       0.18750000000000000        0.0000000000000000     
  0.96875000000000000       0.18750000000000000        0.0000000000000000     
   1.0000000000000000       0.18750000000000000        0.0000000000000000     
  0.87500000000000000       0.21875000000000000        0.0000000000000000     
  0.90625000000000000       0.21875000000000000        0.0000000000000000     
  0.93750000000000000       0.21875000000000000        0.0000000000000000     
  0.96875000000000000       0.21875000000000000        0.0000000000000000     
   1.0000000000000000       0.21875000000000000        0.0000000000000000     
  0.87500000000000000       0.25000000000000000        0.0000000000000000     
  0.90625000000000000       0.25000000000000000        0.0000000000000000     
  0.93750000000000000       0.25000000000000000        0.0000000000000000     
  0.96875000000000000       0.25000000000000000        0.0000000000000000     
   1.0000000000000000       0.25000000000000000        0.0000000000000000     
   0.0000000000000000       0.25000000000000000        0.0000000000000000     
   3.1250000000000000E-002  0.25000000000000000        0.0000000000000000     
   6.2500000000000000E-002  0.25000000000000000        0.0000000000000000     
   9.3750000000000000E-002  0.25000000000000000        0.0000000000000000     
  0.12500000000000000       0.25000000000000000        0.0000000000000000     
   0.0000000000000000       0.28125000000000000        0.0000000000000000     
   3.1250000000000000E-002  0.28125000000000000        0.0000000000000000     
   6.2500000000000000E-002  0.28125000000000000        0.0000000000000000     
   9.3750000000000000E-002  0.28125000000000000        0.0000000000000000     
  0.12500000000000000       0.28125000000000000        0.0000000000000000     
   0.0000000000000000       0.31250000000000000        0.0000000000000000     
   3.1250000000000000E-002  0.31250000000000000        0.0000000000000000     
   6.2500000000000000E-002  0.31250000000000000        0.0000000000000000     
   9.3750000000000000E-002  0.31250000000000000        0.0000000000000000     
  0.12500000000000000       0.31250000000000000        0.0000000000000000     
   0.0000000000000000       0.34375000000000000        0.0000000000000000     
   3.1250000000000000E-002  0.34375000000000000        0.0000000000000000     
   6.2500000000000000E-002  0.34375000000000000        0.0000000000000000     
   9.3750000000000000E-002  0.34375000000000000        0.0000000000000000     
  0.12500000000000000       0.34375000000000000        0.0000000000000000     
   0.0000000000000000       0.37500000000000000        0.0000000000000000     
   3.1250000000000000E-002  0.37500000000000000        0.0000000000000000     
   6.2500000000000000E-002  0.37500000000000000        0.0000000000000000     
   9.3750000000000000E-002  0.37500000000000000        0.0000000000000000     
  0.12500000000000000       0.37500000000000000        0.0000000000000000     
  0.12500000000000000       0.25000000000000000        0.0000000000000000     
  0.15625000000000000       0.25000000000000000        0.0000000000000000     
  0.18750000000000000       0.25000000000000000        0.0000000000000000     
  0.21875000000000000       0.25000000000000000        0.0000000000000000     
  0.25000000000000000       0.25000000000000000        0.0000000000000000     
  0.12500000000000000       0.28125000000000000        0.0000000000000000     
  0.15625000000000000       0.28125000000000000        0.0000000000000000     
  0.18750000000000000       0.28125000000000000        0.0000000000000000     
  0.21875000000000000       0.28125000000000000        0.0000000000000000     
  0.25000000000000000       0.28125000000000000        0.0000000000000000     
  0.12500000000000000       0.31250000000000000        0.0000000000000000     
  0.15625000000000000       0.31250000000000000        0.0000000000000000     
  0.18750000000000000       0.31250000000000000        0.0000000000000000     
  0.21875000000000000       0.31250000000000000        0.0000000000000000     
  0.25000000000000000       0.31250000000000000        0.0000000000000000     
  0.12500000000000000       0.34375000000000000        0.0000000000000000     
  0.15625000000000000       0.34375000000000000        0.0000000000000000     
  0.18750000000000000       0.34375000000000000        0.0000000000000000     
  0.21875000000000000       0.34375000000000000        0.0000000000000000     
  0.25000000000000000       0.34375000000000000        0.0000000000000000     
  0.12500000000000000       0.37500000000000000        0.0000000000000000     
  0.15625000000000000       0.37500000000000000        0.0000000000000000     
  0.18750000000000000       0.37500000000000000        0.0000000000000000     
  0.21875000000000000       0.37500000000000000        0.0000000000000000     
  0.25000000000000000       0.37500000000000000        0.0000000000000000     
  0.25000000000000000       0.25000000000000000        0.0000000000000000     
  0.28125000000000000       0.25000000000000000        0.0000000000000000     
  0.31250000000000000       0.25000000000000000        0.0000000000000000     
  0.34375000000000000       0.25000000000000000        0.0000000000000000     
  0.37500000000000000       0.25000000000000000        0.0000000000000000     
  0.25000000000000000       0.28125000000000000        0.0000000000000000     
  0.28125000000000000       0.28125000000000000        0.0000000000000000     
  0.31250000000000000       0.28125000000000000        0.0000000000000000     
  0.34375000000000000       0.28125000000000000        0.0000000000000000     
  0.37500000000000000       0.28125000000000000        0.0000000000000000     
  0.25000000000000000       0.31250000000000000        0.0000000000000000     
  0.28125000000000000       0.31250000000000000        0.0000000000000000     
  0.31250000000000000       0.31250000000000000        0.0000000000000000     
  0.34375000000000000       0.31250000000000000        0.0000000000000000     
  0.37500000000000000       0.31250000000000000        0.0000000000000000     
  0.25000000000000000       0.34375000000000000        0.0000000000000000     
  0.28125000000000000       0.34375000000000000        0.0000000000000000     
  0.31250000000000000       0.34375000000000000        0.0000000000000000     
  0.34375000000000000       0.34375000000000000        0.0000000000000000     
  0.37500000000000000       0.34375000000000000        0.0000000000000000     
  0.25000000000000000       0.37500000000000000        0.0000000000000000     
  0.28125000000000000       0.37500000000000000        0.0000000000000000     
  0.31250000000000000       0.37500000000000000        0.0000000000000000     
  0.34375000000000000       0.37500000000000000        0.0000000000000000     
  0.37500000000000000       0.37500000000000000        0.0000000000000000     
  0.37500000000000000       0.25000000000000000        0.0000000000000000     
  0.40625000000000000       0.25000000000000000        0.0000000000000000     
  0.43750000000000000       0.25000000000000000        0.0000000000000000     
  0.46875000000000000       0.25000000000000000        0.0000000000000000     
  0.50000000000000000       0.25000000000000000        0.0000000000000000     
  0.37500000000000000       0.28125000000000000        0.0000000000000000     
  0.40625000000000000       0.28125000000000000        0.0000000000000000     
  0.43750000000000000       0.28125000000000000        0.0000000000000000     
  0.46875000000000000       0.28125000000000000        0.0000000000000000     
  0.50000000000000000       0.28125000000000000        0.0000000000000000     
  0.37500000000000000       0.31250000000000000        0.0000000000000000     
  0.40625000000000000       0.31250000000000000        0.0000000000000000     
  0.43750000000000000       0.31250000000000000        0.0000000000000000     
  0.46875000000000000       0.31250000000000000        0.0000000000000000     
  0.50000000000000000       0.31250000000000000        0.0000000000000000     
  0.37500000000000000       0.34375000000000000        0.0000000000000000     
  0.40625000000000000       0.34375000000000000        0.0000000000000000     
  0.43750000000000000       0.34375000000000000        0.0000000000000000     
  0.46875000000000000       0.34375000000000000        0.0000000000000000     
  0.50000000000000000       0.34375000000000000        0.0000000000000000     
  0.37500000000000000       0.37500000000000000        0.0000000000000000     
  0.40625000000000000       0.37500000000000000        0.0000000000000000     
  0.43750000000000000       0.37500000000000000        0.0000000000000000     
  0.46875000000000000       0.37500000000000000        0.0000000000000000     
  0.50000000000000000       0.37500000000000000        0.0000000000000000     
  0.50000000000000000       0.25000000000000000        0.0000000000000000     
  0.53125000000000000       0.25000000000000000        0.0000000000000000     
  0.56250000000000000       0.25000000000000000        0.0000000000000000     
  0.59375000000000000       0.25000000000000000        0.0000000000000000     
  0.62500000000000000       0.25000000000000000        0.0000000000000000     
  0.50000000000000000       0.28125000000000000        0.0000000000000000     
  0.53125000000000000       0.28125000000000000        0.0000000000000000     
  0.56250000000000000       0.28125000000000000        0.0000000000000000     
  0.59375000000000000       0.28125000000000000        0.0000000000000000     
  0.62500000000000000       0.28125000000000000        0.0000000000000000     
  0.50000000000000000       0.31250000000000000        0.0000000000000000     
  0.53125000000000000       0.31250000000000000        0.0000000000000000     
  0.56250000000000000       0.31250000000000000        0.0000000000000000     
  0.59375000000000000       0.31250000000000000        0.0000000000000000     
  0.62500000000000000       0.31250000000000000        0.0000000000000000     
  0.50000000000000000       0.34375000000000000        0.0000000000000000     
  0.53125000000000000       0.34375000000000000        0.0000000000000000     
  0.56250000000000000       0.34375000000000000        0.0000000000000000     
  0.59375000000000000       0.34375000000000000        0.0000000000000000     
  0.62500000000000000       0.34375000000000000        0.0000000000000000     
  0.50000000000000000       0.37500000000000000        0.0000000000000000     
  0.53125000000000000       0.37500000000000000        0.0000000000000000     
  0.56250000000000000       0.37500000000000000        0.0000000000000000     
  0.59375000000000000       0.37500000000000000        0.0000000000000000     
  0.62500000000000000       0.37500000000000000        0.0000000000000000     
  0.62500000000000000       0.25000000000000000        0.0000000000000000     
  0.65625000000000000       0.25000000000000000        0.0000000000000000     
  0.68750000000000000       0.25000000000000000        0.0000000000000000     
  0.71875000000000000       0.25000000000000000        0.0000000000000000     
  0.75000000000000000       0.25000000000000000        0.0000000000000000     
  0.62500000000000000       0.28125000000000000        0.0000000000000000     
  0.65625000000000000       0.28125000000000000        0.0000000000000000     
  0.68750000000000000       0.28125000000000000        0.0000000000000000     
  0.71875000000000000       0.28125000000000000        0.0000000000000000     
  0.75000000000000000       0.28125000000000000        0.0000000000000000     
  0.62500000000000000       0.31250000000000000        0.0000000000000000     
  0.65625000000000000       0.31250000000000000        0.0000000000000000     
  0.68750000000000000       0.31250000000000000        0.0000000000000000     
  0.71875000000000000       0.31250000000000000        0.0000000000000000     
  0.75000000000000000       0.31250000000000000        0.0000000000000000     
  0.62500000000000000       0.34375000000000000        0.0000000000000000     
  0.65625000000000000       0.34375000000000000        0.0000000000000000     
  0.68750000000000000       0.34375000000000000        0.0000000000000000     
  0.71875000000000000       0.34375000000000000        0.0000000000000000     
  0.75000000000000000       0.34375000000000000        0.0000000000000000     
  0.62500000000000000       0.37500000000000000        0.0000000000000000     
  0.65625000000000000       0.37500000000000000        0.0000000000000000     
  0.68750000000000000       0.37500000000000000        0.0000000000000000     
  0.71875000000000000       0.37500000000000000        0.0000000000000000     
  0.75000000000000000       0.37500000000000000        0.0000000000000000     
  0.75000000000000000       0.25000000000000000        0.0000000000000000     
  0.78125000000000000       0.25000000000000000        0.0000000000000000     
  0.81250000000000000       0.25000000000000000        0.0000000000000000     
  0.84375000000000000       0.25000000000000000        0.0000000000000000     
  0.87500000000000000       0.25000000000000000        0.0000000000000000     
  0.75000000000000000       0.28125000000000000        0.0000000000000000     
  0.78125000000000000       0.28125000000000000        0.0000000000000000     
  0.81250000000000000       0.28125000000000000        0.0000000000000000     
  0.84375000000000000       0.28125000000000000        0.0000000000000000     
  0.87500000000000000       0.28125000000000000        0.0000000000000000     
  0.75000000000000000       0.31250000000000000        0.0000000000000000     
  0.78125000000000000       0.31250000000000000        0.0000000000000000     
  0.81250000000000000       0.31250000000000000        0.0000000000000000     
  0.84375000000000000       0.31250000000000000        0.0000000000000000     
  0.87500000000000000       0.31250000000000000        0.0000000000000000     
  0.75000000000000000       0.34375000000000000        0.0000000000000000     
  0.78125000000000000       0.34375000000000000        0.0000000000000000     
  0.81250000000000000       0.34375000000000000        0.0000000000000000     
  0.84375000000000000       0.34375000000000000        0.0000000000000000     
  0.87500000000000000       0.34375000000000000        0.0000000000000000     
  0.75000000000000000       0.37500000000000000        0.0000000000000000     
  0.78125000000000000       0.37500000000000000        0.0000000000000000     
  0.81250000000000000       0.37500000000000000        0.0000000000000000     
  0.84375000000000000       0.37500000000000000        0.0000000000000000     
  0.87500000000000000       0.37500000000000000        0.0000000000000000     
  0.87500000000000000       0.25000000000000000        0.0000000000000000     
  0.90625000000000000       0.25000000000000000        0.0000000000000000     
  0.93750000000000000       0.25000000000000000        0.0000000000000000     
  0.96875000000000000       0.25000000000000000        0.0000000000000000     
   1.0000000000000000       0.25000000000000000        0.0000000000000000     
  0.87500000000000000       0.28125000000000000        0.0000000000000000     
  0.90625000000000000       0.28125000000000000        0.0000000000000000     
  0.93750000000000000       0.28125000000000000        0.0000000000000000     
  0.96875000000000000       0.28125000000000000        0.0000000000000000     
   1.0000000000000000       0.28125000000000000        0.0000000000000000     
  0.87500000000000000       0.31250000000000000        0.0000000000000000     
  0.90625000000000000       0.31250000000000000        0.0000000000000000     
  0.93750000000000000       0.31250000000000000        0.0000000000000000     
  0.96875000000000000       0.31250000000000000        0.0000000000000000     
   1.0000000000000000       0.31250000000000000        0.0000000000000000     
  0.87500000000000000       0.34375000000000000        0.0000000000000000     
  0.90625000000000000       0.34375000000000000        0.0000000000000000     
  0.93750000000000000       0.34375000000000000        0.0000000000000000     
  0.96875000000000000       0.34375000000000000        0.0000000000000000     
   1.0000000000000000       0.34375000000000000        0.0000000000000000     
  0.87500000000000000       0.37500000000000000        0.0000000000000000     
  0.90625000000000000       0.37500000000000000        0.0000000000000000     
  0.93750000000000000       0.37500000000000000        0.0000000000000000     
  0.96875000000000000       0.37500000000000000        0.0000000000000000     
   1.0000000000000000       0.37500000000000000        0.0000000000000000     
   0.0000000000000000       0.37500000000000000        0.0000000000000000     
   3.1250000000000000E-002  0.37500000000000000        0.0000000000000000     
   6.2500000000000000E-002  0.37500000000000000        0.0000000000000000     
   9.3750000000000000E-002  0.37500000000000000        0.0000000000000000     
  0.12500000000000000       0.37500000000000000        0.0000000000000000     
   0.0000000000000000       0.40625000000000000        0.0000000000000000     
   3.1250000000000000E-002  0.40625000000000000        0.0000000000000000     
   6.2500000000000000E-002  0.40625000000000000        0.0000000000000000     
   9.3750000000000000E-002  0.40625000000000000        0.0000000000000000     
  0.12500000000000000       0.40625000000000000        0.0000000000000000     
   0.0000000000000000       0.43750000000000000        0.0000000000000000     
   3.1250000000000000E-002  0.43750000000000000        0.0000000000000000     
   6.2500000000000000E-002  0.43750000000000000        0.0000000000000000     
   9.3750000000000000E-002  0.43750000000000000        0.0000000000000000     
  0.12500000000000000       0.43750000000000000        0.0000000000000000     
   0.0000000000000000       0.46875000000000000        0.0000000000000000     
   3.1250000000000000E-002  0.46875000000000000        0.0000000000000000     
   6.2500000000000000E-002  0.46875000000000000        0.0000000000000000     
   9.3750000000000000E-002  0.46875000000000000        0.0000000000000000     
  0.12500000000000000       0.46875000000000000        0.0000000000000000     
   0.0000000000000000       0.50000000000000000        0.0000000000000000     
   3.1250000000000000E-002  0.50000000000000000        0.0000000000000000     
   6.2500000000000000E-002  0.50000000000000000        0.0000000000000000     
   9.3750000000000000E-002  0.50000000000000000        0.0000000000000000     
  0.12500000000000000       0.50000000000000000        0.0000000000000000     
  0.12500000000000000       0.37500000000000000        0.0000000000000000     
  0.15625000000000000       0.37500000000000000        0.0000000000000000     
  0.18750000000000000       0.37500000000000000        0.0000000000000000     
  0.21875000000000000       0.37500000000000000        0.0000000000000000     
  0.25000000000000000       0.37500000000000000        0.0000000000000000     
  0.12500000000000000       0.40625000000000000        0.0000000000000000     
  0.15625000000000000       0.40625000000000000        0.0000000000000000     
  0.18750000000000000       0.40625000000000000        0.0000000000000000     
  0.21875000000000000       0.40625000000000000        0.0000000000000000     
  0.25000000000000000       0.40625000000000000        0.0000000000000000     
  0.12500000000000000       0.43750000000000000        0.0000000000000000     
  0.15625000000000000       0.43750000000000000        0.0000000000000000     
  0.18750000000000000       0.43750000000000000        0.0000000000000000     
  0.21875000000000000       0.43750000000000000        0.0000000000000000     
  0.25000000000000000       0.43750000000000000        0.0000000000000000     
  0.12500000000000000       0.46875000000000000        0.0000000000000000     
  0.15625000000000000       0.46875000000000000        0.0000000000000000     
  0.18750000000000000       0.46875000000000000        0.0000000000000000     
  0.21875000000000000       0.46875000000000000        0.0000000000000000     
  0.25000000000000000       0.46875000000000000        0.0000000000000000     
  0.12500000000000000       0.50000000000000000        0.0000000000000000     
  0.15625000000000000       0.50000000000000000        0.0000000000000000     
  0.18750000000000000       0.50000000000000000        0.0000000000000000     
  0.21875000000000000       0.50000000000000000        0.0000000000000000     
  0.25000000000000000       0.50000000000000000        0.0000000000000000     
  0.25000000000000000       0.37500000000000000        0.0000000000000000     
  0.28125000000000000       0.37500000000000000        0.0000000000000000     
  0.31250000000000000       0.37500000000000000        0.0000000000000000     
  0.34375000000000000       0.37500000000000000        0.0000000000000000     
  0.37500000000000000       0.37500000000000000        0.0000000000000000     
  0.25000000000000000       0.40625000000000000        0.0000000000000000     
  0.28125000000000000       0.40625000000000000        0.0000000000000000     
  0.31250000000000000       0.40625000000000000        0.0000000000000000     
  0.34375000000000000       0.40625000000000000        0.0000000000000000     
  0.37500000000000000       0.40625000000000000        0.0000000000000000     
  0.25000000000000000       0.43750000000000000        0.0000000000000000     
  0.28125000000000000       0.43750000000000000        0.0000000000000000     
  0.31250000000000000       0.43750000000000000        0.0000000000000000     
  0.34375000000000000       0.43750000000000000        0.0000000000000000     
  0.37500000000000000       0.43750000000000000        0.0000000000000000     
  0.25000000000000000       0.46875000000000000        0.0000000000000000     
  0.28125000000000000       0.46875000000000000        0.0000000000000000     
  0.31250000000000000       0.46875000000000000        0.0000000000000000     
  0.34375000000000000       0.46875000000000000        0.0000000000000000     
  0.37500000000000000       0.46875000000000000        0.0000000000000000     
  0.25000000000000000       0.50000000000000000        0.0000000000000000     
  0.28125000000000000       0.50000000000000000        0.0000000000000000     
  0.31250000000000000       0.50000000000000000        0.0000000000000000     
  0.34375000000000000       0.50000000000000000        0.0000000000000000     
  0.37500000000000000       0.50000000000000000        0.0000000000000000     
  0.37500000000000000       0.37500000000000000        0.0000000000000000     
  0.40625000000000000       0.37500000000000000        0.0000000000000000     
  0.43750000000000000       0.37500000000000000        0.0000000000000000     
  0.46875000000000000       0.37500000000000000        0.0000000000000000     
  0.50000000000000000       0.37500000000000000        0.0000000000000000     
  0.37500000000000000       0.40625000000000000        0.0000000000000000     
  0.40625000000000000       0.40625000000000000        0.0000000000000000     
  0.43750000000000000       0.40625000000000000        0.0000000000000000     
  0.46875000000000000       0.40625000000000000        0.0000000000000000     
  0.50000000000000000       0.40625000000000000        0.0000000000000000     
  0.37500000000000000       0.43750000000000000        0.0000000000000000     
  0.40625000000000000       0.43750000000000000        0.0000000000000000     
  0.43750000000000000       0.43750000000000000        0.0000000000000000     
  0.46875000000000000       0.43750000000000000        0.0000000000000000     
  0.50000000000000000       0.43750000000000000        0.0000000000000000     
  0.37500000000000000       0.46875000000000000        0.0000000000000000     
  0.40625000000000000       0.46875000000000000        0.0000000000000000     
  0.43750000000000000       0.46875000000000000        0.0000000000000000     
  0.46875000000000000       0.46875000000000000        0.0000000000000000     
  0.50000000000000000       0.46875000000000000        0.0000000000000000     
  0.37500000000000000       0.50000000000000000        0.0000000000000000     
  0.40625000000000000       0.50000000000000000        0.0000000000000000     
  0.43750000000000000       0.50000000000000000        0.0000000000000000     
  0.46875000000000000       0.50000000000000000        0.0000000000000000     
  0.50000000000000000       0.50000000000000000        0.0000000000000000     
  0.50000000000000000       0.37500000000000000        0.0000000000000000     
  0.53125000000000000       0.37500000000000000        0.0000000000000000     
  0.56250000000000000       0.37500000000000000        0.0000000000000000     
  0.59375000000000000       0.37500000000000000        0.0000000000000000     
  0.62500000000000000       0.37500000000000000        0.0000000000000000     
  0.50000000000000000       0.40625000000000000        0.0000000000000000     
  0.53125000000000000       0.40625000000000000        0.0000000000000000     
  0.56250000000000000       0.40625000000000000        0.0000000000000000     
  0.59375000000000000       0.40625000000000000        0.0000000000000000     
  0.62500000000000000       0.40625000000000000        0.0000000000000000     
  0.50000000000000000       0.43750000000000000        0.0000000000000000     
  0.53125000000000000       0.43750000000000000        0.0000000000000000     
  0.56250000000000000       0.43750000000000000        0.0000000000000000     
  0.59375000000000000       0.43750000000000000        0.0000000000000000     
  0.62500000000000000       0.43750000000000000        0.0000000000000000     
  0.50000000000000000       0.46875000000000000        0.0000000000000000     
  0.53125000000000000       0.46875000000000000        0.0000000000000000     
  0.56250000000000000       0.46875000000000000        0.0000000000000000     
  0.59375000000000000       0.46875000000000000        0.0000000000000000     
  0.62500000000000000       0.46875000000000000        0.0000000000000000     
  0.50000000000000000       0.50000000000000000        0.0000000000000000     
  0.53125000000000000       0.50000000000000000        0.0000000000000000     
  0.56250000000000000       0.50000000000000000        0.0000000000000000     
  0.59375000000000000       0.50000000000000000        0.0000000000000000     
  0.62500000000000000       0.50000000000000000        0.0000000000000000     
  0.62500000000000000       0.37500000000000000        0.0000000000000000     
  0.65625000000000000       0.37500000000000000        0.0000000000000000     
  0.68750000000000000       0.37500000000000000        0.0000000000000000     
  0.71875000000000000       0.37500000000000000        0.0000000000000000     
  0.75000000000000000       0.37500000000000000        0.0000000000000000     
  0.62500000000000000       0.40625000000000000        0.0000000000000000     
  0.65625000000000000       0.40625000000000000        0.0000000000000000     
  0.68750000000000000       0.40625000000000000        0.0000000000000000     
  0.71875000000000000       0.40625000000000000        0.0000000000000000     
  0.75000000000000000       0.40625000000000000        0.0000000000000000     
  0.62500000000000000       0.43750000000000000        0.0000000000000000     
  0.65625000000000000       0.43750000000000000        0.0000000000000000     
  0.68750000000000000       0.43750000000000000        0.0000000000000000     
  0.71875000000000000       0.43750000000000000        0.0000000000000000     
  0.75000000000000000       0.43750000000000000        0.0000000000000000     
  0.62500000000000000       0.46875000000000000        0.0000000000000000     
  0.65625000000000000       0.46875000000000000        0.0000000000000000     
  0.68750000000000000       0.46875000000000000        0.0000000000000000     
  0.71875000000000000       0.46875000000000000        0.0000000000000000     
  0.75000000000000000       0.46875000000000000        0.0000000000000000     
  0.62500000000000000       0.50000000000000000        0.0000000000000000     
  0.65625000000000000       0.50000000000000000        0.0000000000000000     
  0.68750000000000000       0.50000000000000000        0.0000000000000000     
  0.71875000000000000       0.50000000000000000        0.0000000000000000     
  0.75000000000000000       0.50000000000000000        0.0000000000000000     
  0.75000000000000000       0.37500000000000000        0.0000000000000000     
  0.78125000000000000       0.37500000000000000        0.0000000000000000     
  0.81250000000000000       0.37500000000000000        0.0000000000000000     
  0.84375000000000000       0.37500000000000000        0.0000000000000000     
  0.87500000000000000       0.37500000000000000        0.0000000000000000     
  0.75000000000000000       0.40625000000000000        0.0000000000000000     
  0.78125000000000000       0.40625000000000000        0.0000000000000000     
  0.81250000000000000       0.40625000000000000        0.0000000000000000     
  0.84375000000000000       0.40625000000000000        0.0000000000000000     
  0.87500000000000000       0.40625000000000000        0.0000000000000000     
  0.75000000000000000       0.43750000000000000        0.0000000000000000     
  0.78125000000000000       0.43750000000000000        0.0000000000000000     
  0.81250000000000000       0.43750000000000000        0.0000000000000000     
  0.84375000000000000       0.43750000000000000        0.0000000000000000     
  0.87500000000000000       0.43750000000000000        0.0000000000000000     
  0.75000000000000000       0.46875000000000000        0.0000000000000000     
  0.78125000000000000       0.46875000000000000        0.0000000000000000     
  0.81250000000000000       0.46875000000000000        0.0000000000000000     
  0.84375000000000000       0.46875000000000000        0.0000000000000000     
  0.87500000000000000       0.46875000000000000        0.0000000000000000     
  0.75000000000000000       0.50000000000000000        0.0000000000000000     
  0.78125000000000000       0.50000000000000000        0.0000000000000000     
  0.81250000000000000       0.50000000000000000        0.0000000000000000     
  0.84375000000000000       0.50000000000000000        0.0000000000000000     
  0.87500000000000000       0.50000000000000000        0.0000000000000000     
  0.87500000000000000       0.37500000000000000        0.0000000000000000     
  0.90625000000000000       0.37500000000000000        0.0000000000000000     
  0.93750000000000000       0.37500000000000000        0.0000000000000000     
  0.96875000000000000       0.37500000000000000        0.0000000000000000     
   1.0000000000000000       0.37500000000000000        0.0000000000000000     
  0.87500000000000000       0.40625000000000000        0.0000000000000000     
  0.90625000000000000       0.40625000000000000        0.0000000000000000     
  0.93750000000000000       0.40625000000000000        0.0000000000000000     
  0.96875000000000000       0.40625000000000000        0.0000000000000000     
   1.0000000000000000       0.40625000000000000        0.0000000000000000     
  0.87500000000000000       0.43750000000000000        0.0000000000000000     
  0.90625000000000000       0.43750000000000000        0.0000000000000000     
  0.93750000000000000       0.43750000000000000        0.0000000000000000     
  0.96875000000000000       0.43750000000000000        0.0000000000000000     
   1.0000000000000000       0.43750000000000000        0.0000000000000000     
  0.87500000000000000       0.46875000000000000        0.0000000000000000     
  0.90625000000000000       0.46875000000000000        0.0000000000000000     
  0.93750000000000000       0.46875000000000000        0.0000000000000000     
  0.96875000000000000       0.46875000000000000        0.0000000000000000     
   1.0000000000000000       0.46875000000000000        0.0000000000000000     
  0.87500000000000000       0.50000000000000000        0.0000000000000000     
  0.90625000000000000       0.50000000000000000        0.0000000000000000     
  0.93750000000000000       0.50000000000000000        0.0000000000000000     
  0.96875000000000000       0.50000000000000000        0.0000000000000000     
   1.0000000000000000       0.50000000000000000        0.0000000000000000     
   0.0000000000000000       0.50000000000000000        0.0000000000000000     
   3.1250000000000000E-002  0.50000000000000000        0.0000000000000000     
   6.2500000000000000E-002  0.50000000000000000        0.0000000000000000     
   9.3750000000000000E-002  0.50000000000000000        0.0000000000000000     
  0.12500000000000000       0.50000000000000000        0.0000000000000000     
   0.0000000000000000       0.53125000000000000        0.0000000000000000     
   3.1250000000000000E-002  0.53125000000000000        0.0000000000000000     
   6.2500000000000000E-002  0.53125000000000000        0.0000000000000000     
   9.3750000000000000E-002  0.53125000000000000        0.0000000000000000     
  0.12500000000000000       0.53125000000000000        0.0000000000000000     
   0.0000000000000000       0.56250000000000000        0.0000000000000000     
   3.1250000000000000E-002  0.56250000000000000        0.0000000000000000     
   6.2500000000000000E-002  0.56250000000000000        0.0000000000000000     
   9.3750000000000000E-002  0.56250000000000000        0.0000000000000000     
  0.12500000000000000       0.56250000000000000        0.0000000000000000     
   0.0000000000000000       0.59375000000000000        0.0000000000000000     
   3.1250000000000000E-002  0.59375000000000000        0.0000000000000000     
   6.2500000000000000E-002  0.59375000000000000        0.0000000000000000     
   9.3750000000000000E-002  0.59375000000000000        0.0000000000000000     
  0.12500000000000000       0.59375000000000000        0.0000000000000000     
   0.0000000000000000       0.62500000000000000        0.0000000000000000     
   3.1250000000000000E-002  0.62500000000000000        0.0000000000000000     
   6.2500000000000000E-002  0.62500000000000000        0.0000000000000000     
   9.3750000000000000E-002  0.62500000000000000        0.0000000000000000     
  0.12500000000000000       0.62500000000000000        0.0000000000000000     
  0.12500000000000000       0.50000000000000000        0.0000000000000000     
  0.15625000000000000       0.50000000000000000        0.0000000000000000     
  0.18750000000000000       0.50000000000000000        0.0000000000000000     
  0.21875000000000000       0.50000000000000000        0.0000000000000000     
  0.25000000000000000       0.50000000000000000        0.0000000000000000     
  0.12500000000000000       0.53125000000000000        0.0000000000000000     
  0.15625000000000000       0.53125000000000000        0.0000000000000000     
  0.18750000000000000       0.53125000000000000        0.0000000000000000     
  0.21875000000000000       0.53125000000000000        0.0000000000000000     
  0.25000000000000000       0.53125000000000000        0.0000000000000000     
  0.12500000000000000       0.56250000000000000        0.0000000000000000     
  0.15625000000000000       0.56250000000000000        0.0000000000000000     
  0.18750000000000000       0.56250000000000000        0.0000000000000000     
  0.21875000000000000       0.56250000000000000        0.0000000000000000     
  0.25000000000000000       0.56250000000000000        0.0000000000000000     
  0.12500000000000000       0.59375000000000000        0.0000000000000000     
  0.15625000000000000       0.59375000000000000        0.0000000000000000     
  0.18750000000000000       0.59375000000000000        0.0000000000000000     
  0.21875000000000000       0.59375000000000000        0.0000000000000000     
  0.25000000000000000       0.59375000000000000        0.0000000000000000     
  0.12500000000000000       0.62500000000000000        0.0000000000000000     
  0.15625000000000000       0.62500000000000000        0.0000000000000000     
  0.18750000000000000       0.62500000000000000        0.0000000000000000     
  0.21875000000000000       0.62500000000000000        0.0000000000000000     
  0.25000000000000000       0.62500000000000000        0.0000000000000000     
  0.25000000000000000       0.50000000000000000        0.0000000000000000     
  0.28125000000000000       0.50000000000000000        0.0000000000000000     
  0.31250000000000000       0.50000000000000000        0.0000000000000000     
  0.34375000000000000       0.50000000000000000        0.0000000000000000     
  0.37500000000000000       0.50000000000000000        0.0000000000000000     
  0.25000000000000000       0.53125000000000000        0.0000000000000000     
  0.28125000000000000       0.53125000000000000        0.0000000000000000     
  0.31250000000000000       0.53125000000000000        0.0000000000000000     
  0.34375000000000000       0.53125000000000000        0.0000000000000000     
  0.37500000000000000       0.53125000000000000        0.0000000000000000     
  0.25000000000000000       0.56250000000000000        0.0000000000000000     
  0.28125000000000000       0.56250000000000000        0.0000000000000000     
  0.31250000000000000       0.56250000000000000        0.0000000000000000     
  0.34375000000000000       0.56250000000000000        0.0000000000000000     
  0.37500000000000000       0.56250000000000000        0.0000000000000000     
  0.25000000000000000       0.59375000000000000        0.0000000000000000     
  0.28125000000000000       0.59375000000000000        0.0000000000000000     
  0.31250000000000000       0.59375000000000000        0.0000000000000000     
  0.34375000000000000       0.59375000000000000        0.0000000000000000     
  0.37500000000000000       0.59375000000000000        0.0000000000000000     
  0.25000000000000000       0.62500000000000000        0.0000000000000000     
  0.28125000000000000       0.62500000000000000        0.0000000000000000     
  0.31250000000000000       0.62500000000000000        0.0000000000000000     
  0.34375000000000000       0.62500000000000000        0.0000000000000000     
  0.37500000000000000       0.62500000000000000        0.0000000000000000     
  0.37500000000000000       0.50000000000000000        0.0000000000000000     
  0.40625000000000000       0.50000000000000000        0.0000000000000000     
  0.43750000000000000       0.50000000000000000        0.0000000000000000     
  0.46875000000000000       0.50000000000000000        0.0000000000000000     
  0.50000000000000000       0.50000000000000000        0.0000000000000000     
  0.37500000000000000       0.53125000000000000        0.0000000000000000     
  0.40625000000000000       0.53125000000000000        0.0000000000000000     
  0.43750000000000000       0.53125000000000000        0.0000000000000000     
  0.46875000000000000       0.53125000000000000        0.0000000000000000     
  0.50000000000000000       0.53125000000000000        0.0000000000000000     
  0.37500000000000000       0.56250000000000000        0.0000000000000000     
  0.40625000000000000       0.56250000000000000        0.0000000000000000     
  0.43750000000000000       0.56250000000000000        0.0000000000000000     
  0.46875000000000000       0.56250000000000000        0.0000000000000000     
  0.50000000000000000       0.56250000000000000        0.0000000000000000     
  0.37500000000000000       0.59375000000000000        0.0000000000000000     
  0.40625000000000000       0.59375000000000000        0.0000000000000000     
  0.43750000000000000       0.59375000000000000        0.0000000000000000     
  0.46875000000000000       0.59375000000000000        0.0000000000000000     
  0.50000000000000000       0.59375000000000000        0.0000000000000000     
  0.37500000000000000       0.62500000000000000        0.0000000000000000     
  0.40625000000000000       0.62500000000000000        0.0000000000000000     
  0.43750000000000000       0.62500000000000000        0.0000000000000000     
  0.46875000000000000       0.62500000000000000        0.0000000000000000     
  0.50000000000000000       0.62500000000000000        0.0000000000000000     
  0.50000000000000000       0.50000000000000000        0.0000000000000000     
  0.53125000000000000       0.50000000000000000        0.0000000000000000     
  0.56250000000000000       0.50000000000000000        0.0000000000000000     
  0.59375000000000000       0.50000000000000000        0.0000000000000000     
  0.62500000000000000       0.50000000000000000        0.0000000000000000     
  0.50000000000000000       0.53125000000000000        0.0000000000000000     
  0.53125000000000000       0.53125000000000000        0.0000000000000000     
  0.56250000000000000       0.53125000000000000        0.0000000000000000     
  0.59375000000000000       0.53125000000000000        0.0000000000000000     
  0.62500000000000000       0.53125000000000000        0.0000000000000000     
  0.50000000000000000       0.56250000000000000        0.0000000000000000     
  0.53125000000000000       0.56250000000000000        0.0000000000000000     
  0.56250000000000000       0.56250000000000000        0.0000000000000000     
  0.59375000000000000       0.56250000000000000        0.0000000000000000     
  0.62500000000000000       0.56250000000000000        0.0000000000000000     
  0.50000000000000000       0.59375000000000000        0.0000000000000000     
  0.53125000000000000       0.59375000000000000        0.0000000000000000     
  0.56250000000000000       0.59375000000000000        0.0000000000000000     
  0.59375000000000000       0.59375000000000000        0.0000000000000000     
  0.62500000000000000       0.59375000000000000        0.0000000000000000     
  0.50000000000000000       0.62500000000000000        0.0000000000000000     
  0.53125000000000000       0.62500000000000000        0.0000000000000000     
  0.56250000000000000       0.62500000000000000        0.0000000000000000     
  0.59375000000000000       0.62500000000000000        0.0000000000000000     
  0.62500000000000000       0.62500000000000000        0.0000000000000000     
  0.62500000000000000       0.50000000000000000        0.0000000000000000     
  0.65625000000000000       0.50000000000000000        0.0000000000000000     
  0.68750000000000000       0.50000000000000000        0.0000000000000000     
  0.71875000000000000       0.50000000000000000        0.0000000000000000     
  0.75000000000000000       0.50000000000000000        0.0000000000000000     
  0.62500000000000000       0.53125000000000000        0.0000000000000000     
  0.65625000000000000       0.53125000000000000        0.0000000000000000     
  0.68750000000000000       0.53125000000000000        0.0000000000000000     
  0.71875000000000000       0.53125000000000000        0.0000000000000000     
  0.75000000000000000       0.53125000000000000        0.0000000000000000     
  0.62500000000000000       0.56250000000000000        0.0000000000000000     
  0.65625000000000000       0.56250000000000000        0.0000000000000000     
  0.68750000000000000       0.56250000000000000        0.0000000000000000     
  0.71875000000000000       0.56250000000000000        0.0000000000000000     
  0.75000000000000000       0.56250000000000000        0.0000000000000000     
  0.62500000000000000       0.59375000000000000        0.0000000000000000     
  0.65625000000000000       0.59375000000000000        0.0000000000000000     
  0.68750000000000000       0.59375000000000000        0.0000000000000000     
  0.71875000000000000       0.59375000000000000        0.0000000000000000     
  0.75000000000000000       0.59375000000000000        0.0000000000000000     
  0.62500000000000000       0.62500000000000000        0.0000000000000000     
  0.65625000000000000       0.62500000000000000        0.0000000000000000     
  0.68750000000000000       0.62500000000000000        0.0000000000000000     
  0.71875000000000000       0.62500000000000000        0.0000000000000000     
  0.75000000000000000       0.62500000000000000        0.0000000000000000     
  0.75000000000000000       0.50000000000000000        0.0000000000000000     
  0.78125000000000000       0.50000000000000000        0.0000000000000000     
  0.81250000000000000       0.50000000000000000        0.0000000000000000     
  0.84375000000000000       0.50000000000000000        0.0000000000000000     
  0.87500000000000000       0.50000000000000000        0.0000000000000000     
  0.75000000000000000       0.53125000000000000        0.0000000000000000     
  0.78125000000000000       0.53125000000000000        0.0000000000000000     
  0.81250000000000000       0.53125000000000000        0.0000000000000000     
  0.84375000000000000       0.53125000000000000        0.0000000000000000     
  0.87500000000000000       0.53125000000000000        0.0000000000000000     
  0.75000000000000000       0.56250000000000000        0.0000000000000000     
  0.78125000000000000       0.56250000000000000        0.0000000000000000     
  0.81250000000000000       0.56250000000000000        0.0000000000000000     
  0.84375000000000000       0.56250000000000000        0.0000000000000000     
  0.87500000000000000       0.56250000000000000        0.0000000000000000     
  0.75000000000000000       0.59375000000000000        0.0000000000000000     
  0.78125000000000000       0.59375000000000000        0.0000000000000000     
  0.81250000000000000       0.59375000000000000        0.0000000000000000     
  0.84375000000000000       0.59375000000000000        0.0000000000000000     
  0.87500000000000000       0.59375000000000000        0.0000000000000000     
  0.75000000000000000       0.62500000000000000        0.0000000000000000     
  0.78125000000000000       0.62500000000000000        0.0000000000000000     
  0.81250000000000000       0.62500000000000000        0.0000000000000000     
  0.84375000000000000       0.62500000000000000        0.0000000000000000     
  0.87500000000000000       0.62500000000000000        0.0000000000000000     
  0.87500000000000000       0.50000000000000000        0.0000000000000000     
  0.90625000000000000       0.50000000000000000        0.0000000000000000     
  0.93750000000000000       0.50000000000000000        0.0000000000000000     
  0.96875000000000000       0.50000000000000000        0.0000000000000000     
   1.0000000000000000       0.50000000000000000        0.0000000000000000     
  0.87500000000000000       0.53125000000000000        0.0000000000000000     
  0.90625000000000000       0.53125000000000000        0.0000000000000000     
  0.93750000000000000       0.53125000000000000        0.0000000000000000     
  0.96875000000000000       0.53125000000000000        0.0000000000000000     
   1.0000000000000000       0.53125000000000000        0.0000000000000000     
  0.87500000000000000       0.56250000000000000        0.0000000000000000     
  0.90625000000000000       0.56250000000000000        0.0000000000000000     
  0.93750000000000000       0.56250000000000000        0.0000000000000000     
  0.96875000000000000       0.56250000000000000        0.0000000000000000     
   1.0000000000000000       0.56250000000000000        0.0000000000000000     
  0.87500000000000000       0.59375000000000000        0.0000000000000000     
  0.90625000000000000       0.59375000000000000        0.0000000000000000     
  0.93750000000000000       0.59375000000000000        0.0000000000000000     
  0.96875000000000000       0.59375000000000000        0.0000000000000000     
   1.0000000000000000       0.59375000000000000        0.0000000000000000     
  0.87500000000000000       0.62500000000000000        0.0000000000000000     
  0.90625000000000000       0.62500000000000000        0.0000000000000000     
  0.93750000000000000       0.62500000000000000        0.0000000000000000     
  0.96875000000000000       0.62500000000000000        0.0000000000000000     
   1.0000000000000000       0.62500000000000000        0.0000000000000000     
   0.0000000000000000       0.62500000000000000        0.0000000000000000     
   3.1250000000000000E-002  0.62500000000000000        0.0000000000000000     
   6.2500000000000000E-002  0.62500000000000000        0.0000000000000000     
   9.3750000000000000E-002  0.62500000000000000        0.0000000000000000     
  0.12500000000000000       0.62500000000000000        0.0000000000000000     
   0.0000000000000000       0.65625000000000000        0.0000000000000000     
   3.1250000000000000E-002  0.65625000000000000        0.0000000000000000     
   6.2500000000000000E-002  0.65625000000000000        0.0000000000000000     
   9.3750000000000000E-002  0.65625000000000000        0.0000000000000000     
  0.12500000000000000       0.65625000000000000        0.0000000000000000     
   0.0000000000000000       0.68750000000000000        0.0000000000000000     
   3.1250000000000000E-002  0.68750000000000000        0.0000000000000000     
   6.2500000000000000E-002  0.68750000000000000        0.0000000000000000     
   9.3750000000000000E-002  0.68750000000000000        0.0000000000000000     
  0.12500000000000000       0.68750000000000000        0.0000000000000000     
   0.0000000000000000       0.71875000000000000        0.0000000000000000     
   3.1250000000000000E-002  0.71875000000000000        0.0000000000000000     
   6.2500000000000000E-002  0.71875000000000000        0.0000000000000000     
   9.3750000000000000E-002  0.71875000000000000        0.0000000000000000     
  0.12500000000000000       0.71875000000000000        0.0000000000000000     
   0.0000000000000000       0.75000000000000000        0.0000000000000000     
   3.1250000000000000E-002  0.75000000000000000        0.0000000000000000     
   6.2500000000000000E-002  0.75000000000000000        0.0000000000000000     
   9.3750000000000000E-002  0.75000000000000000        0.0000000000000000     
  0.12500000000000000       0.75000000000000000        0.0000000000000000     
  0.12500000000000000       0.62500000000000000        0.0000000000000000     
  0.15625000000000000       0.62500000000000000        0.0000000000000000     
  0.18750000000000000       0.62500000000000000        0.0000000000000000     
  0.21875000000000000       0.62500000000000000        0.0000000000000000     
  0.25000000000000000       0.62500000000000000        0.0000000000000000     
  0.12500000000000000       0.65625000000000000        0.0000000000000000     
  0.15625000000000000       0.65625000000000000        0.0000000000000000     
  0.18750000000000000       0.65625000000000000        0.0000000000000000     
  0.21875000000000000       0.65625000000000000        0.0000000000000000     
  0.25000000000000000       0.65625000000000000        0.0000000000000000     
  0.12500000000000000       0.68750000000000000        0.0000000000000000     
  0.15625000000000000       0.68750000000000000        0.0000000000000000     
  0.18750000000000000       0.68750000000000000        0.0000000000000000     
  0.21875000000000000       0.68750000000000000        0.0000000000000000     
  0.25000000000000000       0.68750000000000000        0.0000000000000000     
  0.12500000000000000       0.71875000000000000        0.0000000000000000     
  0.15625000000000000       0.71875000000000000        0.0000000000000000     
  0.18750000000000000       0.71875000000000000        0.0000000000000000     
  0.21875000000000000       0.71875000000000000        0.0000000000000000     
  0.25000000000000000       0.71875000000000000        0.0000000000000000     
  0.12500000000000000       0.75000000000000000        0.0000000000000000     
  0.15625000000000000       0.75000000000000000        0.0000000000000000     
  0.18750000000000000       0.75000000000000000        0.0000000000000000     
  0.21875000000000000       0.75000000000000000        0.0000000000000000     
  0.25000000000000000       0.75000000000000000        0.0000000000000000     
  0.25000000000000000       0.62500000000000000        0.0000000000000000     
  0.28125000000000000       0.62500000000000000        0.0000000000000000     
  0.31250000000000000       0.62500000000000000        0.0000000000000000     
  0.34375000000000000       0.62500000000000000        0.0000000000000000     
  0.37500000000000000       0.62500000000000000        0.0000000000000000     
  0.25000000000000000       0.65625000000000000        0.0000000000000000     
  0.28125000000000000       0.65625000000000000        0.0000000000000000     
  0.31250000000000000       0.65625000000000000        0.0000000000000000     
  0.34375000000000000       0.65625000000000000        0.0000000000000000     
  0.37500000000000000       0.65625000000000000        0.0000000000000000     
  0.25000000000000000       0.68750000000000000        0.0000000000000000     
  0.28125000000000000       0.68750000000000000        0.0000000000000000     
  0.31250000000000000       0.68750000000000000        0.0000000000000000     
  0.34375000000000000       0.68750000000000000        0.0000000000000000     
  0.37500000000000000       0.68750000000000000        0.0000000000000000     
  0.25000000000000000       0.71875000000000000        0.0000000000000000     
  0.28125000000000000       0.71875000000000000        0.0000000000000000     
  0.31250000000000000       0.71875000000000000        0.0000000000000000     
  0.34375000000000000       0.71875000000000000        0.0000000000000000     
  0.37500000000000000       0.71875000000000000        0.0000000000000000     
  0.25000000000000000       0.75000000000000000        0.0000000000000000     
  0.28125000000000000       0.75000000000000000        0.0000000000000000     
  0.31250000000000000       0.75000000000000000        0.0000000000000000     
  0.34375000000000000       0.75000000000000000        0.0000000000000000     
  0.37500000000000000       0.75000000000000000        0.0000000000000000     
  0.37500000000000000       0.62500000000000000        0.0000000000000000     
  0.40625000000000000       0.62500000000000000        0.0000000000000000     
  0.43750000000000000       0.62500000000000000        0.0000000000000000     
  0.46875000000000000       0.62500000000000000        0.0000000000000000     
  0.50000000000000000       0.62500000000000000        0.0000000000000000     
  0.37500000000000000       0.65625000000000000        0.0000000000000000     
  0.40625000000000000       0.65625000000000000        0.0000000000000000     
  0.43750000000000000       0.65625000000000000        0.0000000000000000     
  0.46875000000000000       0.65625000000000000        0.0000000000000000     
  0.50000000000000000       0.65625000000000000        0.0000000000000000     
  0.37500000000000000       0.68750000000000000        0.0000000000000000     
  0.40625000000000000       0.68750000000000000        0.0000000000000000     
  0.43750000000000000       0.68750000000000000        0.0000000000000000     
  0.46875000000000000       0.68750000000000000        0.0000000000000000     
  0.50000000000000000       0.68750000000000000        0.0000000000000000     
  0.37500000000000000       0.71875000000000000        0.0000000000000000     
  0.40625000000000000       0.71875000000000000        0.0000000000000000     
  0.43750000000000000       0.71875000000000000        0.0000000000000000     
  0.46875000000000000       0.71875000000000000        0.0000000000000000     
  0.50000000000000000       0.71875000000000000        0.0000000000000000     
  0.37500000000000000       0.75000000000000000        0.0000000000000000     
  0.40625000000000000       0.75000000000000000        0.0000000000000000     
  0.43750000000000000       0.75000000000000000        0.0000000000000000     
  0.46875000000000000       0.75000000000000000        0.0000000000000000     
  0.50000000000000000       0.75000000000000000        0.0000000000000000     
  0.50000000000000000       0.62500000000000000        0.0000000000000000     
  0.53125000000000000       0.62500000000000000        0.0000000000000000     
  0.56250000000000000       0.62500000000000000        0.0000000000000000     
  0.59375000000000000       0.62500000000000000        0.0000000000000000     
  0.62500000000000000       0.62500000000000000        0.0000000000000000     
  0.50000000000000000       0.65625000000000000        0.0000000000000000     
  0.53125000000000000       0.65625000000000000        0.0000000000000000     
  0.56250000000000000       0.65625000000000000        0.0000000000000000     
  0.59375000000000000       0.65625000000000000        0.0000000000000000     
  0.62500000000000000       0.65625000000000000        0.0000000000000000     
  0.50000000000000000       0.68750000000000000        0.0000000000000000     
  0.53125000000000000       0.68750000000000000        0.0000000000000000     
  0.56250000000000000       0.68750000000000000        0.0000000000000000     
  0.59375000000000000       0.68750000000000000        0.0000000000000000     
  0.62500000000000000       0.68750000000000000        0.0000000000000000     
  0.50000000000000000       0.71875000000000000        0.0000000000000000     
  0.53125000000000000       0.71875000000000000        0.0000000000000000     
  0.56250000000000000       0.71875000000000000        0.0000000000000000     
  0.59375000000000000       0.71875000000000000        0.0000000000000000     
  0.62500000000000000       0.71875000000000000        0.0000000000000000     
  0.50000000000000000       0.75000000000000000        0.0000000000000000     
  0.53125000000000000       0.75000000000000000        0.0000000000000000     
  0.56250000000000000       0.75000000000000000        0.0000000000000000     
  0.59375000000000000       0.75000000000000000        0.0000000000000000     
  0.62500000000000000       0.75000000000000000        0.0000000000000000     
  0.62500000000000000       0.62500000000000000        0.0000000000000000     
  0.65625000000000000       0.62500000000000000        0.0000000000000000     
  0.68750000000000000       0.62500000000000000        0.0000000000000000     
  0.71875000000000000       0.62500000000000000        0.0000000000000000     
  0.75000000000000000       0.62500000000000000        0.0000000000000000     
  0.62500000000000000       0.65625000000000000        0.0000000000000000     
  0.65625000000000000       0.65625000000000000        0.0000000000000000     
  0.68750000000000000       0.65625000000000000        0.0000000000000000     
  0.71875000000000000       0.65625000000000000        0.0000000000000000     
  0.75000000000000000       0.65625000000000000        0.0000000000000000     
  0.62500000000000000       0.68750000000000000        0.0000000000000000     
  0.65625000000000000       0.68750000000000000        0.0000000000000000     
  0.68750000000000000       0.68750000000000000        0.0000000000000000     
  0.71875000000000000       0.68750000000000000        0.0000000000000000     
  0.75000000000000000       0.68750000000000000        0.0000000000000000     
  0.62500000000000000       0.71875000000000000        0.0000000000000000     
  0.65625000000000000       0.71875000000000000        0.0000000000000000     
  0.68750000000000000       0.71875000000000000        0.0000000000000000     
  0.71875000000000000       0.71875000000000000        0.0000000000000000     
  0.75000000000000000       0.71875000000000000        0.0000000000000000     
  0.62500000000000000       0.75000000000000000        0.0000000000000000     
  0.65625000000000000       0.75000000000000000        0.0000000000000000     
  0.68750000000000000       0.75000000000000000        0.0000000000000000     
  0.71875000000000000       0.75000000000000000        0.0000000000000000     
  0.75000000000000000       0.75000000000000000        0.0000000000000000     
  0.75000000000000000       0.62500000000000000        0.0000000000000000     
  0.78125000000000000       0.62500000000000000        0.0000000000000000     
  0.81250000000000000       0.62500000000000000        0.0000000000000000     
  0.84375000000000000       0.62500000000000000        0.0000000000000000     
  0.87500000000000000       0.62500000000000000        0.0000000000000000     
  0.75000000000000000       0.65625000000000000        0.0000000000000000     
  0.78125000000000000       0.65625000000000000        0.0000000000000000     
  0.81250000000000000       0.65625000000000000        0.0000000000000000     
  0.84375000000000000       0.65625000000000000        0.0000000000000000     
  0.87500000000000000       0.65625000000000000        0.0000000000000000     
  0.75000000000000000       0.68750000000000000        0.0000000000000000     
  0.78125000000000000       0.68750000000000000        0.0000000000000000     
  0.81250000000000000       0.68750000000000000        0.0000000000000000     
  0.84375000000000000       0.68750000000000000        0.0000000000000000     
  0.87500000000000000       0.68750000000000000        0.0000000000000000     
  0.75000000000000000       0.71875000000000000        0.0000000000000000     
  0.78125000000000000       0.71875000000000000        0.0000000000000000     
  0.81250000000000000       0.71875000000000000        0.0000000000000000     
  0.84375000000000000       0.71875000000000000        0.0000000000000000     
  0.87500000000000000       0.71875000000000000        0.0000000000000000     
  0.75000000000000000       0.75000000000000000        0.0000000000000000     
  0.78125000000000000       0.75000000000000000        0.0000000000000000     
  0.81250000000000000       0.75000000000000000        0.0000000000000000     
  0.84375000000000000       0.75000000000000000        0.0000000000000000     
  0.87500000000000000       0.75000000000000000        0.0000000000000000     
  0.87500000000000000       0.62500000000000000        0.0000000000000000     
  0.90625000000000000       0.62500000000000000        0.0000000000000000     
  0.93750000000000000       0.62500000000000000        0.0000000000000000     
  0.96875000000000000       0.62500000000000000        0.0000000000000000     
   1.0000000000000000       0.62500000000000000        0.0000000000000000     
  0.87500000000000000       0.65625000000000000        0.0000000000000000     
  0.90625000000000000       0.65625000000000000        0.0000000000000000     
  0.93750000000000000       0.65625000000000000        0.0000000000000000     
  0.96875000000000000       0.65625000000000000        0.0000000000000000     
   1.0000000000000000       0.65625000000000000        0.0000000000000000     
  0.87500000000000000       0.68750000000000000        0.0000000000000000     
  0.90625000000000000       0.68750000000000000        0.0000000000000000     
  0.93750000000000000       0.68750000000000000        0.0000000000000000     
  0.96875000000000000       0.68750000000000000        0.0000000000000000     
   1.0000000000000000       0.68750000000000000        0.0000000000000000     
  0.87500000000000000       0.71875000000000000        0.0000000000000000     
  0.90625000000000000       0.71875000000000000        0.0000000000000000     
  0.93750000000000000       0.71875000000000000        0.0000000000000000     
  0.96875000000000000       0.71875000000000000        0.0000000000000000     
   1.0000000000000000       0.71875000000000000        0.0000000000000000     
  0.87500000000000000       0.75000000000000000        0.0000000000000000     
  0.90625000000000000       0.75000000000000000        0.0000000000000000     
  0.93750000000000000       0.75000000000000000        0.0000000000000000     
  0.96875000000000000       0.75000000000000000        0.0000000000000000     
   1.0000000000000000       0.75000000000000000        0.0000000000000000     
   0.0000000000000000       0.75000000000000000        0.0000000000000000     
   3.1250000000000000E-002  0.75000000000000000        0.0000000000000000     
   6.2500000000000000E-002  0.75000000000000000        0.0000000000000000     
   9.3750000000000000E-002  0.75000000000000000        0.0000000000000000     
  0.12500000000000000       0.75000000000000000        0.0000000000000000     
   0.0000000000000000       0.78125000000000000        0.0000000000000000     
   3.1250000000000000E-002  0.78125000000000000        0.0000000000000000     
   6.2500000000000000E-002  0.78125000000000000        0.0000000000000000     
   9.3750000000000000E-002  0.78125000000000000        0.0000000000000000     
  0.12500000000000000       0.78125000000000000        0.0000000000000000     
   0.0000000000000000       0.81250000000000000        0.0000000000000000     
   3.1250000000000000E-002  0.81250000000000000        0.0000000000000000     
   6.2500000000000000E-002  0.81250000000000000        0.0000000000000000     
   9.3750000000000000E-002  0.81250000000000000        0.0000000000000000     
  0.12500000000000000       0.81250000000000000        0.0000000000000000     
   0.0000000000000000       0.84375000000000000        0.0000000000000000     
   3.1250000000000000E-002  0.84375000000000000        0.0000000000000000     
   6.2500000000000000E-002  0.84375000000000000        0.0000000000000000     
   9.3750000000000000E-002  0.84375000000000000        0.0000000000000000     
  0.12500000000000000       0.84375000000000000        0.0000000000000000     
   0.0000000000000000       0.87500000000000000        0.0000000000000000     
   3.1250000000000000E-002  0.87500000000000000        0.0000000000000000     
   6.2500000000000000E-002  0.87500000000000000        0.0000000000000000     
   9.3750000000000000E-002  0.87500000000000000        0.0000000000000000     
  0.12500000000000000       0.87500000000000000        0.0000000000000000     
  0.12500000000000000       0.75000000000000000        0.0000000000000000     
  0.15625000000000000       0.75000000000000000        0.0000000000000000     
  0.18750000000000000       0.75000000000000000        0.0000000000000000     
  0.21875000000000000       0.75000000000000000        0.0000000000000000     
  0.25000000000000000       0.75000000000000000        0.0000000000000000     
  0.12500000000000000       0.78125000000000000        0.0000000000000000     
  0.15625000000000000       0.78125000000000000        0.0000000000000000     
  0.18750000000000000       0.78125000000000000        0.0000000000000000     
  0.21875000000000000       0.78125000000000000        0.0000000000000000     
  0.25000000000000000       0.78125000000000000        0.0000000000000000     
  0.12500000000000000       0.81250000000000000        0.0000000000000000     
  0.15625000000000000       0.81250000000000000        0.0000000000000000     
  0.18750000000000000       0.81250000000000000        0.0000000000000000     
  0.21875000000000000       0.81250000000000000        0.0000000000000000     
  0.25000000000000000       0.81250000000000000        0.0000000000000000     
  0.12500000000000000       0.84375000000000000        0.0000000000000000     
  0.15625000000000000       0.84375000000000000        0.0000000000000000     
  0.18750000000000000       0.84375000000000000        0.0000000000000000     
  0.21875000000000000       0.84375000000000000        0.0000000000000000     
  0.25000000000000000       0.84375000000000000        0.0000000000000000     
  0.12500000000000000       0.87500000000000000        0.0000000000000000     
  0.15625000000000000       0.87500000000000000        0.0000000000000000     
  0.18750000000000000       0.87500000000000000        0.0000000000000000     
  0.21875000000000000       0.87500000000000000        0.0000000000000000     
  0.25000000000000000       0.87500000000000000        0.0000000000000000     
  0.25000000000000000       0.75000000000000000        0.0000000000000000     
  0.28125000000000000       0.75000000000000000        0.0000000000000000     
  0.31250000000000000       0.75000000000000000        0.0000000000000000     
  0.34375000000000000       0.75000000000000000        0.0000000000000000     
  0.37500000000000000       0.75000000000000000        0.0000000000000000     
  0.25000000000000000       0.78125000000000000        0.0000000000000000     
  0.28125000000000000       0.78125000000000000        0.0000000000000000     
  0.31250000000000000       0.78125000000000000        0.0000000000000000     
  0.34375000000000000       0.78125000000000000        0.0000000000000000     
  0.37500000000000000       0.78125000000000000        0.0000000000000000     
  0.25000000000000000       0.81250000000000000        0.0000000000000000     
  0.28125000000000000       0.81250000000000000        0.0000000000000000     
  0.31250000000000000       0.81250000000000000        0.0000000000000000     
  0.34375000000000000       0.81250000000000000        0.0000000000000000     
  0.37500000000000000       0.81250000000000000        0.0000000000000000     
  0.25000000000000000       0.84375000000000000        0.0000000000000000     
  0.28125000000000000       0.84375000000000000        0.0000000000000000     
  0.31250000000000000       0.84375000000000000        0.0000000000000000     
  0.34375000000000000       0.84375000000000000        0.0000000000000000     
  0.37500000000000000       0.84375000000000000        0.0000000000000000     
  0.25000000000000000       0.87500000000000000        0.0000000000000000     
  0.28125000000000000       0.87500000000000000        0.0000000000000000     
  0.31250000000000000       0.87500000000000000        0.0000000000000000     
  0.34375000000000000       0.87500000000000000        0.0000000000000000     
  0.37500000000000000       0.87500000000000000        0.0000000000000000     
  0.37500000000000000       0.75000000000000000        0.0000000000000000     
  0.40625000000000000       0.75000000000000000        0.0000000000000000     
  0.43750000000000000       0.75000000000000000        0.0000000000000000     
  0.46875000000000000       0.75000000000000000        0.0000000000000000     
  0.50000000000000000       0.75000000000000000        0.0000000000000000     
  0.37500000000000000       0.78125000000000000        0.0000000000000000     
  0.40625000000000000       0.78125000000000000        0.0000000000000000     
  0.43750000000000000       0.78125000000000000        0.0000000000000000     
  0.46875000000000000       0.78125000000000000        0.0000000000000000     
  0.50000000000000000       0.78125000000000000        0.0000000000000000     
  0.37500000000000000       0.81250000000000000        0.0000000000000000     
  0.40625000000000000       0.81250000000000000        0.0000000000000000     
  0.43750000000000000       0.81250000000000000        0.0000000000000000     
  0.46875000000000000       0.81250000000000000        0.0000000000000000     
  0.50000000000000000       0.81250000000000000        0.0000000000000000     
  0.37500000000000000       0.84375000000000000        0.0000000000000000     
  0.40625000000000000       0.84375000000000000        0.0000000000000000     
  0.43750000000000000       0.84375000000000000        0.0000000000000000     
  0.46875000000000000       0.84375000000000000        0.0000000000000000     
  0.50000000000000000       0.84375000000000000        0.0000000000000000     
  0.37500000000000000       0.87500000000000000        0.0000000000000000     
  0.40625000000000000       0.87500000000000000        0.0000000000000000     
  0.43750000000000000       0.87500000000000000        0.0000000000000000     
  0.46875000000000000       0.87500000000000000        0.0000000000000000     
  0.50000000000000000       0.87500000000000000        0.0000000000000000     
  0.50000000000000000       0.75000000000000000        0.0000000000000000     
  0.53125000000000000       0.75000000000000000        0.0000000000000000     
  0.56250000000000000       0.75000000000000000        0.0000000000000000     
  0.59375000000000000       0.75000000000000000        0.0000000000000000     
  0.62500000000000000       0.75000000000000000        0.0000000000000000     
  0.50000000000000000       0.78125000000000000        0.0000000000000000     
  0.53125000000000000       0.78125000000000000        0.0000000000000000     
  0.56250000000000000       0.78125000000000000        0.0000000000000000     
  0.59375000000000000       0.78125000000000000        0.0000000000000000     
  0.62500000000000000       0.78125000000000000        0.0000000000000000     
  0.50000000000000000       0.81250000000000000        0.0000000000000000     
  0.53125000000000000       0.81250000000000000        0.0000000000000000     
  0.56250000000000000       0.81250000000000000        0.0000000000000000     
  0.59375000000000000       0.81250000000000000        0.0000000000000000     
  0.62500000000000000       0.81250000000000000        0.0000000000000000     
  0.50000000000000000       0.84375000000000000        0.0000000000000000     
  0.53125000000000000       0.84375000000000000        0.0000000000000000     
  0.56250000000000000       0.84375000000000000        0.0000000000000000     
  0.59375000000000000       0.84375000000000000        0.0000000000000000     
  0.62500000000000000       0.84375000000000000        0.0000000000000000     
  0.50000000000000000       0.87500000000000000        0.0000000000000000     
  0.53125000000000000       0.87500000000000000        0.0000000000000000     
  0.56250000000000000       0.87500000000000000        0.0000000000000000     
  0.59375000000000000       0.87500000000000000        0.0000000000000000     
  0.62500000000000000       0.87500000000000000        0.0000000000000000     
  0.62500000000000000       0.75000000000000000        0.0000000000000000     
  0.65625000000000000       0.75000000000000000        0.0000000000000000     
  0.68750000000000000       0.75000000000000000        0.0000000000000000     
  0.71875000000000000       0.75000000000000000        0.0000000000000000     
  0.75000000000000000       0.75000000000000000        0.0000000000000000     
  0.62500000000000000       0.78125000000000000        0.0000000000000000     
  0.65625000000000000       0.78125000000000000        0.0000000000000000     
  0.68750000000000000       0.78125000000000000        0.0000000000000000     
  0.71875000000000000       0.78125000000000000        0.0000000000000000     
  0.75000000000000000       0.78125000000000000        0.0000000000000000     
  0.62500000000000000       0.81250000000000000        0.0000000000000000     
  0.65625000000000000       0.81250000000000000        0.0000000000000000     
  0.68750000000000000       0.81250000000000000        0.0000000000000000     
  0.71875000000000000       0.81250000000000000        0.0000000000000000     
  0.75000000000000000       0.81250000000000000        0.0000000000000000     
  0.62500000000000000       0.84375000000000000        0.0000000000000000     
  0.65625000000000000       0.84375000000000000        0.0000000000000000     
  0.68750000000000000       0.84375000000000000        0.0000000000000000     
  0.71875000000000000       0.84375000000000000        0.0000000000000000     
  0.75000000000000000       0.84375000000000000        0.0000000000000000     
  0.62500000000000000       0.87500000000000000        0.0000000000000000     
  0.65625000000000000       0.87500000000000000        0.0000000000000000     
  0.68750000000000000       0.87500000000000000        0.0000000000000000     
  0.71875000000000000       0.87500000000000000        0.0000000000000000     
  0.75000000000000000       0.87500000000000000        0.0000000000000000     
  0.75000000000000000       0.75000000000000000        0.0000000000000000     
  0.78125000000000000       0.75000000000000000        0.0000000000000000     
  0.81250000000000000       0.75000000000000000        0.0000000000000000     
  0.84375000000000000       0.75000000000000000        0.0000000000000000     
  0.87500000000000000       0.75000000000000000        0.0000000000000000     
  0.75000000000000000       0.78125000000000000        0.0000000000000000     
  0.78125000000000000       0.78125000000000000        0.0000000000000000     
  0.81250000000000000       0.78125000000000000        0.0000000000000000     
  0.84375000000000000       0.78125000000000000        0.0000000000000000     
  0.87500000000000000       0.78125000000000000        0.0000000000000000     
  0.75000000000000000       0.81250000000000000        0.0000000000000000     
  0.78125000000000000       0.81250000000000000        0.0000000000000000     
  0.81250000000000000       0.81250000000000000        0.0000000000000000     
  0.84375000000000000       0.81250000000000000        0.0000000000000000     
  0.87500000000000000       0.81250000000000000        0.0000000000000000     
  0.75000000000000000       0.84375000000000000        0.0000000000000000     
  0.78125000000000000       0.84375000000000000        0.0000000000000000     
  0.81250000000000000       0.84375000000000000        0.0000000000000000     
  0.84375000000000000       0.84375000000000000        0.0000000000000000     
  0.87500000000000000       0.84375000000000000        0.0000000000000000     
  0.75000000000000000       0.87500000000000000        0.0000000000000000     
  0.78125000000000000       0.87500000000000000        0.0000000000000000     
  0.81250000000000000       0.87500000000000000        0.0000000000000000     
  0.84375000000000000       0.87500000000000000        0.0000000000000000     
  0.87500000000000000       0.87500000000000000        0.0000000000000000     
  0.87500000000000000       0.75000000000000000        0.0000000000000000     
  0.90625000000000000       0.75000000000000000        0.0000000000000000     
  0.93750000000000000       0.75000000000000000        0.0000000000000000     
  0.96875000000000000       0.75000000000000000        0.0000000000000000     
   1.0000000000000000       0.75000000000000000        0.0000000000000000     
  0.87500000000000000       0.78125000000000000        0.0000000000000000     
  0.90625000000000000       0.78125000000000000        0.0000000000000000     
  0.93750000000000000       0.78125000000000000        0.0000000000000000     
  0.96875000000000000       0.78125000000000000        0.0000000000000000     
   1.0000000000000000       0.78125000000000000        0.0000000000000000     
  0.87500000000000000       0.81250000000000000        0.0000000000000000     
  0.90625000000000000       0.81250000000000000        0.0000000000000000     
  0.93750000000000000       0.81250000000000000        0.0000000000000000     
  0.96875000000000000       0.81250000000000000        0.0000000000000000     
   1.0000000000000000       0.81250000000000000        0.0000000000000000     
  0.87500000000000000       0.84375000000000000        0.0000000000000000     
  0.90625000000000000       0.84375000000000000        0.0000000000000000     
  0.93750000000000000       0.84375000000000000        0.0000000000000000     
  0.96875000000000000       0.84375000000000000        0.0000000000000000     
   1.0000000000000000       0.84375000000000000        0.0000000000000000     
  0.87500000000000000       0.87500000000000000        0.0000000000000000     
  0.90625000000000000       0.87500000000000000        0.0000000000000000     
  0.93750000000000000       0.87500000000000000        0.0000000000000000     
  0.96875000000000000       0.87500000000000000        0.0000000000000000     
   1.0000000000000000       0.87500000000000000        0.0000000000000000     
   0.0000000000000000       0.87500000000000000        0.0000000000000000     
   3.1250000000000000E-002  0.87500000000000000        0.0000000000000000     
   6.2500000000000000E-002  0.87500000000000000        0.0000000000000000     
   9.3750000000000000E-002  0.87500000000000000        0.0000000000000000     
  0.12500000000000000       0.87500000000000000        0.0000000000000000     
   0.0000000000000000       0.90625000000000000        0.0000000000000000     
   3.1250000000000000E-002  0.90625000000000000        0.0000000000000000     
   6.2500000000000000E-002  0.90625000000000000        0.0000000000000000     
   9.3750000000000000E-002  0.90625000000000000        0.0000000000000000     
  0.12500000000000000       0.90625000000000000        0.0000000000000000     
   0.0000000000000000       0.93750000000000000        0.0000000000000000     
   3.1250000000000000E-002  0.93750000000000000        0.0000000000000000     
   6.2500000000000000E-002  0.93750000000000000        0.0000000000000000     
   9.3750000000000000E-002  0.93750000000000000        0.0000000000000000     
  0.12500000000000000       0.93750000000000000        0.0000000000000000     
   0.0000000000000000       0.96875000000000000        0.0000000000000000     
   3.1250000000000000E-002  0.96875000000000000        0.0000000000000000     
   6.2500000000000000E-002  0.96875000000000000        0.0000000000000000     
   9.3750000000000000E-002  0.96875000000000000        0.0000000000000000     
  0.12500000000000000       0.96875000000000000        0.0000000000000000     
   0.0000000000000000        1.0000000000000000        0.0000000000000000     
   3.1250000000000000E-002   1.0000000000000000        0.0000000000000000     
   6.2500000000000000E-002   1.0000000000000000        0.0000000000000000     
   9.3750000000000000E-002   1.0000000000000000        0.0000000000000000     
  0.12500000000000000        1.0000000000000000        0.0000000000000000     
  0.12500000000000000       0.87500000000000000        0.0000000000000000     
  0.15625000000000000       0.87500000000000000        0.0000000000000000     
  0.18750000000000000       0.87500000000000000        0.0000000000000000     
  0.21875000000000000       0.87500000000000000        0.0000000000000000     
  0.25000000000000000       0.87500000000000000        0.0000000000000000     
  0.12500000000000000       0.90625000000000000        0.0000000000000000     
  0.15625000000000000       0.90625000000000000        0.0000000000000000     
  0.18750000000000000       0.90625000000000000        0.0000000000000000     
  0.21875000000000000       0.90625000000000000        0.0000000000000000     
  0.25000000000000000       0.90625000000000000        0.0000000000000000     
  0.12500000000000000       0.93750000000000000        0.0000000000000000     
  0.15625000000000000       0.93750000000000000        0.0000000000000000     
  0.18750000000000000       0.93750000000000000        0.0000000000000000     
  0.21875000000000000       0.93750000000000000        0.0000000000000000     
  0.25000000000000000       0.93750000000000000        0.0000000000000000     
  0.12500000000000000       0.96875000000000000        0.0000000000000000     
  0.15625000000000000       0.96875000000000000        0.0000000000000000     
  0.18750000000000000       0.96875000000000000        0.0000000000000000     
  0.21875000000000000       0.96875000000000000        0.0000000000000000     
  0.25000000000000000       0.96875000000000000        0.0000000000000000     
  0.12500000000000000        1.0000000000000000        0.0000000000000000     
  0.15625000000000000        1.0000000000000000        0.0000000000000000     
  0.18750000000000000        1.0000000000000000        0.0000000000000000     
  0.21875000000000000        1.0000000000000000        0.0000000000000000     
  0.25000000000000000        1.0000000000000000        0.0000000000000000     
  0.25000000000000000       0.87500000000000000        0.0000000000000000     
  0.28125000000000000       0.87500000000000000        0.0000000000000000     
  0.31250000000000000       0.87500000000000000        0.0000000000000000     
  0.34375000000000000       0.87500000000000000        0.0000000000000000     
  0.37500000000000000       0.87500000000000000        0.0000000000000000     
  0.25000000000000000       0.90625000000000000        0.0000000000000000     
  0.28125000000000000       0.90625000000000000        0.0000000000000000     
  0.31250000000000000       0.90625000000000000        0.0000000000000000     
  0.34375000000000000       0.90625000000000000        0.0000000000000000     
  0.37500000000000000       0.90625000000000000        0.0000000000000000     
  0.25000000000000000       0.93750000000000000        0.0000000000000000     
  0.28125000000000000       0.93750000000000000        0.0000000000000000     
  0.31250000000000000       0.93750000000000000        0.0000000000000000     
  0.34375000000000000       0.93750000000000000        0.0000000000000000     
  0.37500000000000000       0.93750000000000000        0.0000000000000000     
  0.25000000000000000       0.96875000000000000        0.0000000000000000     
  0.28125000000000000       0.96875000000000000        0.0000000000000000     
  0.31250000000000000       0.96875000000000000        0.0000000000000000     
  0.34375000000000000       0.96875000000000000        0.0000000000000000     
  0.37500000000000000       0.96875000000000000        0.0000000000000000     
  0.25000000000000000        1.0000000000000000        0.0000000000000000     
  0.28125000000000000        1.0000000000000000        0.0000000000000000     
  0.31250000000000000        1.0000000000000000        0.0000000000000000     
  0.34375000000000000        1.0000000000000000        0.0000000000000000     
  0.37500000000000000        1.0000000000000000        0.0000000000000000     
  0.37500000000000000       0.87500000000000000        0.0000000000000000     
  0.40625000000000000       0.87500000000000000        0.0000000000000000     
  0.43750000000000000       0.87500000000000000        0.0000000000000000     
  0.46875000000000000       0.87500000000000000        0.0000000000000000     
  0.50000000000000000       0.87500000000000000        0.0000000000000000     
  0.37500000000000000       0.90625000000000000        0.0000000000000000     
  0.40625000000000000       0.90625000000000000        0.0000000000000000     
  0.43750000000000000       0.90625000000000000        0.0000000000000000     
  0.46875000000000000       0.90625000000000000        0.0000000000000000     
  0.50000000000000000       0.90625000000000000        0.0000000000000000     
  0.37500000000000000       0.93750000000000000        0.0000000000000000     
  0.40625000000000000       0.93750000000000000        0.0000000000000000     
  0.43750000000000000       0.93750000000000000        0.0000000000000000     
  0.46875000000000000       0.93750000000000000        0.0000000000000000     
  0.50000000000000000       0.93750000000000000        0.0000000000000000     
  0.37500000000000000       0.96875000000000000        0.0000000000000000     
  0.40625000000000000       0.96875000000000000        0.0000000000000000     
  0.43750000000000000       0.96875000000000000        0.0000000000000000     
  0.46875000000000000       0.96875000000000000        0.0000000000000000     
  0.50000000000000000       0.96875000000000000        0.0000000000000000     
  0.37500000000000000        1.0000000000000000        0.0000000000000000     
  0.40625000000000000        1.0000000000000000        0.0000000000000000     
  0.43750000000000000        1.0000000000000000        0.0000000000000000     
  0.46875000000000000        1.0000000000000000        0.0000000000000000     
  0.50000000000000000        1.0000000000000000        0.0000000000000000     
  0.50000000000000000       0.87500000000000000        0.0000000000000000     
  0.53125000000000000       0.87500000000000000        0.0000000000000000     
  0.56250000000000000       0.87500000000000000        0.0000000000000000     
  0.59375000000000000       0.87500000000000000        0.0000000000000000     
  0.62500000000000000       0.87500000000000000        0.0000000000000000     
  0.50000000000000000       0.90625000000000000        0.0000000000000000     
  0.53125000000000000       0.90625000000000000        0.0000000000000000     
  0.56250000000000000       0.90625000000000000        0.0000000000000000     
  0.59375000000000000       0.90625000000000000        0.0000000000000000     
  0.62500000000000000       0.90625000000000000        0.0000000000000000     
  0.50000000000000000       0.93750000000000000        0.0000000000000000     
  0.53125000000000000       0.93750000000000000        0.0000000000000000     
  0.56250000000000000       0.93750000000000000        0.0000000000000000     
  0.59375000000000000       0.93750000000000000        0.0000000000000000     
  0.62500000000000000       0.93750000000000000        0.0000000000000000     
  0.50000000000000000       0.96875000000000000        0.0000000000000000     
  0.53125000000000000       0.96875000000000000        0.0000000000000000     
  0.56250000000000000       0.96875000000000000        0.0000000000000000     
  0.59375000000000000       0.96875000000000000        0.0000000000000000     
  0.62500000000000000       0.96875000000000000        0.0000000000000000     
  0.50000000000000000        1.0000000000000000        0.0000000000000000     
  0.53125000000000000        1.0000000000000000        0.0000000000000000     
  0.56250000000000000        1.0000000000000000        0.0000000000000000     
  0.59375000000000000        1.0000000000000000        0.0000000000000000     
  0.62500000000000000        1.0000000000000000        0.0000000000000000     
  0.62500000000000000       0.87500000000000000        0.0000000000000000     
  0.65625000000000000       0.87500000000000000        0.0000000000000000     
  0.68750000000000000       0.87500000000000000        0.0000000000000000     
  0.71875000000000000       0.87500000000000000        0.0000000000000000     
  0.75000000000000000       0.87500000000000000        0.0000000000000000     
  0.62500000000000000       0.90625000000000000        0.0000000000000000     
  0.65625000000000000       0.90625000000000000        0.0000000000000000     
  0.68750000000000000       0.90625000000000000        0.0000000000000000     
  0.71875000000000000       0.90625000000000000        0.0000000000000000     
  0.75000000000000000       0.90625000000000000        0.0000000000000000     
  0.62500000000000000       0.93750000000000000        0.0000000000000000     
  0.65625000000000000       0.93750000000000000        0.0000000000000000     
  0.68750000000000000       0.93750000000000000        0.0000000000000000     
  0.71875000000000000       0.93750000000000000        0.0000000000000000     
  0.75000000000000000       0.93750000000000000        0.0000000000000000     
  0.62500000000000000       0.96875000000000000        0.0000000000000000     
  0.65625000000000000       0.96875000000000000        0.0000000000000000     
  0.68750000000000000       0.96875000000000000        0.0000000000000000     
  0.71875000000000000       0.96875000000000000        0.0000000000000000     
  0.75000000000000000       0.96875000000000000        0.0000000000000000     
  0.62500000000000000        1.0000000000000000        0.0000000000000000     
  0.65625000000000000        1.0000000000000000        0.0000000000000000     
  0.68750000000000000        1.0000000000000000        0.0000000000000000     
  0.71875000000000000        1.0000000000000000        0.0000000000000000     
  0.75000000000000000        1.0000000000000000        0.0000000000000000     
  0.75000000000000000       0.87500000000000000        0.0000000000000000     
  0.78125000000000000       0.87500000000000000        0.0000000000000000     
  0.81250000000000000       0.87500000000000000        0.0000000000000000     
  0.84375000000000000       0.87500000000000000        0.0000000000000000     
  0.87500000000000000       0.87500000000000000        0.0000000000000000     
  0.75000000000000000       0.90625000000000000        0.0000000000000000     
  0.78125000000000000       0.90625000000000000        0.0000000000000000     
  0.81250000000000000       0.90625000000000000        0.0000000000000000     
  0.84375000000000000       0.90625000000000000        0.0000000000000000     
  0.87500000000000000       0.90625000000000000        0.0000000000000000     
  0.75000000000000000       0.93750000000000000        0.0000000000000000     
  0.78125000000000000       0.93750000000000000        0.0000000000000000     
  0.81250000000000000       0.93750000000000000        0.0000000000000000     
  0.84375000000000000       0.93750000000000000        0.0000000000000000     
  0.87500000000000000       0.93750000000000000        0.0000000000000000     
  0.75000000000000000       0.96875000000000000        0.0000000000000000     
  0.78125000000000000       0.96875000000000000        0.0000000000000000     
  0.81250000000000000       0.96875000000000000        0.0000000000000000     
  0.84375000000000000       0.96875000000000000        0.0000000000000000     
  0.87500000000000000       0.96875000000000000        0.0000000000000000     
  0.75000000000000000        1.0000000000000000        0.0000000000000000     
  0.78125000000000000        1.0000000000000000        0.0000000000000000     
  0.81250000000000000        1.0000000000000000        0.0000000000000000     
  0.84375000000000000        1.0000000000000000        0.0000000000000000     
  0.87500000000000000        1.0000000000000000        0.0000000000000000     
  0.87500000000000000       0.87500000000000000        0.0000000000000000     
  0.90625000000000000       0.87500000000000000        0.0000000000000000     
  0.93750000000000000       0.87500000000000000        0.0000000000000000     
  0.96875000000000000       0.87500000000000000        0.0000000000000000     
   1.0000000000000000       0.87500000000000000        0.0000000000000000     
  0.87500000000000000       0.90625000000000000        0.0000000000000000     
  0.90625000000000000       0.90625000000000000        0.0000000000000000     
  0.93750000000000000       0.90625000000000000        0.0000000000000000     
  0.96875000000000000       0.90625000000000000        0.0000000000000000     
   1.0000000000000000       0.90625000000000000        0.0000000000000000     
  0.87500000000000000       0.93750000000000000        0.0000000000000000     
  0.90625000000000000       0.93750000000000000        0.0000000000000000     
  0.93750000000000000       0.93750000000000000        0.0000000000000000     
  0.96875000000000000       0.93750000000000000        0.0000000000000000     
   1.0000000000000000       0.93750000000000000        0.0000000000000000     
  0.87500000000000000       0.96875000000000000        0.0000000000000000     
  0.90625000000000000       0.96875000000000000        0.0000000000000000     
  0.93750000000000000       0.96875000000000000        0.0000000000000000     
  0.96875000000000000       0.96875000000000000        0.0000000000000000     
   1.0000000000000000       0.96875000000000000        0.0000000000000000     
  0.87500000000000000        1.0000000000000000        0.0000000000000000     
  0.90625000000000000        1.0000000000000000        0.0000000000000000     
  0.93750000000000000        1.0000000000000000        0.0000000000000000     
  0.96875000000000000        1.0000000000000000        0.0000000000000000     
   1.0000000000000000        1.0000000000000000        0.0000000000000000     
 </DataArray>
 </Points>
 <Cells>
 <DataArray  type="Int32"  Name="connectivity"  format="ascii">
           0           1           6           5
           1           2           7           6
           2           3           8           7
           3           4           9           8
           5           6          11          10
           6           7          12          11
           7           8          13          12
           8           9          14          13
          10          11          16          15
          11          12          17          16
          12          13          18          17
          13          14          19          18
          15          16          21          20
          16          17          22          21
          17          18          23          22
          18          19          24          23
          25          26          31          30
          26          27          32          31
          27          28          33          32
          28          29          34          33
          30          31          36          35
          31          32          37          36
          32          33          38          37
          33          34          39          38
          35          36          41          40
          36          37          42          41
          37          38          43          42
          38          39          44          43
          40          41          46          45
          41          42          47          46
          42          43          48          47
          43          44          49          48
          50          51          56          55
          51          52          57          56
          52          53          58          57
          53          54          59          58
          55          56          61          60
          56          57          62          61
          57          58          63          62
          58          59          64          63
          60          61          66          65
          61          62          67          66
          62          63          68          67
          63          64          69          68
          65          66          71          70
          66          67          72          71
          67          68          73          72
          68          69          74          73
          75          76          81          80
          76          77          82          81
          77          78          83          82
          78          79          84          83
          80          81          86          85
          81          82          87          86
          82          83          88          87
          83          84          89          88
          85          86          91          90
          86          87          92          91
          87          88          93          92
          88          89          94          93
          90          91          96          95
          91          92          97          96
          92          93          98          97
          93          94          99          98
         100         101         106         105
         101         102         107         106
         102         103         108         107
         103         104         109         108
         105         106         111         110
         106         107         112         111
         107         108         113         112
         108         109         114         113
         110         111         116         115
         111         112         117         116
         112         113         118         117
         113         114         119         118
         115         116         121         120
         116         117         122         121
         117         118         123         122
         118         119         124         123
         125         126         131         130
         126         127         132         131
         127         128         133         132
         128         129         134         133
         130         131         136         135
         131         132         137         136
         132         133         138         137
         133         134         139         138
         135         136         141         140
         136         137         142         141
         137         138         143         142
         138         139         144         143
         140         141         146         145
         141         142         147         146
         142         143         148         147
         143         144         149         148
         150         151         156         155
         151         152         157         156
         152         153         158         157
         153         154         159         158
         155         156         161         160
         156         157         162         161
         157         158         163         162
         158         159         164         163
         160         161         166         165
         161         162         167         166
         162         163         168         167
         163         164         169         168
         165         166         171         170
         166         167         172         171
         167         168         173         172
         168         169         174         173
         175         176         181         180
         176         177         182         181
         177         178         183         182
         178         179         184         183
         180         181         186         185
         181         182         187         186
         182         183         188         187
         183         184         189         188
         185         186         191         190
         186         187         192         191
         187         188         193         192
         188         189         194         193
         190         191         196         195
         191         192         197         196
         192         193         198         197
         193         194         199         198
         200         201         206         205
         201         202         207         206
         202         203         208         207
         203         204         209         208
         205         206         211         210
         206         207         212         211
         207         208         213         212
         208         209         214         213
         210         211         216         215
         211         212         217         216
         212         213         218         217
         213         214         219         218
         215         216         221         220
         216         217         222         221
         217         218         223         222
         218         219         224         223
         225         226         231         230
         226         227         232         231
         227         228         233         232
         228         229         234         233
         230         231         236         235
         231         232         237         236
         232         233         238         237
         233         234         239         238
         235         236         241         240
         236         237         242         241
         237         238         243         242
         238         239         244         243
         240         241         246         245
         241         242         247         246
         242         243         248         247
         243         244         249         248
         250         251         256         255
         251         252         257         256
         252         253         258         257
         253         254         259         258
         255         256         261         260
         256         257         262         261
         257         258         263         262
         258         259         264         263
         260         261         266         265
         261         262         267         266
         262         263         268         267
         263         264         269         268
         265         266         271         270
         266         267         272         271
         267         268         273         272
         268         269         274         273
         275         276         281         280
         276         277         282         281
         277         278         283         282
         278         279         284         283
         280         281         286         285
         281         282         287         286
         282         283         288         287
         283         284         289         288
         285         286         291         290
         286         287         292         291
         287         288         293         292
         288         289         294         293
         290         291         296         295
         291         292         297         296
         292         293         298         297
         293         294         299         298
         300         301         306         305
         301         302         307         306
         302         303         308         307
         303         304         309         308
         305         306         311         310
         306         307         312         311
         307         308         313         312
         308         309         314         313
         310         311         316         315
         311         312         317         316
         312         313         318         317
         313         314         319         318
         315         316         321         320
         316         317         322         321
         317         318         323         322
         318         319         324         323
         325         326         331         330
         326         327         332         331
         327         328         333         332
         328         329         334         333
         330         331         336         335
         331         332         337         336
         332         333         338         337
         333         334         339         338
         335         336         341         340
         336         337         342         341
         337         338         343         342
         338         339         344         343
         340         341         346         345
         341         342         347         346
         342         343         348         347
         343         344         349         348
         350         351         356         355
         351         352         357         356
         352         353         358         357
         353         354         359         358
         355         356         361         360
         356         357         362         361
         357         358         363         362
         358         359         364         363
         360         361         366         365
         361         362         367         366
         362         363         368         367
         363         364         369         368
         365         366         371         370
         366         367         372         371
         367         368         373         372
         368         369         374         373
         375         376         381         380
         376         377         382         381
         377         378         383         382
         378         379         384         383
         380         381         386         385
         381         382         387         386
         382         383         388         387
         383         384         389         388
         385         386         391         390
         386         387         392         391
         387         388         393         392
         388         389         394         393
         390         391         396         395
         391         392         397         396
         392         393         398         397
         393         394         399         398
         400         401         406         405
         401         402         407         406
         402         403         408         407
         403         404         409         408
         405         406         411         410
         406         407         412         411
         407         408         413         412
         408         409         414         413
         410         411         416         415
         411         412         417         416
         412         413         418         417
         413         414         419         418
         415         416         421         420
         416         417         422         421
         417         418         423         422
         418         419         424         423
         425         426         431         430
         426         427         432         431
         427         428         433         432
         428         429         434         433
         430         431         436         435
         431         432         437         436
         432         433         438         437
         433         434         439         438
         435         436         441         440
         436         437         442         441
         437         438         443         442
         438         439         444         443
         440         441         446         445
         441         442         447         446
         442         443         448         447
         443         444         449         448
         450         451         456         455
         451         452         457         456
         452         453         458         457
         453         454         459         458
         455         456         461         460
         456         457         462         461
         457         458         463         462
         458         459         464         463
         460         461         466         465
         461         462         467         466
         462         463         468         467
         463         464         469         468
         465         466         471         470
         466         467         472         471
         467         468         473         472
         468         469         474         473
         475         476         481         480
         476         477         482         481
         477         478         483         482
         478         479         484         483
         480         481         486         485
         481         482         487         486
         482         483         488         487
         483         484         489         488
         485         486         491         490
         486         487         492         491
         487         488         493         492
         488         489         494         493
         490         491         496         495
         491         492         497         496
         492         493         498         497
         493         494         499         498
         500         501         506         505
         501         502         507         506
         502         503         508         507
         503         504         509         508
         505         506         511         510
         506         507         512         511
         507         508         513         512
         508         509         514         513
         510         511         516         515
         511         512         517         516
         512         513         518         517
         513         514         519         518
         515         516         521         520
         516         517         522         521
         517         518         523         522
         518         519         524         523
         525         526         531         530
         526         527         532         531
         527         528         533         532
         528         529         534         533
         530         531         536         535
         531         532         537         536
         532         533         538         537
         533         534         539         538
         535         536         541         540
         536         537         542         541
         537         538         543         542
         538         539         544         543
         540         541         546         545
         541         542         547         546
         542         543         548         547
         543         544         549         548
         550         551         556         555
         551         552         557         556
         552         553         558         557
         553         554         559         558
         555         556         561         560
         556         557         562         561
         557         558         563         562
         558         559         564         563
         560         561         566         565
         561         562         567         566
         562         563         568         567
         563         564         569         568
         565         566         571         570
         566         567         572         571
         567         568         573         572
         568         569         574         573
         575         576         581         580
         576         577         582         581
         577         578         583         582
         578         579         584         583
         580         581         586         585
         581         582         587         586
         582         583         588         587
         583         584         589         588
         585         586         591         590
         586         587         592         591
         587         588         593         592
         588         589         594         593
         590         591         596         595
         591         592         597         596
         592         593         598         597
         593         594         599         598
         600         601         606         605
         601         602         607         606
         602         603         608         607
         603         604         609         608
         605         606         611         610
         606         607         612         611
         607         608         613         612
         608         609         614         613
         610         611         616         615
         611         612         617         616
         612         613         618         617
         613         614         619         618
         615         616         621         620
         616         617         622         621
         617         618         623         622
         618         619         624         623
         625         626         631         630
         626         627         632         631
         627         628         633         632
         628         629         634         633
         630         631         636         635
         631         632         637         636
         632         633         638         637
         633         634         639         638
         635         636         641         640
         636         637         642         641
         637         638         643         642
         638         639         644         643
         640         641         646         645
         641         642         647         646
         642         643         648         647
         643         644         649         648
         650         651         656         655
         651         652         657         656
         652         653         658         657
         653         654         659         658
         655         656         661         660
         656         657         662         661
         657         658         663         662
         658         659         664         663
         660         661         666         665
         661         662         667         666
         662         663         668         667
         663         664         669         668
         665         666         671         670
         666         667         672         671
         667         668         673         672
         668         669         674         673
         675         676         681         680
         676         677         682         681
         677         678         683         682
         678         679         684         683
         680         681         686         685
         681         682         687         686
         682         683         688         687
         683         684         689         688
         685         686         691         690
         686         687         692         691
         687         688         693         692
         688         689         694         693
         690         691         696         695
         691         692         697         696
         692         693         698         697
         693         694         699         698
         700         701         706         705
         701         702         707         706
         702         703         708         707
         703         704         709         708
         705         706         711         710
         706         707         712         711
         707         708         713         712
         708         709         714         713
         710         711         716         715
         711         712         717         716
         712         713         718         717
         713         714         719         718
         715         716         721         720
         716         717         722         721
         717         718         723         722
         718         719         724         723
         725         726         731         730
         726         727         732         731
         727         728         733         732
         728         729         734         733
         730         731         736         735
         731         732         737         736
         732         733         738         737
         733         734         739         738
         735         736         741         740
         736         737         742         741
         737         738         743         742
         738         739         744         743
         740         741         746         745
         741         742         747         746
         742         743         748         747
         743         744         749         748
         750         751         756         755
         751         752         757         756
         752         753         758         757
         753         754         759         758
         755         756         761         760
         756         757         762         761
         757         758         763         762
         758         759         764         763
         760         761         766         765
         761         762         767         766
         762         763         768         767
         763         764         769         768
         765         766         771         770
         766         767         772         771
         767         768         773         772
         768         769         774         773
         775         776         781         780
         776         777         782         781
         777         778         783         782
         778         779         784         783
         780         781         786         785
         781         782         787         786
         782         783         788         787
         783         784         789         788
         785         786         791         790
         786         787         792         791
         787         788         793         792
         788         789         794         793
         790         791         796         795
         791         792         797         796
         792         793         798         797
         793         794         799         798
         800         801         806         805
         801         802         807         806
         802         803         808         807
         803         804         809         808
         805         806         811         810
         806         807         812         811
         807         808         813         812
         808         809         814         813
         810         811         816         815
         811         812         817         816
         812         813         818         817
         813         814         819         818
         815         816         821         820
         816         817         822         821
         817         818         823         822
         818         819         824         823
         825         826         831         830
         826         827         832         831
         827         828         833         832
         828         829         834         833
         830         831         836         835
         831         832         837         836
         832         833         838         837
         833         834         839         838
         835         836         841         840
         836         837         842         841
         837         838         843         842
         838         839         844         843
         840         841         846         845
         841         842         847         846
         842         843         848         847
         843         844         849         848
         850         851         856         855
         851         852         857         856
         852         853         858         857
         853         854         859         858
         855         856         861         860
         856         857         862         861
         857         858         863         862
         858         859         864         863
         860         861         866         865
         861         862         867         866
         862         863         868         867
         863         864         869         868
         865         866         871         870
         866         867         872         871
         867         868         873         872
         868         869         874         873
         875         876         881         880
         876         877         882         881
         877         878         883         882
         878         879         884         883
         880         881         886         885
         881         882         887         886
         882         883         888         887
         883         884         889         888
         885         886         891         890
         886         887         892         891
         887         888         893         892
         888         889         894         893
         890         891         896         895
         891         892         897         896
         892         893         898         897
         893         894         899         898
         900         901         906         905
         901         902         907         906
         902         903         908         907
         903         904         909         908
         905         906         911         910
         906         907         912         911
         907         908         913         912
         908         909         914         913
         910         911         916         915
         911         912         917         916
         912         913         918         917
         913         914         919         918
         915         916         921         920
         916         917         922         921
         917         918         923         922
         918         919         924         923
         925         926         931         930
         926         927         932         931
         927         928         933         932
         928         929         934         933
         930         931         936         935
         931         932         937         936
         932         933         938         937
         933         934         939         938
         935         936         941         940
         936         937         942         941
         937         938         943         942
         938         939         944         943
         940         941         946         945
         941         942         947         946
         942         943         948         947
         943         944         949         948
         950         951         956         955
         951         952         957         956
         952         953         958         957
         953         954         959         958
         955         956         961         960
         956         957         962         961
         957         958         963         962
         958         959         964         963
         960         961         966         965
         961         962         967         966
         962         963         968         967
         963         964         969         968
         965         966         971         970
         966         967         972         971
         967         968         973         972
         968         969         974         973
         975         976         981         980
         976         977         982         981
         977         978         983         982
         978         979         984         983
         980         981         986         985
         981         982         987         986
         982         983         988         987
         983         984         989         988
         985         986         991         990
         986         987         992         991
         987         988         993         992
         988         989         994         993
         990         991         996         995
         991         992         997         996
         992         993         998         997
         993         994         999         998
        1000        1001        1006        1005
        1001        1002        1007        1006
        1002        1003        1008        1007
        1003        1004        1009        1008
        1005        1006        1011        1010
        1006        1007        1012        1011
        1007        1008        1013        1012
        1008        1009        1014        1013
        1010        1011        1016        1015
        1011        1012        1017        1016
        1012        1013        1018        1017
        1013        1014        1019        1018
        1015        1016        1021        1020
        1016        1017        1022        1021
        1017        1018        1023        1022
        1018        1019        1024        1023
        1025        1026        1031        1030
        1026        1027        1032        1031
        1027        1028        1033        1032
        1028        1029        1034        1033
        1030        1031        1036        1035
        1031        1032        1037        1036
        1032        1033        1038        1037
        1033        1034        1039        1038
        1035        1036        1041        1040
        1036        1037        1042        1041
        1037        1038        1043        1042
        1038        1039        1044        1043
        1040        1041        1046        1045
        1041        1042        1047        1046
        1042        1043        1048        1047
        1043        1044        1049        1048
        1050        1051        1056        1055
        1051        1052        1057        1056
        1052        1053        1058        1057
        1053        1054        1059        1058
        1055        1056        1061        1060
        1056        1057        1062        1061
        1057        1058        1063        1062
        1058        1059        1064        1063
        1060        1061        1066        1065
        1061        1062        1067        1066
        1062        1063        1068        1067
        1063        1064        1069        1068
        1065        1066        1071        1070
        1066        1067        1072        1071
        1067        1068        1073        1072
        1068        1069        1074        1073
        1075        1076        1081        1080
        1076        1077        1082        1081
        1077        1078        1083        1082
        1078        1079        1084        1083
        1080        1081        1086        1085
        1081        1082        1087        1086
        1082        1083        1088        1087
        1083        1084        1089        1088
        1085        1086        1091        1090
        1086        1087        1092        1091
        1087        1088        1093        1092
        1088        1089        1094        1093
        1090        1091        1096        1095
        1091        1092        1097        1096
        1092        1093        1098        1097
        1093        1094        1099        1098
        1100        1101        1106        1105
        1101        1102        1107        1106
        1102        1103        1108        1107
        1103        1104        1109        1108
        1105        1106        1111        1110
        1106        1107        1112        1111
        1107        1108        1113        1112
        1108        1109        1114        1113
        1110        1111        1116        1115
        1111        1112        1117        1116
        1112        1113        1118        1117
        1113        1114        1119        1118
        1115        1116        1121        1120
        1116        1117        1122        1121
        1117        1118        1123        1122
        1118        1119        1124        1123
        1125        1126        1131        1130
        1126        1127        1132        1131
        1127        1128        1133        1132
        1128        1129        1134        1133
        1130        1131        1136        1135
        1131        1132        1137        1136
        1132        1133        1138        1137
        1133        1134        1139        1138
        1135        1136        1141        1140
        1136        1137        1142        1141
        1137        1138        1143        1142
        1138        1139        1144        1143
        1140        1141        1146        1145
        1141        1142        1147        1146
        1142        1143        1148        1147
        1143        1144        1149        1148
        1150        1151        1156        1155
        1151        1152        1157        1156
        1152        1153        1158        1157
        1153        1154        1159        1158
        1155        1156        1161        1160
        1156        1157        1162        1161
        1157        1158        1163        1162
        1158        1159        1164        1163
        1160        1161        1166        1165
        1161        1162        1167        1166
        1162        1163        1168        1167
        1163        1164        1169        1168
        1165        1166        1171        1170
        1166        1167        1172        1171
        1167        1168        1173        1172
        1168        1169        1174        1173
        1175        1176        1181        1180
        1176        1177        1182        1181
        1177        1178        1183        1182
        1178        1179        1184        1183
        1180        1181        1186        1185
        1181        1182        1187        1186
        1182        1183        1188        1187
        1183        1184        1189        1188
        1185        1186        1191        1190
        1186        1187        1192        1191
        1187        1188        1193        1192
        1188        1189        1194        1193
        1190        1191        1196        1195
        1191        1192        1197        1196
        1192        1193        1198        1197
        1193        1194        1199        1198
        1200        1201        1206        1205
        1201        1202        1207        1206
        1202        1203        1208        1207
        1203        1204        1209        1208
        1205        1206        1211        1210
        1206        1207        1212        1211
        1207        1208        1213        1212
        1208        1209        1214        1213
        1210        1211        1216        1215
        1211        1212        1217        1216
        1212        1213        1218        1217
        1213        1214        1219        1218
        1215        1216        1221        1220
        1216        1217        1222        1221
        1217        1218        1223        1222
        1218        1219        1224        1223
        1225        1226        1231        1230
        1226        1227        1232        1231
        1227        1228        1233        1232
        1228        1229        1234        1233
        1230        1231        1236        1235
        1231        1232        1237        1236
        1232        1233        1238        1237
        1233        1234        1239        1238
        1235        1236        1241        1240
        1236        1237        1242        1241
        1237        1238        1243        1242
        1238        1239        1244        1243
        1240        1241        1246        1245
        1241        1242        1247        1246
        1242        1243        1248        1247
        1243        1244        1249        1248
        1250        1251        1256        1255
        1251        1252        1257        1256
        1252        1253        1258        1257
        1253        1254        1259        1258
        1255        1256        1261        1260
        1256        1257        1262        1261
        1257        1258        1263        1262
        1258        1259        1264        1263
        1260        1261        1266        1265
        1261        1262        1267        1266
        1262        1263        1268        1267
        1263        1264        1269        1268
        1265        1266        1271        1270
        1266        1267        1272        1271
        1267        1268        1273        1272
        1268        1269        1274        1273
        1275        1276        1281        1280
        1276        1277        1282        1281
        1277        1278        1283        1282
        1278        1279        1284        1283
        1280        1281        1286        1285
        1281        1282        1287        1286
        1282        1283        1288        1287
        1283        1284        1289        1288
        1285        1286        1291        1290
        1286        1287        1292        1291
        1287        1288        1293        1292
        1288        1289        1294        1293
        1290        1291        1296        1295
        1291        1292        1297        1296
        1292        1293        1298        1297
        1293        1294        1299        1298
        1300        1301        1306        1305
        1301        1302        1307        1306
        1302        1303        1308        1307
        1303        1304        1309        1308
        1305        1306        1311        1310
        1306        1307        1312        1311
        1307        1308        1313        1312
        1308        1309        1314        1313
        1310        1311        1316        1315
        1311        1312        1317        1316
        1312        1313        1318        1317
        1313        1314        1319        1318
        1315        1316        1321        1320
        1316        1317        1322        1321
        1317        1318        1323        1322
        1318        1319        1324        1323
        1325        1326        1331        1330
        1326        1327        1332        1331
        1327        1328        1333        1332
        1328        1329        1334        1333
        1330        1331        1336        1335
        1331        1332        1337        1336
        1332        1333        1338        1337
        1333        1334        1339        1338
        1335        1336        1341        1340
        1336        1337        1342        1341
        1337        1338        1343        1342
        1338        1339        1344        1343
        1340        1341        1346        1345
        1341        1342        1347        1346
        1342        1343        1348        1347
        1343        1344        1349        1348
        1350        1351        1356        1355
        1351        1352        1357        1356
        1352        1353        1358        1357
        1353        1354        1359        1358
        1355        1356        1361        1360
        1356        1357        1362        1361
        1357        1358        1363        1362
        1358        1359        1364        1363
        1360        1361        1366        1365
        1361        1362        1367        1366
        1362        1363        1368        1367
        1363        1364        1369        1368
        1365        1366        1371        1370
        1366        1367        1372        1371
        1367        1368        1373        1372
        1368        1369        1374        1373
        1375        1376        1381        1380
        1376        1377        1382        1381
        1377        1378        1383        1382
        1378        1379        1384        1383
        1380        1381        1386        1385
        1381        1382        1387        1386
        1382        1383        1388        1387
        1383        1384        1389        1388
        1385        1386        1391        1390
        1386        1387        1392        1391
        1387        1388        1393        1392
        1388        1389        1394        1393
        1390        1391        1396        1395
        1391        1392        1397        1396
        1392        1393        1398        1397
        1393        1394        1399        1398
        1400        1401        1406        1405
        1401        1402        1407        1406
        1402        1403        1408        1407
        1403        1404        1409        1408
        1405        1406        1411        1410
        1406        1407        1412        1411
        1407        1408        1413        1412
        1408        1409        1414        1413
        1410        1411        1416        1415
        1411        1412        1417        1416
        1412        1413        1418        1417
        1413        1414        1419        1418
        1415        1416        1421        1420
        1416        1417        1422        1421
        1417        1418        1423        1422
        1418        1419        1424        1423
        1425        1426        1431        1430
        1426        1427        1432        1431
        1427        1428        1433        1432
        1428        1429        1434        1433
        1430        1431        1436        1435
        1431        1432        1437        1436
        1432        1433        1438        1437
        1433        1434        1439        1438
        1435        1436        1441        1440
        1436        1437        1442        1441
        1437        1438        1443        1442
        1438        1439        1444        1443
        1440        1441        1446        1445
        1441        1442        1447        1446
        1442        1443        1448        1447
        1443        1444        1449        1448
        1450        1451        1456        1455
        1451        1452        1457        1456
        1452        1453        1458        1457
        1453        1454        1459        1458
        1455        1456        1461        1460
        1456        1457        1462        1461
        1457        1458        1463        1462
        1458        1459        1464        1463
        1460        1461        1466        1465
        1461        1462        1467        1466
        1462        1463        1468        1467
        1463        1464        1469        1468
        1465        1466        1471        1470
        1466        1467        1472        1471
        1467        1468        1473        1472
        1468        1469        1474        1473
        1475        1476        1481        1480
        1476        1477        1482        1481
        1477        1478        1483        1482
        1478        1479        1484        1483
        1480        1481        1486        1485
        1481        1482        1487        1486
        1482        1483        1488        1487
        1483        1484        1489        1488
        1485        1486        1491        1490
        1486        1487        1492        1491
        1487        1488        1493        1492
        1488        1489        1494        1493
        1490        1491        1496        1495
        1491        1492        1497        1496
        1492        1493        1498        1497
        1493        1494        1499        1498
        1500        1501        1506        1505
        1501        1502        1507        1506
        1502        1503        1508        1507
        1503        1504        1509        1508
        1505        1506        1511        1510
        1506        1507        1512        1511
        1507        1508        1513        1512
        1508        1509        1514        1513
        1510        1511        1516        1515
        1511        1512        1517        1516
        1512        1513        1518        1517
        1513        1514        1519        1518
        1515        1516        1521        1520
        1516        1517        1522        1521
        1517        1518        1523        1522
        1518        1519        1524        1523
        1525        1526        1531        1530
        1526        1527        1532        1531
        1527        1528        1533        1532
        1528        1529        1534        1533
        1530        1531        1536        1535
        1531        1532        1537        1536
        1532        1533        1538        1537
        1533        1534        1539        1538
        1535        1536        1541        1540
        1536        1537        1542        1541
        1537        1538        1543        1542
        1538        1539        1544        1543
        1540        1541        1546        1545
        1541        1542        1547        1546
        1542        1543        1548        1547
        1543        1544        1549        1548
        1550        1551        1556        1555
        1551        1552        1557        1556
        1552        1553        1558        1557
        1553        1554        1559        1558
        1555        1556        1561        1560
        1556        1557        1562        1561
        1557        1558        1563        1562
        1558        1559        1564        1563
        1560        1561        1566        1565
        1561        1562        1567        1566
        1562        1563        1568        1567
        1563        1564        1569        1568
        1565        1566        1571        1570
        1566        1567        1572        1571
        1567        1568        1573        1572
        1568        1569        1574        1573
        1575        1576        1581        1580
        1576        1577        1582        1581
        1577        1578        1583        1582
        1578        1579        1584        1583
        1580        1581        1586        1585
        1581        1582        1587        1586
        1582        1583        1588        1587
        1583        1584        1589        1588
        1585        1586        1591        1590
        1586        1587        1592        1591
        1587        1588        1593        1592
        1588        1589        1594        1593
        1590        1591        1596        1595
        1591        1592        1597        1596
        1592        1593        1598        1597
        1593        1594        1599        1598
 </DataArray>
 <DataArray  type="Int32"  Name="offsets"  format="ascii"> 
           4
           8
          12
          16
          20
          24
          28
          32
          36
          40
          44
          48
          52
          56
          60
          64
          68
          72
          76
          80
          84
          88
          92
          96
         100
         104
         108
         112
         116
         120
         124
         128
         132
         136
         140
         144
         148
         152
         156
         160
         164
         168
         172
         176
         180
         184
         188
         192
         196
         200
         204
         208
         212
         216
         220
         224
         228
         232
         236
         240
         244
         248
         252
         256
         260
         264
         268
         272
         276
         280
         284
         288
         292
         296
         300
         304
         308
         312
         316
         320
         324
         328
         332
         336
         340
         344
         348
         352
         356
         360
         364
         368
         372
         376
         380
         384
         388
         392
         396
         400
         404
         408
         412
         416
         420
         424
         428
         432
         436
         440
         444
         448
         452
         456
         460
         464
         468
         472
         476
         480
         484
         488
         492
         496
         500
         504
         508
         512
         516
         520
         524
         528
         532
         536
         540
         544
         548
         552
         556
         560
         564
         568
         572
         576
         580
         584
         588
         592
         596
         600
         604
         608
         612
         616
         620
         624
         628
         632
         636
         640
         644
         648
         652
         656
         660
         664
         668
         672
         676
         680
         684
         688
         692
         696
         700
         704
         708
         712
         716
         720
         724
         728
         732
         736
         740
         744
         748
         752
         756
         760
         764
         768
         772
         776
         780
         784
         788
         792
         796
         800
         804
         808
         812
         816
         820
         824
         828
         832
         836
         840
         844
         848
         852
         856
         860
         864
         868
         872
         876
         880
         884
         888
         892
         896
         900
         904
         908
         912
         916
         920
         924
         928
         932
         936
         940
         944
         948
         952
         956
         960
         964
         968
         972
         976
         980
         984
         988
         992
         996
        1000
        1004
        1008
        1012
        1016
        1020
        1024
        1028
        1032
        1036
        1040
        1044
        1048
        1052
        1056
        1060
        1064
        1068
        1072
        1076
        1080
        1084
        1088
        1092
        1096
        1100
        1104
        1108
        1112
        1116
        1120
        1124
        1128
        1132
        1136
        1140
        1144
        1148
        1152
        1156
        1160
        1164
        1168
        1172
        1176
        1180
        1184
        1188
        1192
        1196
        1200
        1204
        1208
        1212
        1216
        1220
        1224
        1228
        1232
        1236
        1240
        1244
        1248
        1252
        1256
        1260
        1264
        1268
        1272
        1276
        1280
        1284
        1288
        1292
        1296
        1300
        1304
        1308
        1312
        1316
        1320
        1324
        1328
        1332
        1336
        1340
        1344
        1348
        1352
        1356
        1360
        1364
        1368
        1372
        1376
        1380
        1384
        1388
        1392
        1396
        1400
        1404
        1408
        1412
        1416
        1420
        1424
        1428
        1432
        1436
        1440
        1444
        1448
        1452
        1456
        1460
        1464
        1468
        1472
        1476
        1480
        1484
        1488
        1492
        1496
        1500
        1504
        1508
        1512
        1516
        1520
        1524
        1528
        1532
        1536
        1540
        1544
        1548
        1552
        1556
        1560
        1564
        1568
        1572
        1576
        1580
        1584
        1588
        1592
        1596
        1600
        1604
        1608
        1612
        1616
        1620
        1624
        1628
        1632
        1636
        1640
        1644
        1648
        1652
        1656
        1660
        1664
        1668
        1672
        1676
        1680
        1684
        1688
        1692
        1696
        1700
        1704
        1708
        1712
        1716
        1720
        1724
        1728
        1732
        1736
        1740
        1744
        1748
        1752
        1756
        1760
        1764
        1768
        1772
        1776
        1780
        1784
        1788
        1792
        1796
        1800
        1804
        1808
        1812
        1816
        1820
        1824
        1828
        1832
        1836
        1840
        1844
        1848
        1852
        1856
        1860
        1864
        1868
        1872
        1876
        1880
        1884
        1888
        1892
        1896
        1900
        1904
        1908
        1912
        1916
        1920
        1924
        1928
        1932
        1936
        1940
        1944
        1948
        1952
        1956
        1960
        1964
        1968
        1972
        1976
        1980
        1984
        1988
        1992
        1996
        2000
        2004
        2008
        2012
        2016
        2020
        2024
        2028
        2032
        2036
        2040
        2044
        2048
        2052
        2056
        2060
        2064
        2068
        2072
        2076
        2080
        2084
        2088
        2092
        2096
        2100
        2104
        2108
        2112
        2116
        2120
        2124
        2128
        2132
        2136
        2140
        2144
        2148
        2152
        2156
        2160
        2164
        2168
        2172
        2176
        2180
        2184
        2188
        2192
        2196
        2200
        2204
        2208
        2212
        2216
        2220
        2224
        2228
        2232
        2236
        2240
        2244
        2248
        2252
        2256
        2260
        2264
        2268
        2272
        2276
        2280
        2284
        2288
        2292
        2296
        2300
        2304
        2308
        2312
        2316
        2320
        2324
        2328
        2332
        2336
        2340
        2344
        2348
        2352
        2356
        2360
        2364
        2368
        2372
        2376
        2380
        2384
        2388
        2392
        2396
        2400
        2404
        2408
        2412
        2416
        2420
        2424
        2428
        2432
        2436
        2440
        2444
        2448
        2452
        2456
        2460
        2464
        2468
        2472
        2476
        2480
        2484
        2488
        2492
        2496
        2500
        2504
        2508
        2512
        2516
        2520
        2524
        2528
        2532
        2536
        2540
        2544
        2548
        2552
        2556
        2560
        2564
        2568
        2572
        2576
        2580
        2584
        2588
        2592
        2596
        2600
        2604
        2608
        2612
        2616
        2620
        2624
        2628
        2632
        2636
        2640
        2644
        2648
        2652
        2656
        2660
        2664
        2668
        2672
        2676
        2680
        2684
        2688
        2692
        2696
        2700
        2704
        2708
        2712
        2716
        2720
        2724
        2728
        2732
        2736
        2740
        2744
        2748
        2752
        2756
        2760
        2764
        2768
        2772
        2776
        2780
        2784
        2788
        2792
        2796
        2800
        2804
        2808
        2812
        2816
        2820
        2824
        2828
        2832
        2836
        2840
        2844
        2848
        2852
        2856
        2860
        2864
        2868
        2872
        2876
        2880
        2884
        2888
        2892
        2896
        2900
        2904
        2908
        2912
        2916
        2920
        2924
        2928
        2932
        2936
        2940
        2944
        2948
        2952
        2956
        2960
        2964
        2968
        2972
        2976
        2980
        2984
        2988
        2992
        2996
        3000
        3004
        3008
        3012
        3016
        3020
        3024
        3028
        3032
        3036
        3040
        3044
        3048
        3052
        3056
        3060
        3064
        3068
        3072
        3076
        3080
        3084
        3088
        3092
        3096
        3100
        3104
        3108
        3112
        3116
        3120
        3124
        3128
        3132
        3136
        3140
        3144
        3148
        3152
        3156
        3160
        3164
        3168
        3172
        3176
        3180
        3184
        3188
        3192
        3196
        3200
        3204
        3208
        3212
        3216
        3220
        3224
        3228
        3232
        3236
        3240
        3244
        3248
        3252
        3256
        3260
        3264
        3268
        3272
        3276
        3280
        3284
        3288
        3292
        3296
        3300
        3304
        3308
        3312
        3316
        3320
        3324
        3328
        3332
        3336
        3340
        3344
        3348
        3352
        3356
        3360
        3364
        3368
        3372
        3376
        3380
        3384
        3388
        3392
        3396
        3400
        3404
        3408
        3412
        3416
        3420
        3424
        3428
        3432
        3436
        3440
        3444
        3448
        3452
        3456
        3460
        3464
        3468
        3472
        3476
        3480
        3484
        3488
        3492
        3496
        3500
        3504
        3508
        3512
        3516
        3520
        3524
        3528
        3532
        3536
        3540
        3544
        3548
        3552
        3556
        3560
        3564
        3568
        3572
        3576
        3580
        3584
        3588
        3592
        3596
        3600
        3604
        3608
        3612
        3616
        3620
        3624
        3628
        3632
        3636
        3640
        3644
        3648
        3652
        3656
        3660
        3664
        3668
        3672
        3676
        3680
        3684
        3688
        3692
        3696
        3700
        3704
        3708
        3712
        3716
        3720
        3724
        3728
        3732
        3736
        3740
        3744
        3748
        3752
        3756
        3760
        3764
        3768
        3772
        3776
        3780
        3784
        3788
        3792
        3796
        3800
        3804
        3808
        3812
        3816
        3820
        3824
        3828
        3832
        3836
        3840
        3844
        3848
        3852
        3856
        3860
        3864
        3868
        3872
        3876
        3880
        3884
        3888
        3892
        3896
        3900
        3904
        3908
        3912
        3916
        3920
        3924
        3928
        3932
        3936
        3940
        3944
        3948
        3952
        3956
        3960
        3964
        3968
        3972
        3976
        3980
        3984
        3988
        3992
        3996
        4000
        4004
        4008
        4012
        4016
        4020
        4024
        4028
        4032
        4036
        4040
        4044
        4048
        4052
        4056
        4060
        4064
        4068
        4072
        4076
        4080
        4084
        4088
        4092
        4096
 </DataArray>
 <DataArray  type="UInt8"  Name="types"  format="ascii">
 9
 9
 9
 9
 9
 9
 9
 9
 9
 9
 9
 9
 9
 9
 9
 9
 9
 9
 9
 9
 9
 9
 9
 9
 9
 9
 9
 9
 9
 9
 9
 9
 9
 9
 9
 9
 9
 9
 9
 9
 9
 9
 9
 9
 9
 9
 9
 9
 9
 9
 9
 9
 9
 9
 9
 9
 9
 9
 9
 9
 9
 9
 9
 9
 9
 9
 9
 9
 9
 9
 9
 9
 9
 9
 9
 9
 9
 9
 9
 9
 9
 9
 9
 9
 9
 9
 9
 9
 9
 9
 9
 9
 9
 9
 9
 9
 9
 9
 9
 9
 9
 9
 9
 9
 9
 9
 9
 9
 9
 9
 9
 9
 9
 9
 9
 9
 9
 9
 9
 9
 9
 9
 9
 9
 9
 9
 9
 9
 9
 9
 9
 9
 9
 9
 9
 9
 9
 9
 9
 9
 9
 9
 9
 9
 9
 9
 9
 9
 9
 9
 9
 9
 9
 9
 9
 9
 9
 9
 9
 9
 9
 9
 9
 9
 9
 9
 9
 9
 9
 9
 9
 9
 9
 9
 9
 9
 9
 9
 9
 9
 9
 9
 9
 9
 9
 9
 9
 9
 9
 9
 9
 9
 9
 9
 9
 9
 9
 9
 9
 9
 9
 9
 9
 9
 9
 9
 9
 9
 9
 9
 9
 9
 9
 9
 9
 9
 9
 9
 9
 9
 9
 9
 9
 9
 9
 9
 9
 9
 9
 9
 9
 9
 9
 9
 9
 9
 9
 9
 9
 9
 9
 9
 9
 9
 9
 9
 9
 9
 9
 9
 9
 9
 9
 9
 9
 9
 9
 9
 9
 9
 9
 9
 9
 9
 9
 9
 9
 9
 9
 9
 9
 9
 9
 9
 9
 9
 9
 9
 9
 9
 9
 9
 9
 9
 9
 9
 9
 9
 9
 9
 9
 9
 9
 9
 9
 9
 9
 9
 9
 9
 9
 9
 9
 9
 9
 9
 9
 9
 9
 9
 9
 9
 9
 9
 9
 9
 9
 9
 9
 9
 9
 9
 9
 9
 9
 9
 9
 9
 9
 9
 9
 9
 9
 9
 9
 9
 9
 9
 9
 9
 9
 9
 9
 9
 9
 9
 9
 9
 9
 9
 9
 9
 9
 9
 9
 9
 9
 9
 9
 9
 9
 9
 9
 9
 9
 9
 9
 9
 9
 9
 9
 9
 9
 9
 9
 9
 9
 9
 9
 9
 9
 9
 9
 9
 9
 9
 9
 9
 9
 9
 9
 9
 9
 9
 9
 9
 9
 9
 9
 9
 9
 9
 9
 9
 9
 9
 9
 9
 9
 9
 9
 9
 9
 9
 9
 9
 9
 9
 9
 9
 9
 9
 9
 9
 9
 9
 9
 9
 9
 9
 9
 9
 9
 9
 9
 9
 9
 9
 9
 9
 9
 9
 9
 9
 9
 9
 9
 9
 9
 9
 9
 9
 9
 9
 9
 9
 9
 9
 9
 9
 9
 9
 9
 9
 9
 9
 9
 9
 9
 9
 9
 9
 9
 9
 9
 9
 9
 9
 9
 9
 9
 9
 9
 9
 9
 9
 9
 9
 9
 9
 9
 9
 9
 9
 9
 9
 9
 9
 9
 9
 9
 9
 9
 9
 9
 9
 9
 9
 9
 9
 9
 9
 9
 9
 9
 9
 9
 9
 9
 9
 9
 9
 9
 9
 9
 9
 9
 9
 9
 9
 9
 9
 9
 9
 9
 9
 9
 9
 9
 9
 9
 9
 9
 9
 9
 9
 9
 9
 9
 9
 9
 9
 9
 9
 9
 9
 9
 9
 9
 9
 9
 9
 9
 9
 9
 9
 9
 9
 9
 9
 9
 9
 9
 9
 9
 9
 9
 9
 9
 9
 9
 9
 9
 9
 9
 9
 9
 9
 9
 9
 9
 9
 9
 9
 9
 9
 9
 9
 9
 9
 9
 9
 9
 9
 9
 9
 9
 9
 9
 9
 9
 9
 9
 9
 9
 9
 9
 9
 9
 9
 9
 9
 9
 9
 9
 9
 9
 9
 9
 9
 9
 9
 9
 9
 9
 9
 9
 9
 9
 9
 9
 9
 9
 9
 9
 9
 9
 9
 9
 9
 9
 9
 9
 9
 9
 9
 9
 9
 9
 9
 9
 9
 9
 9
 9
 9
 9
 9
 9
 9
 9
 9
 9
 9
 9
 9
 9
 9
 9
 9
 9
 9
 9
 9
 9
 9
 9
 9
 9
 9
 9
 9
 9
 9
 9
 9
 9
 9
 9
 9
 9
 9
 9
 9
 9
 9
 9
 9
 9
 9
 9
 9
 9
 9
 9
 9
 9
 9
 9
 9
 9
 9
 9
 9
 9
 9
 9
 9
 9
 9
 9
 9
 9
 9
 9
 9
 9
 9
 9
 9
 9
 9
 9
 9
 9
 9
 9
 9
 9
 9
 9
 9
 9
 9
 9
 9
 9
 9
 9
 9
 9
 9
 9
 9
 9
 9
 9
 9
 9
 9
 9
 9
 9
 9
 9
 9
 9
 9
 9
 9
 9
 9
 9
 9
 9
 9
 9
 9
 9
 9
 9
 9
 9
 9
 9
 9
 9
 9
 9
 9
 9
 9
 9
 9
 9
 9
 9
 9
 9
 9
 9
 9
 9
 9
 9
 9
 9
 9
 9
 9
 9
 9
 9
 9
 9
 9
 9
 9
 9
 9
 9
 9
 9
 9
 9
 9
 9
 9
 9
 9
 9
 9
 9
 9
 9
 9
 9
 9
 9
 9
 9
 9
 9
 9
 9
 9
 9
 9
 9
 9
 9
 9
 9
 9
 9
 9
 9
 9
 9
 9
 9
 9
 9
 9
 9
 9
 9
 9
 9
 9
 9
 9
 9
 9
 9
 9
 9
 9
 9
 9
 9
 9
 9
 9
 9
 9
 9
 9
 9
 9
 9
 9
 9
 9
 9
 9
 9
 9
 9
 9
 9
 9
 9
 9
 9
 9
 9
 9
 9
 9
 9
 9
 9
 9
 9
 9
 9
 9
 9
 9
 9
 9
 9
 9
 9
 9
 9
 9
 9
 9
 9
 9
 9
 9
 9
 9
 9
 9
 9
 9
 9
 9
 9
 9
 9
 9
 9
 9
 9
 9
 9
 9
 9
 9
 9
 9
 9
 9
 9
 9
 9
 9
 9
 9
 9
 9
 9
 9
 9
 9
 9
 9
 9
 9
 9
 9
 9
 9
 9
 9
 9
 9
 9
 9
 9
 9
 9
 9
 9
 9
 9
 9
 9
 9
 9
 9
 9
 9
 9
 9
 9
 9
 9
 9
 9
 9
 9
 9
 9
 9
 9
 9
 9
 9
 </DataArray>
 </Cells> 
 <PointData>
 <DataArray  type="Float64" Name="disp" NumberOfComponents="3" format="ascii">
   0.0000000000000000        0.0000000000000000        0.0000000000000000     
   6.0958535927236168E-003   3.7880434948119597E-003   0.0000000000000000     
   1.1668061285226015E-002   7.3187129095880410E-003   0.0000000000000000     
   1.6716623077507195E-002   1.0592008244328243E-002   0.0000000000000000     
   2.1241538969567157E-002   1.3607929499032567E-002   0.0000000000000000     
   0.0000000000000000        0.0000000000000000        0.0000000000000000     
   4.8930783266793948E-003   3.0194236245906234E-003   0.0000000000000000     
   9.5783263615256461E-003   6.0547083659171297E-003   0.0000000000000000     
   1.4055744104538753E-002   9.1058542239795207E-003   0.0000000000000000     
   1.8325331555718714E-002   1.2172861198777793E-002   0.0000000000000000     
   0.0000000000000000        0.0000000000000000        0.0000000000000000     
   3.9565742231534671E-003   2.4219868712734394E-003   0.0000000000000000     
   7.9166183797212721E-003   5.0563458699289208E-003   0.0000000000000000     
   1.1880132469703411E-002   7.9030769959664449E-003   0.0000000000000000     
   1.5847116493099889E-002   1.0962180249386010E-002   0.0000000000000000     
   0.0000000000000000        0.0000000000000000        0.0000000000000000     
   3.2863412821458331E-003   1.9957332348604093E-003   0.0000000000000000     
   6.6829373398128913E-003   4.3236254216234152E-003   0.0000000000000000     
   1.0189788173001172E-002   6.9836765602890160E-003   0.0000000000000000     
   1.3806893781710676E-002   9.9758866508572169E-003   0.0000000000000000     
   0.0000000000000000        0.0000000000000000        0.0000000000000000     
   2.8823795036564937E-003   1.7406627153515328E-003   0.0000000000000000     
   5.8772832418005037E-003   3.8565470210006119E-003   0.0000000000000000     
   8.9847112144320323E-003   6.3476529169472374E-003   0.0000000000000000     
   1.2204663421551076E-002   9.2139804031914092E-003   0.0000000000000000     
   2.1241538969567157E-002   1.3607929499032567E-002   0.0000000000000000     
   2.5453950546483344E-002   1.6598345368753761E-002   0.0000000000000000     
   2.9564999393333201E-002   1.9795124548544572E-002   0.0000000000000000     
   3.3574685510116727E-002   2.3198267038405003E-002   0.0000000000000000     
   3.7483008896833911E-002   2.6807772838335055E-002   0.0000000000000000     
   1.8325331555718714E-002   1.2172861198777793E-002   0.0000000000000000     
   2.2425233225918800E-002   1.5325327412880504E-002   0.0000000000000000     
   2.6393593625992272E-002   1.8632850988856208E-002   0.0000000000000000     
   3.0230412755939125E-002   2.2095431926704902E-002   0.0000000000000000     
   3.3935690615759372E-002   2.5713070226426587E-002   0.0000000000000000     
   1.5847116493099889E-002   1.0962180249386010E-002   0.0000000000000000     
   1.9746574031771009E-002   1.4193551602263470E-002   0.0000000000000000     
   2.3507508667577066E-002   1.7557087026674675E-002   0.0000000000000000     
   2.7129920400518072E-002   2.1052786522619635E-002   0.0000000000000000     
   3.0613809230594029E-002   2.4680650090098337E-002   0.0000000000000000     
   1.3806893781710676E-002   9.9758866508572169E-003   0.0000000000000000     
   1.7417972964039966E-002   1.3203017936902655E-002   0.0000000000000000     
   2.0906744518087588E-002   1.6567832661999984E-002   0.0000000000000000     
   2.4273208443853563E-002   2.0070330826149202E-002   0.0000000000000000     
   2.7517364741337876E-002   2.3710512429350301E-002   0.0000000000000000     
   1.2204663421551076E-002   9.2139804031914092E-003   0.0000000000000000     
   1.5439430022725667E-002   1.2353726416798060E-002   0.0000000000000000     
   1.8591301177523837E-002   1.5665087894832123E-002   0.0000000000000000     
   2.1660276885945587E-002   1.9148064837293598E-002   0.0000000000000000     
   2.4646357147990912E-002   2.2802657244182484E-002   0.0000000000000000     
   3.7483008896833911E-002   2.6807772838335055E-002   0.0000000000000000     
   4.1297396285922133E-002   3.0615345778277622E-002   0.0000000000000000     
   4.5025274409818725E-002   3.4612689688175609E-002   0.0000000000000000     
   4.8666643268523713E-002   3.8799804568029006E-002   0.0000000000000000     
   5.2221502862037070E-002   4.3176690417837824E-002   0.0000000000000000     
   3.3935690615759372E-002   2.5713070226426587E-002   0.0000000000000000     
   3.7532653331235226E-002   2.9511447734532778E-002   0.0000000000000000     
   4.1044527028148925E-002   3.3516246297534982E-002   0.0000000000000000     
   4.4471311706500455E-002   3.7727465915433210E-002   0.0000000000000000     
   4.7813007366289816E-002   4.2145106588227454E-002   0.0000000000000000     
   3.0613809230594029E-002   2.4680650090098337E-002   0.0000000000000000     
   3.3987358525559543E-002   2.8482824365913227E-002   0.0000000000000000     
   3.7278751653169226E-002   3.2501455986866740E-002   0.0000000000000000     
   4.0487988613423093E-002   3.6736544952958874E-002   0.0000000000000000     
   4.3615069406321143E-002   4.1188091264189625E-002   0.0000000000000000     
   2.7517364741337876E-002   2.3710512429350301E-002   0.0000000000000000     
   3.0661511868895059E-002   2.7529475672418965E-002   0.0000000000000000     
   3.3727948284879655E-002   3.1568318756170860E-002   0.0000000000000000     
   3.6716673989291661E-002   3.5827041680605992E-002   0.0000000000000000     
   3.9627688982131072E-002   4.0305644445724355E-002   0.0000000000000000     
   2.4646357147990912E-002   2.2802657244182484E-002   0.0000000000000000     
   2.7555113361241786E-002   2.6651401654049996E-002   0.0000000000000000     
   3.0392116923280196E-002   3.0716834605447364E-002   0.0000000000000000     
   3.3157367834106125E-002   3.4998956098374577E-002   0.0000000000000000     
   3.5850866093719583E-002   3.9497766132831645E-002   0.0000000000000000     
   5.2221502862037070E-002   4.3176690417837824E-002   0.0000000000000000     
   5.5684517762044874E-002   4.7761126330561759E-002   0.0000000000000000     
   5.9050352540233178E-002   5.2570891399160491E-002   0.0000000000000000     
   6.2319007196601973E-002   5.7605985623634032E-002   0.0000000000000000     
   6.5490481731151268E-002   6.2866409003982368E-002   0.0000000000000000     
   4.7813007366289816E-002   4.2145106588227454E-002   0.0000000000000000     
   5.1067339805691732E-002   4.6772749724087410E-002   0.0000000000000000     
   5.4232034822880928E-002   5.1613976731182815E-002   0.0000000000000000     
   5.7307092417857398E-002   5.6668787609513646E-002   0.0000000000000000     
   6.0292512590621128E-002   6.1937182359079912E-002   0.0000000000000000     
   4.3615069406321143E-002   4.1188091264189625E-002   0.0000000000000000     
   4.6658099486924322E-002   4.5850695014943398E-002   0.0000000000000000     
   4.9615184310293596E-002   5.0718956299604573E-002   0.0000000000000000     
   5.2486323876428952E-002   5.5792875118173164E-002   0.0000000000000000     
   5.5271518185330402E-002   6.1072451470649158E-002   0.0000000000000000     
   3.9627688982131072E-002   4.0305644445724355E-002   0.0000000000000000     
   4.2456796805742658E-002   4.4994962203129700E-002   0.0000000000000000     
   4.5199801002471188E-002   4.9885830104425787E-002   0.0000000000000000     
   4.7856701572316675E-002   5.4978248149612587E-002   0.0000000000000000     
   5.0427498515279091E-002   6.0272216338690114E-002   0.0000000000000000     
   3.5850866093719583E-002   3.9497766132831645E-002   0.0000000000000000     
   3.8463431762146727E-002   4.4205551288646339E-002   0.0000000000000000     
   4.0985884899413710E-002   4.9114598145646435E-002   0.0000000000000000     
   4.3418225505520526E-002   5.4224906703831906E-002   0.0000000000000000     
   4.5760453580467195E-002   5.9536476963202786E-002   0.0000000000000000     
   6.5490481731151268E-002   6.2866409003982368E-002   0.0000000000000000     
   6.8563021846323402E-002   6.8312315973972970E-002   0.0000000000000000     
   7.1534873244560704E-002   7.3903860967373253E-002   0.0000000000000000     
   7.4406035925863173E-002   7.9641043984183230E-002   0.0000000000000000     
   7.7176509890230824E-002   8.5523865024402887E-002   0.0000000000000000     
   6.0292512590621128E-002   6.1937182359079912E-002   0.0000000000000000     
   6.3188999686113342E-002   6.7394484314779998E-002   0.0000000000000000     
   6.5997258049275226E-002   7.3016016811512305E-002   0.0000000000000000     
   6.8717287680106806E-002   7.8801779849276804E-002   0.0000000000000000     
   7.1349088578608041E-002   8.4751773428073524E-002   0.0000000000000000     
   5.5271518185330402E-002   6.1072451470649158E-002   0.0000000000000000     
   5.7975625226148256E-002   6.6542973934873226E-002   0.0000000000000000     
   6.0603502988032819E-002   7.2189731088686024E-002   0.0000000000000000     
   6.3155151470984133E-002   7.8012722932087539E-002   0.0000000000000000     
   6.5630570675002151E-002   8.4011949465077784E-002   0.0000000000000000     
   5.0427498515279091E-002   6.0272216338690114E-002   0.0000000000000000     
   5.2922898466428135E-002   6.5757784834252639E-002   0.0000000000000000     
   5.5353608060833503E-002   7.1425003798894396E-002   0.0000000000000000     
   5.7719627298495162E-002   7.7273873232615378E-002   0.0000000000000000     
   6.0020956179413130E-002   8.3304393135415628E-002   0.0000000000000000     
   4.5760453580467195E-002   5.9536476963202786E-002   0.0000000000000000     
   4.8030819406953001E-002   6.5038917012918224E-002   0.0000000000000000     
   5.0247573267677238E-002   7.0721834942137435E-002   0.0000000000000000     
   5.2410715162639919E-002   7.6585230750860378E-002   0.0000000000000000     
   5.4520245091841030E-002   8.2629104439087067E-002   0.0000000000000000     
   7.7176509890230824E-002   8.5523865024402887E-002   0.0000000000000000     
   7.9832620289201572E-002   9.1568663102368969E-002   0.0000000000000000     
   8.2360692274313307E-002   9.7791777232418248E-002   0.0000000000000000     
   8.4760725845566071E-002  0.10419320741455067        0.0000000000000000     
   8.7032721002959834E-002  0.11077295364876627        0.0000000000000000     
   7.1349088578608041E-002   8.4751773428073524E-002   0.0000000000000000     
   7.3855848998645585E-002   9.0857598126505956E-002   0.0000000000000000     
   7.6200757194086019E-002   9.7110854523177553E-002   0.0000000000000000     
   7.8383813164929400E-002  0.10351154261808834        0.0000000000000000     
   8.0405016911175686E-002  0.11005966241123831        0.0000000000000000     
   6.5630570675002151E-002   8.4011949465077784E-002   0.0000000000000000     
   6.7983367262191494E-002   9.0164218352549869E-002   0.0000000000000000     
   7.0167147894656834E-002   9.6446337259396900E-002   0.0000000000000000     
   7.2181912572398130E-002  0.10285830618561892        0.0000000000000000     
   7.4027661295415381E-002  0.10940012513121589        0.0000000000000000     
   6.0020956179413130E-002   8.3304393135415628E-002   0.0000000000000000     
   6.2215175079839355E-002   8.9488523780500720E-002   0.0000000000000000     
   6.4259864376025724E-002   9.5798225441076315E-002   0.0000000000000000     
   6.6155024067972246E-002  0.10223349811714244        0.0000000000000000     
   6.7900654155678947E-002  0.10879434180869903        0.0000000000000000     
   5.4520245091841030E-002   8.2629104439087067E-002   0.0000000000000000     
   5.6551272451589106E-002   8.8830514410358524E-002   0.0000000000000000     
   5.8478906638192690E-002   9.5166519068215799E-002   0.0000000000000000     
   6.0303147651651789E-002  0.10163711841265885        0.0000000000000000     
   6.2023995491966383E-002  0.10824231244368773        0.0000000000000000     
   8.7032721002959834E-002  0.11077295364876627        0.0000000000000000     
   8.9314430883744980E-002  0.11757588637750567        0.0000000000000000     
   9.1743608625171863E-002  0.12464687604320947        0.0000000000000000     
   9.4320254227240455E-002  0.13198592264587763        0.0000000000000000     
   9.7044367689950783E-002  0.13959302618551025        0.0000000000000000     
   8.0405016911175686E-002  0.11005966241123831        0.0000000000000000     
   8.2457870813196832E-002  0.11681923234828574        0.0000000000000000     
   8.4735877251364805E-002  0.12385427087488894        0.0000000000000000     
   8.7239036225679634E-002  0.13116477799104789        0.0000000000000000     
   8.9967347736141262E-002  0.13875075369676257        0.0000000000000000     
   7.4027661295415381E-002  0.10940012513121589        0.0000000000000000     
   7.5904018081546010E-002  0.11614368914830042        0.0000000000000000     
   7.8010606948627395E-002  0.12316089328898512        0.0000000000000000     
   8.0347427896659565E-002  0.13045173755326997        0.0000000000000000     
   8.2914480925642464E-002  0.13801622194115498        0.0000000000000000     
   6.7900654155678947E-002  0.10879434180869903        0.0000000000000000     
   6.9652872688792514E-002  0.11554925677754967        0.0000000000000000     
   7.1567797716959619E-002  0.12256674328549798        0.0000000000000000     
   7.3645429240180249E-002  0.12984680133254392        0.0000000000000000     
   7.5885767258454473E-002  0.13738943091868747        0.0000000000000000     
   6.2023995491966383E-002  0.10824231244368773        0.0000000000000000     
   6.3704434634936316E-002  0.11503593523603357        0.0000000000000000     
   6.5407449556361449E-002  0.12207182086442760        0.0000000000000000     
   6.7133040256241741E-002  0.12934996932886975        0.0000000000000000     
   6.8881206734577233E-002  0.13687038062936005        0.0000000000000000     
   9.7044367689950783E-002  0.13959302618551025        0.0000000000000000     
   9.9617406581918255E-002  0.14722826802257538        0.0000000000000000     
  0.10174082847175821       0.15465172951754108        0.0000000000000000     
  0.10341463335947070       0.16186341067040738        0.0000000000000000     
  0.10463882124505568       0.16886331148117431        0.0000000000000000     
   8.9967347736141262E-002  0.13875075369676257        0.0000000000000000     
   9.2537745187936532E-002  0.14640990363850304        0.0000000000000000     
   9.4567161986252340E-002  0.15393993346273921        0.0000000000000000     
   9.6055598131088646E-002  0.16134084316947114        0.0000000000000000     
   9.7003053622445434E-002  0.16861263275869878        0.0000000000000000     
   8.2914480925642464E-002  0.13801622194115498        0.0000000000000000     
   8.5356235518301821E-002  0.14568932643611460        0.0000000000000000     
   8.7317161157363196E-002  0.15330603102162324        0.0000000000000000     
   8.8797257842826646E-002  0.16086633569768091        0.0000000000000000     
   8.9796525574692157E-002  0.16837024046428761        0.0000000000000000     
   7.5885767258454473E-002  0.13738943091868747        0.0000000000000000     
   7.8072877573014052E-002  0.14506653641541009        0.0000000000000000     
   7.9990825985090788E-002  0.15275002219419320        0.0000000000000000     
   8.1639612494684696E-002  0.16043988825503677        0.0000000000000000     
   8.3019237101795804E-002  0.16813613459794086        0.0000000000000000     
   6.8881206734577233E-002  0.13687038062936005        0.0000000000000000     
   7.0687671352073225E-002  0.14454153357638949        0.0000000000000000     
   7.2588156469435089E-002  0.15227190698044907        0.0000000000000000     
   7.4582662086662810E-002  0.16006150084153872        0.0000000000000000     
   7.6671188203756374E-002  0.16791031515965849        0.0000000000000000     
   0.0000000000000000        0.0000000000000000        0.0000000000000000     
   2.8823795036564937E-003   1.7406627153515328E-003   0.0000000000000000     
   5.8772832418005037E-003   3.8565470210006119E-003   0.0000000000000000     
   8.9847112144320323E-003   6.3476529169472374E-003   0.0000000000000000     
   1.2204663421551076E-002   9.2139804031914092E-003   0.0000000000000000     
   0.0000000000000000        0.0000000000000000        0.0000000000000000     
   2.6114518057183435E-003   1.5842836612523321E-003   0.0000000000000000     
   5.2924490281210743E-003   3.5480175882119363E-003   0.0000000000000000     
   8.0429916672081943E-003   5.8912017808788134E-003   0.0000000000000000     
   1.0863079722979702E-002   8.6138362392529609E-003   0.0000000000000000     
   0.0000000000000000        0.0000000000000000        0.0000000000000000     
   2.3403211063642787E-003   1.4541044210683288E-003   0.0000000000000000     
   4.7212276412115662E-003   3.2909440434088118E-003   0.0000000000000000     
   7.1427196045418606E-003   5.5105188670214493E-003   0.0000000000000000     
   9.6047969963551656E-003   8.1128288919062423E-003   0.0000000000000000     
   0.0000000000000000        0.0000000000000000        0.0000000000000000     
   2.0689874055943008E-003   1.3501249947995236E-003   0.0000000000000000     
   4.1636190810719793E-003   3.0853263865912388E-003   0.0000000000000000     
   6.2838950264330349E-003   5.2056041753751475E-003   0.0000000000000000     
   8.4298152416774665E-003   7.7109583611512491E-003   0.0000000000000000     
   0.0000000000000000        0.0000000000000000        0.0000000000000000     
   1.7974507034084083E-003   1.2723453824459159E-003   0.0000000000000000     
   3.6196233477023120E-003   2.9311646177592183E-003   0.0000000000000000     
   5.4665179328817108E-003   4.9764577059399073E-003   0.0000000000000000     
   7.3381344589466052E-003   7.4082246469879820E-003   0.0000000000000000     
   1.2204663421551076E-002   9.2139804031914092E-003   0.0000000000000000     
   1.5439430022725667E-002   1.2353726416798060E-002   0.0000000000000000     
   1.8591301177523837E-002   1.5665087894832123E-002   0.0000000000000000     
   2.1660276885945587E-002   1.9148064837293598E-002   0.0000000000000000     
   2.4646357147990912E-002   2.2802657244182484E-002   0.0000000000000000     
   1.0863079722979702E-002   8.6138362392529609E-003   0.0000000000000000     
   1.3698470980692662E-002   1.1633442499280730E-002   0.0000000000000000     
   1.6494923225604127E-002   1.4867542096908465E-002   0.0000000000000000     
   1.9252436457714107E-002   1.8316135032136159E-002   0.0000000000000000     
   2.1971010677022597E-002   2.1979221304963822E-002   0.0000000000000000     
   9.6047969963551656E-003   8.1128288919062423E-003   0.0000000000000000     
   1.2082621610805472E-002   1.1029931641681708E-002   0.0000000000000000     
   1.4551355242046777E-002   1.4193884639966367E-002   0.0000000000000000     
   1.7010997890079076E-002   1.7604687886760225E-002   0.0000000000000000     
   1.9461549554902379E-002   2.1262341382063270E-002   0.0000000000000000     
   8.4298152416774665E-003   7.7109583611512491E-003   0.0000000000000000     
   1.0591881913064106E-002   1.0543193844000993E-002   0.0000000000000000     
   1.2760597226851782E-002   1.3644115524005841E-002   0.0000000000000000     
   1.4935961183040497E-002   1.7013723401165783E-002   0.0000000000000000     
   1.7117973781630252E-002   2.0652017475480823E-002   0.0000000000000000     
   7.3381344589466052E-003   7.4082246469879820E-003   0.0000000000000000     
   9.2262518874685617E-003   1.0173229106238591E-002   0.0000000000000000     
   1.1122649180019149E-002   1.3218234749026878E-002   0.0000000000000000     
   1.3027326336598368E-002   1.6543241575352845E-002   0.0000000000000000     
   1.4940283357206218E-002   2.0148249585216486E-002   0.0000000000000000     
   2.4646357147990912E-002   2.2802657244182484E-002   0.0000000000000000     
   2.7555113361241786E-002   2.6651401654049996E-002   0.0000000000000000     
   3.0392116923280196E-002   3.0716834605447364E-002   0.0000000000000000     
   3.3157367834106125E-002   3.4998956098374577E-002   0.0000000000000000     
   3.5850866093719583E-002   3.9497766132831645E-002   0.0000000000000000     
   2.1971010677022597E-002   2.1979221304963822E-002   0.0000000000000000     
   2.4637802702906993E-002   2.5855784845489286E-002   0.0000000000000000     
   2.7239969354744702E-002   2.9944809583810388E-002   0.0000000000000000     
   2.9777510632535718E-002   3.4246295519927118E-002   0.0000000000000000     
   3.2250426536280033E-002   3.8760242653839490E-002   0.0000000000000000     
   1.9461549554902379E-002   2.1262341382063270E-002   0.0000000000000000     
   2.1879219594197936E-002   2.5149807781419793E-002   0.0000000000000000     
   2.4240217365647024E-002   2.9250049740374068E-002   0.0000000000000000     
   2.6544542869249635E-002   3.3563067258926098E-002   0.0000000000000000     
   2.8792196105005781E-002   3.8088860337075897E-002   0.0000000000000000     
   1.7117973781630252E-002   2.0652017475480823E-002   0.0000000000000000     
   1.9279364035114613E-002   2.4533470461841518E-002   0.0000000000000000     
   2.1392860955987164E-002   2.8632555075138424E-002   0.0000000000000000     
   2.3458464544247892E-002   3.2949271315371530E-002   0.0000000000000000     
   2.5476174799896816E-002   3.7483619182540839E-002   0.0000000000000000     
   1.4940283357206218E-002   2.0148249585216486E-002   0.0000000000000000     
   1.6838236025657025E-002   2.4006772886754464E-002   0.0000000000000000     
   1.8697900125765110E-002   2.8092325588103432E-002   0.0000000000000000     
   2.0519275657530485E-002   3.2404907689263393E-002   0.0000000000000000     
   2.2302362620953139E-002   3.6944519190234344E-002   0.0000000000000000     
   3.5850866093719583E-002   3.9497766132831645E-002   0.0000000000000000     
   3.8463431762146727E-002   4.4205551288646339E-002   0.0000000000000000     
   4.0985884899413710E-002   4.9114598145646435E-002   0.0000000000000000     
   4.3418225505520526E-002   5.4224906703831906E-002   0.0000000000000000     
   4.5760453580467195E-002   5.9536476963202786E-002   0.0000000000000000     
   3.2250426536280033E-002   3.8760242653839490E-002   0.0000000000000000     
   3.4644830081164868E-002   4.3481778402281686E-002   0.0000000000000000     
   3.6946834282377453E-002   4.8406030181987872E-002   0.0000000000000000     
   3.9156439139917773E-002   5.3532997992958076E-002   0.0000000000000000     
   4.1273644653785829E-002   5.8862681835192283E-002   0.0000000000000000     
   2.8792196105005781E-002   3.8088860337075897E-002   0.0000000000000000     
   3.0967817487825476E-002   4.2822959674824121E-002   0.0000000000000000     
   3.3056047432618765E-002   4.7760895972171508E-002   0.0000000000000000     
   3.5056885939385628E-002   5.2902669229118043E-002   0.0000000000000000     
   3.6970333008126084E-002   5.8248279445663728E-002   0.0000000000000000     
   2.5476174799896816E-002   3.7483619182540839E-002   0.0000000000000000     
   2.7432393982128520E-002   4.2229095106273665E-002   0.0000000000000000     
   2.9313524350137624E-002   4.7179195516197321E-002   0.0000000000000000     
   3.1119565903924108E-002   5.2333920412311809E-002   0.0000000000000000     
   3.2850518643487987E-002   5.7693269794617127E-002   0.0000000000000000     
   2.2302362620953139E-002   3.6944519190234344E-002   0.0000000000000000     
   2.4038559564074018E-002   4.1700184696630317E-002   0.0000000000000000     
   2.5719265034934033E-002   4.6660928814065326E-002   0.0000000000000000     
   2.7344479033533205E-002   5.1826751542539372E-002   0.0000000000000000     
   2.8914201559871521E-002   5.7197652882052474E-002   0.0000000000000000     
   4.5760453580467195E-002   5.9536476963202786E-002   0.0000000000000000     
   4.8030819406953001E-002   6.5038917012918224E-002   0.0000000000000000     
   5.0247573267677238E-002   7.0721834942137435E-002   0.0000000000000000     
   5.2410715162639919E-002   7.6585230750860378E-002   0.0000000000000000     
   5.4520245091841030E-002   8.2629104439087067E-002   0.0000000000000000     
   4.1273644653785829E-002   5.8862681835192283E-002   0.0000000000000000     
   4.3322421035473263E-002   6.4382364767459635E-002   0.0000000000000000     
   4.5326738496471709E-002   7.0079329848529270E-002   0.0000000000000000     
   4.7286597036781189E-002   7.5953577078401224E-002   0.0000000000000000     
   4.9201996656401688E-002   8.2005106457075441E-002   0.0000000000000000     
   3.6970333008126084E-002   5.8248279445663728E-002   0.0000000000000000     
   3.8820736339739328E-002   6.3784122394466444E-002   0.0000000000000000     
   4.0632443635124547E-002   6.9496593848184088E-002   0.0000000000000000     
   4.2405454894281762E-002   7.5385693806816645E-002   0.0000000000000000     
   4.4139770117210972E-002   8.1451422270364129E-002   0.0000000000000000     
   3.2850518643487987E-002   5.7693269794617127E-002   0.0000000000000000     
   3.4525765319751232E-002   6.3244189893938679E-002   0.0000000000000000     
   3.6164688683635794E-002   6.8973626941101845E-002   0.0000000000000000     
   3.7767288735141680E-002   7.4881580936106668E-002   0.0000000000000000     
   3.9333565474268903E-002   8.0968051878953076E-002   0.0000000000000000     
   2.8914201559871521E-002   5.7197652882052474E-002   0.0000000000000000     
   3.0437507975508933E-002   6.2762567265876312E-002   0.0000000000000000     
   3.1923473642005401E-002   6.8510429127282571E-002   0.0000000000000000     
   3.3372098559360908E-002   7.4441238466271237E-002   0.0000000000000000     
   3.4783382727575460E-002   8.0554995282842337E-002   0.0000000000000000     
   5.4520245091841030E-002   8.2629104439087067E-002   0.0000000000000000     
   5.6551272451589106E-002   8.8830514410358524E-002   0.0000000000000000     
   5.8478906638192690E-002   9.5166519068215799E-002   0.0000000000000000     
   6.0303147651651789E-002  0.10163711841265885        0.0000000000000000     
   6.2023995491966383E-002  0.10824231244368773        0.0000000000000000     
   4.9201996656401688E-002   8.2005106457075441E-002   0.0000000000000000     
   5.1066558888905773E-002   8.8218415105954198E-002   0.0000000000000000     
   5.2873905267866027E-002   9.4578000146439634E-002   0.0000000000000000     
   5.4624035793282448E-002  0.10108386157853179        0.0000000000000000     
   5.6316950465155030E-002  0.10773599940223062        0.0000000000000000     
   4.4139770117210972E-002   8.1451422270364129E-002   0.0000000000000000     
   4.5835933903254314E-002   8.7680450731118603E-002   0.0000000000000000     
   4.7494490851753994E-002   9.4059450681372128E-002   0.0000000000000000     
   4.9115440962709991E-002  0.10058842212112473        0.0000000000000000     
   5.0698784236122292E-002  0.10726736505037637        0.0000000000000000     
   3.9333565474268903E-002   8.0968051878953076E-002   0.0000000000000000     
   4.0859397494634769E-002   8.7216621285851781E-002   0.0000000000000000     
   4.2340663389856592E-002   9.3610870673013324E-002   0.0000000000000000     
   4.3777363159934392E-002  0.10015080004043772        0.0000000000000000     
   4.5169496804868155E-002  0.10683640938812498        0.0000000000000000     
   3.4783382727575460E-002   8.0554995282842337E-002   0.0000000000000000     
   3.6136949663047091E-002   8.6826926770153703E-002   0.0000000000000000     
   3.7412422882173828E-002   9.3232260121363167E-002   0.0000000000000000     
   3.8609802384955677E-002   9.9770995336470741E-002   0.0000000000000000     
   3.9729088171392611E-002  0.10644313241547643        0.0000000000000000     
   6.2023995491966383E-002  0.10824231244368773        0.0000000000000000     
   6.3704434634936316E-002  0.11503593523603357        0.0000000000000000     
   6.5407449556361449E-002  0.12207182086442760        0.0000000000000000     
   6.7133040256241741E-002  0.12934996932886975        0.0000000000000000     
   6.8881206734577233E-002  0.13687038062936005        0.0000000000000000     
   5.6316950465155030E-002  0.10773599940223062        0.0000000000000000     
   5.7927785938354154E-002  0.11457417457974056        0.0000000000000000     
   5.9431678867750137E-002  0.12163814807326591        0.0000000000000000     
   6.0828629253343008E-002  0.12892791988280675        0.0000000000000000     
   6.2118637095132753E-002  0.13644349000836301        0.0000000000000000     
   5.0698784236122292E-002  0.10726736505037637        0.0000000000000000     
   5.2192008617422687E-002  0.11413442486465915        0.0000000000000000     
   5.3542602052042955E-002  0.12122774695950511        0.0000000000000000     
   5.4750564539983081E-002  0.12854733133491425        0.0000000000000000     
   5.5815896081243044E-002  0.13609317799088663        0.0000000000000000     
   4.5169496804868155E-002  0.10683640938812498        0.0000000000000000     
   4.6497102672141959E-002  0.11371668609078937        0.0000000000000000     
   4.7740219109239888E-002  0.12084061752314516        0.0000000000000000     
   4.8898846116161944E-002  0.12820820368519231        0.0000000000000000     
   4.9972983692908111E-002  0.13581944457693090        0.0000000000000000     
   3.9729088171392611E-002  0.10644313241547643        0.0000000000000000     
   4.0843068102511947E-002  0.11332095825813118        0.0000000000000000     
   4.2024530039340945E-002  0.12047675976418602        0.0000000000000000     
   4.3273473981879619E-002  0.12791053693364088        0.0000000000000000     
   4.4589899930127949E-002  0.13562228976649587        0.0000000000000000     
   6.8881206734577233E-002  0.13687038062936005        0.0000000000000000     
   7.0687671352073225E-002  0.14454153357638949        0.0000000000000000     
   7.2588156469435089E-002  0.15227190698044907        0.0000000000000000     
   7.4582662086662810E-002  0.16006150084153872        0.0000000000000000     
   7.6671188203756374E-002  0.16791031515965849        0.0000000000000000     
   6.2118637095132753E-002  0.13644349000836301        0.0000000000000000     
   6.3562342487230070E-002  0.14411619135308129        0.0000000000000000     
   6.5420385523745614E-002  0.15187735682010814        0.0000000000000000     
   6.7692766204679414E-002  0.15972698640944363        0.0000000000000000     
   7.0379484530031455E-002  0.16766508012108772        0.0000000000000000     
   5.5815896081243044E-002  0.13609317799088663        0.0000000000000000     
   5.7058616610235195E-002  0.14379238317951390        0.0000000000000000     
   5.8798746061371830E-002  0.15157204315288786        0.0000000000000000     
   6.1036284434652956E-002  0.15943215791100848        0.0000000000000000     
   6.3771231730078565E-002  0.16737272745387580        0.0000000000000000     
   4.9972983692908111E-002  0.13581944457693090        0.0000000000000000     
   5.1176493721088637E-002  0.14357010905568734        0.0000000000000000     
   5.2723238082313745E-002  0.15135596597878812        0.0000000000000000     
   5.4613216776583436E-002  0.15917701534623327        0.0000000000000000     
   5.6846429803897709E-002  0.16703325715802272        0.0000000000000000     
   4.4589899930127949E-002  0.13562228976649587        0.0000000000000000     
   4.5915973819790387E-002  0.14344936898160163        0.0000000000000000     
   4.7193861586571351E-002  0.15122912529780902        0.0000000000000000     
   4.8423563230470860E-002  0.15896155871511794        0.0000000000000000     
   4.9605078751488889E-002  0.16664666923352853        0.0000000000000000     
   0.0000000000000000        0.0000000000000000        0.0000000000000000     
   1.7974507034084083E-003   1.2723453824459159E-003   0.0000000000000000     
   3.6196233477023120E-003   2.9311646177592183E-003   0.0000000000000000     
   5.4665179328817108E-003   4.9764577059399073E-003   0.0000000000000000     
   7.3381344589466052E-003   7.4082246469879820E-003   0.0000000000000000     
   0.0000000000000000        0.0000000000000000        0.0000000000000000     
   1.5338123995208520E-003   1.2136328514114896E-003   0.0000000000000000     
   3.0965058059447049E-003   2.8139302816420826E-003   0.0000000000000000     
   4.6880802192715574E-003   4.8008922906917781E-003   0.0000000000000000     
   6.3085356395014107E-003   7.1745188785605780E-003   0.0000000000000000     
   0.0000000000000000        0.0000000000000000        0.0000000000000000     
   1.2861738936458813E-003   1.1668546691002274E-003   0.0000000000000000     
   2.6015318206412939E-003   2.7190949229691651E-003   0.0000000000000000     
   3.9460737809862371E-003   4.6567207616068128E-003   0.0000000000000000     
   5.3197997746807120E-003   6.9797321850131704E-003   0.0000000000000000     
   0.0000000000000000        0.0000000000000000        0.0000000000000000     
   1.0545351857834963E-003   1.1320108355121292E-003   0.0000000000000000     
   2.1347013917920802E-003   2.6466585417404659E-003   0.0000000000000000     
   3.2404986180257513E-003   4.5439431186850097E-003   0.0000000000000000     
   4.3719268644845100E-003   6.8238645663457609E-003   0.0000000000000000     
   0.0000000000000000        0.0000000000000000        0.0000000000000000     
   8.3889627593369690E-004   1.1091013506471952E-003   0.0000000000000000     
   1.6960145193970631E-003   2.5966211379559851E-003   0.0000000000000000     
   2.5713547303900988E-003   4.4625593619263696E-003   0.0000000000000000     
   3.4649169089128041E-003   6.7069160225583478E-003   0.0000000000000000     
   7.3381344589466052E-003   7.4082246469879820E-003   0.0000000000000000     
   9.2262518874685617E-003   1.0173229106238591E-002   0.0000000000000000     
   1.1122649180019149E-002   1.3218234749026878E-002   0.0000000000000000     
   1.3027326336598368E-002   1.6543241575352845E-002   0.0000000000000000     
   1.4940283357206218E-002   2.0148249585216486E-002   0.0000000000000000     
   6.3085356395014107E-003   7.1745188785605780E-003   0.0000000000000000     
   7.9453123936757599E-003   9.8844834416620241E-003   0.0000000000000000     
   9.5858508088361005E-003   1.2880459376409659E-002   0.0000000000000000     
   1.1230150884982429E-002   1.6162446682803481E-002   0.0000000000000000     
   1.2878212622114752E-002   1.9730445360843497E-002   0.0000000000000000     
   5.3197997746807120E-003   6.9797321850131704E-003   0.0000000000000000     
   6.7086442913426182E-003   9.6414028635388258E-003   0.0000000000000000     
   8.0985418205898520E-003   1.2595006467534366E-002   0.0000000000000000     
   9.4894923624224206E-003   1.5840542996999787E-002   0.0000000000000000     
   1.0881495916840319E-002   1.9378012451935097E-002   0.0000000000000000     
   4.3719268644845100E-003   6.8238645663457609E-003   0.0000000000000000     
   5.5162475804691382E-003   9.4439873718689966E-003   0.0000000000000000     
   6.6607222152804142E-003   1.2361876022400995E-002   0.0000000000000000     
   7.8053507689183430E-003   1.5577530517941760E-002   0.0000000000000000     
   8.9501332413829213E-003   1.9090950858491287E-002   0.0000000000000000     
   3.4649169089128041E-003   6.7069160225583478E-003   0.0000000000000000     
   4.3681222610553192E-003   9.2922369666525364E-003   0.0000000000000000     
   5.2723919929077816E-003   1.2181068041009553E-002   0.0000000000000000     
   6.1777261044701961E-003   1.5373409245629396E-002   0.0000000000000000     
   7.0841245957425584E-003   1.8869260580512064E-002   0.0000000000000000     
   1.4940283357206218E-002   2.0148249585216486E-002   0.0000000000000000     
   1.6838236025657025E-002   2.4006772886754464E-002   0.0000000000000000     
   1.8697900125765110E-002   2.8092325588103432E-002   0.0000000000000000     
   2.0519275657530485E-002   3.2404907689263393E-002   0.0000000000000000     
   2.2302362620953139E-002   3.6944519190234344E-002   0.0000000000000000     
   1.2878212622114752E-002   1.9730445360843497E-002   0.0000000000000000     
   1.4513619298868791E-002   2.3560116246091185E-002   0.0000000000000000     
   1.6119954193880279E-002   2.7627120174108025E-002   0.0000000000000000     
   1.7697217307149210E-002   3.1931457144894024E-002   0.0000000000000000     
   1.9245408638675594E-002   3.6473127158449185E-002   0.0000000000000000     
   1.0881495916840319E-002   1.9378012451935097E-002   0.0000000000000000     
   1.2263297587793532E-002   2.3183901729784226E-002   0.0000000000000000     
   1.3623642479232053E-002   2.7234697727991104E-002   0.0000000000000000     
   1.4962530591155876E-002   3.1530400446555737E-002   0.0000000000000000     
   1.6279961923565005E-002   3.6071009885478129E-002   0.0000000000000000     
   8.9501332413829213E-003   1.9090950858491287E-002   0.0000000000000000     
   1.0087270892431251E-002   2.2878129337833585E-002   0.0000000000000000     
   1.1208964981820438E-002   2.6915058249752665E-002   0.0000000000000000     
   1.2315215509550474E-002   3.1201737594248526E-002   0.0000000000000000     
   1.3406022475621372E-002   3.5738167371321169E-002   0.0000000000000000     
   7.0841245957425584E-003   1.8869260580512064E-002   0.0000000000000000     
   7.9855392127819447E-003   2.2642799070239271E-002   0.0000000000000000     
   8.8759217016454294E-003   2.6668201739392709E-002   0.0000000000000000     
   9.7552720623330109E-003   3.0945468587972400E-002   0.0000000000000000     
   1.0623590294844694E-002   3.5474599615978326E-002   0.0000000000000000     
   2.2302362620953139E-002   3.6944519190234344E-002   0.0000000000000000     
   2.4038559564074018E-002   4.1700184696630317E-002   0.0000000000000000     
   2.5719265034934033E-002   4.6660928814065326E-002   0.0000000000000000     
   2.7344479033533205E-002   5.1826751542539372E-002   0.0000000000000000     
   2.8914201559871521E-002   5.7197652882052474E-002   0.0000000000000000     
   1.9245408638675594E-002   3.6473127158449185E-002   0.0000000000000000     
   2.0761003792939429E-002   4.1236305810571125E-002   0.0000000000000000     
   2.2240478374420725E-002   4.6205168697057486E-002   0.0000000000000000     
   2.3683832383119489E-002   5.1379715817908268E-002   0.0000000000000000     
   2.5091065819035703E-002   5.6759947173123472E-002   0.0000000000000000     
   1.6279961923565005E-002   3.6071009885478129E-002   0.0000000000000000     
   1.7574416228002248E-002   4.0837535812773169E-002   0.0000000000000000     
   1.8844373256010422E-002   4.5810987996455797E-002   0.0000000000000000     
   2.0089833007589524E-002   5.0991366436526006E-002   0.0000000000000000     
   2.1310795482739561E-002   5.6378671132983803E-002   0.0000000000000000     
   1.3406022475621372E-002   3.5738167371321169E-002   0.0000000000000000     
   1.4478796869262468E-002   4.0503874703236471E-002   0.0000000000000000     
   1.5530949679703117E-002   4.5478386712260267E-002   0.0000000000000000     
   1.6562480906943323E-002   5.0661703398392606E-002   0.0000000000000000     
   1.7573390550983080E-002   5.6053824761633460E-002   0.0000000000000000     
   1.0623590294844694E-002   3.5474599615978326E-002   0.0000000000000000     
   1.1474145716720091E-002   4.0235322481960989E-002   0.0000000000000000     
   1.2300207645498815E-002   4.5207364844470896E-002   0.0000000000000000     
   1.3101776081180875E-002   5.0390726703508054E-002   0.0000000000000000     
   1.3878851023766261E-002   5.5785408059072450E-002   0.0000000000000000     
   2.8914201559871521E-002   5.7197652882052474E-002   0.0000000000000000     
   3.0437507975508933E-002   6.2762567265876312E-002   0.0000000000000000     
   3.1923473642005401E-002   6.8510429127282571E-002   0.0000000000000000     
   3.3372098559360908E-002   7.4441238466271237E-002   0.0000000000000000     
   3.4783382727575460E-002   8.0554995282842337E-002   0.0000000000000000     
   2.5091065819035703E-002   5.6759947173123472E-002   0.0000000000000000     
   2.6461355026491717E-002   6.2336978444058444E-002   0.0000000000000000     
   2.7793876349809843E-002   6.8101925312068573E-002   0.0000000000000000     
   2.9088629788990090E-002   7.4054787777153838E-002   0.0000000000000000     
   3.0345615344032441E-002   8.0195565839314253E-002   0.0000000000000000     
   2.1310795482739561E-002   5.6378671132983803E-002   0.0000000000000000     
   2.2502697192178810E-002   6.1965147362264189E-002   0.0000000000000000     
   2.3660974646625574E-002   6.7743040400802229E-002   0.0000000000000000     
   2.4785627846079836E-002   7.3712350248597874E-002   0.0000000000000000     
   2.5876656790541616E-002   7.9873076905651180E-002   0.0000000000000000     
   1.7573390550983080E-002   5.6053824761633460E-002   0.0000000000000000     
   1.8561534472570224E-002   6.1647074020493520E-002   0.0000000000000000     
   1.9524768532452583E-002   6.7433774393483470E-002   0.0000000000000000     
   2.0463092730630177E-002   7.3413925880603345E-002   0.0000000000000000     
   2.1376507067102982E-002   7.9587528481853145E-002   0.0000000000000000     
   1.3878851023766261E-002   5.5785408059072450E-002   0.0000000000000000     
   1.4637866867665942E-002   6.1382758418746436E-002   0.0000000000000000     
   1.5385258007290884E-002   6.7174127290112379E-002   0.0000000000000000     
   1.6121024442641081E-002   7.3159514673170278E-002   0.0000000000000000     
   1.6845166173716539E-002   7.9338920567920121E-002   0.0000000000000000     
   3.4783382727575460E-002   8.0554995282842337E-002   0.0000000000000000     
   3.6136949663047091E-002   8.6826926770153703E-002   0.0000000000000000     
   3.7412422882173828E-002   9.3232260121363167E-002   0.0000000000000000     
   3.8609802384955677E-002   9.9770995336470741E-002   0.0000000000000000     
   3.9729088171392611E-002  0.10644313241547643        0.0000000000000000     
   3.0345615344032441E-002   8.0195565839314253E-002   0.0000000000000000     
   3.1527321295920119E-002   8.6490041504709986E-002   0.0000000000000000     
   3.2596235925636326E-002   9.2903996779501202E-002   0.0000000000000000     
   3.3552359233181055E-002   9.9437431663687945E-002   0.0000000000000000     
   3.4395691218554306E-002  0.10609034615727017        0.0000000000000000     
   2.5876656790541616E-002   7.9873076905651180E-002   0.0000000000000000     
   2.6889243280682658E-002   8.6184639810206187E-002   0.0000000000000000     
   2.7778569117174710E-002   9.2606458400506922E-002   0.0000000000000000     
   2.8544634300017784E-002   9.9138532676553426E-002   0.0000000000000000     
   2.9187438829211872E-002  0.10578086263834566        0.0000000000000000     
   2.1376507067102982E-002   7.9587528481853145E-002   0.0000000000000000     
   2.2222715617334687E-002   8.5910721686642308E-002   0.0000000000000000     
   2.2959422456788985E-002   9.2339644984380312E-002   0.0000000000000000     
   2.3586627585465852E-002   9.8874298375067157E-002   0.0000000000000000     
   2.4104331003365308E-002  0.10551468185870289        0.0000000000000000     
   1.6845166173716539E-002   7.9338920567920121E-002   0.0000000000000000     
   1.7527738305876228E-002   8.5668287134018348E-002   0.0000000000000000     
   1.8138795944479143E-002   9.2103556531121372E-002   0.0000000000000000     
   1.8678339089525271E-002   9.8644728759229208E-002   0.0000000000000000     
   1.9146367741014615E-002  0.10529180381834184        0.0000000000000000     
   3.9729088171392611E-002  0.10644313241547643        0.0000000000000000     
   4.0843068102511947E-002  0.11332095825813118        0.0000000000000000     
   4.2024530039340945E-002  0.12047675976418602        0.0000000000000000     
   4.3273473981879619E-002  0.12791053693364088        0.0000000000000000     
   4.4589899930127949E-002  0.13562228976649587        0.0000000000000000     
   3.4395691218554306E-002  0.10609034615727017        0.0000000000000000     
   3.5291517343982046E-002  0.11295928475513591        0.0000000000000000     
   3.6405123071690255E-002  0.12014079195217311        0.0000000000000000     
   3.7736508401678907E-002  0.12763486774838181        0.0000000000000000     
   3.9285673333948022E-002  0.13544151214376196        0.0000000000000000     
   2.9187438829211872E-002  0.10578086263834566        0.0000000000000000     
   2.9904062832001688E-002  0.11264370897025476        0.0000000000000000     
   3.0891586435631953E-002  0.11983733235665182        0.0000000000000000     
   3.2150009640102652E-002  0.12736173279753685        0.0000000000000000     
   3.3679332445413789E-002  0.13521691029290978        0.0000000000000000     
   2.4104331003365308E-002  0.10551468185870289        0.0000000000000000     
   2.4680704566570864E-002  0.11237423090348776        0.0000000000000000     
   2.5483920131166033E-002  0.11956638097762209        0.0000000000000000     
   2.6513977697150838E-002  0.12709113208110595        0.0000000000000000     
   2.7770877264525252E-002  0.13494848421393923        0.0000000000000000     
   1.9146367741014615E-002  0.10529180381834184        0.0000000000000000     
   1.9621442547689570E-002  0.11215085055483490        0.0000000000000000     
   2.0182124158292517E-002  0.11932793781508401        0.0000000000000000     
   2.0828412572823470E-002  0.12682306559908921        0.0000000000000000     
   2.1560307791282415E-002  0.13463623390685042        0.0000000000000000     
   4.4589899930127949E-002  0.13562228976649587        0.0000000000000000     
   4.5915973819790387E-002  0.14344936898160163        0.0000000000000000     
   4.7193861586571351E-002  0.15122912529780902        0.0000000000000000     
   4.8423563230470860E-002  0.15896155871511794        0.0000000000000000     
   4.9605078751488889E-002  0.16664666923352853        0.0000000000000000     
   3.9285673333948022E-002  0.13544151214376196        0.0000000000000000     
   4.0729314173961251E-002  0.14334185197386537        0.0000000000000000     
   4.1744127227182279E-002  0.15111701407424374        0.0000000000000000     
   4.2330112493611086E-002  0.15876699844489703        0.0000000000000000     
   4.2487269973247685E-002  0.16629180508582531        0.0000000000000000     
   3.3679332445413789E-002  0.13521691029290978        0.0000000000000000     
   3.5068772051222052E-002  0.14315924704908722        0.0000000000000000     
   3.5907545657184112E-002  0.15094512527238557        0.0000000000000000     
   3.6195653263299987E-002  0.15857454496280496        0.0000000000000000     
   3.5933094869569658E-002  0.16604750612034522        0.0000000000000000     
   2.7770877264525252E-002  0.13494848421393923        0.0000000000000000     
   2.8934347451572775E-002  0.14290155420726711        0.0000000000000000     
   2.9684116876576874E-002  0.15071345889223461        0.0000000000000000     
   3.0020185539537551E-002  0.15838419826884162        0.0000000000000000     
   2.9942553440454819E-002  0.16591377233708826        0.0000000000000000     
   2.1560307791282415E-002  0.13463623390685042        0.0000000000000000     
   2.2326040375013425E-002  0.14256877344840513        0.0000000000000000     
   2.3073840885360550E-002  0.15042201493379070        0.0000000000000000     
   2.3803709322323795E-002  0.15819595836300709        0.0000000000000000     
   2.4515645685903163E-002  0.16589060373605441        0.0000000000000000     
   0.0000000000000000        0.0000000000000000        0.0000000000000000     
   8.3889627593369690E-004   1.1091013506471952E-003   0.0000000000000000     
   1.6960145193970631E-003   2.5966211379559851E-003   0.0000000000000000     
   2.5713547303900988E-003   4.4625593619263696E-003   0.0000000000000000     
   3.4649169089128041E-003   6.7069160225583478E-003   0.0000000000000000     
   0.0000000000000000        0.0000000000000000        0.0000000000000000     
   6.3059027769917593E-004   1.0943507150743222E-003   0.0000000000000000     
   1.2712220476815653E-003   2.5628226138748765E-003   0.0000000000000000     
   1.9218953099471683E-003   4.4054156964016614E-003   0.0000000000000000     
   2.5826100644959844E-003   6.6221299626546791E-003   0.0000000000000000     
   0.0000000000000000        0.0000000000000000        0.0000000000000000     
   4.2095030468262626E-004   1.0839834293624065E-003   0.0000000000000000     
   8.4607482087090883E-004   2.5391028717562927E-003   0.0000000000000000     
   1.2753735485648474E-003   4.3653583271816591E-003   0.0000000000000000     
   1.7088464877644423E-003   6.5627497956385053E-003   0.0000000000000000     
   0.0000000000000000        0.0000000000000000        0.0000000000000000     
   2.0997635688404796E-004   1.0779994935114479E-003   0.0000000000000000     
   4.2057283896509339E-004   2.5254619116002351E-003   0.0000000000000000     
   6.3178944624313620E-004   4.3423872542663602E-003   0.0000000000000000     
   8.4362617871817664E-004   6.5287755215098255E-003   0.0000000000000000     
   0.0000000000000000        0.0000000000000000        0.0000000000000000     
  -2.3315656965590967E-006   1.0763989075214472E-003   0.0000000000000000     
  -5.2838980358808712E-006   2.5218997334067027E-003   0.0000000000000000     
  -8.8569970179652150E-006   4.3365024776557664E-003   0.0000000000000000     
  -1.3050862642812291E-005   6.5202071402686379E-003   0.0000000000000000     
   3.4649169089128041E-003   6.7069160225583478E-003   0.0000000000000000     
   4.3681222610553192E-003   9.2922369666525364E-003   0.0000000000000000     
   5.2723919929077816E-003   1.2181068041009553E-002   0.0000000000000000     
   6.1777261044701961E-003   1.5373409245629396E-002   0.0000000000000000     
   7.0841245957425584E-003   1.8869260580512064E-002   0.0000000000000000     
   2.5826100644959844E-003   6.6221299626546791E-003   0.0000000000000000     
   3.2494841725857339E-003   9.1801172718251316E-003   0.0000000000000000     
   3.9186354954741341E-003   1.2046529483104229E-002   0.0000000000000000     
   4.5900640331611852E-003   1.5221366596491960E-002   0.0000000000000000     
   5.2637697856468867E-003   1.8704628611988336E-002   0.0000000000000000     
   1.7088464877644423E-003   6.5627497956385053E-003   0.0000000000000000     
   2.1455491545449546E-003   9.1015939113224757E-003   0.0000000000000000     
   2.5845370649816464E-003   1.1952207308429214E-002   0.0000000000000000     
   3.0258102190745175E-003   1.5114589986958719E-002   0.0000000000000000     
   3.4693686168235671E-003   1.8588741946910989E-002   0.0000000000000000     
   8.4362617871817664E-004   6.5287755215098255E-003   0.0000000000000000     
   1.0563172069329824E-003   9.0566668851445632E-003   0.0000000000000000     
   1.2700967014303210E-003   1.1898101516984510E-002   0.0000000000000000     
   1.4849646622101934E-003   1.5053079417029665E-002   0.0000000000000000     
   1.7009210892725986E-003   1.8521600585280028E-002   0.0000000000000000     
  -1.3050862642812291E-005   6.5202071402686379E-003   0.0000000000000000     
  -1.8211670250183986E-005   9.0453361932913961E-003   0.0000000000000000     
  -2.4685595179842340E-005   1.1884212108770121E-002   0.0000000000000000     
  -3.2472637431787580E-005   1.5036834886704806E-002   0.0000000000000000     
  -4.1572797006019153E-005   1.8503204527095456E-002   0.0000000000000000     
   7.0841245957425584E-003   1.8869260580512064E-002   0.0000000000000000     
   7.9855392127819447E-003   2.2642799070239271E-002   0.0000000000000000     
   8.8759217016454294E-003   2.6668201739392709E-002   0.0000000000000000     
   9.7552720623330109E-003   3.0945468587972400E-002   0.0000000000000000     
   1.0623590294844694E-002   3.5474599615978326E-002   0.0000000000000000     
   5.2637697856468867E-003   1.8704628611988336E-002   0.0000000000000000     
   5.9347455904814024E-003   2.2468524641317641E-002   0.0000000000000000     
   6.5979842852148954E-003   2.6485263796204174E-002   0.0000000000000000     
   7.2534858698473630E-003   3.0754846076647940E-002   0.0000000000000000     
   7.9012503443788070E-003   3.5277271482648934E-002   0.0000000000000000     
   3.4693686168235671E-003   1.8588741946910989E-002   0.0000000000000000     
   3.9115330671654208E-003   2.2345919765385067E-002   0.0000000000000000     
   4.3486243790367002E-003   2.6357380019479980E-002   0.0000000000000000     
   4.7806425524374082E-003   3.0623122709195746E-002   0.0000000000000000     
   5.2075875873675431E-003   3.5143147834532346E-002   0.0000000000000000     
   1.7009210892725986E-003   1.8521600585280028E-002   0.0000000000000000     
   1.9159016428339966E-003   2.2274984442441539E-002   0.0000000000000000     
   2.1278419831108463E-003   2.6284550409220130E-002   0.0000000000000000     
   2.3367421101031485E-003   3.0550298485615808E-002   0.0000000000000000     
   2.5426020238109022E-003   3.5072228671628569E-002   0.0000000000000000     
  -4.1572797006019153E-005   1.8503204527095456E-002   0.0000000000000000     
  -5.2148682512869046E-005   2.2255718672487070E-002   0.0000000000000000     
  -6.4362902562668502E-005   2.6266774965424629E-002   0.0000000000000000     
  -7.8215457155417142E-005   3.0536373405908139E-002   0.0000000000000000     
  -9.3706346291116049E-005   3.5064513993937597E-002   0.0000000000000000     
   1.0623590294844694E-002   3.5474599615978326E-002   0.0000000000000000     
   1.1474145716720091E-002   4.0235322481960989E-002   0.0000000000000000     
   1.2300207645498815E-002   4.5207364844470896E-002   0.0000000000000000     
   1.3101776081180875E-002   5.0390726703508054E-002   0.0000000000000000     
   1.3878851023766261E-002   5.5785408059072450E-002   0.0000000000000000     
   7.9012503443788070E-003   3.5277271482648934E-002   0.0000000000000000     
   8.5302588295203575E-003   4.0032577744486951E-002   0.0000000000000000     
   9.1294924459831457E-003   4.5000802592441803E-002   0.0000000000000000     
   9.6989511937671715E-003   5.0181946026513484E-002   0.0000000000000000     
   1.0238635072872433E-002   5.5576008046701993E-002   0.0000000000000000     
   5.2075875873675431E-003   3.5143147834532346E-002   0.0000000000000000     
   5.6169322668085152E-003   3.9896339086354544E-002   0.0000000000000000     
   5.9961493737417347E-003   4.4861580155527110E-002   0.0000000000000000     
   6.3452389081672007E-003   5.0038871042050029E-002   0.0000000000000000     
   6.6642008700849159E-003   5.5428211745923314E-002   0.0000000000000000     
   2.5426020238109022E-003   3.5072228671628569E-002   0.0000000000000000     
   2.7341660285845619E-003   3.9826606507563783E-002   0.0000000000000000     
   2.9001784287745833E-003   4.4789697533726823E-002   0.0000000000000000     
   3.0406392243809647E-003   4.9961501750117703E-002   0.0000000000000000     
   3.1555484154037069E-003   5.5342019156736408E-002   0.0000000000000000     
  -9.3706346291116049E-005   3.5064513993937597E-002   0.0000000000000000     
  -1.1803988515150104E-004   3.9823380008114646E-002   0.0000000000000000     
  -1.5842038891830825E-004   4.4785154727040956E-002   0.0000000000000000     
  -2.1484785759153950E-004   4.9949838150716491E-002   0.0000000000000000     
  -2.8732229117119307E-004   5.5317430279141280E-002   0.0000000000000000     
   1.3878851023766261E-002   5.5785408059072450E-002   0.0000000000000000     
   1.4637866867665942E-002   6.1382758418746436E-002   0.0000000000000000     
   1.5385258007290884E-002   6.7174127290112379E-002   0.0000000000000000     
   1.6121024442641081E-002   7.3159514673170278E-002   0.0000000000000000     
   1.6845166173716539E-002   7.9338920567920121E-002   0.0000000000000000     
   1.0238635072872433E-002   5.5576008046701993E-002   0.0000000000000000     
   1.0765021082792058E-002   6.1173894335943210E-002   0.0000000000000000     
   1.1294586223019163E-002   6.6966510577173011E-002   0.0000000000000000     
   1.1827330493553750E-002   7.2953856770391401E-002   0.0000000000000000     
   1.2363253894395821E-002   7.9135932915598367E-002   0.0000000000000000     
   6.6642008700849159E-003   5.5428211745923314E-002   0.0000000000000000     
   6.9763238232746346E-003   6.1022175551004088E-002   0.0000000000000000     
   7.3048963315161140E-003   6.6813335741149477E-002   0.0000000000000000     
   7.6499183948093548E-003   7.2801692316359468E-002   0.0000000000000000     
   8.0113900131543545E-003   7.8987245276634088E-002   0.0000000000000000     
   3.1555484154037069E-003   5.5342019156736408E-002   0.0000000000000000     
   3.2717750891136763E-003   6.0927602063929054E-002   0.0000000000000000     
   3.4161883327817394E-003   6.6714602782041749E-002   0.0000000000000000     
   3.5887881464078952E-003   7.2703021311074492E-002   0.0000000000000000     
   3.7895745299921456E-003   7.8892857651027298E-002   0.0000000000000000     
  -2.8732229117119307E-004   5.5317430279141280E-002   0.0000000000000000     
  -3.4862511969081800E-004   6.0890173874718137E-002   0.0000000000000000     
  -3.7153777318396294E-004   6.6670311699849868E-002   0.0000000000000000     
  -3.5606025165062661E-004   7.2657843754536489E-002   0.0000000000000000     
  -3.0219255509081073E-004   7.8852770038777970E-002   0.0000000000000000     
   1.6845166173716539E-002   7.9338920567920121E-002   0.0000000000000000     
   1.7527738305876228E-002   8.5668287134018348E-002   0.0000000000000000     
   1.8138795944479143E-002   9.2103556531121372E-002   0.0000000000000000     
   1.8678339089525271E-002   9.8644728759229208E-002   0.0000000000000000     
   1.9146367741014615E-002  0.10529180381834184        0.0000000000000000     
   1.2363253894395821E-002   7.9135932915598367E-002   0.0000000000000000     
   1.2884054515306465E-002   8.5469449984428542E-002   0.0000000000000000     
   1.3371430446046778E-002   9.1911118948516557E-002   0.0000000000000000     
   1.3825381686616758E-002   9.8460939807862427E-002   0.0000000000000000     
   1.4245908237016406E-002  0.10511891256246611        0.0000000000000000     
   8.0113900131543545E-003   7.8987245276634088E-002   0.0000000000000000     
   8.3714074146245751E-003   8.5326324069967097E-002   0.0000000000000000     
   8.7120668272934708E-003   9.1775258144352320E-002   0.0000000000000000     
   9.0333682511610416E-003   9.8334047499789717E-002   0.0000000000000000     
   9.3353116862272909E-003  0.10500269213627932        0.0000000000000000     
   3.7895745299921456E-003   7.8892857651027298E-002   0.0000000000000000     
   3.9897970038305624E-003   8.5238909390634041E-002   0.0000000000000000     
   4.1607050882192234E-003   9.1695974118628648E-002   0.0000000000000000     
   4.3022987831581256E-003   9.8264051835011135E-002   0.0000000000000000     
   4.4145780886472698E-003  0.10494314253978146        0.0000000000000000     
  -3.0219255509081073E-004   7.8852770038777970E-002   0.0000000000000000     
  -2.6077671707557069E-004   8.5207205946429332E-002   0.0000000000000000     
  -2.8265477117596588E-004   9.1673266871345541E-002   0.0000000000000000     
  -3.6782671739199262E-004   9.8250952813526610E-002   0.0000000000000000     
  -5.1629255572365439E-004  0.10494026377297253        0.0000000000000000     
   1.9146367741014615E-002  0.10529180381834184        0.0000000000000000     
   1.9621442547689570E-002  0.11215085055483490        0.0000000000000000     
   2.0182124158292517E-002  0.11932793781508401        0.0000000000000000     
   2.0828412572823470E-002  0.12682306559908921        0.0000000000000000     
   2.1560307791282415E-002  0.13463623390685042        0.0000000000000000     
   1.4245908237016406E-002  0.10511891256246611        0.0000000000000000     
   1.4618428724460977E-002  0.11197995621788298        0.0000000000000000     
   1.4928361776165730E-002  0.11913898977966834        0.0000000000000000     
   1.5175707392130665E-002  0.12659601324782224        0.0000000000000000     
   1.5360465572355778E-002  0.13435102662234466        0.0000000000000000     
   9.3353116862272909E-003  0.10500269213627932        0.0000000000000000     
   9.5638150459882651E-003  0.11186793618621885        0.0000000000000000     
   9.6647962439400121E-003  0.11901652378200601        0.0000000000000000     
   9.6382552800825388E-003  0.12644845492364079        0.0000000000000000     
   9.4841921544158402E-003  0.13416372961112324        0.0000000000000000     
   4.4145780886472698E-003  0.10494314253978146        0.0000000000000000     
   4.4576015122714287E-003  0.11181479045984245        0.0000000000000000     
   4.3914275616153695E-003  0.11896053982209692        0.0000000000000000     
   4.2160562366790940E-003  0.12638039062654485        0.0000000000000000     
   3.9314875374626013E-003  0.13407434287318629        0.0000000000000000     
  -5.1629255572365439E-004  0.10494026377297253        0.0000000000000000     
  -7.0021187668953050E-004  0.11182051903875385        0.0000000000000000     
  -8.9174427080820223E-004  0.11897103789994116        0.0000000000000000     
  -1.0908897380796725E-003  0.12639182035653446        0.0000000000000000     
  -1.2976482785039376E-003  0.13408286640853373        0.0000000000000000     
   2.1560307791282415E-002  0.13463623390685042        0.0000000000000000     
   2.2326040375013425E-002  0.14256877344840513        0.0000000000000000     
   2.3073840885360550E-002  0.15042201493379070        0.0000000000000000     
   2.3803709322323795E-002  0.15819595836300709        0.0000000000000000     
   2.4515645685903163E-002  0.16589060373605441        0.0000000000000000     
   1.5360465572355778E-002  0.13435102662234466        0.0000000000000000     
   1.5701954836557355E-002  0.14224756484685644        0.0000000000000000     
   1.6419493704451674E-002  0.15012916286497860        0.0000000000000000     
   1.7513082176038735E-002  0.15799582067671103        0.0000000000000000     
   1.8982720251318537E-002  0.16584753828205384        0.0000000000000000     
   9.4841921544158402E-003  0.13416372961112324        0.0000000000000000     
   9.5201948512179148E-003  0.14202458847697633        0.0000000000000000     
   1.0063851354766767E-002  0.14989327215372289        0.0000000000000000     
   1.1115161665062389E-002  0.15776978064136302        0.0000000000000000     
   1.2674125782104785E-002  0.16565411393989671        0.0000000000000000     
   3.9314875374626013E-003  0.13407434287318629        0.0000000000000000     
   3.7807604189951070E-003  0.14189984433876468        0.0000000000000000     
   4.0069138363058249E-003  0.14971434280002360        0.0000000000000000     
   4.6099477893947558E-003  0.15751783825696306        0.0000000000000000     
   5.5898622782618998E-003  0.16531033070958304        0.0000000000000000     
  -1.2976482785039376E-003  0.13408286640853373        0.0000000000000000     
  -1.5163484601110717E-003  0.14187333243222158        0.0000000000000000     
  -1.7513188509311463E-003  0.14959237480388074        0.0000000000000000     
  -2.0025594509641607E-003  0.15723999352351115        0.0000000000000000     
  -2.2700702602101155E-003  0.16481618859111280        0.0000000000000000     
   0.0000000000000000        0.0000000000000000        0.0000000000000000     
  -2.3315656965590967E-006   1.0763989075214472E-003   0.0000000000000000     
  -5.2838980358808712E-006   2.5218997334067027E-003   0.0000000000000000     
  -8.8569970179652150E-006   4.3365024776557664E-003   0.0000000000000000     
  -1.3050862642812291E-005   6.5202071402686379E-003   0.0000000000000000     
   0.0000000000000000        0.0000000000000000        0.0000000000000000     
  -2.1453509550169126E-004   1.0791864179502649E-003   0.0000000000000000     
  -4.3087616312500077E-004   2.5283005591045359E-003   0.0000000000000000     
  -6.4902320286992863E-004   4.3473424234628131E-003   0.0000000000000000     
  -8.6897621473647473E-004   6.5363120110250965E-003   0.0000000000000000     
   0.0000000000000000        0.0000000000000000        0.0000000000000000     
  -4.2519586497384484E-004   1.0863667713557625E-003   0.0000000000000000     
  -8.5558472929525326E-004   2.5445486106225753E-003   0.0000000000000000     
  -1.2911665929642251E-003   4.3745455178004393E-003   0.0000000000000000     
  -1.7319414559807606E-003   6.5763574928893523E-003   0.0000000000000000     
   0.0000000000000000        0.0000000000000000        0.0000000000000000     
  -6.3431387411301999E-004   1.0979399677379399E-003   0.0000000000000000     
  -1.2794095965466385E-003   2.5706438879608208E-003   0.0000000000000000     
  -1.9352871673008552E-003   4.4181117606686433E-003   0.0000000000000000     
  -2.6019465863756706E-003   6.6403435858614062E-003   0.0000000000000000     
   0.0000000000000000        0.0000000000000000        0.0000000000000000     
  -8.4188912291921643E-004   1.1139060070967973E-003   0.0000000000000000     
  -1.7023507648791559E-003   2.6065863911192725E-003   0.0000000000000000     
  -2.5813849258798185E-003   4.4780411520674258E-003   0.0000000000000000     
  -3.4789916059212046E-003   6.7282702899412574E-003   0.0000000000000000     
  -1.3050862642812291E-005   6.5202071402686379E-003   0.0000000000000000     
  -1.8211670250183986E-005   9.0453361932913961E-003   0.0000000000000000     
  -2.4685595179842340E-005   1.1884212108770121E-002   0.0000000000000000     
  -3.2472637431787580E-005   1.5036834886704806E-002   0.0000000000000000     
  -4.1572797006019153E-005   1.8503204527095456E-002   0.0000000000000000     
  -8.6897621473647473E-004   6.5363120110250965E-003   0.0000000000000000     
  -1.0916366142840683E-003   9.0665421024874460E-003   0.0000000000000000     
  -1.3179058170721392E-003   1.1909365478545916E-002   0.0000000000000000     
  -1.5477838231006868E-003   1.5064782139200513E-002   0.0000000000000000     
  -1.7812706323697127E-003   1.8532792084451234E-002   0.0000000000000000     
  -1.7319414559807606E-003   6.5763574928893523E-003   0.0000000000000000     
  -2.1775567624481955E-003   9.1192248794571776E-003   0.0000000000000000     
  -2.6276599564698652E-003   1.1972388021071782E-002   0.0000000000000000     
  -3.0822510380457686E-003   1.5135846917733158E-002   0.0000000000000000     
  -3.5413300071759080E-003   1.8609601569441313E-002   0.0000000000000000     
  -2.6019465863756706E-003   6.6403435858614062E-003   0.0000000000000000     
  -3.2759721147425655E-003   9.2033845242005998E-003   0.0000000000000000     
  -3.9539480133730202E-003   1.2073279736347711E-002   0.0000000000000000     
  -4.6358742822670334E-003   1.5250029222302746E-002   0.0000000000000000     
  -5.3217509214246060E-003   1.8733632982065700E-002   0.0000000000000000     
  -3.4789916059212046E-003   6.7282702899412574E-003   0.0000000000000000     
  -4.3868826711671773E-003   9.3190210367177055E-003   0.0000000000000000     
  -5.2967699877816028E-003   1.2212040624373711E-002   0.0000000000000000     
  -6.2086535557644776E-003   1.5407329052909272E-002   0.0000000000000000     
  -7.1225333751158059E-003   1.8904886322324389E-002   0.0000000000000000     
  -4.1572797006019153E-005   1.8503204527095456E-002   0.0000000000000000     
  -5.2148682512869046E-005   2.2255718672487070E-002   0.0000000000000000     
  -6.4362902562668502E-005   2.6266774965424629E-002   0.0000000000000000     
  -7.8215457155417142E-005   3.0536373405908139E-002   0.0000000000000000     
  -9.3706346291116049E-005   3.5064513993937597E-002   0.0000000000000000     
  -1.7812706323697127E-003   1.8532792084451234E-002   0.0000000000000000     
  -2.0165412877403087E-003   2.2287312773803761E-002   0.0000000000000000     
  -2.2517708320735725E-003   2.6302261666763777E-002   0.0000000000000000     
  -2.4869592653695011E-003   3.0577638763331277E-002   0.0000000000000000     
  -2.7221065876280970E-003   3.5113444063506270E-002   0.0000000000000000     
  -3.5413300071759080E-003   1.8609601569441313E-002   0.0000000000000000     
  -4.0011995517134575E-003   2.2368957064673727E-002   0.0000000000000000     
  -4.4581623595115940E-003   2.6389218491907888E-002   0.0000000000000000     
  -4.9122184305703167E-003   3.0670385851143785E-002   0.0000000000000000     
  -5.3633677648896256E-003   3.5212459142381441E-002   0.0000000000000000     
  -5.3217509214246060E-003   1.8733632982065700E-002   0.0000000000000000     
  -6.0061234744323132E-003   2.2500651545096971E-002   0.0000000000000000     
  -6.6835374848767323E-003   2.6527645440856954E-002   0.0000000000000000     
  -7.3539929527578615E-003   3.0814614669345670E-002   0.0000000000000000     
  -8.0174898780757033E-003   3.5361559230563097E-002   0.0000000000000000     
  -7.1225333751158059E-003   1.8904886322324389E-002   0.0000000000000000     
  -8.0313130558968791E-003   2.2682396215073484E-002   0.0000000000000000     
  -8.9278962081689884E-003   2.6717542513610998E-002   0.0000000000000000     
  -9.8122828319321398E-003   3.1010325217936920E-002   0.0000000000000000     
  -1.0684472927186326E-002   3.5560744328051251E-002   0.0000000000000000     
  -9.3706346291116049E-005   3.5064513993937597E-002   0.0000000000000000     
  -1.1803988515150104E-004   3.9823380008114646E-002   0.0000000000000000     
  -1.5842038891830825E-004   4.4785154727040956E-002   0.0000000000000000     
  -2.1484785759153950E-004   4.9949838150716491E-002   0.0000000000000000     
  -2.8732229117119307E-004   5.5317430279141280E-002   0.0000000000000000     
  -2.7221065876280970E-003   3.5113444063506270E-002   0.0000000000000000     
  -2.9594997734310011E-003   3.9878074591974809E-002   0.0000000000000000     
  -3.2014257973598599E-003   4.4839927373422933E-002   0.0000000000000000     
  -3.4478846594146709E-003   4.9999002407850636E-002   0.0000000000000000     
  -3.6988763595954357E-003   5.5355299695257945E-002   0.0000000000000000     
  -5.3633677648896256E-003   3.5212459142381441E-002   0.0000000000000000     
  -5.8100279352852665E-003   3.9982105263111883E-002   0.0000000000000000     
  -6.2506165145729889E-003   4.4945991110826200E-002   0.0000000000000000     
  -6.6851335027527901E-003   5.0104116685524371E-002   0.0000000000000000     
  -7.1135788998246711E-003   5.5456481987206395E-002   0.0000000000000000     
  -8.0174898780757033E-003   3.5361559230563097E-002   0.0000000000000000     
  -8.6696243707142986E-003   4.0135472021525911E-002   0.0000000000000000     
  -9.3059925405576966E-003   4.5103345939250770E-002   0.0000000000000000     
  -9.9265943876058974E-003   5.0265180983737674E-002   0.0000000000000000     
  -1.0531429911858901E-002   5.5620977154986644E-002   0.0000000000000000     
  -1.0684472927186326E-002   3.5560744328051251E-002   0.0000000000000000     
  -1.1538289079718095E-002   4.0338174867216865E-002   0.0000000000000000     
  -1.2367553875313983E-002   4.5311991858696644E-002   0.0000000000000000     
  -1.3172267313973991E-002   5.0482195302490582E-002   0.0000000000000000     
  -1.3952429395698121E-002   5.5848785198598677E-002   0.0000000000000000     
  -2.8732229117119307E-004   5.5317430279141280E-002   0.0000000000000000     
  -3.4862511969081800E-004   6.0890173874718137E-002   0.0000000000000000     
  -3.7153777318396294E-004   6.6670311699849868E-002   0.0000000000000000     
  -3.5606025165062661E-004   7.2657843754536489E-002   0.0000000000000000     
  -3.0219255509081073E-004   7.8852770038777970E-002   0.0000000000000000     
  -3.6988763595954357E-003   5.5355299695257945E-002   0.0000000000000000     
  -3.9299767634021349E-003   6.0916475845735715E-002   0.0000000000000000     
  -4.1167617363347510E-003   6.6690187469374829E-002   0.0000000000000000     
  -4.2592312783932863E-003   7.2676434566175299E-002   0.0000000000000000     
  -4.3573853895777408E-003   7.8875217136137113E-002   0.0000000000000000     
  -7.1135788998246711E-003   5.5456481987206395E-002   0.0000000000000000     
  -7.5173798022835619E-003   6.1013092839346195E-002   0.0000000000000000     
  -7.8779633066243908E-003   6.6783955065417663E-002   0.0000000000000000     
  -8.1953294128471639E-003   7.2769068665420850E-002   0.0000000000000000     
  -8.4694781209518743E-003   7.8968433639355656E-002   0.0000000000000000     
  -1.0531429911858901E-002   5.5620977154986644E-002   0.0000000000000000     
  -1.1110834236335097E-002   6.1180024855549568E-002   0.0000000000000000     
  -1.1655142484052880E-002   6.6951614487978386E-002   0.0000000000000000     
  -1.2164354655012253E-002   7.2935746052273071E-002   0.0000000000000000     
  -1.2638470749213208E-002   7.9132419548433655E-002   0.0000000000000000     
  -1.3952429395698121E-002   5.5848785198598677E-002   0.0000000000000000     
  -1.4710340065556743E-002   6.1417271894345836E-002   0.0000000000000000     
  -1.5448299268620220E-002   6.7193165737056942E-002   0.0000000000000000     
  -1.6166307004888556E-002   7.3176466726732031E-002   0.0000000000000000     
  -1.6864363274361745E-002   7.9367174863371054E-002   0.0000000000000000     
  -3.0219255509081073E-004   7.8852770038777970E-002   0.0000000000000000     
  -2.6077671707557069E-004   8.5207205946429332E-002   0.0000000000000000     
  -2.8265477117596588E-004   9.1673266871345541E-002   0.0000000000000000     
  -3.6782671739199262E-004   9.8250952813526610E-002   0.0000000000000000     
  -5.1629255572365439E-004  0.10494026377297253        0.0000000000000000     
  -4.3573853895777408E-003   7.8875217136137113E-002   0.0000000000000000     
  -4.4785207629611402E-003   8.5236457975116170E-002   0.0000000000000000     
  -4.6899340916165128E-003   9.1710079878968440E-002   0.0000000000000000     
  -4.9916253755438594E-003   9.8296082847693839E-002   0.0000000000000000     
  -5.3835946147431837E-003  0.10499446688129244        0.0000000000000000     
  -8.4694781209518743E-003   7.8968433639355656E-002   0.0000000000000000     
  -8.7616421486934552E-003   8.5331909714457768E-002   0.0000000000000000     
  -9.1330542138268415E-003   9.1809356617962731E-002   0.0000000000000000     
  -9.5837143163520280E-003   9.8400774349870546E-002   0.0000000000000000     
  -1.0113622456269018E-002  0.10510616291018120        0.0000000000000000     
  -1.2638470749213208E-002   7.9132419548433655E-002   0.0000000000000000     
  -1.3110140874272520E-002   8.5493561164454085E-002   0.0000000000000000     
  -1.3612015137806946E-002   9.1971097088328443E-002   0.0000000000000000     
  -1.4144093539816490E-002   9.8565027320056661E-002   0.0000000000000000     
  -1.4706376080301155E-002  0.10527535185963879        0.0000000000000000     
  -1.6864363274361745E-002   7.9367174863371054E-002   0.0000000000000000     
  -1.7524016939698329E-002   8.5721412325105190E-002   0.0000000000000000     
  -1.8126816863556831E-002   9.2195301290065576E-002   0.0000000000000000     
  -1.8672763045937252E-002   9.8788841758252241E-002   0.0000000000000000     
  -1.9161855486839595E-002  0.10550203372966518        0.0000000000000000     
  -5.1629255572365439E-004  0.10494026377297253        0.0000000000000000     
  -7.0021187668953050E-004  0.11182051903875385        0.0000000000000000     
  -8.9174427080820223E-004  0.11897103789994116        0.0000000000000000     
  -1.0908897380796725E-003  0.12639182035653446        0.0000000000000000     
  -1.2976482785039376E-003  0.13408286640853373        0.0000000000000000     
  -5.3835946147431837E-003  0.10499446688129244        0.0000000000000000     
  -5.7727454877260966E-003  0.11188467441725131        0.0000000000000000     
  -6.0659816730042190E-003  0.11904614789305752        0.0000000000000000     
  -6.2633031705775499E-003  0.12647888730871101        0.0000000000000000     
  -6.3647099804460911E-003  0.13418289266421188        0.0000000000000000     
  -1.0113622456269018E-002  0.10510616291018120        0.0000000000000000     
  -1.0623119687669755E-002  0.11200680908963313        0.0000000000000000     
  -1.1012547064646194E-002  0.11918399967896474        0.0000000000000000     
  -1.1281904587198334E-002  0.12663773467817602        0.0000000000000000     
  -1.1431192255326173E-002  0.13436801408726703        0.0000000000000000     
  -1.4706376080301155E-002  0.10527535185963879        0.0000000000000000     
  -1.5251334476520509E-002  0.11218692305589935        0.0000000000000000     
  -1.5731440445734133E-002  0.11938459325766293        0.0000000000000000     
  -1.6146693987942020E-002  0.12686836246492955        0.0000000000000000     
  -1.6497095103144181E-002  0.13463823067769923        0.0000000000000000     
  -1.9161855486839595E-002  0.10550203372966518        0.0000000000000000     
  -1.9657389854278354E-002  0.11242501631604992        0.0000000000000000     
  -2.0222661816268032E-002  0.11964792862915204        0.0000000000000000     
  -2.0857671372808615E-002  0.12717077066897153        0.0000000000000000     
  -2.1562418523900118E-002  0.13499354243550843        0.0000000000000000     
  -1.2976482785039376E-003  0.13408286640853373        0.0000000000000000     
  -1.5163484601110717E-003  0.14187333243222158        0.0000000000000000     
  -1.7513188509311463E-003  0.14959237480388074        0.0000000000000000     
  -2.0025594509641607E-003  0.15723999352351115        0.0000000000000000     
  -2.2700702602101155E-003  0.16481618859111280        0.0000000000000000     
  -6.3647099804460911E-003  0.13418289266421188        0.0000000000000000     
  -6.6200667994706017E-003  0.14195404451747920        0.0000000000000000     
  -7.2792383245118518E-003  0.14958822342643219        0.0000000000000000     
  -8.3422245555698337E-003  0.15708542939107076        0.0000000000000000     
  -9.8090254926445526E-003  0.16444566241139505        0.0000000000000000     
  -1.1431192255326173E-002  0.13436801408726703        0.0000000000000000     
  -1.1779329612453471E-002  0.14215097235466964        0.0000000000000000     
  -1.2645236202003992E-002  0.14976274392881581        0.0000000000000000     
  -1.4028912023977734E-002  0.15720332880970553        0.0000000000000000     
  -1.5930357078374702E-002  0.16447272699733886        0.0000000000000000     
  -1.6497095103144181E-002  0.13463823067769923        0.0000000000000000     
  -1.6994136899059670E-002  0.14246411594379288        0.0000000000000000     
  -1.7849312483407563E-002  0.15011593631103162        0.0000000000000000     
  -1.9062621856187869E-002  0.15759369177941540        0.0000000000000000     
  -2.0634065017400567E-002  0.16489738234894422        0.0000000000000000     
  -2.1562418523900118E-002  0.13499354243550843        0.0000000000000000     
  -2.2264488659289212E-002  0.14289347528484900        0.0000000000000000     
  -2.2891467168722576E-002  0.15064780057307967        0.0000000000000000     
  -2.3443354052200219E-002  0.15825651830020032        0.0000000000000000     
  -2.3920149309722138E-002  0.16571962846621113        0.0000000000000000     
   0.0000000000000000        0.0000000000000000        0.0000000000000000     
  -8.4188912291921643E-004   1.1139060070967973E-003   0.0000000000000000     
  -1.7023507648791559E-003   2.6065863911192725E-003   0.0000000000000000     
  -2.5813849258798185E-003   4.4780411520674258E-003   0.0000000000000000     
  -3.4789916059212046E-003   6.7282702899412574E-003   0.0000000000000000     
   0.0000000000000000        0.0000000000000000        0.0000000000000000     
  -1.0566736153605188E-003   1.1378564625982883E-003   0.0000000000000000     
  -2.1389492561539013E-003   2.6583178465705210E-003   0.0000000000000000     
  -3.2468269223801475E-003   4.5613841519166979E-003   0.0000000000000000     
  -4.3803066140392566E-003   6.8470553786368193E-003   0.0000000000000000     
   0.0000000000000000        0.0000000000000000        0.0000000000000000     
  -1.2874193554050116E-003   1.1733829074083658E-003   0.0000000000000000     
  -2.6037460922319691E-003   2.7317799807871561E-003   0.0000000000000000     
  -3.9489802104808736E-003   4.6751912201363705E-003   0.0000000000000000     
  -5.3231217101517249E-003   7.0036166254560097E-003   0.0000000000000000     
   0.0000000000000000        0.0000000000000000        0.0000000000000000     
  -1.5341263430526946E-003   1.2204853415270305E-003   0.0000000000000000     
  -3.0967412731133606E-003   2.8269727937691785E-003   0.0000000000000000     
  -4.6878447901819971E-003   4.8194623567264436E-003   0.0000000000000000     
  -6.3074368942586043E-003   7.1979540303988244E-003   0.0000000000000000     
   0.0000000000000000        0.0000000000000000        0.0000000000000000     
  -1.7967945783035682E-003   1.2791637649542823E-003   0.0000000000000000     
  -3.6179347987980739E-003   2.9438962855165875E-003   0.0000000000000000     
  -5.4634206614835191E-003   4.9941975616869163E-003   0.0000000000000000     
  -7.3332521663598991E-003   7.4300675934652676E-003   0.0000000000000000     
  -3.4789916059212046E-003   6.7282702899412574E-003   0.0000000000000000     
  -4.3868826711671773E-003   9.3190210367177055E-003   0.0000000000000000     
  -5.2967699877816028E-003   1.2212040624373711E-002   0.0000000000000000     
  -6.2086535557644776E-003   1.5407329052909272E-002   0.0000000000000000     
  -7.1225333751158059E-003   1.8904886322324389E-002   0.0000000000000000     
  -4.3803066140392566E-003   6.8470553786368193E-003   0.0000000000000000     
  -5.5267505199936701E-003   9.4725409704735728E-003   0.0000000000000000     
  -6.6735208291058270E-003   1.2395050371169652E-002   0.0000000000000000     
  -7.8206175413757240E-003   1.5614583580725049E-002   0.0000000000000000     
  -8.9680406568033652E-003   1.9131140599139767E-002   0.0000000000000000     
  -5.3231217101517249E-003   7.0036166254560097E-003   0.0000000000000000     
  -6.7120377494936795E-003   9.6703508789332850E-003   0.0000000000000000     
  -8.1015954867559026E-003   1.2628688662755414E-002   0.0000000000000000     
  -9.4917949219383898E-003   1.5878629976922399E-002   0.0000000000000000     
  -1.0882636055041141E-002   1.9420174821434228E-002   0.0000000000000000     
  -6.3074368942586043E-003   7.1979540303988244E-003   0.0000000000000000     
  -7.9427443596672073E-003   9.9124507620968385E-003   0.0000000000000000     
  -9.5809939607318321E-003   1.2912955499131001E-002   0.0000000000000000     
  -1.1222185697452475E-002   1.6199468241501314E-002   0.0000000000000000     
  -1.2866319569829136E-002   1.9771988989207769E-002   0.0000000000000000     
  -7.3332521663598991E-003   7.4300675934652676E-003   0.0000000000000000     
  -9.2188703505142536E-003   1.0198840619964235E-002   0.0000000000000000     
  -1.1111716251033613E-002   1.3247850880296411E-002   0.0000000000000000     
  -1.3011789867917976E-002   1.6577098374461800E-002   0.0000000000000000     
  -1.4919091201167349E-002   2.0186583102460388E-002   0.0000000000000000     
  -7.1225333751158059E-003   1.8904886322324389E-002   0.0000000000000000     
  -8.0313130558968791E-003   2.2682396215073484E-002   0.0000000000000000     
  -8.9278962081689884E-003   2.6717542513610998E-002   0.0000000000000000     
  -9.8122828319321398E-003   3.1010325217936920E-002   0.0000000000000000     
  -1.0684472927186326E-002   3.5560744328051251E-002   0.0000000000000000     
  -8.9680406568033652E-003   1.9131140599139767E-002   0.0000000000000000     
  -1.0106453220407943E-002   2.2922848260814751E-002   0.0000000000000000     
  -1.1226518277208646E-002   2.6967833400150951E-002   0.0000000000000000     
  -1.2328235827205476E-002   3.1266096017148345E-002   0.0000000000000000     
  -1.3411605870398432E-002   3.5817636111806953E-002   0.0000000000000000     
  -1.0882636055041141E-002   1.9420174821434228E-002   0.0000000000000000     
  -1.2261228892266296E-002   2.3230664868532244E-002   0.0000000000000000     
  -1.3614683439815983E-002   2.7287441790457750E-002   0.0000000000000000     
  -1.4942999697690204E-002   3.1590505587210764E-002   0.0000000000000000     
  -1.6246177665888959E-002   3.6139856258791271E-002   0.0000000000000000     
  -1.2866319569829136E-002   1.9771988989207769E-002   0.0000000000000000     
  -1.4495640071471938E-002   2.3605846038225950E-002   0.0000000000000000     
  -1.6092391695991002E-002   2.7676367684531411E-002   0.0000000000000000     
  -1.7656574443386322E-002   3.1983553928124173E-002   0.0000000000000000     
  -1.9188188313657897E-002   3.6527404769004214E-002   0.0000000000000000     
  -1.4919091201167349E-002   2.0186583102460388E-002   0.0000000000000000     
  -1.6809686758024873E-002   2.4048391769895872E-002   0.0000000000000000     
  -1.8659643045733698E-002   2.8134611082371933E-002   0.0000000000000000     
  -2.0468960064293825E-002   3.2445241039888564E-002   0.0000000000000000     
  -2.2237637813705254E-002   3.6980281642445767E-002   0.0000000000000000     
  -1.0684472927186326E-002   3.5560744328051251E-002   0.0000000000000000     
  -1.1538289079718095E-002   4.0338174867216865E-002   0.0000000000000000     
  -1.2367553875313983E-002   4.5311991858696644E-002   0.0000000000000000     
  -1.3172267313973991E-002   5.0482195302490582E-002   0.0000000000000000     
  -1.3952429395698121E-002   5.5848785198598677E-002   0.0000000000000000     
  -1.3411605870398432E-002   3.5817636111806953E-002   0.0000000000000000     
  -1.4468968141538767E-002   4.0595874007134401E-002   0.0000000000000000     
  -1.5492662375377731E-002   4.5574230026138321E-002   0.0000000000000000     
  -1.6482688571915323E-002   5.0752704168818726E-002   0.0000000000000000     
  -1.7439046731151542E-002   5.6131296435175580E-002   0.0000000000000000     
  -1.6246177665888959E-002   3.6139856258791271E-002   0.0000000000000000     
  -1.7514607635418435E-002   4.0914229648228162E-002   0.0000000000000000     
  -1.8738679897284827E-002   4.5892361598550334E-002   0.0000000000000000     
  -1.9918394451488127E-002   5.1074252109757752E-002   0.0000000000000000     
  -2.1053751298028351E-002   5.6459901181850437E-002   0.0000000000000000     
  -1.9188188313657897E-002   3.6527404769004214E-002   0.0000000000000000     
  -2.0675207561357094E-002   4.1293241790498161E-002   0.0000000000000000     
  -2.2105606441035267E-002   4.6266386575932662E-002   0.0000000000000000     
  -2.3479384952692420E-002   5.1446839125307675E-002   0.0000000000000000     
  -2.4796543096328557E-002   5.6834599438623234E-002   0.0000000000000000     
  -2.2237637813705254E-002   3.6980281642445767E-002   0.0000000000000000     
  -2.3950767919354743E-002   4.1732910433944406E-002   0.0000000000000000     
  -2.5593442006629056E-002   4.6696304958285306E-002   0.0000000000000000     
  -2.7165660075528196E-002   5.1870465215468502E-002   0.0000000000000000     
  -2.8667422126052153E-002   5.7255391205493979E-002   0.0000000000000000     
  -1.3952429395698121E-002   5.5848785198598677E-002   0.0000000000000000     
  -1.4710340065556743E-002   6.1417271894345836E-002   0.0000000000000000     
  -1.5448299268620220E-002   6.7193165737056942E-002   0.0000000000000000     
  -1.6166307004888556E-002   7.3176466726732031E-002   0.0000000000000000     
  -1.6864363274361745E-002   7.9367174863371054E-002   0.0000000000000000     
  -1.7439046731151542E-002   5.6131296435175580E-002   0.0000000000000000     
  -1.8375871853679015E-002   6.1710173656113844E-002   0.0000000000000000     
  -1.9307298940090374E-002   6.7489502662538420E-002   0.0000000000000000     
  -2.0233327990385613E-002   7.3469283454449294E-002   0.0000000000000000     
  -2.1153959004564741E-002   7.9649516031846501E-002   0.0000000000000000     
  -2.1053751298028351E-002   5.6459901181850437E-002   0.0000000000000000     
  -2.2167404164432424E-002   6.2044069841232431E-002   0.0000000000000000     
  -2.3282006778227293E-002   6.7821519114307810E-002   0.0000000000000000     
  -2.4397559139412970E-002   7.3792249001076504E-002   0.0000000000000000     
  -2.5514061247989432E-002   7.9956259501538562E-002   0.0000000000000000     
  -2.4796543096328557E-002   5.6834599438623234E-002   0.0000000000000000     
  -2.6084936997816978E-002   6.2418960449701605E-002   0.0000000000000000     
  -2.7372422783030995E-002   6.8189215092365085E-002   0.0000000000000000     
  -2.8659000451970614E-002   7.4145363366613648E-002   0.0000000000000000     
  -2.9944670004635833E-002   8.0287405272447307E-002   0.0000000000000000     
  -2.8667422126052153E-002   5.7255391205493979E-002   0.0000000000000000     
  -3.0128470353832669E-002   6.2834845481521365E-002   0.0000000000000000     
  -3.1578546954501470E-002   6.8592590596710273E-002   0.0000000000000000     
  -3.3017651928058563E-002   7.4528626551060712E-002   0.0000000000000000     
  -3.4445785274503933E-002   8.0642953344572693E-002   0.0000000000000000     
  -1.6864363274361745E-002   7.9367174863371054E-002   0.0000000000000000     
  -1.7524016939698329E-002   8.5721412325105190E-002   0.0000000000000000     
  -1.8126816863556831E-002   9.2195301290065576E-002   0.0000000000000000     
  -1.8672763045937252E-002   9.8788841758252241E-002   0.0000000000000000     
  -1.9161855486839595E-002  0.10550203372966518        0.0000000000000000     
  -2.1153959004564741E-002   7.9649516031846501E-002   0.0000000000000000     
  -2.2001703575689147E-002   8.5991924317628421E-002   0.0000000000000000     
  -2.2709073296820245E-002   9.2458232234693530E-002   0.0000000000000000     
  -2.3276068167958023E-002   9.9048439783041786E-002   0.0000000000000000     
  -2.3702688189102490E-002  0.10576254696267323        0.0000000000000000     
  -2.5514061247989432E-002   7.9956259501538562E-002   0.0000000000000000     
  -2.6541634012963240E-002   8.6281558263241229E-002   0.0000000000000000     
  -2.7390398343340942E-002   9.2736152933731622E-002   0.0000000000000000     
  -2.8060354239122516E-002   9.9320043513009798E-002   0.0000000000000000     
  -2.8551501700307978E-002  0.10603323000107574        0.0000000000000000     
  -2.9944670004635833E-002   8.0287405272447307E-002   0.0000000000000000     
  -3.1143808251520608E-002   8.6590314161943571E-002   0.0000000000000000     
  -3.2170792003118905E-002   9.3029063387179881E-002   0.0000000000000000     
  -3.3025621259430732E-002   9.9603652948156290E-002   0.0000000000000000     
  -3.3708296020456059E-002  0.10631408284487275        0.0000000000000000     
  -3.4445785274503933E-002   8.0642953344572693E-002   0.0000000000000000     
  -3.5808226291361253E-002   8.6918192013735476E-002   0.0000000000000000     
  -3.7050254276154160E-002   9.3336963595038319E-002   0.0000000000000000     
  -3.8171869228882660E-002   9.9899268088481236E-002   0.0000000000000000     
  -3.9173071149546740E-002  0.10660510549406421        0.0000000000000000     
  -1.9161855486839595E-002  0.10550203372966518        0.0000000000000000     
  -1.9657389854278354E-002  0.11242501631604992        0.0000000000000000     
  -2.0222661816268032E-002  0.11964792862915204        0.0000000000000000     
  -2.0857671372808615E-002  0.12717077066897153        0.0000000000000000     
  -2.1562418523900118E-002  0.13499354243550843        0.0000000000000000     
  -2.3702688189102490E-002  0.10576254696267323        0.0000000000000000     
  -2.4158599193357715E-002  0.11269401134119417        0.0000000000000000     
  -2.4813467013827768E-002  0.11993629048621098        0.0000000000000000     
  -2.5667291650512649E-002  0.12748938439772364        0.0000000000000000     
  -2.6720073103412369E-002  0.13535329307573216        0.0000000000000000     
  -2.8551501700307978E-002  0.10603323000107574        0.0000000000000000     
  -2.9072275866172993E-002  0.11296683060244139        0.0000000000000000     
  -2.9831111875993223E-002  0.12021196352161866        0.0000000000000000     
  -3.0828009729768662E-002  0.12776862875860751        0.0000000000000000     
  -3.2062969427499317E-002  0.13563682631340801        0.0000000000000000     
  -3.3708296020456059E-002  0.10631408284487275        0.0000000000000000     
  -3.4398419872724191E-002  0.11324347409979155        0.0000000000000000     
  -3.5275596402764384E-002  0.12047494773537502        0.0000000000000000     
  -3.6339825610576644E-002  0.12800850375162318        0.0000000000000000     
  -3.7591107496160972E-002  0.13584414214853588        0.0000000000000000     
  -3.9173071149546740E-002  0.10660510549406421        0.0000000000000000     
  -4.0137031213011320E-002  0.11352394183324470        0.0000000000000000     
  -4.1146920594141267E-002  0.12072524312748016        0.0000000000000000     
  -4.2202739292936602E-002  0.12820900937677054        0.0000000000000000     
  -4.3304487309397330E-002  0.13597524058111590        0.0000000000000000     
  -2.1562418523900118E-002  0.13499354243550843        0.0000000000000000     
  -2.2264488659289212E-002  0.14289347528484900        0.0000000000000000     
  -2.2891467168722576E-002  0.15064780057307967        0.0000000000000000     
  -2.3443354052200219E-002  0.15825651830020032        0.0000000000000000     
  -2.3920149309722138E-002  0.16571962846621113        0.0000000000000000     
  -2.6720073103412369E-002  0.13535329307573216        0.0000000000000000     
  -2.7624926905387082E-002  0.14331805333116471        0.0000000000000000     
  -2.8034968589296969E-002  0.15117370197494939        0.0000000000000000     
  -2.7950198155142027E-002  0.15892023900708627        0.0000000000000000     
  -2.7370615602922255E-002  0.16655766442757530        0.0000000000000000     
  -3.2062969427499317E-002  0.13563682631340801        0.0000000000000000     
  -3.3109993649598289E-002  0.14361685303606675        0.0000000000000000     
  -3.3543085076478685E-002  0.15150900577663040        0.0000000000000000     
  -3.3362243708140504E-002  0.15931328453509899        0.0000000000000000     
  -3.2567469544583734E-002  0.16702968931147247        0.0000000000000000     
  -3.7591107496160972E-002  0.13584414214853588        0.0000000000000000     
  -3.8719688891922836E-002  0.14378987439955512        0.0000000000000000     
  -3.9415816630267726E-002  0.15165371197812266        0.0000000000000000     
  -3.9679490711195649E-002  0.15943565488423855        0.0000000000000000     
  -3.9510711134706576E-002  0.16713570311790266        0.0000000000000000     
  -4.3304487309397330E-002  0.13597524058111590        0.0000000000000000     
  -4.4454012632360720E-002  0.14383711742162988        0.0000000000000000     
  -4.5653163250664097E-002  0.15160782057942623        0.0000000000000000     
  -4.6901939164307460E-002  0.15928735005450484        0.0000000000000000     
  -4.8200340373290788E-002  0.16687570584686584        0.0000000000000000     
   0.0000000000000000        0.0000000000000000        0.0000000000000000     
  -1.7967945783035682E-003   1.2791637649542823E-003   0.0000000000000000     
  -3.6179347987980739E-003   2.9438962855165875E-003   0.0000000000000000     
  -5.4634206614835191E-003   4.9941975616869163E-003   0.0000000000000000     
  -7.3332521663598991E-003   7.4300675934652676E-003   0.0000000000000000     
   0.0000000000000000        0.0000000000000000        0.0000000000000000     
  -2.0674241102430014E-003   1.3566423395304380E-003   0.0000000000000000     
  -4.1601939249989459E-003   3.0973083391660915E-003   0.0000000000000000     
  -6.2783094442678336E-003   5.2219979989069597E-003   0.0000000000000000     
  -8.4217706680496662E-003   7.7307113187530434E-003   0.0000000000000000     
   0.0000000000000000        0.0000000000000000        0.0000000000000000     
  -2.3380149879563632E-003   1.4601452270958158E-003   0.0000000000000000     
  -4.7163859074288101E-003   3.3019668378543978E-003   0.0000000000000000     
  -7.1351127584173410E-003   5.5254648322757447E-003   0.0000000000000000     
  -9.5941955409219563E-003   8.1306392103598583E-003   0.0000000000000000     
   0.0000000000000000        0.0000000000000000        0.0000000000000000     
  -2.6085672114436547E-003   1.5896724276504156E-003   0.0000000000000000     
  -5.2865107460876694E-003   3.5578717815815063E-003   0.0000000000000000     
  -8.0338306039320420E-003   5.9045980617932715E-003   0.0000000000000000     
  -1.0850526784976774E-002   8.6298512682857122E-003   0.0000000000000000     
   0.0000000000000000        0.0000000000000000        0.0000000000000000     
  -2.8790807807048749E-003   1.7452239411942373E-003   0.0000000000000000     
  -5.8705684409755196E-003   3.8650231703474171E-003   0.0000000000000000     
  -8.9744629808119342E-003   6.3593976874595400E-003   0.0000000000000000     
  -1.2190764400214117E-002   9.2283474925306044E-003   0.0000000000000000     
  -7.3332521663598991E-003   7.4300675934652676E-003   0.0000000000000000     
  -9.2188703505142536E-003   1.0198840619964235E-002   0.0000000000000000     
  -1.1111716251033613E-002   1.3247850880296411E-002   0.0000000000000000     
  -1.3011789867917976E-002   1.6577098374461800E-002   0.0000000000000000     
  -1.4919091201167349E-002   2.0186583102460388E-002   0.0000000000000000     
  -8.4217706680496662E-003   7.7307113187530434E-003   0.0000000000000000     
  -1.0580651486215651E-002   1.0565953495595200E-002   0.0000000000000000     
  -1.2745025788636996E-002   1.3670229726324293E-002   0.0000000000000000     
  -1.4914893575313712E-002   1.7043540010940314E-002   0.0000000000000000     
  -1.7090254846245784E-002   2.0685884349443271E-002   0.0000000000000000     
  -9.5941955409219563E-003   8.1306392103598583E-003   0.0000000000000000     
  -1.2068323530952229E-002   1.1050222432049466E-002   0.0000000000000000     
  -1.4532186004517738E-002   1.4216946957287292E-002   0.0000000000000000     
  -1.6985782961618481E-002   1.7630812786073341E-002   0.0000000000000000     
  -1.9429114402254456E-002   2.1291819918407610E-002   0.0000000000000000     
  -1.0850526784976774E-002   8.6298512682857122E-003   0.0000000000000000     
  -1.3681886484723994E-002   1.1651647429327026E-002   0.0000000000000000     
  -1.6473196898675834E-002   1.4888002573185413E-002   0.0000000000000000     
  -1.9224458026832293E-002   1.8338916699860871E-002   0.0000000000000000     
  -2.1935669869193365E-002   2.2004389809353396E-002   0.0000000000000000     
  -1.2190764400214117E-002   9.2283474925306044E-003   0.0000000000000000     
  -1.5421340347530942E-002   1.2370228487427885E-002   0.0000000000000000     
  -1.8568058471111280E-002   1.5683396574018654E-002   0.0000000000000000     
  -2.1630918770955136E-002   1.9167851752302900E-002   0.0000000000000000     
  -2.4609921247062506E-002   2.2823594022280635E-002   0.0000000000000000     
  -1.4919091201167349E-002   2.0186583102460388E-002   0.0000000000000000     
  -1.6809686758024873E-002   2.4048391769895872E-002   0.0000000000000000     
  -1.8659643045733698E-002   2.8134611082371933E-002   0.0000000000000000     
  -2.0468960064293825E-002   3.2445241039888564E-002   0.0000000000000000     
  -2.2237637813705254E-002   3.6980281642445767E-002   0.0000000000000000     
  -1.7090254846245784E-002   2.0685884349443271E-002   0.0000000000000000     
  -1.9243960815358698E-002   2.4569540951978708E-002   0.0000000000000000     
  -2.1348862696577927E-002   2.8666788028692151E-002   0.0000000000000000     
  -2.3404960489903461E-002   3.2977625579583607E-002   0.0000000000000000     
  -2.5412254195335306E-002   3.7502053604653078E-002   0.0000000000000000     
  -1.9429114402254456E-002   2.1291819918407610E-002   0.0000000000000000     
  -2.1839054106907022E-002   2.5180532472911125E-002   0.0000000000000000     
  -2.4192475856057528E-002   2.9277514568204908E-002   0.0000000000000000     
  -2.6489379649705967E-002   3.3582766204288961E-002   0.0000000000000000     
  -2.8729765487852343E-002   3.8096287381163274E-002   0.0000000000000000     
  -2.1935669869193365E-002   2.2004389809353396E-002   0.0000000000000000     
  -2.4594966632669839E-002   2.5881366332693133E-002   0.0000000000000000     
  -2.7190482524172492E-002   2.9966790700910202E-002   0.0000000000000000     
  -2.9722217543701336E-002   3.4260662914004619E-002   0.0000000000000000     
  -3.2190171691256354E-002   3.8762982971976369E-002   0.0000000000000000     
  -2.4609921247062506E-002   2.2823594022280635E-002   0.0000000000000000     
  -2.7511698392647152E-002   2.6672042531324727E-002   0.0000000000000000     
  -3.0342882700922842E-002   3.0734616426808040E-002   0.0000000000000000     
  -3.3103474171889573E-002   3.5011315708730582E-002   0.0000000000000000     
  -3.5793472805547344E-002   3.9502140377092342E-002   0.0000000000000000     
  -2.2237637813705254E-002   3.6980281642445767E-002   0.0000000000000000     
  -2.3950767919354743E-002   4.1732910433944406E-002   0.0000000000000000     
  -2.5593442006629056E-002   4.6696304958285306E-002   0.0000000000000000     
  -2.7165660075528196E-002   5.1870465215468502E-002   0.0000000000000000     
  -2.8667422126052153E-002   5.7255391205493979E-002   0.0000000000000000     
  -2.5412254195335306E-002   3.7502053604653078E-002   0.0000000000000000     
  -2.7353827020110605E-002   4.2239817434202992E-002   0.0000000000000000     
  -2.9212762171466483E-002   4.7190662398535775E-002   0.0000000000000000     
  -3.0989059649402961E-002   5.2354588497651428E-002   0.0000000000000000     
  -3.2682719453920026E-002   5.7731595731549956E-002   0.0000000000000000     
  -2.8729765487852343E-002   3.8096287381163274E-002   0.0000000000000000     
  -3.0896923174323888E-002   4.2820544646910069E-002   0.0000000000000000     
  -3.2974142512947856E-002   4.7758004549611523E-002   0.0000000000000000     
  -3.4961423503724234E-002   5.2908667089267662E-002   0.0000000000000000     
  -3.6858766146653017E-002   5.8272532265878460E-002   0.0000000000000000     
  -3.2190171691256354E-002   3.8762982971976369E-002   0.0000000000000000     
  -3.4580056381994614E-002   4.3475092072065617E-002   0.0000000000000000     
  -3.6877583031073177E-002   4.8398331411512570E-002   0.0000000000000000     
  -3.9082751638492022E-002   5.3532700990317192E-002   0.0000000000000000     
  -4.1195562204251170E-002   5.8878200808479511E-002   0.0000000000000000     
  -3.5793472805547344E-002   3.9502140377092342E-002   0.0000000000000000     
  -3.8403226643122762E-002   4.4203459709669671E-002   0.0000000000000000     
  -4.0923083725842427E-002   4.9111642984238896E-002   0.0000000000000000     
  -4.3353044053706317E-002   5.4226690200800037E-002   0.0000000000000000     
  -4.5693107626714462E-002   5.9548601359353075E-002   0.0000000000000000     
  -2.8667422126052153E-002   5.7255391205493979E-002   0.0000000000000000     
  -3.0128470353832669E-002   6.2834845481521365E-002   0.0000000000000000     
  -3.1578546954501470E-002   6.8592590596710273E-002   0.0000000000000000     
  -3.3017651928058563E-002   7.4528626551060712E-002   0.0000000000000000     
  -3.4445785274503933E-002   8.0642953344572693E-002   0.0000000000000000     
  -3.2682719453920026E-002   5.7731595731549956E-002   0.0000000000000000     
  -3.4322866134305019E-002   6.3301282399591666E-002   0.0000000000000000     
  -3.5938624239845306E-002   6.9043246801136882E-002   0.0000000000000000     
  -3.7529993770540893E-002   7.4957488936185604E-002   0.0000000000000000     
  -3.9096974726391759E-002   8.1044008804737819E-002   0.0000000000000000     
  -3.6858766146653017E-002   5.8272532265878460E-002   0.0000000000000000     
  -3.8692986241059546E-002   6.3827828666812525E-002   0.0000000000000000     
  -4.0490899586269093E-002   6.9552784879438431E-002   0.0000000000000000     
  -4.2252506182281692E-002   7.5447400903756179E-002   0.0000000000000000     
  -4.3977806029097309E-002   8.1511676739765754E-002   0.0000000000000000     
  -4.1195562204251170E-002   5.8878200808479511E-002   0.0000000000000000     
  -4.3238830674096236E-002   6.4414484283183943E-002   0.0000000000000000     
  -4.5235372993772838E-002   7.0121204831614922E-002   0.0000000000000000     
  -4.7185189163280954E-002   7.5998362453772464E-002   0.0000000000000000     
  -4.9088279182620584E-002   8.2045957149656568E-002   0.0000000000000000     
  -4.5693107626714462E-002   5.9548601359353075E-002   0.0000000000000000     
  -4.7960399433415110E-002   6.5061249248705877E-002   0.0000000000000000     
  -5.0172044462356513E-002   7.0748506657666341E-002   0.0000000000000000     
  -5.2328042713538678E-002   7.6610373586234431E-002   0.0000000000000000     
  -5.4428394186961604E-002   8.2646850034410163E-002   0.0000000000000000     
  -3.4445785274503933E-002   8.0642953344572693E-002   0.0000000000000000     
  -3.5808226291361253E-002   8.6918192013735476E-002   0.0000000000000000     
  -3.7050254276154160E-002   9.3336963595038319E-002   0.0000000000000000     
  -3.8171869228882660E-002   9.9899268088481236E-002   0.0000000000000000     
  -3.9173071149546740E-002  0.10660510549406421        0.0000000000000000     
  -3.9096974726391759E-002   8.1044008804737819E-002   0.0000000000000000     
  -4.0620187625546159E-002   8.7291344410642069E-002   0.0000000000000000     
  -4.2080252986152346E-002   9.3688033757746897E-002   0.0000000000000000     
  -4.3477170808210300E-002  0.10023407684605229        0.0000000000000000     
  -4.4810941091720020E-002  0.10692947367555827        0.0000000000000000     
  -4.3977806029097309E-002   8.1511676739765754E-002   0.0000000000000000     
  -4.5664991747136334E-002   8.7735923944688474E-002   0.0000000000000000     
  -4.7312255956819101E-002   9.4110454075745587E-002   0.0000000000000000     
  -4.8919598658145644E-002  0.10063526713293709        0.0000000000000000     
  -5.0487019851115915E-002  0.10731036311626302        0.0000000000000000     
  -4.9088279182620584E-002   8.2045957149656568E-002   0.0000000000000000     
  -5.0942638656131765E-002   8.8251930615874691E-002   0.0000000000000000     
  -5.2746263188154459E-002   9.4604224549034402E-002   0.0000000000000000     
  -5.4499152778688685E-002  0.10110283894913565        0.0000000000000000     
  -5.6201307427734416E-002  0.10774777381617845        0.0000000000000000     
  -5.4428394186961604E-002   8.2646850034410163E-002   0.0000000000000000     
  -5.6453128352532460E-002   8.8839364424200748E-002   0.0000000000000000     
  -5.8382274680158400E-002   9.5169345177613329E-002   0.0000000000000000     
  -6.0215833169839417E-002  0.10163679229464795        0.0000000000000000     
  -6.1953803821575532E-002  0.10824170577530458        0.0000000000000000     
  -3.9173071149546740E-002  0.10660510549406421        0.0000000000000000     
  -4.0137031213011320E-002  0.11352394183324470        0.0000000000000000     
  -4.1146920594141267E-002  0.12072524312748016        0.0000000000000000     
  -4.2202739292936602E-002  0.12820900937677054        0.0000000000000000     
  -4.3304487309397330E-002  0.13597524058111590        0.0000000000000000     
  -4.4810941091720020E-002  0.10692947367555827        0.0000000000000000     
  -4.6065492572225752E-002  0.11383046151702229        0.0000000000000000     
  -4.7224753985271692E-002  0.12099327764120177        0.0000000000000000     
  -4.8288725330857853E-002  0.12841792204809677        0.0000000000000000     
  -4.9257406608984221E-002  0.13610439473770722        0.0000000000000000     
  -5.0487019851115915E-002  0.10731036311626302        0.0000000000000000     
  -5.1961186635558883E-002  0.11418526086534575        0.0000000000000000     
  -5.3288766111303475E-002  0.12130947921980767        0.0000000000000000     
  -5.4469758278349684E-002  0.12868301817964881        0.0000000000000000     
  -5.5504163136697510E-002  0.13630587774486916        0.0000000000000000     
  -5.6201307427734416E-002  0.10774777381617845        0.0000000000000000     
  -5.7824113403010725E-002  0.11458833987821508        0.0000000000000000     
  -5.9338956972236623E-002  0.12167384786329785        0.0000000000000000     
  -6.0745838135412102E-002  0.12900429777142672        0.0000000000000000     
  -6.2044756892537203E-002  0.13657968960260167        0.0000000000000000     
  -6.1953803821575532E-002  0.10824170577530458        0.0000000000000000     
  -6.3654272874581252E-002  0.11503969855563033        0.0000000000000000     
  -6.5375326568071115E-002  0.12208638357167227        0.0000000000000000     
  -6.7116964902045134E-002  0.12938176082343042        0.0000000000000000     
  -6.8879187876503267E-002  0.13692583031090480        0.0000000000000000     
  -4.3304487309397330E-002  0.13597524058111590        0.0000000000000000     
  -4.4454012632360720E-002  0.14383711742162988        0.0000000000000000     
  -4.5653163250664097E-002  0.15160782057942623        0.0000000000000000     
  -4.6901939164307460E-002  0.15928735005450484        0.0000000000000000     
  -4.8200340373290788E-002  0.16687570584686584        0.0000000000000000     
  -4.9257406608984221E-002  0.13610439473770722        0.0000000000000000     
  -5.0445534289894178E-002  0.14387128923869272        0.0000000000000000     
  -5.2167844843831107E-002  0.15153719907971269        0.0000000000000000     
  -5.4424338270794979E-002  0.15910212426076722        0.0000000000000000     
  -5.7215014570785830E-002  0.16656606478185620        0.0000000000000000     
  -5.5504163136697510E-002  0.13630587774486916        0.0000000000000000     
  -5.6826823283505475E-002  0.14400509698714531        0.0000000000000000     
  -5.8872581315932065E-002  0.15160771497815378        0.0000000000000000     
  -6.1641437233977303E-002  0.15911373171789470        0.0000000000000000     
  -6.5133391037641167E-002  0.16652314720636793        0.0000000000000000     
  -6.2044756892537203E-002  0.13657968960260167        0.0000000000000000     
  -6.3597879613194588E-002  0.14423854066698763        0.0000000000000000     
  -6.5767372666966986E-002  0.15181936827474957        0.0000000000000000     
  -6.8553236053854383E-002  0.15932217242588731        0.0000000000000000     
  -7.1955469773856806E-002  0.16674695312040100        0.0000000000000000     
  -6.8879187876503267E-002  0.13692583031090480        0.0000000000000000     
  -7.0758703278961541E-002  0.14457162027821976        0.0000000000000000     
  -7.2852218896935855E-002  0.15217215896949990        0.0000000000000000     
  -7.5159734730426267E-002  0.15972744638474509        0.0000000000000000     
  -7.7681250779432720E-002  0.16723748252395543        0.0000000000000000     
   0.0000000000000000        0.0000000000000000        0.0000000000000000     
  -2.8790807807048749E-003   1.7452239411942373E-003   0.0000000000000000     
  -5.8705684409755196E-003   3.8650231703474171E-003   0.0000000000000000     
  -8.9744629808119342E-003   6.3593976874595400E-003   0.0000000000000000     
  -1.2190764400214117E-002   9.2283474925306044E-003   0.0000000000000000     
   0.0000000000000000        0.0000000000000000        0.0000000000000000     
  -3.2828801039849484E-003   1.9994430540823298E-003   0.0000000000000000     
  -6.6758789943490793E-003   4.3307002739678231E-003   0.0000000000000000     
  -1.0178996671092391E-002   6.9937716596564807E-003   0.0000000000000000     
  -1.3792233134214887E-002   9.9886572111483017E-003   0.0000000000000000     
   0.0000000000000000        0.0000000000000000        0.0000000000000000     
  -3.9532895895287978E-003   2.4249730526697422E-003   0.0000000000000000     
  -7.9097624084650611E-003   5.0621823622584161E-003   0.0000000000000000     
  -1.1869418456808790E-002   7.9116279287660234E-003   0.0000000000000000     
  -1.5832257734559985E-002   1.0973309752192561E-002   0.0000000000000000     
   0.0000000000000000        0.0000000000000000        0.0000000000000000     
  -4.8903092373364255E-003   3.0218139369564750E-003   0.0000000000000000     
  -9.5722186833234676E-003   6.0594694352191962E-003   0.0000000000000000     
  -1.4045728337961128E-002   9.1129664947881689E-003   0.0000000000000000     
  -1.8310838201249405E-002   1.2182305115663388E-002   0.0000000000000000     
   0.0000000000000000        0.0000000000000000        0.0000000000000000     
  -6.0939390474078281E-003   3.7899657069425264E-003   0.0000000000000000     
  -1.1663247818924298E-002   7.3225614928501652E-003   0.0000000000000000     
  -1.6707926314549405E-002   1.0597787357722915E-002   0.0000000000000000     
  -2.1227974534283156E-002   1.3615643301560773E-002   0.0000000000000000     
  -1.2190764400214117E-002   9.2283474925306044E-003   0.0000000000000000     
  -1.5421340347530942E-002   1.2370228487427885E-002   0.0000000000000000     
  -1.8568058471111280E-002   1.5683396574018654E-002   0.0000000000000000     
  -2.1630918770955136E-002   1.9167851752302900E-002   0.0000000000000000     
  -2.4609921247062506E-002   2.2823594022280635E-002   0.0000000000000000     
  -1.3792233134214887E-002   9.9886572111483017E-003   0.0000000000000000     
  -1.7398992264883582E-002   1.3217941530127227E-002   0.0000000000000000     
  -2.0882677944265498E-002   1.6584209218277194E-002   0.0000000000000000     
  -2.4243290172360633E-002   2.0087460275598205E-002   0.0000000000000000     
  -2.7480828949168992E-002   2.3727694702090261E-002   0.0000000000000000     
  -1.5832257734559985E-002   1.0973309752192561E-002   0.0000000000000000     
  -1.9727149382292430E-002   1.4206762481200228E-002   0.0000000000000000     
  -2.3482962540579896E-002   1.7571520764451218E-002   0.0000000000000000     
  -2.7099697209422405E-002   2.1067584601945539E-002   0.0000000000000000     
  -3.0577353388819936E-002   2.4694953993683183E-002   0.0000000000000000     
  -1.8310838201249405E-002   1.2182305115663388E-002   0.0000000000000000     
  -2.2405811699757465E-002   1.5336691340646896E-002   0.0000000000000000     
  -2.6368912260054483E-002   1.8645331212540740E-002   0.0000000000000000     
  -3.0200139882140434E-002   2.2108224731344911E-002   0.0000000000000000     
  -3.3899494566015341E-002   2.5725371897059427E-002   0.0000000000000000     
  -2.1227974534283156E-002   1.3615643301560773E-002   0.0000000000000000     
  -2.5434979217278716E-002   1.6607728108467223E-002   0.0000000000000000     
  -2.9540527102689240E-002   1.9805640562545742E-002   0.0000000000000000     
  -3.3544618190514734E-002   2.3209380663796322E-002   0.0000000000000000     
  -3.7447252480755200E-002   2.6818948412218976E-002   0.0000000000000000     
  -2.4609921247062506E-002   2.2823594022280635E-002   0.0000000000000000     
  -2.7511698392647152E-002   2.6672042531324727E-002   0.0000000000000000     
  -3.0342882700922842E-002   3.0734616426808040E-002   0.0000000000000000     
  -3.3103474171889573E-002   3.5011315708730582E-002   0.0000000000000000     
  -3.5793472805547344E-002   3.9502140377092342E-002   0.0000000000000000     
  -2.7480828949168992E-002   2.3727694702090261E-002   0.0000000000000000     
  -3.0618594217285855E-002   2.7545870518309621E-002   0.0000000000000000     
  -3.3679885919306526E-002   3.1582945744812546E-002   0.0000000000000000     
  -3.6664704055230993E-002   3.5838920381599040E-002   0.0000000000000000     
  -3.9573048625059247E-002   4.0313794428669114E-002   0.0000000000000000     
  -3.0577353388819936E-002   2.4694953993683183E-002   0.0000000000000000     
  -3.3944998937032844E-002   2.8496159743151506E-002   0.0000000000000000     
  -3.7231701712321506E-002   3.2513732653837842E-002   0.0000000000000000     
  -4.0437461714685888E-002   3.6747672725742205E-002   0.0000000000000000     
  -4.3562278944126009E-002   4.1197979958864581E-002   0.0000000000000000     
  -3.3899494566015341E-002   2.5725371897059427E-002   0.0000000000000000     
  -3.7490912551888148E-002   2.9522910205850388E-002   0.0000000000000000     
  -4.0998330079967796E-002   3.3526977153883940E-002   0.0000000000000000     
  -4.4421747150254272E-002   3.7737572741160061E-002   0.0000000000000000     
  -4.7761163762747610E-002   4.2154696967678755E-002   0.0000000000000000     
  -3.7447252480755200E-002   2.6818948412218976E-002   0.0000000000000000     
  -4.1256335061851716E-002   3.0626121906406283E-002   0.0000000000000000     
  -4.4979771022245367E-002   3.4622679244950820E-002   0.0000000000000000     
  -4.8617560361936152E-002   3.8808620427852610E-002   0.0000000000000000     
  -5.2169703080924071E-002   4.3183945455111630E-002   0.0000000000000000     
  -3.5793472805547344E-002   3.9502140377092342E-002   0.0000000000000000     
  -3.8403226643122762E-002   4.4203459709669671E-002   0.0000000000000000     
  -4.0923083725842427E-002   4.9111642984238896E-002   0.0000000000000000     
  -4.3353044053706317E-002   5.4226690200800037E-002   0.0000000000000000     
  -4.5693107626714462E-002   5.9548601359353075E-002   0.0000000000000000     
  -3.9573048625059247E-002   4.0313794428669114E-002   0.0000000000000000     
  -4.2399761120858158E-002   4.5000135981297630E-002   0.0000000000000000     
  -4.5139683034694511E-002   4.9890513134759472E-002   0.0000000000000000     
  -4.7792814366568341E-002   5.4984925889054646E-002   0.0000000000000000     
  -5.0359155116479620E-002   6.0283374244183147E-002   0.0000000000000000     
  -4.3562278944126009E-002   4.1197979958864581E-002   0.0000000000000000     
  -4.6602986978350587E-002   4.5859609308524951E-002   0.0000000000000000     
  -4.9556419395068343E-002   5.0727515730043249E-002   0.0000000000000000     
  -5.2422576194279293E-002   5.5801699223419501E-002   0.0000000000000000     
  -5.5201457375983420E-002   6.1082159788653702E-002   0.0000000000000000     
  -4.7761163762747610E-002   4.2154696967678755E-002   0.0000000000000000     
  -5.1012904215600077E-002   4.6781879691351613E-002   0.0000000000000000     
  -5.4173292806963924E-002   5.1622650770090248E-002   0.0000000000000000     
  -5.7242329536839186E-002   5.6677010203894616E-002   0.0000000000000000     
  -6.0220014405225834E-002   6.1944957992764733E-002   0.0000000000000000     
  -5.2169703080924071E-002   4.3183945455111630E-002   0.0000000000000000     
  -5.5629512832606601E-002   4.7766947129777644E-002   0.0000000000000000     
  -5.8990303270381253E-002   5.2575918254900426E-002   0.0000000000000000     
  -6.2252074394247993E-002   5.7610858830479950E-002   0.0000000000000000     
  -6.5414826204206855E-002   6.2871768856516241E-002   0.0000000000000000     
  -4.5693107626714462E-002   5.9548601359353075E-002   0.0000000000000000     
  -4.7960399433415110E-002   6.5061249248705877E-002   0.0000000000000000     
  -5.0172044462356513E-002   7.0748506657666341E-002   0.0000000000000000     
  -5.2328042713538678E-002   7.6610373586234431E-002   0.0000000000000000     
  -5.4428394186961604E-002   8.2646850034410163E-002   0.0000000000000000     
  -5.0359155116479620E-002   6.0283374244183147E-002   0.0000000000000000     
  -5.2849919918307009E-002   6.5772352613094734E-002   0.0000000000000000     
  -5.5276323405929043E-002   7.1438355408739135E-002   0.0000000000000000     
  -5.7638365579345777E-002   7.7281382631116363E-002   0.0000000000000000     
  -5.9936046438557197E-002   8.3301434280226419E-002   0.0000000000000000     
  -5.5201457375983420E-002   6.1082159788653702E-002   0.0000000000000000     
  -5.7899619528062753E-002   6.6552023426066795E-002   0.0000000000000000     
  -6.0523619238399329E-002   7.2194416135979725E-002   0.0000000000000000     
  -6.3073456506993170E-002   7.8009337918392485E-002   0.0000000000000000     
  -6.5549131333844199E-002   8.3996788773305089E-002   0.0000000000000000     
  -6.0220014405225834E-002   6.1944957992764733E-002   0.0000000000000000     
  -6.3109498262682390E-002   6.7400261687622073E-002   0.0000000000000000     
  -6.5913931959767386E-002   7.3016688839388097E-002   0.0000000000000000     
  -6.8633315496480787E-002   7.8794239448062797E-002   0.0000000000000000     
  -7.1267648872822609E-002   8.4732913513646188E-002   0.0000000000000000     
  -6.5414826204206855E-002   6.2871768856516241E-002   0.0000000000000000     
  -6.8479556122165886E-002   6.8317067397760584E-002   0.0000000000000000     
  -7.1447261570033158E-002   7.3905173518964279E-002   0.0000000000000000     
  -7.4317942547808685E-002   7.9636087220127300E-002   0.0000000000000000     
  -7.7091599055492427E-002   8.5509808501249673E-002   0.0000000000000000     
  -5.4428394186961604E-002   8.2646850034410163E-002   0.0000000000000000     
  -5.6453128352532460E-002   8.8839364424200748E-002   0.0000000000000000     
  -5.8382274680158400E-002   9.5169345177613329E-002   0.0000000000000000     
  -6.0215833169839417E-002  0.10163679229464795        0.0000000000000000     
  -6.1953803821575532E-002  0.10824170577530458        0.0000000000000000     
  -5.9936046438557197E-002   8.3301434280226419E-002   0.0000000000000000     
  -6.2129465208680359E-002   8.9476063192117511E-002   0.0000000000000000     
  -6.4178721114832346E-002   9.5782822202837875E-002   0.0000000000000000     
  -6.6083814157013157E-002  0.10222171131238747        0.0000000000000000     
  -6.7844744335222779E-002  0.10879273052076632        0.0000000000000000     
  -6.5549131333844199E-002   8.3996788773305089E-002   0.0000000000000000     
  -6.7904653596917414E-002   9.0139864742075942E-002   0.0000000000000000     
  -7.0094033174177742E-002   9.6421661866063491E-002   0.0000000000000000     
  -7.2117270065625183E-002  0.10284218014526768        0.0000000000000000     
  -7.3974364271259724E-002  0.10940141957968855        0.0000000000000000     
  -7.1267648872822609E-002   8.4732913513646188E-002   0.0000000000000000     
  -7.3778693517243629E-002   9.0830769074076043E-002   0.0000000000000000     
  -7.6128210858194587E-002   9.7085864167290176E-002   0.0000000000000000     
  -7.8316200895675508E-002  0.10349819879328857        0.0000000000000000     
  -8.0342663629686381E-002  0.11006777295207129        0.0000000000000000     
  -7.7091599055492427E-002   8.5509808501249673E-002   0.0000000000000000     
  -7.9751584969658978E-002   9.1548776188117770E-002   0.0000000000000000     
  -8.2281254166882867E-002   9.7775429106517930E-002   0.0000000000000000     
  -8.4680606647164106E-002  0.10418976725645020        0.0000000000000000     
  -8.6949642410502681E-002  0.11079179063791453        0.0000000000000000     
  -6.1953803821575532E-002  0.10824170577530458        0.0000000000000000     
  -6.3654272874581252E-002  0.11503969855563033        0.0000000000000000     
  -6.5375326568071115E-002  0.12208638357167227        0.0000000000000000     
  -6.7116964902045134E-002  0.12938176082343042        0.0000000000000000     
  -6.8879187876503267E-002  0.13692583031090480        0.0000000000000000     
  -6.7844744335222779E-002  0.10879273052076632        0.0000000000000000     
  -6.9612762737171541E-002  0.11555666945810208        0.0000000000000000     
  -7.1539120450569704E-002  0.12257431775452252        0.0000000000000000     
  -7.3623817475417297E-002  0.12984567541002756        0.0000000000000000     
  -7.5866853811714305E-002  0.13737074242461725        0.0000000000000000     
  -7.3974364271259724E-002  0.10940141957968855        0.0000000000000000     
  -7.5860680677682618E-002  0.11615658514614102        0.0000000000000000     
  -7.7971584171495120E-002  0.12316488182144007        0.0000000000000000     
  -8.0307074752697175E-002  0.13042630960558568        0.0000000000000000     
  -8.2867152421288837E-002  0.13794086849857787        0.0000000000000000     
  -8.0342663629686381E-002  0.11006777295207129        0.0000000000000000     
  -8.2398026696114526E-002  0.11683944561974713        0.0000000000000000     
  -8.4672717730847336E-002  0.12385807577242496        0.0000000000000000     
  -8.7166736733884795E-002  0.13112366341010478        0.0000000000000000     
  -8.9880083705226904E-002  0.13863620853278660        0.0000000000000000     
  -8.6949642410502681E-002  0.11079179063791453        0.0000000000000000     
  -8.9224800792467238E-002  0.11760525087892038        0.0000000000000000     
  -9.1642521128626392E-002  0.12465389960747714        0.0000000000000000     
  -9.4202803418980116E-002  0.13193773682358487        0.0000000000000000     
  -9.6905647663528452E-002  0.13945676252724348        0.0000000000000000     
  -6.8879187876503267E-002  0.13692583031090480        0.0000000000000000     
  -7.0758703278961541E-002  0.14457162027821976        0.0000000000000000     
  -7.2852218896935855E-002  0.15217215896949990        0.0000000000000000     
  -7.5159734730426267E-002  0.15972744638474509        0.0000000000000000     
  -7.7681250779432720E-002  0.16723748252395543        0.0000000000000000     
  -7.5866853811714305E-002  0.13737074242461725        0.0000000000000000     
  -7.8071864070203889E-002  0.14501114974399990        0.0000000000000000     
  -8.0042482861629294E-002  0.15262852831388377        0.0000000000000000     
  -8.1778710185990436E-002  0.16022287813426891        0.0000000000000000     
  -8.3280546043287357E-002  0.16779419920515526        0.0000000000000000     
  -8.2867152421288837E-002  0.13794086849857787        0.0000000000000000     
  -8.5299931776319324E-002  0.14556394298748615        0.0000000000000000     
  -8.7253527416837881E-002  0.15315091755937998        0.0000000000000000     
  -8.8727939342844439E-002  0.16070179221425945        0.0000000000000000     
  -8.9723167554339095E-002  0.16821656695212450        0.0000000000000000     
  -8.9880083705226904E-002  0.13863620853278660        0.0000000000000000     
  -9.2442906397307775E-002  0.14623000000867856        0.0000000000000000     
  -9.4485352562561561E-002  0.15373932670598861        0.0000000000000000     
  -9.6007422200988304E-002  0.16116418862471679        0.0000000000000000     
  -9.7009115312587949E-002  0.16850458576486316        0.0000000000000000     
  -9.6905647663528452E-002  0.13945676252724348        0.0000000000000000     
  -9.9500787933169271E-002  0.14700932080757706        0.0000000000000000     
 -0.10173795829880045       0.15439375575370953        0.0000000000000000     
 -0.10361715876042199       0.16161006736564093        0.0000000000000000     
 -0.10513838931803392       0.16865825564337122        0.0000000000000000     
 </DataArray>
 <DataArray  type="Float64" Name="stress" NumberOfComponents="3" format="ascii">
   13413998859.606277        4024199657.8818831        2892354856.4897718     
   11768475880.111086        1890456820.9803722        1715775217.8392513     
   10320183712.643045        414150024.16936922        811003554.54260385     
   9069122357.2021599       -404720732.55112362        178039866.59983167     
   8015291813.7884264       -566155449.18110561       -183115845.98906869     
   10543107107.015667        3162932132.1047001        2223871802.7490568     
   9672273625.8082695        1590267729.1455019        1445696860.1896546     
   8950107076.1792927        513159764.78103256        862149302.35722637     
   8376607458.1287365       -68391760.988706112        473229129.25177133     
   7951774771.6565943       -154386848.16371536        278936340.87329191     
   8344276233.3812037        2503282870.0143614        1710129827.1377857     
   8027616277.2418900        1425542109.0315619        1273701720.1459792     
   7811059372.2322607        681478185.14771223        954720407.25424576     
   7694605518.3523149        271091098.36281157        753185888.46258759     
   7678254715.6020555        194380848.67686129        669098163.77100289     
   6817506238.7028866        2045251871.6108658        1351128929.6559591     
   6834503834.4119406        1396279960.6385522        1199789797.7082241     
   6903040600.8019466        919105285.26940727        1088716869.2336643     
   7023116537.8729029        613727845.50343204        1017910144.2322786     
   7194731645.6248093        480147641.34062696        987369622.70406640     
   5962797122.9807158        1788839136.8942146        1146869110.3035762     
   6092936297.3184252        1502481283.9664717        1223961092.8763909     
   6226050761.8883524        1226041065.1461186        1264138688.2954800     
   6362140516.6904955        959518480.43315434        1267401896.5608439     
   6501205561.7248564        702913529.82758021        1233750717.6724820     
   8015291813.7884264       -566155449.18110561       -183115845.98906869     
   7930314204.8336439       -200692673.27252674       -81340695.889414400     
   7803869484.2039309        26546397.052956104       -10416248.845417941     
   7635957651.8992901        115561761.79534960        29657495.142926235     
   7426578707.9197273        66353420.954657078        38880536.075610511     
   7951774771.6565943       -154386848.16371536        278936340.87329191     
   7750495585.3993502        16546659.789127827        277887978.59670591     
   7525733563.2098742        109204047.96786165        263118937.13289925     
   7277488705.0881662        123585316.37249470        234629216.48187086     
   7005761011.0342274        59690465.003020763        192418816.64362407     
   7678254715.6020555        194380848.67686129        669098163.77100289     
   7409616877.3807392        185467966.27548599        586207944.15132129     
   7135480478.9698820        158226549.90898848        506727069.21285462     
   6855845520.3694897        112656599.57737231        430655538.95560205     
   6570712001.5795622        48758115.280634880        357993353.37956494     
   7194731645.6248093        480147641.34062696        987369622.70406640     
   6907678080.7778025        306071246.18654776        843619200.77443457     
   6633110231.4839535        173613902.87633300        720408147.39445448     
   6371028097.7432652        82775611.409983158        617736462.56412172     
   6121431679.5557365        33556371.787498951        535604146.28343976     
   6501205561.7248564        702913529.82758021        1233750717.6724820     
   6244679195.5905457        378356499.52231336        1050121748.4660457     
   6018622820.7520905        155366106.86989713        904162171.67769480     
   5823036437.2094898        33942351.870330572        795871987.30742669     
   5657920044.9627457        14085234.523615599        725251195.35524511     
   7426578707.9197273        66353420.954657078        38880536.075610511     
   7234121442.6728668       -21511499.308520317        20670569.152813323     
   7054296289.2928276       -67269380.015628338        2950899.5895341290     
   6887103247.7796154       -70920221.166651726       -14278472.614231719     
   6732542318.1332197       -32464022.761610508       -31017547.458483096     
   7005761011.0342274        59690465.003020763        192418816.64362407     
   6824523944.1022205        136627.36084508896        182081837.81383622     
   6651732675.0303926       -31264550.747398853        173352156.64649668     
   6487387203.8187447       -34513069.321707487        166229773.14160916     
   6331487530.4672775       -9608928.3620910645        160714687.29916358     
   6570712001.5795622        48758115.280634880        357993353.37956494     
   6403886562.3993607        18472789.090548038        350645329.63503850     
   6241320607.0726929        2385742.4122509956        346021603.85589325     
   6083014135.5995626        496975.24574327469        344122176.04212630     
   5928967147.9799662        12806487.591022730        344947046.19374192     
   6121431679.5557365        33556371.787498951        535604146.28343976     
   5972209297.5642872        33496985.880588055        526361044.61642259     
   5823060085.4197302        33681499.463320971        520959241.21772230     
   5673984043.1220694        34109912.535703659        519398736.08733231     
   5524981170.6713009        34782225.097732782        521679529.22525519     
   5657920044.9627457        14085234.523615599        725251195.35524511     
   5529492149.5969992        45209217.730961800        709228982.75798965     
   5396951110.0715055        62622720.405813456        698165068.73198020     
   5260296926.3862619        66325742.548168182        692059453.27721763     
   5119529598.5412693        56318284.158027411        690912136.39369881     
   6732542318.1332197       -32464022.761610508       -31017547.458483096     
   6557461603.6350574        5886375.2226676941       -17757256.234837703     
   6373737877.2930040        15426733.727302074        2494764.4072045218     
   6181371139.1070499       -3842947.2477223873        29738514.467657350     
   5980361389.0772018       -51922667.702406168        63973993.946510211     
   6331487530.4672775       -9608928.3620910645        160714687.29916358     
   6167101252.1201973        16116312.642435074        163366843.50823852     
   5996489229.6779442        21089073.329710960        170167257.41045675     
   5819651463.1405125        5309353.6997258663        181115929.00581235     
   5636587952.5079041       -31222846.247516632        196212858.29431349     
   5928967147.9799662        12806487.591022730        344947046.19374192     
   5767151100.8546524        23469310.136995316        339811213.09509337     
   5601526577.3828773        21437211.528114557        335980165.96431750     
   5432093577.5646439        6710191.7643713951        333453904.80142462     
   5258852101.3999596       -20711749.154212952        332232429.60641235     
   5524981170.6713009        34782225.097732782        521679529.22525519     
   5357611149.8384218        27945367.706347704        511575852.52571678     
   5188849920.4078054        16471148.322515249        499933490.06879318     
   5018697482.3794556        359566.94623041153        486752441.85448849     
   4847153835.7533665       -20389376.422511101        472032707.88280249     
   5119529598.5412693        56318284.158027411        690912136.39369881     
   4938481399.0715084        29544485.350502253        678660761.80011284     
   4758459258.7527323        6190883.7129216194        662027229.72388339     
   4579463177.5849390       -13742520.754710436        641011540.16500747     
   4401493155.5681295       -30255728.052401543        615613693.12348652     
   5980361389.0772018       -51922667.702406168        63973993.946510211     
   5774554163.4543781       -93538964.728912354        47542132.698751546     
   5582600498.7563725       -88976725.339382648        40481533.143228188     
   5404500394.9831724       -38235949.533812761        42792195.279937886     
   5240253852.1347961        58683362.687822104        54474119.108878396     
   5636587952.5079041       -31222846.247516632        196212858.29431349     
   5458225420.9310026       -61100731.256450653        181453968.83344361     
   5289546229.8591146       -58700814.582005978        175726256.48083964     
   5130550379.2922382       -24023096.224193335        179029721.23649633     
   4981237869.2303772        42932423.817011356        191364363.10042179     
   5258852101.3999596       -20711749.154212952        332232429.60641235     
   5106962593.6290627       -39142723.217556953        314281254.77599657     
   4960586205.9433832       -39196630.330174923        305021172.46987528     
   4819722938.3429127       -20873470.492091656        304452182.68804753     
   4684372790.8276596        15826756.296704292        312574285.43051863     
   4847153835.7533665       -20389376.422511101        472032707.88280249     
   4720765681.5485649       -27664940.612224579        446023990.52640778     
   4595720427.0091791       -30464172.583883286        428366281.11033601     
   4472018072.1352005       -28787072.337512732        419059579.63459450     
   4349658616.9266367       -22633639.873094082        418103886.09917301     
   4401493155.5681295       -30255728.052401543        615613693.12348652     
   4299634684.6895037       -26667383.440465450        576682176.08467877     
   4194948893.0564985       -32503441.343134880        545761582.40222836     
   4087435780.6691022       -47763901.760443926        522851912.07613128     
   3977095347.5273175       -72448764.692381382        507953165.10638654     
   5240253852.1347961        58683362.687822104        54474119.108878396     
   5013349807.1130638        121782394.64624333        77568026.880540609     
   4762686906.9173546        105685242.69142413        65851706.189183727     
   4488265151.5476933        10391906.823408365        19325157.034809038     
   4190084541.0040627       -164097612.95781398       -62011620.582571931     
   4981237869.2303772        42932423.817011356        191364363.10042179     
   4673760201.0010643        53861100.473967791        188244209.75776842     
   4350943832.3102427        13660775.592584848        169993887.48033059     
   4012788763.1579318       -77668550.827111959        136613396.26811305     
   3659294993.5441160       -220126878.78514051        88102736.121106535     
   4684372790.8276596        15826756.296704292        312574285.43051863     
   4352550240.8999958       -8546299.8950161934        293063584.80476904     
   4013809145.2233000       -55981175.250183582        278102774.77246225     
   3668149503.7975736       -126477869.76879811        267691855.33359662     
   3315571316.6228070       -220036383.45085907        261830826.48818395     
   4349658616.9266367       -22633639.873094082        418103886.09917301     
   4049719926.8098612       -65439806.460722923        392026152.02152991     
   3751282845.6565113       -103240609.83692241        390178368.06556404     
   3454347373.4665980       -136036050.00167632        412560534.23127323     
   3158913510.2401147       -163826126.95499480        459172650.51865709     
   3977095347.5273175       -72448764.692381382        507953165.10638654     
   3765269258.7306542       -116819419.22314978        485131911.40806115     
   3563364933.6098914       -128117528.16759300        506220667.35964036     
   3371382372.1650152       -106343091.52573705        571219432.96112990     
   3189321574.3960404       -51496109.297554731        680128208.21252275     
   4190084541.0040627       -164097612.95781398       -62011620.582571931     
   4465120305.1354885       -191106040.62682033       -52395723.895546876     
   4747771746.2274961       -192728878.42719841        41395366.038751073     
   5038038864.2800970       -168966126.35893774        219361649.22032192     
   5335921659.2932911       -119817784.42204547        481503125.64915025     
   3659294993.5441160       -220126878.78514051        88102736.121106535     
   4115552884.1433539       -140243474.79404545        141856859.61292234     
   4573577761.2822638       -54470115.670696735        226170079.83422631     
   5033369624.9608412        37193198.584872961        341042396.78501171     
   5494928475.1790829        134746467.97264910        486473810.46529239     
   3315571316.6228070       -220036383.45085907        261830826.48818395     
   3799862486.4962144       -79217801.957740307        352899704.62703460     
   4280071952.4883676        47995099.931212425        420911582.97760057     
   4756199714.5992756        161602322.21599102        465866461.53988123     
   5228245772.8289146        261603864.89657259        487764340.31387722     
   3158913510.2401147       -163826126.95499480        459172650.51865709     
   3518049112.1940417       -8029022.1179609299        580732811.14680696     
   3867254319.8457975        114666768.37849593        625619875.46889806     
   4206529133.1953835        204261244.53439784        593833843.48492658     
   4535873552.2427988        260754406.34970999        485374715.19488984     
   3189321574.3960404       -51496109.297554731        680128208.21252275     
   3270112761.2368469        73322864.725309849        825356179.17223322     
   3335124863.3545690        145544889.67120922        840294957.30810523     
   3384357880.7491937        165169965.54011893        724944542.62013531     
   3417811813.4207230        132198092.33204639        479304935.10833269     
   5335921659.2932911       -119817784.42204547        481503125.64915025     
   4405562370.3126173       -343466600.74167395        369684487.28140247     
   3530670129.8273878       -382225255.40985990        134453176.69054314     
   2711244937.8375988       -236093748.42656255       -224190806.12341669     
   1947286794.3432298        94927920.208144784       -706247461.16047907     
   5494928475.1790829        134746467.97264910        486473810.46529239     
   4365501651.8746586       -167733427.43995571        342649367.02530032     
   3285250174.2875547       -306295503.79485893        187300510.73467770     
   2254174042.4177423       -280939761.09209740        20427241.593425177     
   1272273256.2652400       -91666199.331658185       -157970440.39845404     
   5228245772.8289146        261603864.89657259        487764340.31387722     
   4219432156.2649755       -23802887.289724588        304593771.89381236     
   3253502182.6402116       -166264163.01209712        221787049.99560520     
   2330455851.9546213       -165779962.27057815        239344174.61924827     
   1450293164.2081978       -22350285.065136850        357265145.76472056     
   4535873552.2427988        260754406.34970999        485374715.19488984     
   3967353883.4835529        88325019.708976746        255517701.88694185     
   3435426154.8853478        37868766.938381672        237912794.47332460     
   2940090366.4481902        109385648.03793120        432559992.95403159     
   2481346518.1720805        302875663.00764197        839459297.32906342     
   3417811813.4207230        132198092.33204639        479304935.10833269     
   3609266833.5303941        168650293.55614674        195421157.00468266     
   3831022091.0229802        306103286.05661929        235677744.16783839     
   4083077585.8984823        544557069.83346677        600074696.59779358     
   4365433318.1568851        884011644.88668382        1288612014.2945495     
   5962797122.9807158        1788839136.8942146        1146869110.3035762     
   6092936297.3184252        1502481283.9664717        1223961092.8763909     
   6226050761.8883524        1226041065.1461186        1264138688.2954800     
   6362140516.6904955        959518480.43315434        1267401896.5608439     
   6501205561.7248564        702913529.82758021        1233750717.6724820     
   5436509743.9145117        1630952923.1743536        1029827836.3559599     
   5492551954.1128225        1372669623.7219708        1109892624.3395896     
   5550972098.3338661        1122312771.0120316        1163395391.6446316     
   5611770176.5776424        879882365.04453683        1190336138.2710850     
   5674946188.8441515        645378405.81948519        1190714864.2189519     
   4895004959.2040958        1468501487.7612288        932482575.08843195     
   4906528395.1919718        1247166198.7628956        1014823252.9051456     
   4919832408.9930973        1031766169.1420603        1080954276.5184090     
   4934917000.6074724        822301398.89872313        1130875645.9282224     
   4951782170.0350971        618771888.03288424        1164587361.1345861     
   4338282768.8494663        1301484830.6548400        854833326.50099242     
   4334865620.5558739        1125971009.0892458        938752978.57305920     
   4332631693.8660450        954401259.53620362        1016815342.9168135     
   4331580988.7799816        786775581.99571383        1089020419.5322559     
   4331713505.2976847        623093976.46777606        1155368208.4193847     
   3766343172.8506250        1129902951.8551877        796880090.59364152     
   3777563630.2045259        1009084054.7010214        881681801.34333050     
   3789369952.9527087        890218042.19446206        970978590.83984482     
   3801762141.0951743        773304914.33550942        1064770459.0831838     
   3814740194.6319218        658344671.12416315        1163057406.0733483     
   6501205561.7248564        702913529.82758021        1233750717.6724820     
   6244679195.5905457        378356499.52231336        1050121748.4660457     
   6018622820.7520905        155366106.86989713        904162171.67769480     
   5823036437.2094898        33942351.870330572        795871987.30742669     
   5657920044.9627457        14085234.523615599        725251195.35524511     
   5674946188.8441515        645378405.81948519        1190714864.2189519     
   5522326227.7867460        385854884.22432566        1069623672.2714970     
   5393516835.7574205        205699926.05610228        975783359.03201282     
   5288518012.7561741        104913531.31481433        909193924.50049901     
   5207329758.7830086        83495700.000460148        869855368.67695475     
   4951782170.0350971        618771888.03288424        1164587361.1345861     
   4873301432.0256939        415351720.53916240        1098264620.4670424     
   4811971840.7765999        269102042.24646211        1048774244.7973554     
   4767793396.2878094        180022853.15478158        1016116234.1255229     
   4740766098.5593262        148114153.26412010        1000290588.4515473     
   4331713505.2976847        623093976.46777606        1155368208.4193847     
   4297604808.3073921        466847008.46682405        1136044593.0526826     
   4273987835.8096285        345572455.44097650        1123134828.9737213     
   4260862587.8043981        259270317.39023447        1116638916.1825016     
   4258229064.2916965        207940594.31459665        1116556854.6790245     
   3814740194.6319218        658344671.12416315        1163057406.0733483     
   3795236356.6318355        540340748.00730920        1182963590.0284164     
   3779564820.8565083        435111165.63964641        1198865111.5611112     
   3767725587.3059382        342655924.02117527        1210761970.6714342     
   3759718655.9801230        262975023.15189004        1218654167.3593848     
   5657920044.9627457        14085234.523615599        725251195.35524511     
   5529492149.5969992        45209217.730961800        709228982.75798965     
   5396951110.0715055        62622720.405813456        698165068.73198020     
   5260296926.3862619        66325742.548168182        692059453.27721763     
   5119529598.5412693        56318284.158027411        690912136.39369881     
   5207329758.7830086        83495700.000460148        869855368.67695475     
   5083232192.6326609        83439540.064800739        845425665.89638412     
   4957896232.2005062        79255399.189788103        826564104.66633558     
   4831321877.4865465        70943277.375422955        813270684.98681295     
   4703509128.4907789        58503174.621704102        805545406.85781229     
   4740766098.5593262        148114153.26412010        1000290588.4515473     
   4622741270.1365986        117400572.73912501        970807270.34526157     
   4506352797.3100071        92141510.867915630        947501936.76877654     
   4391600680.0795546        72336967.650496960        930374587.72209263     
   4278484918.4452367        57986943.086865664        919425223.20521092     
   4258229064.2916965        207940594.31459665        1116556854.6790245     
   4148019382.1088152        147092315.75393248        1085373796.1046216     
   4042320805.4000092        101281055.44019485        1060978565.0392981     
   3941133334.1652832        70506813.373385668        1043371161.4830528     
   3844456968.4046373        54769589.553508997        1032551585.4358892     
   3759718655.9801230        262975023.15189004        1218654167.3593848     
   3659066528.5493059        172514769.10922122        1189125243.1744633     
   3565800256.4705100        106674032.90662014        1166993989.4779029     
   3479919839.7437358        65452814.544091940        1152260406.2696977     
   3401425278.3689833        48851114.021636963        1144924493.5498490     
   5119529598.5412693        56318284.158027411        690912136.39369881     
   4938481399.0715084        29544485.350502253        678660761.80011284     
   4758459258.7527323        6190883.7129216194        662027229.72388339     
   4579463177.5849390       -13742520.754710436        641011540.16500747     
   4401493155.5681295       -30255728.052401543        615613693.12348652     
   4703509128.4907789        58503174.621704102        805545406.85781229     
   4516884671.9480553        27777452.315098524        793910124.49002051     
   4331075242.2439623       -231513.86272549629        783279553.43315220     
   4146080839.3785095       -25523723.911749363        773653693.68720102     
   3961901463.3516955       -48099177.831985474        765032545.25217140     
   4278484918.4452367        57986943.086865664        919425223.20521092     
   4101675258.5254450        27926613.389943361        908159828.69880891     
   3925469593.1319447       -120401.21934533119        903286014.29689217     
   3749867922.2647357       -26154100.740991116        904803779.99946547     
   3574870245.9238186       -50174485.175001621        912713125.80652499     
   3844456968.4046373        54769589.553508997        1032551585.4358892     
   3692853158.8036880        29991968.575045109        1021409874.4264711     
   3541642311.4166827        6524221.6430642605        1022046612.3151075     
   3390824426.2436228       -15633651.242432117        1034461799.1017978     
   3240399503.2845063       -36481650.081449151        1058655434.7865427     
   3401425278.3689833        48851114.021636963        1144924493.5498490     
   3290418372.7827778        33973517.870403886        1133660261.6730130     
   3179593397.0981703        19702354.724493265        1139561347.4877963     
   3068950351.3151636        6037624.5839197636        1162627750.9942000     
   2958489235.4337540       -7020672.5513281822        1202859472.1922278     
   4401493155.5681295       -30255728.052401543        615613693.12348652     
   4299634684.6895037       -26667383.440465450        576682176.08467877     
   4194948893.0564985       -32503441.343134880        545761582.40222836     
   4087435780.6691022       -47763901.760443926        522851912.07613128     
   3977095347.5273175       -72448764.692381382        507953165.10638654     
   3961901463.3516955       -48099177.831985474        765032545.25217140     
   3878669493.2575111       -41001985.736465931        740885518.56861401     
   3794219259.5571966       -37965672.328052044        722245912.02051651     
   3708550762.2507458       -38990237.606757879        709113725.60788739     
   3621664001.3381629       -44075681.572568178        701488959.33072245     
   3574870245.9238186       -50174485.175001621        912713125.80652499     
   3503111910.2686758       -41714305.499519825        905227822.81784272     
   3431744368.1556544       -31951480.683638096        900746436.74373364     
   3360767619.5847507       -20886010.727356911        899268967.58419895     
   3290181664.5559664       -8517895.6306769848        900795415.33923888     
   3240399503.2845063       -36481650.081449151        1058655434.7865427     
   3172961935.7230015       -28804342.729627371        1069709088.8323652     
   3107524218.8518682       -14460866.409898996        1081263156.5718727     
   3044086352.6711125        6548778.8777498007        1093317638.0050635     
   2982648337.1807256        34224593.133302093        1105872533.1319385     
   2958489235.4337540       -7020672.5513281822        1202859472.1922278     
   2888219569.6204863       -2272097.4267858267        1234329316.6121819     
   2821558811.6458449        14506170.493175030        1263796071.5049372     
   2758506961.5098310        43314131.208562374        1291259736.8704810     
   2699064019.2124438        84151784.719372392        1316720312.7088206     
   3977095347.5273175       -72448764.692381382        507953165.10638654     
   3765269258.7306542       -116819419.22314978        485131911.40806115     
   3563364933.6098914       -128117528.16759300        506220667.35964036     
   3371382372.1650152       -106343091.52573705        571219432.96112990     
   3189321574.3960404       -51496109.297554731        680128208.21252275     
   3621664001.3381629       -44075681.572568178        701488959.33072245     
   3509685634.4886551       -51155441.723731756        685866513.61085129     
   3402573772.2974024       -42013519.680695057        694534407.18974566     
   3300328414.7644176       -16649915.443441868        727492640.06739831     
   3202949561.8896914        24935370.988008976        784741212.24381542     
   3290181664.5559664       -8517895.6306769848        900795415.33923888     
   3221994818.6503391        4876378.2967853546        886473975.41058457     
   3153619218.3853378        17641471.026340127        876823204.42955005     
   3085054863.7609696        29777382.557998538        871843102.39612997     
   3016301754.7772255        41284112.891742587        871533669.31033027     
   2982648337.1807256        34224593.133302093        1105872533.1319385     
   2902196811.2157168        51276040.838421583        1086954296.8072617     
   2816501271.8736939        50847443.953503013        1053087059.0790589     
   2725561719.1546721        32938802.478584528        1004270819.9473287     
   2629378153.0586433       -2449883.5863596201        940505579.41207778     
   2699064019.2124438        84151784.719372392        1316720312.7088206     
   2550291612.1847763        88043545.901149273        1287307477.8008831     
   2391219932.7624688        57604399.100788593        1223325971.1382678     
   2221848980.9455309       -7165655.6816731691        1124775792.7209911     
   2042178756.7339430       -106266618.44630051        991656942.54904318     
   3189321574.3960404       -51496109.297554731        680128208.21252275     
   3270112761.2368469        73322864.725309849        825356179.17223322     
   3335124863.3545690        145544889.67120922        840294957.30810523     
   3384357880.7491937        165169965.54011893        724944542.62013531     
   3417811813.4207230        132198092.33204639        479304935.10833269     
   3202949561.8896914        24935370.988008976        784741212.24381542     
   3000554153.3356743        34716289.481262088        882359133.60800099     
   2793094832.7160830        27617501.089270234        918977648.76838517     
   2580571600.0309191        3639005.8120336533        894596757.72494936     
   2362984455.2801847       -37219196.350435495        809216460.47769892     
   3016301754.7772255        41284112.891742587        871533669.31033027     
   2728690569.7427344       -4581778.4703247547        934042575.84611440     
   2446730645.3001943       -31610134.525886655        1004841862.7981068     
   2170421981.4496012       -39800955.274961114        1083931530.1663144     
   1899764578.1909614       -29154240.717522860        1171311577.9507356     
   2629378153.0586433       -2449883.5863596201        940505579.41207778     
   2454522010.4580379       -44571339.129427791        980406505.88655436     
   2296032301.1069002       -32138017.174261689        1097887599.3972764     
   2153909025.0052342        34850082.279137611        1292948859.9442329     
   2028152182.1530359        156392959.23076588        1565590287.5274253     
   2042178756.7339430       -106266618.44630051        991656942.54904318     
   2178048475.4815745       -85252392.496073723        1021450923.7293321     
   2340999800.1362019        26033853.144134521        1198114858.5658853     
   2531032730.6978197        227592118.47431123        1521648747.0586982     
   2748147267.1664305        519422403.49447376        1992052589.2077785     
   3417811813.4207230        132198092.33204639        479304935.10833269     
   3609266833.5303941        168650293.55614674        195421157.00468266     
   3831022091.0229802        306103286.05661929        235677744.16783839     
   4083077585.8984823        544557069.83346677        600074696.59779358     
   4365433318.1568851        884011644.88668382        1288612014.2945495     
   2362984455.2801847       -37219196.350435495        809216460.47769892     
   3246069425.4595289        254636446.63728034        666392148.88878441     
   4135874710.3447814        568893138.64468789        672511254.75658202     
   5032400309.9359369        905550879.67176461        827573778.08112085     
   5935646224.2329931        1264609669.7185173        1131579718.8623710     
   1899764578.1909614       -29154240.717522860        1171311577.9507356     
   2973916790.4111896        367936031.62518358        1142036823.0866997     
   4031209394.6603117        708827610.73087537        1086508537.8693130     
   5071642390.9383326        993520496.59954190        1004726722.2985682     
   6095215779.2452393        1222014689.2311985        896691376.37448311     
   2028152182.1530359        156392959.23076588        1565590287.5274253     
   2792808928.3853564        508549048.51982945        1622355179.5984294     
   3517026143.9695573        725906702.31517410        1477669593.5060122     
   4200803828.9056439        808465920.61679542        1131533529.2501526     
   4844141983.1936178        756226703.42471623        583946986.83086836     
   2748147267.1664305        519422403.49447376        1992052589.2077785     
   2702745839.3820405        676475497.32123399        2107347218.4239798     
   2593324958.2725277        620130413.39759088        1845994421.6666777     
   2419884623.8378935        350387151.72353357        1207994198.9358659     
   2182424836.0781345       -132754287.70092440        193346550.23154601     
   3766343172.8506250        1129902951.8551877        796880090.59364152     
   3777563630.2045259        1009084054.7010214        881681801.34333050     
   3789369952.9527087        890218042.19446206        970978590.83984482     
   3801762141.0951743        773304914.33550942        1064770459.0831838     
   3814740194.6319218        658344671.12416315        1163057406.0733483     
   3205707736.7617092        961712321.02851272        753452722.70912337     
   3233257415.6740203        868706139.89034486        850210512.69398952     
   3260462675.6715841        774551895.70302367        948615844.51173055     
   3287323516.7544022        679249588.46655011        1048668718.1623470     
   3313839938.9224753        582799218.18092358        1150369133.6458373     
   2682898026.1368599        804869407.84105790        719381078.19018257     
   2718641106.8534355        737235196.79264474        827009615.71636057     
   2753109484.3462377        665351974.99831927        933438158.16146255     
   2786303158.6152663        589219742.45808148        1038666705.5254890     
   2818222129.6605206        508838499.17193139        1142695257.8084407     
   2197914040.9760756        659374212.29282272        694665157.03681886     
   2233714703.7427735        614671225.40792131        812079110.41044211     
   2267310378.9766693        562618280.08034813        925445531.78903973     
   2298701066.6777635        503215376.31010288        1034764421.1726117     
   2327886766.8460569        436462514.09718663        1140035778.5611575     
   1750755781.2793577        525226734.38380730        679304959.24903250     
   1778478206.3420329        501014225.73617435        805418996.77623558     
   1803065359.5628791        466350810.94911051        924637965.39446270     
   1824517240.9418955        421236490.02261508        1036961865.1037139     
   1842833850.4790835        365671262.95668888        1142390695.9039886     
   3814740194.6319218        658344671.12416315        1163057406.0733483     
   3795236356.6318355        540340748.00730920        1182963590.0284164     
   3779564820.8565083        435111165.63964641        1198865111.5611112     
   3767725587.3059382        342655924.02117527        1210761970.6714342     
   3759718655.9801230        262975023.15189004        1218654167.3593848     
   3313839938.9224753        582799218.18092358        1150369133.6458373     
   3289073191.9382081        476168764.58968902        1177230609.8670046     
   3268082644.5984178        382125643.14671457        1201423710.1706448     
   3250868296.9031053        300669853.85200071        1222948434.5567596     
   3237430148.8522720        231801396.70554698        1241804783.0253477     
   2818222129.6605206        508838499.17193139        1142695257.8084407     
   2792010435.1344891        414726903.53904098        1176446573.2853808     
   2769518837.6726551        333015631.45348096        1208865799.3496413     
   2750747337.2750220        263704682.91525209        1239952936.0012228     
   2735695933.9415870        206794057.92435431        1269707983.2401237     
   2327886766.8460569        436462514.09718663        1140035778.5611575     
   2304048086.2206788        356015164.85536534        1180611480.2835462     
   2283873400.0792208        287781130.55994493        1221191379.0981014     
   2267362708.4216843        231760411.21092808        1261775475.0048232     
   2254516011.2480669        187953006.80831081        1302363768.0037134     
   1842833850.4790835        365671262.95668888        1142390695.9039886     
   1825186145.1967776        300033548.53866279        1189725330.8615000     
   1811146331.8181145        246422140.46610910        1238400449.4160244     
   1800714410.3430917        204837038.73902595        1288416051.5675614     
   1793890380.7717116        175278243.35741669        1339772137.3161142     
   3759718655.9801230        262975023.15189004        1218654167.3593848     
   3659066528.5493059        172514769.10922122        1189125243.1744633     
   3565800256.4705100        106674032.90662014        1166993989.4779029     
   3479919839.7437358        65452814.544091940        1152260406.2696977     
   3401425278.3689833        48851114.021636963        1144924493.5498490     
   3237430148.8522720        231801396.70554698        1241804783.0253477     
   3159434083.1730509        157873914.26048326        1226487277.0711524     
   3087095894.7657714        102806022.72189093        1217384585.4534574     
   3020415583.6304359        66597722.089777589        1214496708.1722620     
   2959393149.7670422        49249012.364137292        1217823645.2275670     
   2735695933.9415870        206794057.92435431        1269707983.2401237     
   2676976341.0086551        148385470.37530231        1266585921.0898952     
   2622186647.2675877        103076546.79912889        1268495817.1243081     
   2571326852.7183833        70867287.195836544        1275437671.3433661     
   2524396957.3610430        51757691.565422297        1287411483.7470653     
   2254516011.2480669        187953006.80831081        1302363768.0037134     
   2211693302.0561190        144049437.45368075        1309421175.2306912     
   2171072513.9759550        107485605.13833272        1320327684.4904559     
   2132653647.0075769        78261509.862268686        1335083295.7830045     
   2096436701.1509838        56377151.625488162        1353688009.1083417     
   1793890380.7717116        175278243.35741669        1339772137.3161142     
   1763584966.3154409        144865815.49561530        1354993039.4935412     
   1733753494.8908761        116033197.73950166        1372880187.5518968     
   1704395966.4980159        88780390.089073777        1393433581.4911804     
   1675512381.1368644        63107392.544336081        1416653221.3113937     
   3401425278.3689833        48851114.021636963        1144924493.5498490     
   3290418372.7827778        33973517.870403886        1133660261.6730130     
   3179593397.0981703        19702354.724493265        1139561347.4877963     
   3068950351.3151636        6037624.5839197636        1162627750.9942000     
   2958489235.4337540       -7020672.5513281822        1202859472.1922278     
   2959393149.7670422        49249012.364137292        1217823645.2275670     
   2886619854.6862330        37843027.903018117        1206608567.0904152     
   2814431308.9025402        28386207.765623569        1206837499.7219191     
   2742827512.4159694        20878551.951960683        1218510443.1220825     
   2671808465.2265120        15320060.462018847        1241627397.2909017     
   2524396957.3610430        51757691.565422297        1287411483.7470653     
   2473510681.5771637        38919341.431873322        1276715515.3110344     
   2423611974.4859223        29372886.940452456        1271742250.7207007     
   2374700836.0873194        23118328.091158628        1272491689.9760609     
   2326777266.3813553        20155664.883991480        1278963833.0771167     
   2096436701.1509838        56377151.625488162        1353688009.1083417     
   2051090853.4555693        37202458.456972599        1343981106.3348730     
   2007135393.8483155        22662392.248985410        1334275600.4841368     
   1964570322.3292177        12756953.001523256        1324571491.5561335     
   1923395638.8982770        7486140.7145893574        1314868779.5508642     
   1675512381.1368644        63107392.544336081        1416653221.3113937     
   1619360370.3214533        32692378.978316247        1408405340.1619277     
   1565001566.9897208        8254723.6912259459        1394437549.0122323     
   1512435971.1416633       -10205573.316946149        1374749847.8623073     
   1461663582.7772839       -22688512.046192288        1349342236.7121496     
   2958489235.4337540       -7020672.5513281822        1202859472.1922278     
   2888219569.6204863       -2272097.4267858267        1234329316.6121819     
   2821558811.6458449        14506170.493175030        1263796071.5049372     
   2758506961.5098310        43314131.208562374        1291259736.8704810     
   2699064019.2124438        84151784.719372392        1316720312.7088206     
   2671808465.2265120        15320060.462018847        1241627397.2909017     
   2598946348.6844816        14160797.137708783        1258031023.6116850     
   2528764636.0132880        21936213.382851601        1275806893.9257460     
   2461263327.2129364        38646309.197461367        1294955008.2330847     
   2396442422.2834115        64291084.581509590        1315475366.5336986     
   2326777266.3813553        20155664.883991480        1278963833.0771167     
   2260966509.1690888        15981706.128389716        1279217986.6696334     
   2196907651.8598695        17647413.716274858        1284219717.7759142     
   2134600694.4536974        25152787.647650361        1293969026.3959553     
   2074045636.9505706        38497827.922509074        1308465912.5297596     
   1923395638.8982770        7486140.7145893574        1314868779.5508642     
   1874280051.0743029        3190629.5452520847        1297890205.7860308     
   1825987859.1855848        1639771.4934388399        1289034543.0554414     
   1778519063.2321234        2833566.5591422319        1288301791.3591006     
   1731873663.2139142        6772014.7423614264        1295691950.6970041     
   1461663582.7772839       -22688512.046192288        1349342236.7121496     
   1438886974.4001269       -24212432.611703098        1314047680.9608736     
   1416005257.9904323       -26086713.285667002        1290251369.7643278     
   1393018433.5482087       -28311354.068064809        1277953303.1225126     
   1369926501.0734444       -30886354.958930135        1277153481.0354278     
   2699064019.2124438        84151784.719372392        1316720312.7088206     
   2550291612.1847763        88043545.901149273        1287307477.8008831     
   2391219932.7624688        57604399.100788593        1223325971.1382678     
   2221848980.9455309       -7165655.6816731691        1124775792.7209911     
   2042178756.7339430       -106266618.44630051        991656942.54904318     
   2396442422.2834115        64291084.581509590        1315475366.5336986     
   2171007817.4448776        34706863.683837771        1277805990.5806186     
   1938247828.7515333       -19295303.396542668        1223459591.6229582     
   1698162456.2033753       -97715416.659628868        1152436169.6607051     
   1450751699.8004060       -200553476.10542017        1064735724.6938695     
   2074045636.9505706        38497827.922509074        1308465912.5297596     
   1823067830.7299771       -9226676.1259759665        1266009532.1613441     
   1567738529.1944001       -71456164.557743013        1224767777.5384216     
   1308057732.3438396       -148190637.37278533        1184740648.6609993     
   1044025440.1782933       -239430094.57111943        1145928145.5290747     
   1731873663.2139142        6772014.7423614264        1295691950.6970041     
   1506471652.0400748       -43757073.528286040        1251918102.5430427     
   1279692034.0910790       -98878184.382796526        1227250528.8846636     
   1051534809.3669261       -158591317.82116169        1221689229.7218657     
   821999977.86761320       -222896473.84339046        1235234205.0546520     
   1369926501.0734444       -30886354.958930135        1277153481.0354278     
   1221219281.3751681       -68884328.523105741        1235531701.7257206     
   1074108343.4415653       -101561362.87170523        1230907845.6616824     
   928593687.27262688       -128917458.00475401        1263281912.8433099     
   784675312.86836243       -150952613.92222607        1332653903.2706001     
   2042178756.7339430       -106266618.44630051        991656942.54904318     
   2178048475.4815745       -85252392.496073723        1021450923.7293321     
   2340999800.1362019        26033853.144134521        1198114858.5658853     
   2531032730.6978197        227592118.47431123        1521648747.0586982     
   2748147267.1664305        519422403.49447376        1992052589.2077785     
   1450751699.8004060       -200553476.10542017        1064735724.6938695     
   1905501960.5517502       -78508728.195858359        1148839578.2372973     
   2376962991.2298117        99238586.136099339        1308051466.9059341     
   2865134791.8345904        332688466.89044261        1542371390.6997805     
   3370017362.3660898        621840914.06718922        1851799349.6188309     
   1044025440.1782933       -239430094.57111943        1145928145.5290747     
   1612622189.9874773       -77865040.585983992        1272242562.7919862     
   2187558873.7431083        104833126.55396390        1401903096.6490524     
   2768835491.4451842        308664406.84873116        1534909747.1002700     
   3356452043.0937009        533628800.29830515        1671262514.1456430     
   821999977.86761320       -222896473.84339046        1235234205.0546520     
   1299409163.7887702       -83321329.666433394        1391659877.3933914     
   1772787447.6760957        42817474.397740602        1479669747.7952349     
   2242134829.5295949        155519938.34916317        1499263816.2601790     
   2707451309.3492560        254786062.18779671        1450442082.7882168     
   784675312.86836243       -150952613.92222607        1332653903.2706001     
   965862881.95562041       -94877595.437223792        1507091522.0415208     
   1132648713.0287695       -86808370.332582712        1541351420.3444886     
   1285032806.0878203       -126744938.60827130        1435433598.1794930     
   1423015161.1327636       -214687300.26431918        1189338055.5465465     
   2748147267.1664305        519422403.49447376        1992052589.2077785     
   2702745839.3820405        676475497.32123399        2107347218.4239798     
   2593324958.2725277        620130413.39759088        1845994421.6666777     
   2419884623.8378935        350387151.72353357        1207994198.9358659     
   2182424836.0781345       -132754287.70092440        193346550.23154601     
   3370017362.3660898        621840914.06718922        1851799349.6188309     
   2501714968.0667362        471997435.20617211        1782756982.8603368     
   1598872944.5515325        207021858.95898420        1528183584.6071761     
   661491291.82047248       -173085814.67438003        1088079154.8593409     
  -310429990.12643039       -668325585.69390655        462443693.61684299     
   3356452043.0937009        533628800.29830515        1671262514.1456430     
   2211295523.6474934        240702801.15993363        1452276279.5399334     
   1061079199.0947026       -69089215.000376821        1238875407.9183981     
  -94196930.564660221       -395747248.18260223        1031059899.2810205     
  -1254532865.3306057       -739271298.38675833        828829753.62782776     
   2707451309.3492560        254786062.18779671        1450442082.7882168     
   1831487506.1243081       -17408404.817489982        1115905108.4627738     
   979943721.90204835       -208202808.48047662        978069891.60034823     
   152819956.68247902       -317597148.80115193        1036936432.2009308     
  -649883789.53438342       -345591425.77949727        1292504730.2645123     
   1423015161.1327636       -214687300.26431918        1189338055.5465465     
   1362290915.4971809       -302336182.72609293        773643469.62886012     
   1355466512.9735587       -210318921.48133522        745767035.65302134     
   1402541953.5619085        61364483.470000029        1105708753.6190295     
   1503517237.2622209        512714032.12787819        1853468623.5268865     
   1750755781.2793577        525226734.38380730        679304959.24903250     
   1778478206.3420329        501014225.73617435        805418996.77623558     
   1803065359.5628791        466350810.94911051        924637965.39446270     
   1824517240.9418955        421236490.02261508        1036961865.1037139     
   1842833850.4790835        365671262.95668888        1142390695.9039886     
   1319882967.6819043        395964890.30457127        669998860.21750617     
   1333120004.8838279        375822797.03175110        791954452.66109765     
   1344052275.0467706        347998146.96232671        908723181.34197605     
   1352679778.1707320        312490940.09629798        1020305046.2601424     
   1359002514.2557118        269301176.43366492        1126700047.4155958     
   883755320.81891489        265126596.24567446        663445235.33292294     
   887387556.29226887        250519094.18732154        782211304.96289194     
   889545529.52948976        230997384.67519140        897498715.97641134     
   890229240.53057706        206561467.70928368        1009307468.3734818     
   889438689.29553175        177211343.28959891        1117637562.1541038     
   442372840.69038951        132711852.20711686        659644084.59528279     
   441280860.56735533        125103117.20288570        776189553.68161845     
   439545123.01103598        115348524.08770408        890964569.29776835     
   437165628.02143145        103448072.86157227        1003969131.4437332     
   434142375.59854198        89401763.524490058        1115203240.1195123     
  -4264472.7036718102       -1279341.8111015430        658595408.00458562     
  -5200082.2909126086       -425133.92155657476        773889198.81727731     
  -5948944.5085903425        1051565.1998651903        889120741.30604744     
  -6511059.3567052428        3150755.5531631098        1004290035.4708956     
  -6886426.8352570552        5872437.1383379884        1119397081.3118217     
   1842833850.4790835        365671262.95668888        1142390695.9039886     
   1825186145.1967776        300033548.53866279        1189725330.8615000     
   1811146331.8181145        246422140.46610910        1238400449.4160244     
   1800714410.3430917        204837038.73902595        1288416051.5675614     
   1793890380.7717116        175278243.35741669        1339772137.3161142     
   1359002514.2557118        269301176.43366492        1126700047.4155958     
   1349098037.1472144        221712078.02730575        1182212829.7621596     
   1341807445.2409840        182835930.29516965        1238176392.6427166     
   1337130738.5370193        152672733.23725420        1294590736.0572667     
   1335067917.0353224        131222486.85356241        1351455860.0058081     
   889438689.29553175        177211343.28959891        1117637562.1541038     
   884735431.60935354        146908258.26945850        1180168817.4047830     
   881652052.42406762        122004768.25229204        1242261150.1264355     
   880188551.73967338        102500873.23809865        1303914560.3190591     
   880344929.55617166        88396573.226879716        1365129047.9826539     
   434142375.59854198        89401763.524490058        1115203240.1195123     
   432098328.58319575        75622089.265123084        1183593293.7893713     
   430680153.36736637        63928654.337479264        1250654721.8671808     
   429887849.95105487        54321458.741562024        1316387524.3529410     
   429721418.33426088        46800502.477369368        1380791701.2466538     
  -6886426.8352570552        5872437.1383379884        1119397081.3118217     
  -8813271.9312595110        7853571.0142981792        1192486258.9159219     
  -11108251.929119501        8607588.5507326387        1263357107.8649521     
  -13771366.828836594        8134489.7476436524        1332009628.1589124     
  -16802616.630411189        6434274.6050298242        1398443819.7978034     
   1793890380.7717116        175278243.35741669        1339772137.3161142     
   1763584966.3154409        144865815.49561530        1354993039.4935412     
   1733753494.8908761        116033197.73950166        1372880187.5518968     
   1704395966.4980159        88780390.089073777        1393433581.4911804     
   1675512381.1368644        63107392.544336081        1416653221.3113937     
   1335067917.0353224        131222486.85356241        1351455860.0058081     
   1313565582.1838205        109065541.99511057        1368601491.1751337     
   1292828585.5565441        89459724.550741494        1387947364.6971958     
   1272856927.1534939        72405034.520461440        1409493480.5719948     
   1253650606.9746695        57901471.904265940        1433239838.7995298     
   880344929.55617166        88396573.226879716        1365129047.9826539     
   866314235.65746307        74095679.776182026        1384539369.2018175     
   853340275.17549896        63317231.047968149        1405683929.2455256     
   841423048.11028039        56061227.042239100        1428562728.1137774     
   830562554.46180689        52327667.758993834        1453175765.8065755     
   429721418.33426088        46800502.477369368        1380791701.2466538     
   421830926.73636782        39956228.838832676        1402806673.5735927     
   415288563.74773997        37605717.231180623        1426089881.1968865     
   410094329.36837643        39748967.654409170        1450641324.1165326     
   406248223.59827763        46385980.108520910        1476461002.3325315     
  -16802616.630411189        6434274.6050298242        1398443819.7978034     
  -19884344.579464044        6647189.1830640081        1423403404.2904596     
  -21326548.726733703        12325183.100376021        1449165220.5512784     
  -21129229.072217338        23468256.356974356        1475729268.5802581     
  -19292385.615917139        40076408.952852480        1503095548.3773987     
   1675512381.1368644        63107392.544336081        1416653221.3113937     
   1619360370.3214533        32692378.978316247        1408405340.1619277     
   1565001566.9897208        8254723.6912259459        1394437549.0122323     
   1512435971.1416633       -10205573.316946149        1374749847.8623073     
   1461663582.7772839       -22688512.046192288        1349342236.7121496     
   1253650606.9746695        57901471.904265940        1433239838.7995298     
   1188445274.2917702        31109522.505350292        1427563443.6484790     
   1123471076.1111338        5088021.4473079443        1419806773.0225656     
   1058728012.4327557       -20163031.269872606        1409969826.9217916     
   994216083.25664103       -44643635.646172941        1398052605.3461556     
   830562554.46180689        52327667.758993834        1453175765.8065755     
   766702855.69818771        32278469.263213128        1448248438.1756203     
   701512218.45541441        7792809.1702516675        1444880469.5951712     
   634990642.73348355       -21129312.519901752        1443071860.0652294     
   567138128.53239751       -54487895.807237983        1442822609.5857949     
   406248223.59827763        46385980.108520910        1476461002.3325315     
   354133114.54070675        36199219.251909643        1470460323.7433522     
   299124994.02256173        16369086.860051334        1469658638.7300479     
   241223862.04384720       -13104417.067038521        1474055947.2926207     
   180429718.60455716       -52221292.529380850        1483652249.4310651     
  -19292385.615917139        40076408.952852480        1503095548.3773987     
  -49263949.180674851        42871772.471433029        1494199100.3516750     
  -83690597.187421501        30816854.516717888        1494141280.4271960     
  -122572329.63615671        3911655.0887076259        1502922088.6039605     
  -165909146.52688128       -37843825.812601462        1520541524.8819699     
   1461663582.7772839       -22688512.046192288        1349342236.7121496     
   1438886974.4001269       -24212432.611703098        1314047680.9608736     
   1416005257.9904323       -26086713.285667002        1290251369.7643278     
   1393018433.5482087       -28311354.068064809        1277953303.1225126     
   1369926501.0734444       -30886354.958930135        1277153481.0354278     
   994216083.25664103       -44643635.646172941        1398052605.3461556     
   999851910.14402151       -46203979.989457130        1376846579.4755847     
   1006493481.5713232       -44411842.533005357        1366006433.9717221     
   1014140797.5385468       -39267223.276814222        1365532168.8345687     
   1022793858.0456891       -30770122.220891297        1375423784.0641246     
   567138128.53239751       -54487895.807237983        1442822609.5857949     
   597951064.43282902       -57055261.803736031        1437001108.2637930     
   630880597.44563484       -52567304.092319250        1440413123.1204782     
   665926727.57081902       -41024022.672975004        1453058654.1558504     
   703089454.80837488       -22425417.545723557        1474937701.3699112     
   180429718.60455716       -52221292.529380850        1483652249.4310651     
   233184437.26654786       -56766278.054542899        1494511267.3254969     
   289166605.61336905       -50553097.963603795        1513471437.2105954     
   348376223.64502072       -33581752.256562755        1540532759.0863581     
   410813291.36150199       -5852240.9334233701        1575695232.9527876     
  -165909146.52688128       -37843825.812601462        1520541524.8819699     
  -94447971.354820997       -45337028.741874471        1549377056.6606989     
  -18648493.925476521       -38369224.146866463        1585181376.2420719     
   61489285.761156887       -16940412.027562071        1627954483.6260896     
   145965367.70507154        18949407.616012897        1677696378.8127520     
   1369926501.0734444       -30886354.958930135        1277153481.0354278     
   1221219281.3751681       -68884328.523105741        1235531701.7257206     
   1074108343.4415653       -101561362.87170523        1230907845.6616824     
   928593687.27262688       -128917458.00475401        1263281912.8433099     
   784675312.86836243       -150952613.92222607        1332653903.2706001     
   1022793858.0456891       -30770122.220891297        1375423784.0641246     
   955345194.65732026       -41680983.091994941        1336192667.6922603     
   889147416.55867457       -48422226.330688357        1316219337.6916442     
   824200523.74975348       -50993851.936963797        1315503794.0622711     
   760504516.23055220       -49395859.910839409        1334046036.8041492     
   703089454.80837488       -22425417.545723557        1474937701.3699112     
   666213242.37443066       -21454997.330399245        1437694285.3817837     
   630242518.75526273       -17466281.065820754        1401968518.8904846     
   595177283.95087135       -10459268.751985997        1367760401.8960159     
   561017537.96125901       -433960.38888937235        1335069934.3983717     
   410813291.36150199       -5852240.9334233701        1575695232.9527876     
   353823424.52649891       -8206371.2383182049        1540036554.7942936     
   297393650.03132534       -8693527.0771159977        1488155389.2582092     
   241523967.87598532       -7313708.4498011470        1420051736.3445339     
   186214378.06047273       -4066915.3563947305        1335725596.0532680     
   145965367.70507154        18949407.616012897        1677696378.8127520     
   18175741.113528427       -1935104.8157438226        1643219475.9297891     
  -109399189.61313355       -22103964.364562690        1574779948.7948143     
  -236759424.47490785       -41557171.030423015        1472377797.4078307     
  -363904963.47179776       -60294724.813335359        1336013021.7688394     
   784675312.86836243       -150952613.92222607        1332653903.2706001     
   965862881.95562041       -94877595.437223792        1507091522.0415208     
   1132648713.0287695       -86808370.332582712        1541351420.3444886     
   1285032806.0878203       -126744938.60827130        1435433598.1794930     
   1423015161.1327636       -214687300.26431918        1189338055.5465465     
   760504516.23055220       -49395859.910839409        1334046036.8041492     
   630413252.11201000       -82473818.237807930        1463058356.4926565     
   489340966.41366315       -152155181.83078754        1513376904.2166500     
   337287659.13551050       -258439950.68978664        1485001679.9761310     
   174253330.27755025       -401328124.81481528        1377932683.7710989     
   561017537.96125901       -433960.38888937235        1335069934.3983717     
   295315864.93246865       -69964368.239153802        1422647790.8444793     
   22053886.758169465       -164695793.24111566        1493015823.8295150     
  -258768396.56163448       -284628235.39475942        1546174033.3534844     
  -547150985.02694952       -429761694.70010722        1582122419.4163821     
   186214378.06047273       -4066915.3563947305        1335725596.0532680     
  -39429279.583012670       -57349245.441292107        1385859825.0969915     
  -269212525.93770885       -124430204.56355891        1480268179.1830873     
  -503135361.00361389       -205309792.72318906        1618950658.3115568     
  -741197784.78072846       -299988009.92018467        1801907262.4824009     
  -363904963.47179776       -60294724.813335359        1336013021.7688394     
  -373822181.43443000       -44628449.844211221        1352694459.2501929     
  -384458271.67397243       -31358415.798121080        1475133970.2773654     
  -395813234.19042110       -20484622.675051272        1703331554.8503504     
  -407887068.98378575       -12007070.475035548        2037287212.9691567     
   1423015161.1327636       -214687300.26431918        1189338055.5465465     
   1362290915.4971809       -302336182.72609293        773643469.62886012     
   1355466512.9735587       -210318921.48133522        745767035.65302134     
   1402541953.5619085        61364483.470000029        1105708753.6190295     
   1503517237.2622209        512714032.12787819        1853468623.5268865     
   174253330.27755025       -401328124.81481528        1377932683.7710989     
   944990917.62698436       -238920297.28358257        1097461188.4941924     
   1743301456.3105454        15397368.028071642        1011052172.0347613     
   2569184946.3282385        361624871.12015450        1118705634.3928046     
   3422641387.6800451        799762211.99263322        1420421575.5683110     
  -547150985.02694952       -429761694.70010722        1582122419.4163821     
   501460797.80929708       -183373448.42530441        1406159307.7061143     
   1551318640.2018235        67168329.703766704        1230503001.6889400     
   2602422542.1506352        321863639.68712252        1055153501.3648666     
   3654772503.6557288        580712481.52474618        880110806.73388624     
  -741197784.78072846       -299988009.92018467        1801907262.4824009     
   31700556.044108868       -135695636.15128741        1699737827.2646177     
   779518064.64738715       -55006036.454252958        1404119524.6155570     
   1502254741.0291035       -57919210.829091430        915052354.53521955     
   2199910585.1892633       -144435159.27578580        232536317.02359292     
  -407887068.98378575       -12007070.475035548        2037287212.9691567     
  -464289807.66857159       -95886860.461504728        1978196747.1697094     
  -572100270.35276341       -351125730.44599271        1531901740.8146107     
  -731318457.03635168       -777723680.42847037        698402193.90385342     
  -941944367.71934366       -1375680710.4089601       -522301893.56255066     
  -4264472.7036718102       -1279341.8111015430        658595408.00458562     
  -5200082.2909126086       -425133.92155657476        773889198.81727731     
  -5948944.5085903425        1051565.1998651903        889120741.30604744     
  -6511059.3567052428        3150755.5531631098        1004290035.4708956     
  -6886426.8352570552        5872437.1383379884        1119397081.3118217     
  -450740274.86427867       -135222082.45928362        660348964.68794703     
  -451396012.98430544       -125849654.61434898        777391849.78236926     
  -451193083.99487531       -113615003.07122475        892746525.87809563     
  -450131487.89598811       -98518127.829910725        1006412992.9751264     
  -448211224.68764418       -80559028.890407220        1118391251.0734615     
  -891638221.29244065       -267491466.38773221        664954513.77248287     
  -896659689.87317872       -250994499.16578546        784530399.51184487     
  -900150571.60456598       -229395575.77933609        900792115.57773757     
  -902110866.48660243       -202694696.22838402        1013739661.9701601     
  -902540574.51928806       -170891860.51292932        1123373038.6891134     
  -1326958311.9881575       -398087493.59644729        672412055.25819266     
  -1340991112.9575329       -375859667.57586628        795304848.00570440     
  -1352821407.3376627       -346290152.92446923        913257510.40497243     
  -1362449195.1285479       -309378949.64225668        1026270042.4559970     
  -1369874476.3301892       -265126057.72922873        1134342444.1587777     
  -1756700546.9514298       -527010164.08542895        682721589.14507699     
  -1784390282.2373669       -500445159.84459102        809715195.26394773     
  -1809205591.1941655       -464298734.50662458        930142710.35980082     
  -1831146473.8218253       -418570888.07152891        1044004134.4326366     
  -1850212930.1203463       -363261620.53930473        1151299467.4824553     
  -6886426.8352570552        5872437.1383379884        1119397081.3118217     
  -8813271.9312595110        7853571.0142981792        1192486258.9159219     
  -11108251.929119501        8607588.5507326387        1263357107.8649521     
  -13771366.828836594        8134489.7476436524        1332009628.1589124     
  -16802616.630411189        6434274.6050298242        1398443819.7978034     
  -448211224.68764418       -80559028.890407220        1118391251.0734615     
  -450211512.77636528       -64130315.113757506        1186600015.5038066     
  -453304019.47370917       -51342330.032516375        1253636557.0792785     
  -457488744.77967536       -42195073.646684200        1319500875.7998774     
  -462765688.69426441       -36688545.956259832        1384192971.6656029     
  -902540574.51928806       -170891860.51292932        1123373038.6891134     
  -901625431.88588059       -139118904.72113574        1185856625.6211441     
  -902526591.56786132       -113400289.98063540        1248214095.4984984     
  -905244053.56522906       -93736016.291425884        1310445448.3211761     
  -909777817.87798488       -80126083.653509647        1372550684.0891767     
  -1369874476.3301892       -265126057.72922873        1134342444.1587777     
  -1363055029.2598059       -217112197.80783731        1190256089.2679353     
  -1358775968.2115757       -177566291.29362264        1247089723.1226125     
  -1357037293.1854978       -146488338.18658298        1304843345.7228093     
  -1357839004.1815734       -123878338.48671991        1363516957.0685272     
  -1850212930.1203463       -363261620.53930473        1151299467.4824553     
  -1834500304.8981400       -298110194.37386096        1199798406.4441793     
  -1822052149.4048522       -243840333.97147864        1250263439.9516199     
  -1812868463.6404819       -200452039.33215344        1302694568.0047772     
  -1806949247.6050298       -167945310.45589095        1357091790.6036510     
  -16802616.630411189        6434274.6050298242        1398443819.7978034     
  -19884344.579464044        6647189.1830640081        1423403404.2904596     
  -21326548.726733703        12325183.100376021        1449165220.5512784     
  -21129229.072217338        23468256.356974356        1475729268.5802581     
  -19292385.615917139        40076408.952852480        1503095548.3773987     
  -462765688.69426441       -36688545.956259832        1384192971.6656029     
  -460513774.46807456       -29445275.841229826        1410616140.2259517     
  -457513761.42510581       -19708343.003603980        1438717488.9520962     
  -453765649.56535745       -7477747.4433798790        1468497017.8440361     
  -449269438.88883108        7246510.8394392729        1499954726.9017713     
  -909777817.87798488       -80126083.653509647        1372550684.0891767     
  -899689551.76902628       -65101645.089226872        1399397440.9013784     
  -889744611.82829344       -50554960.419030130        1428798326.2770104     
  -879942998.05578673       -36486029.642920852        1460753340.2160718     
  -870284710.45150614       -22894852.760897636        1495262482.7185626     
  -1357839004.1815734       -123878338.48671991        1363516957.0685272     
  -1337411676.4823201       -100321918.56092608        1389747306.3167419     
  -1318019099.9362965       -80214669.145900249        1419407732.5260203     
  -1299661274.5435054       -63556590.241649508        1452498235.6963620     
  -1282338200.3039458       -50347681.848167002        1489018815.8277690     
  -1806949247.6050298       -167945310.45589095        1357091790.6036510     
  -1773680148.6079545       -135106096.25632709        1381665736.4720392     
  -1742337225.7491143       -108687469.18421406        1410545707.6991262     
  -1712920479.0285125       -88689429.239562392        1443731704.2849104     
  -1685429908.4461465       -75111976.422361493        1481223726.2293930     
  -19292385.615917139        40076408.952852480        1503095548.3773987     
  -49263949.180674851        42871772.471433029        1494199100.3516750     
  -83690597.187421501        30816854.516717888        1494141280.4271960     
  -122572329.63615671        3911655.0887076259        1502922088.6039605     
  -165909146.52688128       -37843825.812601462        1520541524.8819699     
  -449269438.88883108        7246510.8394392729        1499954726.9017713     
  -455421503.19042659        15749793.840220422        1489659788.2275274     
  -464317156.05952811        15107781.615980536        1487531701.0047355     
  -475956397.49613756        5320474.1667148471        1493570465.2333920     
  -490339227.50025332       -13612128.507570952        1507776080.9134989     
  -870284710.45150614       -22894852.760897636        1495262482.7185626     
  -854536637.34649479       -9259458.8348856568        1485565798.5826938     
  -839820656.93450856        935626.11437767744        1483364189.2484832     
  -826136769.21554554        7690402.0868946910        1488657654.7159286     
  -813484974.18960679        11004869.082666755        1501446194.9850261     
  -1282338200.3039458       -50347681.848167002        1489018815.8277690     
  -1246609351.6488812       -32155985.553887129        1481917131.4171741     
  -1210201099.8123610       -11699611.988086820        1481638745.1584413     
  -1173113444.7943807        11021438.849245965        1488183657.0515704     
  -1135346386.5949423        36007166.958107471        1501551867.0965595     
  -1685429908.4461465       -75111976.422361493        1481223726.2293930     
  -1631639646.0975862       -52939786.316786647        1478713786.7309675     
  -1575458484.6930859       -22797932.691412628        1482355368.7346087     
  -1516886424.2326427        15313584.453771114        1492148472.2403178     
  -1455923464.7162595        61394765.118756890        1508093097.2480931     
  -165909146.52688128       -37843825.812601462        1520541524.8819699     
  -94447971.354820997       -45337028.741874471        1549377056.6606989     
  -18648493.925476521       -38369224.146866463        1585181376.2420719     
   61489285.761156887       -16940412.027562071        1627954483.6260896     
   145965367.70507154        18949407.616012897        1677696378.8127520     
  -490339227.50025332       -13612128.507570952        1507776080.9134989     
  -401944285.55699378       -2581079.6241644919        1538264526.1012232     
  -311379170.44833130        15683879.810584500        1570535330.5843012     
  -218643882.17426074        41182749.796694443        1604588494.3627329     
  -123738420.73478565        73915530.334151924        1640424017.4365149     
  -813484974.18960679        11004869.082666755        1501446194.9850261     
  -722974632.63883901        36114659.629643798        1531058069.6412220     
  -632462247.01454675        61231263.755034357        1557265875.0854781     
  -541947817.31672907        86354681.458844185        1580069611.3177953     
  -451431343.54538983        111484912.74106020        1599469278.3381720     
  -1135346386.5949423        36007166.958107471        1501551867.0965595     
  -1057539012.6003568        70750189.019549489        1527757687.2806969     
  -981897723.62412632        98272927.686473072        1545373009.7456033     
  -908422519.66625321        118575382.95887125        1554397834.4912777     
  -837113400.72673559        131657554.83675432        1554832161.5177207     
  -1455923464.7162595        61394765.118756890        1508093097.2480931     
  -1405637425.4415464        101325508.54555517        1528363379.0196452     
  -1359685600.2770696        126808871.60489935        1534856734.5646734     
  -1318067989.2228296        137844854.29678929        1527573163.8831789     
  -1280784592.2788281        134433456.62121439        1506512666.9751613     
   145965367.70507154        18949407.616012897        1677696378.8127520     
   18175741.113528427       -1935104.8157438226        1643219475.9297891     
  -109399189.61313355       -22103964.364562690        1574779948.7948143     
  -236759424.47490785       -41557171.030423015        1472377797.4078307     
  -363904963.47179776       -60294724.813335359        1336013021.7688394     
  -123738420.73478565        73915530.334151924        1640424017.4365149     
  -311353921.71981603        26309440.791354880        1600245161.0634215     
  -498227012.14688188       -18821946.891565293        1554175543.3575871     
  -684357692.01599085       -61478632.714627177        1502215164.3190141     
  -869745961.32713377       -101660616.67780161        1444364023.9477029     
  -451431343.54538983        111484912.74106020        1599469278.3381720     
  -618667396.29741120        61218842.875190854        1554204135.6168668     
  -784633323.79839706        15186523.846105367        1531120094.4820943     
  -949329126.04834688       -26612044.346193314        1530217154.9338527     
  -1112754803.0472598       -64176861.701699793        1551495316.9721446     
  -837113400.72673559        131657554.83675432        1554832161.5177207     
  -903764682.61926425        102793101.43574655        1505096399.5901272     
  -968618124.56767929        79921447.848449230        1505613602.1683359     
  -1031673726.5719860        63042594.074845612        1556383769.2523475     
  -1092931488.6321788        52156540.114959896        1657406900.8421631     
  -1280784592.2788281        134433456.62121439        1506512666.9751613     
  -1166645780.6853743        151032216.47302186        1452921952.9832015     
  -1050181414.4547324        175382825.11545271        1477656066.4163127     
  -931391493.58690262        207485282.54850990        1580715007.2744992     
  -810276018.08188641        247339588.77218968        1762098775.5577574     
  -363904963.47179776       -60294724.813335359        1336013021.7688394     
  -373822181.43443000       -44628449.844211221        1352694459.2501929     
  -384458271.67397243       -31358415.798121080        1475133970.2773654     
  -395813234.19042110       -20484622.675051272        1703331554.8503504     
  -407887068.98378575       -12007070.475035548        2037287212.9691567     
  -869745961.32713377       -101660616.67780161        1444364023.9477029     
  -660923122.28281236       -19438487.840726227        1524470104.9051654     
  -450112508.98747325        69409555.166408360        1651720651.4295545     
  -237314121.44111770        164883512.34359792        1826115663.5208745     
  -22527959.643742219        266983383.69085360        2047655141.1791213     
  -1112754803.0472598       -64176861.701699793        1551495316.9721446     
  -852659358.36423969        34360885.592840254        1698183795.6882968     
  -587869492.90227222        148546702.15054172        1833403131.9924924     
  -318385206.66135901        278380587.97139364        1957153325.8847280     
  -44206499.641498268        423862543.05540454        2069434377.3650005     
  -1092931488.6321788        52156540.114959896        1657406900.8421631     
  -949030889.67870915        116769670.45650160        1873835531.5995898     
  -797729223.41836655        206053025.15428650        2020181411.9661708     
  -639026489.85114813        320006604.20832348        2096444541.9419043     
  -472922688.97705245        458630407.61861861        2102624921.5267861     
  -810276018.08188641        247339588.77218968        1762098775.5577574     
  -950037716.22622347        227787866.75024295        2051425312.6390445     
  -1079691700.5357568        241928524.17764330        2212055491.3505950     
  -1199237971.0104878        289761561.05438328        2243989311.6924105     
  -1308676527.6504095        371286977.38048506        2147226773.6644876     
  -407887068.98378575       -12007070.475035548        2037287212.9691567     
  -464289807.66857159       -95886860.461504728        1978196747.1697094     
  -572100270.35276341       -351125730.44599271        1531901740.8146107     
  -731318457.03635168       -777723680.42847037        698402193.90385342     
  -941944367.71934366       -1375680710.4089601       -522301893.56255066     
  -22527959.643742219        266983383.69085360        2047655141.1791213     
  -876908695.20669949        3461716.9881013632        1898713702.1087646     
  -1762862788.8724875       -365304476.72408730        1564603392.9299996     
  -2680390240.6411042       -839315197.44570351        1045324213.6428224     
  -3629491050.5125494       -1418570445.1767433        340876164.24723226     
  -44206499.641498268        423862543.05540454        2069434377.3650005     
  -1119320459.3762205        153872431.44828957        1853782058.5697372     
  -2206173411.3172002       -155247654.17968547        1654996540.1133027     
  -3304765355.4644365       -503497713.82851380        1473077821.9956985     
  -4415096291.8179245       -890877747.49818397        1308025904.2169318     
  -472922688.97705245        458630407.61861861        2102624921.5267861     
  -1191525100.1771328        355345282.91906369        1843401816.5526173     
  -1902032137.6868978        279044737.18722451        1803081182.3645239     
  -2604443801.5063448        229728770.42311144        1981663018.9624979     
  -3298760091.6354747        207397382.62672257        2379147326.3465519     
  -1308676527.6504095        371286977.38048506        2147226773.6644876     
  -1093522617.6094387        607880271.40041649        1867572976.0574117     
  -850438967.98158073        937572697.37663531        2008857319.6836512     
  -579425578.76683521        1360364255.3091512        2571079804.5432067     
  -280482449.96519113        1876254945.1979861        3554240430.6360765     
  -1756700546.9514298       -527010164.08542895        682721589.14507699     
  -1784390282.2373669       -500445159.84459102        809715195.26394773     
  -1809205591.1941655       -464298734.50662458        930142710.35980082     
  -1831146473.8218253       -418570888.07152891        1044004134.4326366     
  -1850212930.1203463       -363261620.53930473        1151299467.4824553     
  -2202456480.3040075       -660736944.09120226        698993724.48835647     
  -2237650481.9978170       -614197320.30023921        817029272.89282179     
  -2270869693.3126292       -561075061.91262054        931248872.11037397     
  -2302114114.2484455       -501370168.92834669        1041652522.1410134     
  -2331383744.8052649       -435082641.34741765        1148240222.9847393     
  -2685817666.1676407       -805745299.85029221        724339070.34325206     
  -2720658386.1661677       -736873792.07825756        832366985.75814652     
  -2754423951.7358398       -664418436.21004093        939329093.82223225     
  -2787114362.8766570       -588379232.24564171        1045225394.5355089     
  -2818729619.5886192       -508756180.18506050        1150055887.8979769     
  -3206784104.5423312       -962035231.36269939        758757626.70976412     
  -3233413994.7424202       -868474575.17864645        855728333.85992193     
  -3259868366.4637952       -774328857.39888453        954383375.49537504     
  -3286147219.7064590       -679598078.02341413        1054722751.6161240     
  -3312250554.4704089       -584282237.05223417        1156746462.2221682     
  -3765355795.4280777       -1129606738.6284232        802249393.58789206     
  -3775917307.7265725       -1008999669.6014053        887113317.19814777     
  -3787202937.4964972       -890806325.47915196        976411717.12980306     
  -3799212684.7378516       -775026706.26166320        1070144593.3828582     
  -3811946549.4506345       -661660811.94893897        1168311945.9573131     
  -1850212930.1203463       -363261620.53930473        1151299467.4824553     
  -1834500304.8981400       -298110194.37386096        1199798406.4441793     
  -1822052149.4048522       -243840333.97147864        1250263439.9516199     
  -1812868463.6404819       -200452039.33215344        1302694568.0047772     
  -1806949247.6050298       -167945310.45589095        1357091790.6036510     
  -2331383744.8052649       -435082641.34741765        1148240222.9847393     
  -2308024892.2041960       -355130819.13430107        1189971660.6300292     
  -2288041434.5855393       -286430313.52922457        1232203241.0869570     
  -2271433371.9492941       -228981124.53218585        1274934964.3555224     
  -2258200704.2954617       -182783252.14318883        1318166830.4357259     
  -2818729619.5886192       -508756180.18506050        1150055887.8979769     
  -2791912973.1346278       -415260491.98205400        1184890411.4310901     
  -2768582646.9165401       -333385871.23206496        1218759126.0417619     
  -2748738640.9343591       -263132317.93509459        1251662031.7299933     
  -2732380955.1880846       -204499832.09114397        1283599128.4957840     
  -3312250554.4704089       -584282237.05223417        1156746462.2221682     
  -3286164547.6894331       -478499212.91711891        1184554658.8473613     
  -3263675786.3978562       -384707007.08000088        1209931094.8160355     
  -3244784270.5956779       -302905619.54087913        1232875770.1281896     
  -3229490000.2828994       -233095050.29975641        1253388684.7838247     
  -3811946549.4506345       -661660811.94893897        1168311945.9573131     
  -3790779615.8686132       -544846981.93949604        1188964402.8788438     
  -3773320853.0294852       -440393721.07302940        1205719147.4097767     
  -3759570260.9332495       -348301029.34953892        1218576179.5501108     
  -3749527839.5799079       -268568906.76902771        1227535499.2998476     
  -1806949247.6050298       -167945310.45589095        1357091790.6036510     
  -1773680148.6079545       -135106096.25632709        1381665736.4720392     
  -1742337225.7491143       -108687469.18421406        1410545707.6991262     
  -1712920479.0285125       -88689429.239562392        1443731704.2849104     
  -1685429908.4461465       -75111976.422361493        1481223726.2293930     
  -2258200704.2954617       -182783252.14318883        1318166830.4357259     
  -2209051805.9263158       -136377634.45749247        1331733033.0984957     
  -2163494847.0261183       -101945148.33495128        1350077732.1919746     
  -2121529827.5948665       -79485793.775569558        1373200927.7161634     
  -2083156747.6325641       -68999570.779343367        1401102619.6710618     
  -2732380955.1880846       -204499832.09114397        1283599128.4957840     
  -2666002340.0982661       -144122835.71473515        1284214197.4004388     
  -2604881427.8081059       -101271515.33718181        1290080233.8078151     
  -2549018218.3176041       -75945870.958492637        1301197237.7179120     
  -2498412711.6267571       -68145902.578657150        1317565209.1307297     
  -3229490000.2828994       -233095050.29975641        1253388684.7838247     
  -3144531751.1238046       -158341700.02805352        1239109229.3778696     
  -3066496968.0950766       -106666570.19090843        1230553212.5466473     
  -2995385651.1967177       -78069660.788326383        1227720634.2901571     
  -2931197800.4287262       -72550971.820301414        1230611494.6083992     
  -3749527839.5799079       -268568906.76902771        1227535499.2998476     
  -3644640039.0029316       -179034227.39745033        1196418129.0307882     
  -3548341467.8870330       -118130312.89613080        1171496668.4084718     
  -3460632126.2322145       -85857163.265077591        1152771117.4328985     
  -3381512014.0384736       -82214778.504282594        1140241476.1040695     
  -1685429908.4461465       -75111976.422361493        1481223726.2293930     
  -1631639646.0975862       -52939786.316786647        1478713786.7309675     
  -1575458484.6930859       -22797932.691412628        1482355368.7346087     
  -1516886424.2326427        15313584.453771114        1492148472.2403178     
  -1455923464.7162595        61394765.118756890        1508093097.2480931     
  -2083156747.6325641       -68999570.779343367        1401102619.6710618     
  -2013088426.2075496       -50913938.091412902        1395793978.5714569     
  -1940686953.9380543       -25051135.921875715        1397798451.5865135     
  -1865952330.8240774        8588835.7292616367        1407116038.7162306     
  -1788884556.8656206        50005976.862003565        1423746739.9606092     
  -2498412711.6267571       -68145902.578657150        1317565209.1307297     
  -2408747495.0893068       -53151176.497572660        1309390493.5165761     
  -2316806875.9188356       -30571774.973089337        1309690484.6296778     
  -2222590854.1153426       -407698.00519871712        1318465182.4700341     
  -2126099429.6788282        37341054.406094551        1335714587.0376461     
  -2931197800.4287262       -72550971.820301414        1230611494.6083992     
  -2818616852.7428570       -59651501.535269499        1219503331.5663264     
  -2703818250.6354299       -39359849.845043659        1218031467.8641038     
  -2586801994.1064363       -11676016.749605060        1226195903.5017292     
  -2467568083.1558886        23399997.751031518        1243996638.4792027     
  -3381512014.0384736       -82214778.504282594        1140241476.1040695     
  -3242696499.1682034       -70414913.204509258        1126132492.7207079     
  -3101721078.0878348       -51415360.537741065        1122821401.2897899     
  -2958585750.7973619       -25216120.503961682        1130308201.8113136     
  -2813290517.2967901        8182806.8968160152        1148592894.2852800     
  -1455923464.7162595        61394765.118756890        1508093097.2480931     
  -1405637425.4415464        101325508.54555517        1528363379.0196452     
  -1359685600.2770696        126808871.60489935        1534856734.5646734     
  -1318067989.2228296        137844854.29678929        1527573163.8831789     
  -1280784592.2788281        134433456.62121439        1506512666.9751613     
  -1788884556.8656206        50005976.862003565        1423746739.9606092     
  -1772532210.8548784        69966365.754669666        1440421708.9798698     
  -1760650679.7693334        75024038.230006218        1449379306.6074007     
  -1753239963.6089911        65178994.288004994        1450619532.8431981     
  -1750300062.3738470        40431233.928673983        1444142387.6872647     
  -2126099429.6788282        37341054.406094551        1335714587.0376461     
  -2126367763.1183658        42524992.908739090        1348634875.6871610     
  -2131243512.2980690        32350878.944171429        1359897347.7797337     
  -2140726677.2179351        6818712.5123910904        1369502003.3153663     
  -2154817257.8779631       -34071506.386598706        1377448842.2940583     
  -2467568083.1558886        23399997.751031518        1243996638.4792027     
  -2467144082.2320189        19001390.007757187        1253002879.1415131     
  -2471464097.8632746       -1210606.2526042461        1266410858.0816734     
  -2480528130.0496616       -37235991.030061960        1284220575.2996833     
  -2494336178.7911701       -89074764.324597239        1306432030.7955439     
  -2813290517.2967901        8182806.8968160152        1148592894.2852800     
  -2794861168.1958251       -604442.94826972485        1153525719.3429291     
  -2781312436.4649520       -25660417.360322833        1168919837.5132189     
  -2772644322.1041689       -66985116.339341164        1194775248.7961516     
  -2768856825.1134739       -124578539.88532805        1231091953.1917229     
  -1280784592.2788281        134433456.62121439        1506512666.9751613     
  -1166645780.6853743        151032216.47302186        1452921952.9832015     
  -1050181414.4547324        175382825.11545271        1477656066.4163127     
  -931391493.58690262        207485282.54850990        1580715007.2744992     
  -810276018.08188641        247339588.77218968        1762098775.5577574     
  -1750300062.3738470        40431233.928673983        1444142387.6872647     
  -1463283176.2440751        98755147.737369120        1399790447.8457043     
  -1173213994.7278035        167253379.50105572        1400467933.1554186     
  -880092517.82503390        245925929.21973771        1446174843.6164095     
  -583918745.53576744        334772796.89341247        1536911179.2286713     
  -2154817257.8779631       -34071506.386598706        1377448842.2940583     
  -1790052017.9941556        37438645.144289374        1343183540.8104317     
  -1421507741.9745347        121545583.79455668        1320652262.2042785     
  -1049184429.8191082        218249309.56417590        1309855006.4756026     
  -673082081.52786469        327549822.45317870        1310791773.6244037     
  -2494336178.7911701       -89074764.324597239        1306432030.7955439     
  -2146952305.9356105       -32917291.306194544        1283101231.8773804     
  -1795062656.1949222        38259437.995956063        1238209053.5628905     
  -1438667229.5691183        124455423.58183670        1171755495.8520780     
  -1077766026.0581853        225670665.45147383        1083740558.7449467     
  -2768856825.1134739       -124578539.88532805        1231091953.1917229     
  -2533984040.0684414       -112312661.61409628        1219543521.0465493     
  -2293878737.3889675       -82605057.894735098        1153138307.2312548     
  -2048540917.0750675       -35455728.727285862        1031876311.7458411     
  -1797970579.1267254        29135325.888306260        855757534.59030461     
  -810276018.08188641        247339588.77218968        1762098775.5577574     
  -950037716.22622347        227787866.75024295        2051425312.6390445     
  -1079691700.5357568        241928524.17764330        2212055491.3505950     
  -1199237971.0104878        289761561.05438328        2243989311.6924105     
  -1308676527.6504095        371286977.38048506        2147226773.6644876     
  -583918745.53576744        334772796.89341247        1536911179.2286713     
  -1000335337.6434344        220041113.64277208        1757116619.6836135     
  -1413079900.9212761        117549526.49155098        1915171568.0508122     
  -1822152435.3692951        27298035.439739347        2011076024.3302684     
  -2227552940.9874864       -50713359.512648225        2044829988.5219803     
  -673082081.52786469        327549822.45317870        1310791773.6244037     
  -1176022521.0788817        174677491.92982846        1454367818.2805238     
  -1681726616.8050501        12592974.155978560        1602339237.1308942     
  -2190194368.7063737       -158703730.86839259        1754706030.1755161     
  -2701425776.7828465       -339212623.14325988        1911468197.4143932     
  -1077766026.0581853        225670665.45147383        1083740558.7449467     
  -1477099266.5325651        91697001.611421764        1143178908.4297709     
  -1885631848.1870811       -72941132.829079032        1273558498.5908413     
  -2303363771.0217209       -268243737.86999851        1474879329.2281585     
  -2730295035.0364943       -494210813.51136112        1747141400.3417232     
  -1797970579.1267254        29135325.888306260        855757534.59030461     
  -1903565574.0044889       -28900357.312472105        823549890.13135993     
  -2024795595.0673590       -139052794.46359831        928829352.43065536     
  -2161660642.3153391       -301321985.56509274        1171595921.4881914     
  -2314160715.7484260       -515707930.61694765        1551849597.3039677     
  -1308676527.6504095        371286977.38048506        2147226773.6644876     
  -1093522617.6094387        607880271.40041649        1867572976.0574117     
  -850438967.98158073        937572697.37663531        2008857319.6836512     
  -579425578.76683521        1360364255.3091512        2571079804.5432067     
  -280482449.96519113        1876254945.1979861        3554240430.6360765     
  -2227552940.9874864       -50713359.512648225        2044829988.5219803     
  -1158205356.1522071        346981034.32337135        1836887597.1353173     
  -70586045.211127937        805581181.84539521        1827901945.1687863     
   1035304991.8357475        1325087083.0534015        2017873032.6223786     
   2159467754.9884319        1905498737.9474378        2406800859.4961176     
  -2701425776.7828465       -339212623.14325988        1911468197.4143932     
  -1412117093.7623577        29313097.526119888        1763969529.8535349     
  -114194698.11715823        426551193.61120355        1593446199.8996203     
   1192341410.1527541        852501665.11198926        1399898207.5526564     
   2507491231.0473714        1307164512.0284843        1183325552.8126371     
  -2730295035.0364943       -494210813.51136112        1747141400.3417232     
  -1855257830.4398909       -345123538.99134374        1648818774.2120659     
  -981264926.69967103       -199517267.32592633        1305490083.8761749     
  -108316323.81582542       -57391998.515107274        717155329.33403814     
   763587978.21163964        81252267.441129625       -116185489.41432600     
  -2314160715.7484260       -515707930.61694765        1551849597.3039677     
  -2487627566.1848097       -776328875.22902644        1491435330.2109103     
  -2671796730.9586658       -1072624200.9660093        964033597.09843266     
  -2866668210.0699911       -1404593907.8278852       -30355602.033474106     
  -3072242003.5187721       -1772237995.8146291       -1491732267.1847925     
  -3765355795.4280777       -1129606738.6284232        802249393.58789206     
  -3775917307.7265725       -1008999669.6014053        887113317.19814777     
  -3787202937.4964972       -890806325.47915196        976411717.12980306     
  -3799212684.7378516       -775026706.26166320        1070144593.3828582     
  -3811946549.4506345       -661660811.94893897        1168311945.9573131     
  -4335299357.5100412       -1300589807.2530122        860034837.76824403     
  -4331498359.2332153       -1125707304.1140924        943786312.43567848     
  -4328929232.5170879       -954931039.51082897        1021626295.6599822     
  -4327591977.3616562       -788261013.44322145        1093554787.4411550     
  -4327486593.7669210       -625697225.91126955        1159571787.7791975     
  -4890381409.4733810       -1467114422.8420143        937334426.04142737     
  -4901777808.5198946       -1246824457.9607899        1019381071.9952285     
  -4914913833.2163734       -1032333245.2461135        1085170258.7413685     
  -4929789483.5628138       -823640784.69798458        1134701986.2798474     
  -4946404759.5592203       -620747076.31640375        1167976254.6106648     
  -5430601951.3181009       -1629180585.3954303        1034148158.4074422     
  -5486755655.5866127       -1372351131.1414990        1113897595.8767979     
  -5545156739.5943537       -1123012942.6850071        1167043606.3739622     
  -5605805203.3413267       -881166020.02595425        1193586189.8989346     
  -5668701046.8275318       -646810363.16434193        1193525346.4517148     
  -5955960983.0441990       -1786788294.9132597        1150476034.8662887     
  -6086431900.4333649       -1502287323.6562188        1227335884.0803869     
  -6219657951.6510286       -1226970131.8275089        1267246338.5577629     
  -6355639136.6971912       -960836719.42713022        1270207398.2984171     
  -6494375455.5718565       -703887086.45508385        1236219063.3023486     
  -3811946549.4506345       -661660811.94893897        1168311945.9573131     
  -3790779615.8686132       -544846981.93949604        1188964402.8788438     
  -3773320853.0294852       -440393721.07302940        1205719147.4097767     
  -3759570260.9332495       -348301029.34953892        1218576179.5501108     
  -3749527839.5799079       -268568906.76902771        1227535499.2998476     
  -4327486593.7669210       -625697225.91126955        1159571787.7791975     
  -4291348300.9706521       -470077950.68937564        1140947160.7876697     
  -4265684324.5722694       -349373063.46043539        1128781573.6102116     
  -4250494664.5717716       -263582564.22444916        1123075026.2468226     
  -4245779320.9691620       -212706452.98141718        1123827518.6975036     
  -4946404759.5592203       -620747076.31640375        1167976254.6106648     
  -4865704386.9639397       -417445139.70662999        1102180707.1085873     
  -4802244476.4215374       -271611409.93978620        1053200951.6252463     
  -4756025027.9320135       -183245887.01587415        1021036988.1606424     
  -4727046041.4953709       -152348570.93489313        1005688816.7147752     
  -5668701046.8275318       -646810363.16434193        1193525346.4517148     
  -5513847873.8484735       -386948548.99125719        1072665041.8415949     
  -5383001308.5772905       -207108760.51108289        978977281.45487952     
  -5276161351.0139771       -107290997.72381616        912462065.29156816     
  -5193328001.1585360       -87495260.629453897        873119393.35166073     
  -6494375455.5718565       -703887086.45508385        1236219063.3023486     
  -6235778761.6242571       -378588178.54326129        1052400164.9866945     
  -6007954821.0395241       -155865115.17432332        906110563.09911215     
  -5810903633.8176575       -35717896.348272324        797350257.63960218     
  -5644625199.9586535       -18146522.065104008        726119248.60816371     
  -3749527839.5799079       -268568906.76902771        1227535499.2998476     
  -3644640039.0029316       -179034227.39745033        1196418129.0307882     
  -3548341467.8870330       -118130312.89613080        1171496668.4084718     
  -3460632126.2322145       -85857163.265077591        1152771117.4328985     
  -3381512014.0384736       -82214778.504282594        1140241476.1040695     
  -4245779320.9691620       -212706452.98141718        1123827518.6975036     
  -4134293421.8136935       -153432951.64946580        1089798029.6738679     
  -4027915916.0912890       -111187428.42773128        1061631440.2268589     
  -3926646803.8019485       -85969883.316205502        1039327750.3564764     
  -3830486084.9456716       -77780316.314893007        1022886960.0627213     
  -4727046041.4953709       -152348570.93489313        1005688816.7147752     
  -4609913501.1046028       -123621684.84553146        972808184.30258131     
  -4494408518.1188831       -100319990.10633254        945457441.39689684     
  -4380531092.5382128       -82443486.717294931        923636587.99772108     
  -4268281224.3625908       -69992174.678422451        907345624.10505629     
  -5193328001.1585360       -87495260.629453897        873119393.35166073     
  -5071500276.8756599       -89600426.985637426        845448592.91692710     
  -4947819273.9698162       -85527997.931936741        822974671.91858399     
  -4822284992.4410048       -75277973.468342781        805697630.35663497     
  -4694897432.2892323       -58850353.594867706        793617468.23107672     
  -5644625199.9586535       -18146522.065104008        726119248.60816371     
  -5519053749.1268597       -51369178.069788933        707719255.51690567     
  -5388148183.6440859       -66811451.904540062        694183131.79192269     
  -5251908503.5103302       -64473343.569349289        685510877.43321466     
  -5110334708.7255945       -44354853.064228773        681702492.44078171     
  -3381512014.0384736       -82214778.504282594        1140241476.1040695     
  -3242696499.1682034       -70414913.204509258        1126132492.7207079     
  -3101721078.0878348       -51415360.537741065        1122821401.2897899     
  -2958585750.7973619       -25216120.503961682        1130308201.8113136     
  -2813290517.2967901        8182806.8968160152        1148592894.2852800     
  -3830486084.9456716       -77780316.314893007        1022886960.0627213     
  -3665108795.3316727       -55403794.152465343        1012598229.7526940     
  -3498960265.7348471       -30456472.047285318        1009502974.9401734     
  -3332040496.1552010       -2938349.9993677139        1013601195.6251578     
  -3164349486.5927324        27150571.991288900        1024892891.8076482     
  -4268281224.3625908       -69992174.678422451        907345624.10505629     
  -4086640492.7332492       -40128495.471844912        899257036.26987350     
  -3905617187.3483644       -12322903.746788025        894757507.47725940     
  -3725211308.2079339        13424600.496756554        893847037.72721612     
  -3545422855.3119607        37114017.258778811        896525627.01973939     
  -4694897432.2892323       -58850353.594867706        793617468.23107672     
  -4507291591.3729410       -24589017.162665129        786108912.27224684     
  -4321691842.9283838        2985344.3637595177        778584998.90104949     
  -4138098186.9555616        23872730.984411478        771045728.11748385     
  -3956510623.4544692        38073142.699281216        763491099.92155004     
  -5110334708.7255945       -44354853.064228773        681702492.44078171     
  -4927062091.2507439       -8785359.2249143124        673153857.75981498     
  -4747184232.4749088        15468272.284356117        660985449.21154094     
  -4570701132.3980799        28406041.463598728        645197266.79596579     
  -4397612791.0202646        30027948.312801361        625789310.51308334     
  -2813290517.2967901        8182806.8968160152        1148592894.2852800     
  -2794861168.1958251       -604442.94826972485        1153525719.3429291     
  -2781312436.4649520       -25660417.360322833        1168919837.5132189     
  -2772644322.1041689       -66985116.339341164        1194775248.7961516     
  -2768856825.1134739       -124578539.88532805        1231091953.1917229     
  -3164349486.5927324        27150571.991288900        1024892891.8076482     
  -3120537842.9938664        17102504.981364727        1014326836.5637112     
  -3079457777.3194737       -2050821.7768030167        1013115287.9358664     
  -3041109289.5695581       -30309408.283222795        1021258245.9241142     
  -3005492379.7441125       -67673254.537882209        1038755710.5284536     
  -3545422855.3119607        37114017.258778811        896525627.01973939     
  -3479391164.3481913        24856458.944116354        872967904.16076851     
  -3413942011.8632770        10657105.699931860        857657901.42134082     
  -3349075397.8572187       -5484042.4737777710        850595618.80145586     
  -3284791322.3300238       -23566985.577016711        851781056.30111420     
  -3956510623.4544692        38073142.699281216        763491099.92155004     
  -3871421132.2587905        22657418.939987898        729448922.13409793     
  -3784765140.0963540        12463365.069888115        702547677.96964002     
  -3696542646.9671588        7490981.0889844894        682787367.42817450     
  -3606753652.8712044        7740266.9972739220        670167990.50970340     
  -4397612791.0202646        30027948.312801361        625789310.51308334     
  -4296627746.7256775        10505384.968970060        583769890.48370028     
  -4191927162.0187116        3367956.3330552578        547784617.58076251     
  -4083511036.8993745        8615662.4050567150        517833491.80427128     
  -3971379371.3676610        26248503.184972048        493916513.15422404     
  -2768856825.1134739       -124578539.88532805        1231091953.1917229     
  -2533984040.0684414       -112312661.61409628        1219543521.0465493     
  -2293878737.3889675       -82605057.894735098        1153138307.2312548     
  -2048540917.0750675       -35455728.727285862        1031876311.7458411     
  -1797970579.1267254        29135325.888306260        855757534.59030461     
  -3005492379.7441125       -67673254.537882209        1038755710.5284536     
  -2888395970.6106515       -81496137.468314767        1029141968.2094772     
  -2769163293.3119497       -88198126.514606714        989808278.67518067     
  -2647794347.8480110       -87779221.676770449        920754641.92556202     
  -2524289134.2188296       -80239422.954804063        821981057.96062160     
  -3284791322.3300238       -23566985.577016711        851781056.30111420     
  -3213651762.0944238       -41932771.604994297        840489712.76094174     
  -3143472183.1627789       -63498495.312825561        824615256.46024823     
  -3074252585.5350862       -88264156.700504541        804157687.39903080     
  -3005992969.2113509       -116229755.76802778        779117005.57729375     
  -3606753652.8712044        7740266.9972739220        670167990.50970340     
  -3509751414.5197549        6377435.9758481979        653586754.70094073     
  -3416805406.9414573       -8506164.2894058228        657559240.58645892     
  -3327915630.1363034       -36910533.798476338        682085448.16625178     
  -3243082084.1042995       -78835672.551383972        727165377.44032431     
  -3971379371.3676610        26248503.184972048        493916513.15422404     
  -3776694927.8866463        63434485.274237394        468433094.02947903     
  -3589162964.6479816        76778866.555668354        488640231.05381221     
  -3408783481.6516538        66281647.029304266        554537924.22722077     
  -3235556478.8976707        31942826.695129871        666126173.54970682     
  -1797970579.1267254        29135325.888306260        855757534.59030461     
  -1903565574.0044889       -28900357.312472105        823549890.13135993     
  -2024795595.0673590       -139052794.46359831        928829352.43065536     
  -2161660642.3153391       -301321985.56509274        1171595921.4881914     
  -2314160715.7484260       -515707930.61694765        1551849597.3039677     
  -2524289134.2188296       -80239422.954804063        821981057.96062160     
  -2337143402.8181381       -66276750.028450370        826947154.37388361     
  -2160487311.7543864       -87279544.891901970        902996312.82914889     
  -1994320861.0275729       -143247807.54514402        1050128533.3264167     
  -1838644050.6377032       -234181537.98819876        1268343815.8656886     
  -3005992969.2113509       -116229755.76802778        779117005.57729375     
  -2715832353.5786028       -87186479.328482270        827259793.01895928     
  -2431015992.4346189       -75957384.518169641        880081597.78639150     
  -2151543885.7794023       -82542471.337073803        937582419.87959099     
  -1877416033.6129603       -106941739.78522396        999762259.29855669     
  -3243082084.1042995       -78835672.551383972        727165377.44032431     
  -3039632426.2858772       -91629545.212562799        824487806.06659114     
  -2836381637.1080546       -105086313.34239554        860085207.30239046     
  -2633329716.5708280       -119205976.94089282        833957581.14771664     
  -2430476664.6742020       -133988536.00804770        746104927.60257399     
  -3235556478.8976707        31942826.695129871        666126173.54970682     
  -3308543620.9399648       -79605947.680670381        818631193.51677442     
  -3376584245.7746940       -174666331.36458647        843007141.37713528     
  -3439678353.4018435       -253238324.35657060        739254017.13079059     
  -3497825943.8214297       -315321926.65667725        507371820.77773601     
  -2314160715.7484260       -515707930.61694765        1551849597.3039677     
  -2487627566.1848097       -776328875.22902644        1491435330.2109103     
  -2671796730.9586658       -1072624200.9660093        964033597.09843266     
  -2866668210.0699911       -1404593907.8278852       -30355602.033474106     
  -3072242003.5187721       -1772237995.8146291       -1491732267.1847925     
  -1838644050.6377032       -234181537.98819876        1268343815.8656886     
  -3017189659.9830489       -743896515.10014343        1129843824.3178029     
  -4197453005.3090405       -1259337278.8142331        742677030.20548546     
  -5379434086.6156845       -1780503829.1304836        106843433.52875131     
  -6563132903.9029617       -2307396166.0488801       -777656965.71242547     
  -1877416033.6129603       -106941739.78522396        999762259.29855669     
  -3437267077.7101398       -678618752.14988780        793658551.37879777     
  -4989851279.4311438       -1226072956.5939713        557208704.34960663     
  -6535168638.7759790       -1749304353.1174717        290412718.21097696     
  -8073219155.7446318       -2248312941.7203879       -6729407.0370747484     
  -2430476664.6742020       -133988536.00804770        746104927.60257399     
  -3747859819.3660846       -580495586.37829232        482879511.39390099     
  -5048991553.3249779       -972831234.30522752        407628619.53078395     
  -6333871866.5508776       -1310995479.7888465        520352252.01324379     
  -7602500759.0437698       -1594988322.8291328        821050408.84124720     
  -3497825943.8214297       -315321926.65667725        507371820.77773601     
  -3948967884.9508920       -449527017.78536892        197506704.36310574     
  -4374873826.9905415       -499612111.94800711        293936775.74903208     
  -4775543769.9403696       -465577209.14458203        796662034.93551540     
  -5150977713.8003845       -347422309.37511420        1705682481.9225597     
  -5955960983.0441990       -1786788294.9132597        1150476034.8662887     
  -6086431900.4333649       -1502287323.6562188        1227335884.0803869     
  -6219657951.6510286       -1226970131.8275089        1267246338.5577629     
  -6355639136.6971912       -960836719.42713022        1270207398.2984171     
  -6494375455.5718565       -703887086.45508385        1236219063.3023486     
  -6810346994.2055883       -2043104098.2616765        1353995794.1027062     
  -6827556143.3738146       -1395707695.9956594        1202396848.6685169     
  -6896142919.9481077       -919570051.74987292        1091126635.6004710     
  -7016107323.9284706       -614691165.52431774        1020185154.8985679     
  -7187449355.3149061       -481071037.31899500        989572406.56280792     
  -8337648474.3561831       -2501294542.3068547        1712385174.8014348     
  -8020801206.4381371       -1424764314.3722622        1275601192.2117934     
  -7803954059.5037327       -681567823.04980063        956424069.09116006     
  -7687107033.5529661       -271705068.33946991        754853805.43953586     
  -7670260128.5858402       -195176050.24127245        670890401.25691855     
  -10537865423.495979       -3161359627.0487938        2225644176.9624743     
  -9666167089.6263371       -1589457178.7860281        1446948914.7102158     
  -8943091370.3179016       -512963445.72729349        863138639.02983046     
  -8368638265.5706778        68121572.127411842        474213349.92131889     
  -7942807775.3846617        153797874.77808571        280173047.38468093     
  -13410997841.624983       -4023299352.4874945        2893772800.5858250     
  -11763653792.938414       -1889786289.2369571        1716440016.1637840     
  -10313554852.390619       -413756919.78234720        811270345.41648185     
  -9060701019.9816055        404788755.87633038        178263788.34391898     
  -8005092295.7113762        565850737.73907471       -182579655.05390644     
  -6494375455.5718565       -703887086.45508385        1236219063.3023486     
  -6235778761.6242571       -378588178.54326129        1052400164.9866945     
  -6007954821.0395241       -155865115.17432332        906110563.09911215     
  -5810903633.8176575       -35717896.348272324        797350257.63960218     
  -5644625199.9586535       -18146522.065104008        726119248.60816371     
  -7187449355.3149061       -481071037.31899500        989572406.56280792     
  -6898796953.2331352       -306566451.94849110        845443559.02796626     
  -6622798048.7180109       -174240191.80013442        721703880.37010312     
  -6359452641.7695312       -84092256.873924255        618353370.58921742     
  -6108760732.3876934       -36122647.169861794        535392029.68531203     
  -7670260128.5858402       -195176050.24127245        670890401.25691855     
  -7400523811.3730259       -186157325.31302547        587590736.26514721     
  -7125321735.9306335       -158919406.28618622        507540112.59926194     
  -6844653902.2586641       -113462293.16075683        430738530.25926012     
  -6558520310.3571167       -49785985.936731815        357185989.24514449     
  -7942807775.3846617        153797874.77808571        280173047.38468093     
  -7740959336.0439262       -17360798.636862278        278841696.69823903     
  -7515525882.6773911       -109902758.63248062        263619259.78658891     
  -7266507415.2850590       -123828005.20876789        234505736.64972979     
  -6993903933.8669243       -59136538.365721703        191501127.28766406     
  -8005092295.7113762        565850737.73907471       -182579655.05390644     
  -7920103527.2458401        199823128.07999659       -80803559.672761485     
  -7793410488.9582853       -27190248.839014053       -10058678.067914713     
  -7625013180.8487082       -115189393.01795387        29654989.760626853     
  -7414911602.9171124       -64174304.456820965        38337443.812868975     
  -5644625199.9586535       -18146522.065104008        726119248.60816371     
  -5519053749.1268597       -51369178.069788933        707719255.51690567     
  -5388148183.6440859       -66811451.904540062        694183131.79192269     
  -5251908503.5103302       -64473343.569349289        685510877.43321466     
  -5110334708.7255945       -44354853.064228773        681702492.44078171     
  -6108760732.3876934       -36122647.169861794        535392029.68531203     
  -5962361466.2922182       -37555916.533957481        525027876.30889404     
  -5815252715.4315844       -36624236.680866480        518485237.62120593     
  -5667434479.8057947       -33327607.610577106        515764113.62224555     
  -5518906759.4148426       -27666029.323098183        516864504.31201595     
  -6558520310.3571167       -49785985.936731815        357185989.24514449     
  -6394271385.2195187       -20323315.526709318        349462274.05010694     
  -6233937605.2025871       -3911128.8522427082        344517718.86625385     
  -6077518970.3063192       -549425.91332054138        342352323.69358224     
  -5925015480.5307198       -10238206.709957600        342966088.53209388     
  -6993903933.8669243       -59136538.365721703        191501127.28766406     
  -6814783505.9087639        328624.95195150375        181022448.74054515     
  -6644202852.9570913        31327871.581331253        172280575.52706316     
  -6482161975.0119114        33861201.522410154        165275507.64722189     
  -6328660872.0732155        7928614.7751970291        160007245.10101599     
  -7414911602.9171124       -64174304.456820965        38337443.812868975     
  -7223897828.3599482        24399904.902040005        19708400.380209446     
  -7046048458.6950998        69092764.619850636        1773807.6036424534     
  -6881363493.9225597        69904274.696633339       -15466334.516838532     
  -6729842934.0423336        26834435.132366657       -32012025.981220659     
  -5110334708.7255945       -44354853.064228773        681702492.44078171     
  -4927062091.2507439       -8785359.2249143124        673153857.75981498     
  -4747184232.4749088        15468272.284356117        660985449.21154094     
  -4570701132.3980799        28406041.463598728        645197266.79596579     
  -4397612791.0202646        30027948.312801361        625789310.51308334     
  -5518906759.4148426       -27666029.323098183        516864504.31201595     
  -5348349394.2632179       -14601203.377897978        508415398.47232103     
  -5177977763.8353033       -2155493.1784060001        498998488.07301676     
  -5007791868.1311073        9671101.2753598690        488613773.11410552     
  -4837791707.1506224        20878579.983415127        477261253.59558320     
  -5925015480.5307198       -10238206.709957600        342966088.53209388     
  -5759596312.5374689       -17404932.109411240        338360372.83818614     
  -5591153855.2926340       -14494026.670253992        335438821.89236033     
  -5419688108.7962236       -1505490.3925077915        334201435.69462562     
  -5245199073.0482283        21560676.723851442        334648214.24497408     
  -6328660872.0732155        7928614.7751970291        160007245.10101599     
  -6160802846.0734987       -17196545.419461966        162988780.85740489     
  -5986712506.8469009       -21547328.191189289        170306450.66957265     
  -5806389854.3934269       -5123733.5399956703        181960254.53752548     
  -5619834888.7130756        32074238.534118414        197950192.46125510     
  -6729842934.0423336        26834435.132366657       -32012025.981220659     
  -6551968994.8713093       -13976043.308046341       -17699377.470021561     
  -6364653718.4980984       -23315397.741194963        3601374.4046491422     
  -6167897104.9227257       -1183628.1671254635        31890229.642801132     
  -5961699154.1451740        52419265.414206982        67167188.244427770     
  -4397612791.0202646        30027948.312801361        625789310.51308334     
  -4296627746.7256775        10505384.968970060        583769890.48370028     
  -4191927162.0187116        3367956.3330552578        547784617.58076251     
  -4083511036.8993745        8615662.4050567150        517833491.80427128     
  -3971379371.3676610        26248503.184972048        493916513.15422404     
  -4837791707.1506224        20878579.983415127        477261253.59558320     
  -4715536917.3532925        16482135.060477734        448896395.04307604     
  -4593940554.7725048        9890932.7490861416        427368089.34602541     
  -4473002619.4082460        1104973.0492470264        412676336.50442922     
  -4352723111.2605228       -9875744.0390391350        404821136.51828802     
  -5245199073.0482283        21560676.723851442        334648214.24497408     
  -5099381949.9509888        32978126.560960770        314834954.93561423     
  -4958597221.6991959        27620926.913252592        302660654.21071798     
  -4822844888.2928514        5489077.7807195187        298125312.07029241     
  -4692124949.7319479       -33417420.836624622        301228928.51432812     
  -5619834888.7130756        32074238.534118414        197950192.46125510     
  -5448162844.5187550        59993359.470422983        181585570.16131687     
  -5285897162.7987890        56557938.825545549        173662312.17484978     
  -5133037843.5531826        21767976.599471331        174180418.50186083     
  -4989584886.7819252       -44376527.207772970        183139889.14235100     
  -5961699154.1451740        52419265.414206982        67167188.244427770     
  -5761879601.0565987        97527833.788858652        49148240.720181964     
  -5575840378.0712872        96701968.485964060        40373063.238415211     
  -5403581485.1892414        49941669.505510569        40841655.799134955     
  -5245102922.4104643       -42753063.152496576        50554018.402348965     
  -3971379371.3676610        26248503.184972048        493916513.15422404     
  -3776694927.8866463        63434485.274237394        468433094.02947903     
  -3589162964.6479816        76778866.555668354        488640231.05381221     
  -3408783481.6516538        66281647.029304266        554537924.22722077     
  -3235556478.8976707        31942826.695129871        666126173.54970682     
  -4352723111.2605228       -9875744.0390391350        404821136.51828802     
  -4064201755.6880074        29219778.453801155        380256988.88362837     
  -3775283279.2591696        69639037.134380102        381743862.00021881     
  -3485967681.9739995        111382032.00273800        409281755.86806273     
  -3196254963.8324986        154448763.05885053        462870670.48716092     
  -4692124949.7319479       -33417420.836624622        301228928.51432812     
  -4365879640.3474226       -9246245.4240589142        286391920.31820220     
  -4031687609.0079083        41414003.171830177        277966397.47550499     
  -3689548855.7133923        118563324.95106101        275952359.98623323     
  -3339463380.4638710        222201719.91361117        280349807.85039526     
  -4989584886.7819252       -44376527.207772970        183139889.14235100     
  -4681728581.8648958       -51963586.359329224        186837888.33320445     
  -4358375953.8941994       -7896235.3319904804        177307837.47966236     
  -4019527002.8698292        87825525.874257326        154549736.58173174     
  -3665181728.7917914        235201697.25940251        118563585.63940108     
  -5245102922.4104643       -42753063.152496576        50554018.402348965     
  -5011748580.2404232       -98932244.352015972        81594892.928638935     
  -4755348313.9180450       -78291678.377077579        79768182.012702912     
  -4475902123.4433193        19168634.772362709        45073885.654554360     
  -4173410008.8162546        193448695.09624434       -22487996.145811234     
  -3235556478.8976707        31942826.695129871        666126173.54970682     
  -3308543620.9399648       -79605947.680670381        818631193.51677442     
  -3376584245.7746940       -174666331.36458647        843007141.37713528     
  -3439678353.4018435       -253238324.35657060        739254017.13079059     
  -3497825943.8214297       -315321926.65667725        507371820.77773601     
  -3196254963.8324986        154448763.05885053        462870670.48716092     
  -3543887618.3142447        9044841.3959903717        581604712.85716701     
  -3890115442.6184626       -131676313.00844908        625014774.83131456     
  -4234938436.7451620       -267714700.15449214        593100856.40960765     
  -4578356600.6943455       -399070320.04213858        485862957.59204429     
  -3339463380.4638710        222201719.91361117        280349807.85039526     
  -3810869856.7826309        88204158.144438028        361180904.42161351     
  -4284413189.9539261       -52916259.799846411        419493112.30782598     
  -4760093379.9777384       -201159533.91919422        455286431.50903499     
  -5237910426.8540802       -356525664.21364832        468560862.02523452     
  -3665181728.7917914        235201697.25940251        118563585.63940108     
  -4109490336.3451433        157872002.56463146        157359768.21011084     
  -4559477487.7810745        61613828.261257410        226442153.80666894     
  -5015143183.0995731       -53572825.650672436        325810742.42906767     
  -5476487422.3006525       -187687959.17120743        455465534.07731253     
  -4173410008.8162546        193448695.09624434       -22487996.145811234     
  -4439749057.0017710        218048374.65659404       -29858695.777332883     
  -4715308336.0999041        211913951.17487478        45861899.327842146     
  -5000087846.1106596        175045424.65108657        204673789.16971192     
  -5294087587.0340490        107442795.08518553        446576973.74827456     
  -3497825943.8214297       -315321926.65667725        507371820.77773601     
  -3948967884.9508920       -449527017.78536892        197506704.36310574     
  -4374873826.9905415       -499612111.94800711        293936775.74903208     
  -4775543769.9403696       -465577209.14458203        796662034.93551540     
  -5150977713.8003845       -347422309.37511420        1705682481.9225597     
  -4578356600.6943455       -399070320.04213858        485862957.59204429     
  -4091005436.9776683       -274671830.19761527        264575037.01245251     
  -3600758018.9775872       -140619159.40839243        299231952.13550657     
  -3107614346.6940937        3087692.3255261183        589833702.96121597     
  -2611574420.1271920        156448725.00413406        1136380289.4895751     
  -5237910426.8540802       -356525664.21364832        468560862.02523452     
  -4241638592.8567128       -102395323.76552224        309787101.67319822     
  -3264810249.3823509        86923381.605913639        256607824.92591432     
  -2307425396.4309812        211430451.90069342        309023031.78337270     
  -1369484034.0026288        271125887.11878717        467032722.24557370     
  -5476487422.3006525       -187687959.17120743        455465534.07731253     
  -4400867352.5880413        67302501.510868788        333142898.34535980     
  -3367030518.2048445        183015511.09489727        166064394.12024906     
  -2374976919.1510544        159451069.58089411       -45769978.598024994     
  -1424706555.4266777       -3390823.0311434269       -302360219.80946010     
  -5294087587.0340490        107442795.08518553        446576973.74827456     
  -4568691716.1716337        234421645.63160110        334642427.02893054     
  -3907418825.4450526        147657229.05856991        27601659.718515888     
  -3310268914.8542781       -152850454.63382936       -474545328.18296367     
  -2777241984.3993368       -667101405.44565034       -1171798536.6755176     
 </DataArray>
 <DataArray  type="Float64" Name="VM" NumberOfComponents="1" format="ascii">
   12932365928.860022     
   11342605953.972950     
   10216495880.077526     
   9283228728.6029987     
   8318889963.7590542     
   10131679637.971703     
   9325794452.1078987     
   8832033686.3008347     
   8450855477.5264521     
   8044602116.2717152     
   7986170503.1626740     
   7739382183.1341343     
   7673882175.0391064     
   7674397198.0194187     
   7670981083.4277830     
   6495735315.7525187     
   6590572533.7204056     
   6760770386.9578171     
   6964120100.6713562     
   7173901873.8640995     
   5659888373.1986237     
   5892456385.1889906     
   6117812578.4476280     
   6333390795.5966654     
   6538837690.0457048     
   8318889963.7590542     
   8033776560.2843361     
   7790651096.9577322     
   7579011661.4367905     
   7393931989.5706463     
   8044602116.2717152     
   7757182219.3075972     
   7485615896.1517572     
   7227923425.6302023     
   6984063871.8361197     
   7670981083.4277830     
   7388740983.7068920     
   7112061010.4768620     
   6841004724.8007050     
   6575768833.4863462     
   7173901873.8640995     
   6915962297.8083839     
   6665857534.5779123     
   6419834895.8147898     
   6174808029.7927647     
   6538837690.0457048     
   6331249797.2590580     
   6145355725.0448866     
   5967536723.0672636     
   5788828239.5806398     
   7393931989.5706463     
   7244989607.1451321     
   7088172230.4040194     
   6922879988.3587132     
   6749046721.5777149     
   6984063871.8361197     
   6831738874.7361412     
   6674177207.4630299     
   6511081364.9457245     
   6342409094.5171318     
   6575768833.4863462     
   6423446360.3095093     
   6268842897.9965172     
   6111898095.4835539     
   5952634005.0246067     
   6174808029.7927647     
   6024908528.7105436     
   5875987525.4890575     
   5728092566.4172478     
   5581299507.6732979     
   5788828239.5806398     
   5642371889.6614494     
   5500484934.8758173     
   5363121163.9136019     
   5230345177.6563339     
   6749046721.5777149     
   6554592558.9239378     
   6366039995.7132492     
   6183508045.4838543     
   6007513016.2352953     
   6342409094.5171318     
   6165555354.8916016     
   5993224350.5525293     
   5825451200.7965689     
   5662471844.4127274     
   5952634005.0246067     
   5785468568.0980015     
   5621043182.2580185     
   5459378150.7042580     
   5300566911.9785328     
   5581299507.6732979     
   5416658316.8501225     
   5252501210.0958080     
   5088841106.7900715     
   4925707168.5391502     
   5230345177.6563339     
   5062144585.3573408     
   4891661674.2181559     
   4718823222.3055973     
   4543585417.3786440     
   6007513016.2352953     
   5822469571.0631275     
   5628053212.3640442     
   5424225864.3514004     
   5212014077.4413595     
   5662471844.4127274     
   5498021120.1899862     
   5327840550.1254988     
   5151944383.6585417     
   4970973571.2362156     
   5300566911.9785328     
   5155464831.6231327     
   5008243593.6289110     
   4858893150.0212412     
   4707713729.0658674     
   4925707168.5391502     
   4797270668.9976683     
   4670339617.3782940     
   4544815005.5448236     
   4420737896.6500778     
   4543585417.3786440     
   4427179302.2822542     
   4316082723.8152599     
   4210079203.3369656     
   4109102228.6681852     
   5212014077.4413595     
   4955403100.8384447     
   4712114128.9073200     
   4483203186.8023214     
   4275845610.1538229     
   4970973571.2362156     
   4658487867.7904062     
   4354096386.9373894     
   4059084035.7947345     
   3777259741.4474630     
   4707713729.0658674     
   4386299537.5011978     
   4070690231.3303766     
   3761679672.3300695     
   3460728482.8971443     
   4420737896.6500778     
   4138910515.3056254     
   3863519615.1969509     
   3596047265.9172997     
   3340000703.5586123     
   4109102228.6681852     
   3916224565.8124270     
   3733536038.4685850     
   3565799503.3945699     
   3424380928.7782373     
   4275845610.1538229     
   4564577555.0626564     
   4847541070.2255125     
   5138677034.0859718     
   5460887322.2833395     
   3777259741.4474630     
   4194638639.6722693     
   4617701003.3911352     
   5049546093.3337145     
   5493809576.1482458     
   3460728482.8971443     
   3888426640.0341997     
   4318263151.9022388     
   4746581169.3112993     
   5171943860.6269236     
   3340000703.5586123     
   3662885789.7792487     
   3962266973.9086251     
   4235008267.9409018     
   4490674622.9743290     
   3424380928.7782373     
   3535940913.7541151     
   3574509425.7297578     
   3535364037.4919066     
   3454892963.3706369     
   5460887322.2833395     
   4631426615.7023163     
   3743724345.3326325     
   2863124500.2485542     
   2261070921.7558069     
   5493809576.1482458     
   4491125192.6364031     
   3463839985.4051175     
   2407232165.0407186     
   1348543794.1497712     
   5171943860.6269236     
   4264145994.7377439     
   3361759885.5716476     
   2452897726.9308982     
   1587192305.9838884     
   4490674622.9743290     
   3948816205.3810763     
   3441409456.9098725     
   2982585679.4679503     
   2758867607.2368112     
   3454892963.3706369     
   3544166244.9660673     
   3710036796.3015189     
   3978047904.8376741     
   4578313393.1061621     
   5659888373.1986237     
   5892456385.1889906     
   6117812578.4476280     
   6333390795.5966654     
   6538837690.0457048     
   5150785405.3712978     
   5311165084.3371878     
   5468401670.2201147     
   5619533810.0425606     
   5763023986.7731876     
   4640885622.7589245     
   4753923301.4762611     
   4868116901.5017967     
   4980786626.6411734     
   5089969830.1228018     
   4130444404.7175174     
   4221576614.1197190     
   4318477780.1833982     
   4419448375.9684935     
   4523002376.0365562     
   3620976794.1730332     
   3715971848.8301306     
   3821890314.2200804     
   3938614339.1762881     
   4065999774.8579736     
   6538837690.0457048     
   6331249797.2590580     
   6145355725.0448866     
   5967536723.0672636     
   5788828239.5806398     
   5763023986.7731876     
   5652118081.8663225     
   5556919091.9224272     
   5468500095.7488384     
   5381301904.9790564     
   5089969830.1228018     
   5051336980.8744240     
   5023182228.9892588     
   5000342681.3221188     
   4979595388.2990761     
   4523002376.0365562     
   4533521944.5352859     
   4549034557.3345633     
   4567067253.8878050     
   4585890644.3108835     
   4065999774.8579736     
   4104055901.2821646     
   4140257694.1371908     
   4173723677.9406786     
   4203722406.7715197     
   5788828239.5806398     
   5642371889.6614494     
   5500484934.8758173     
   5363121163.9136019     
   5230345177.6563339     
   5381301904.9790564     
   5250362158.4169264     
   5122860634.4417276     
   4998818044.8599224     
   4878315358.2858076     
   4979595388.2990761     
   4864998205.6348619     
   4753289723.6695442     
   4644405743.9324160     
   4538361779.8348627     
   4585890644.3108835     
   4489060926.1636610     
   4395251002.4776316     
   4304125527.6505003     
   4215540070.9040461     
   4203722406.7715197     
   4126662419.0072651     
   4053585750.7739000     
   3983650053.1102357     
   3916436292.0070744     
   5230345177.6563339     
   5062144585.3573408     
   4891661674.2181559     
   4718823222.3055973     
   4543585417.3786440     
   4878315358.2858076     
   4708336334.1260843     
   4538699823.5194702     
   4369448629.1832714     
   4200638680.6222720     
   4538361779.8348627     
   4379981363.6961994     
   4225820753.8061218     
   4076306850.0450134     
   3932011925.0034342     
   4215540070.9040461     
   4081316261.8819418     
   3956501510.3370275     
   3842041034.2119675     
   3739249785.8917260     
   3916436292.0070744     
   3817299693.1291213     
   3734080485.3038845     
   3668115783.8603797     
   3621338310.5858493     
   4543585417.3786440     
   4427179302.2822542     
   4316082723.8152599     
   4210079203.3369656     
   4109102228.6681852     
   4200638680.6222720     
   4105060950.4456658     
   4013291509.3860621     
   3925301656.9115543     
   3841130093.3149028     
   3932011925.0034342     
   3857197849.8884530     
   3784385293.4520073     
   3713683114.5142293     
   3645228457.2080631     
   3739249785.8917260     
   3686833983.6455178     
   3634452286.2849488     
   3582261846.0036945     
   3530459556.3282280     
   3621338310.5858493     
   3594313056.2824488     
   3565391433.5503712     
   3534658337.4321280     
   3502306981.7036543     
   4109102228.6681852     
   3916224565.8124270     
   3733536038.4685850     
   3565799503.3945699     
   3424380928.7782373     
   3841130093.3149028     
   3729783944.7581677     
   3628961509.8841710     
   3540498789.4481483     
   3468010559.9227567     
   3645228457.2080631     
   3566941414.1683965     
   3492341293.3844800     
   3421537159.1762266     
   3354693446.7867894     
   3530459556.3282280     
   3438163947.6943231     
   3334520962.3655863     
   3219576765.6499057     
   3094144369.4189391     
   3502306981.7036543     
   3355396233.4935021     
   3173812461.5792685     
   2957692850.3814549     
   2710895161.1062980     
   3424380928.7782373     
   3535940913.7541151     
   3574509425.7297578     
   3535364037.4919066     
   3454892963.3706369     
   3468010559.9227567     
   3352019579.7829542     
   3202899144.2339139     
   3008468445.4044933     
   2763606887.1333761     
   3354693446.7867894     
   3174205739.1229758     
   3015618186.0104747     
   2885034358.2144637     
   2789489927.2168784     
   3094144369.4189391     
   3003274377.6381097     
   2993769972.4813056     
   3095258466.2324934     
   3342736925.8337469     
   2710895161.1062980     
   2840234663.5874410     
   3118725737.1704116     
   3581637402.5609946     
   4277789654.8481884     
   3454892963.3706369     
   3544166244.9660673     
   3710036796.3015189     
   3978047904.8376741     
   4578313393.1061621     
   2763606887.1333761     
   3332787772.8898554     
   4053768918.0785966     
   4862367306.3742371     
   5759016937.3970108     
   2789489927.2168784     
   3434834955.7537942     
   4175782040.5701022     
   4969737036.4445066     
   5797300954.1836452     
   3342736925.8337469     
   3812378851.6228142     
   4110219321.4502482     
   4329580534.2240992     
   4625721901.2524281     
   4277789654.8481884     
   4388262723.6688929     
   3965448600.7065477     
   3083580098.1848960     
   2276505388.9827123     
   3620976794.1730332     
   3715971848.8301306     
   3821890314.2200804     
   3938614339.1762881     
   4065999774.8579736     
   3133936353.8472090     
   3250911726.3220711     
   3377094315.1843400     
   3511991031.1222959     
   3655124372.0104103     
   2690520664.0550013     
   2825257865.2762766     
   2967227432.4646211     
   3115350051.3720555     
   3268719937.2555518     
   2294347768.9974537     
   2443914766.0249782     
   2598259747.3679600     
   2755489576.9321632     
   2914200704.1170754     
   1950853882.1425436     
   2114014281.9736559     
   2278712987.2470875     
   2442052381.3994670     
   2602124170.3200631     
   4065999774.8579736     
   4104055901.2821646     
   4140257694.1371908     
   4173723677.9406786     
   4203722406.7715197     
   3655124372.0104103     
   3692722703.1379843     
   3729319346.8423271     
   3764029432.6502824     
   3796114116.2253771     
   3268719937.2555518     
   3310812355.2070551     
   3353044959.5819511     
   3394586273.6797738     
   3434755515.3258762     
   2914200704.1170754     
   2965912797.7918601     
   3019199425.4629431     
   3073335919.4934716     
   3127759560.3174353     
   2602124170.3200631     
   2668341546.2905979     
   2737804845.1501403     
   2809933337.0096354     
   2884320257.1642547     
   4203722406.7715197     
   4126662419.0072651     
   4053585750.7739000     
   3983650053.1102357     
   3916436292.0070744     
   3796114116.2253771     
   3744458411.5213757     
   3697219736.2051239     
   3653929325.9824638     
   3614411346.6662583     
   3434755515.3258762     
   3406422738.1673985     
   3382816364.6776538     
   3363739698.2829289     
   3349162116.6067119     
   3127759560.3174353     
   3120496077.4269428     
   3117939312.5244927     
   3120059930.1341925     
   3126891071.5589876     
   2884320257.1642547     
   2895471166.2870669     
   2910771710.3952603     
   2930273377.6201072     
   2954032178.7589273     
   3916436292.0070744     
   3817299693.1291213     
   3734080485.3038845     
   3668115783.8603797     
   3621338310.5858493     
   3614411346.6662583     
   3548588528.8451376     
   3494468284.2530928     
   3452618645.3295221     
   3423854362.1171360     
   3349162116.6067119     
   3303560188.8523068     
   3264284660.6338005     
   3231492643.9858909     
   3205408930.8999357     
   3126891071.5589876     
   3090454292.2250938     
   3053603398.9060822     
   3016306726.5591855     
   2978547924.3997111     
   2954032178.7589273     
   2919121933.7793660     
   2875716888.6935635     
   2823617082.6287580     
   2762663856.6658015     
   3621338310.5858493     
   3594313056.2824488     
   3565391433.5503712     
   3534658337.4321280     
   3502306981.7036543     
   3423854362.1171360     
   3386125465.5740175     
   3350031336.1107206     
   3315858467.9660077     
   3283964991.3300562     
   3205408930.8999357     
   3159950449.0508533     
   3120193227.0864005     
   3086507598.1317172     
   3059338207.4610038     
   2978547924.3997111     
   2925835387.6270733     
   2883759752.0381789     
   2852588833.3396993     
   2832694276.6280804     
   2762663856.6658015     
   2699256350.2584925     
   2652722398.2126293     
   2623020026.9832134     
   2610235174.0424676     
   3502306981.7036543     
   3355396233.4935021     
   3173812461.5792685     
   2957692850.3814549     
   2710895161.1062980     
   3283964991.3300562     
   3088283517.7664766     
   2878391243.6132264     
   2653972128.2828140     
   2415955706.9471889     
   3059338207.4610038     
   2854614283.9260836     
   2659906575.1241655     
   2477427823.1655812     
   2310138728.2908940     
   2832694276.6280804     
   2653146644.4875646     
   2508456458.5230722     
   2403167633.4800558     
   2342220809.8817677     
   2610235174.0424676     
   2481906567.9439516     
   2412159556.2162528     
   2405464915.2824044     
   2466748893.8965459     
   2710895161.1062980     
   2840234663.5874410     
   3118725737.1704116     
   3581637402.5609946     
   4277789654.8481884     
   2415955706.9471889     
   2783199059.9201632     
   3249140014.2701273     
   3808308050.9066706     
   4464926758.8356886     
   2310138728.2908940     
   2754629485.1027169     
   3234667224.2199111     
   3738305301.2485986     
   4258965333.3463573     
   2342220809.8817677     
   2759316357.5898666     
   3104346964.6963534     
   3383198833.4704757     
   3607871169.9389901     
   2466748893.8965459     
   2801340068.6182079     
   2918226309.2873330     
   2830486502.4672961     
   2572963485.9439797     
   4277789654.8481884     
   4388262723.6688929     
   3965448600.7065477     
   3083580098.1848960     
   2276505388.9827123     
   4464926758.8356886     
   3851652073.0146227     
   3045371290.7417302     
   2033168199.9428425     
   988493839.93668079     
   4258965333.3463573     
   3277624121.3718147     
   2410063971.0045948     
   1821390764.7261908     
   1803832282.6935830     
   3607871169.9389901     
   2668757285.1146393     
   2019288805.7859790     
   1843493575.7648067     
   2308439633.4589577     
   2572963485.9439797     
   2038304735.6279993     
   1958343480.0970232     
   2356395300.5165977     
   3472549955.2333183     
   1950853882.1425436     
   2114014281.9736559     
   2278712987.2470875     
   2442052381.3994670     
   2602124170.3200631     
   1650135553.9154766     
   1816317813.1717534     
   1984234106.1819503     
   2151222944.4332819     
   2315553707.4435239     
   1391936521.4864180     
   1569545329.5953612     
   1748050395.5835426     
   1925459264.5027850     
   2100530308.8305488     
   1208300046.2911639     
   1400922783.8647664     
   1592877241.7215962     
   1783382572.2591498     
   1971977176.3211634     
   1140727005.4920492     
   1340424741.2672780     
   1540016178.2575543     
   1739502302.9445307     
   1938884170.1993117     
   2602124170.3200631     
   2668341546.2905979     
   2737804845.1501403     
   2809933337.0096354     
   2884320257.1642547     
   2315553707.4435239     
   2400623242.9646149     
   2487526466.7690692     
   2575845432.5759883     
   2665283019.9799423     
   2100530308.8305488     
   2202897907.6955791     
   2305269625.4505835     
   2407404777.4100637     
   2509130053.8356261     
   1971977176.3211634     
   2088643278.0356016     
   2203281907.6734896     
   2315821796.2803035     
   2426210372.7415924     
   1938884170.1993117     
   2065497276.9545510     
   2188265670.5899291     
   2307188070.3649197     
   2422264888.8709135     
   2884320257.1642547     
   2895471166.2870669     
   2910771710.3952603     
   2930273377.6201072     
   2954032178.7589273     
   2665283019.9799423     
   2685757847.2233872     
   2709787144.0951385     
   2737382255.2945094     
   2768561633.0480046     
   2509130053.8356261     
   2538237218.4417171     
   2570215843.1609926     
   2605060230.2053647     
   2642777016.5617189     
   2426210372.7415924     
   2462982490.4375858     
   2501891005.7408457     
   2542938706.8665400     
   2586147004.8190961     
   2422264888.8709135     
   2465522967.1046667     
   2510201006.8525019     
   2556330121.8691192     
   2603966237.6629977     
   2954032178.7589273     
   2919121933.7793660     
   2875716888.6935635     
   2823617082.6287580     
   2762663856.6658015     
   2768561633.0480046     
   2736824832.5924163     
   2702600732.6373844     
   2665840103.3539829     
   2626499068.5187535     
   2642777016.5617189     
   2618472415.3571734     
   2598028499.4435043     
   2581558765.5291791     
   2569188198.4542131     
   2586147004.8190961     
   2569175353.1320786     
   2562135212.9085684     
   2565159757.7357626     
   2578444533.3555226     
   2603966237.6629977     
   2589260476.0547562     
   2589962813.0858746     
   2606116488.3703866     
   2637957344.2121258     
   2762663856.6658015     
   2699256350.2584925     
   2652722398.2126293     
   2623020026.9832134     
   2610235174.0424676     
   2626499068.5187535     
   2595217774.6530409     
   2580236908.3425660     
   2581449259.1475019     
   2598826143.8203487     
   2569188198.4542131     
   2567067118.0039277     
   2580369593.2323017     
   2608945903.4927287     
   2652720947.2875175     
   2578444533.3555226     
   2602215630.8038607     
   2640564065.3114190     
   2693309554.5768580     
   2760371784.5415921     
   2637957344.2121258     
   2684846674.6158838     
   2745815802.6710424     
   2820605779.9582734     
   2909105434.6331406     
   2610235174.0424676     
   2481906567.9439516     
   2412159556.2162528     
   2405464915.2824044     
   2466748893.8965459     
   2598826143.8203487     
   2512065685.4062467     
   2456274083.3551188     
   2432197922.1140475     
   2440780475.5174632     
   2652720947.2875175     
   2580598492.4471364     
   2510989024.3235621     
   2443946821.3907881     
   2379541870.7839742     
   2760371784.5415921     
   2691337908.3561897     
   2595173086.3231187     
   2471799861.4288960     
   2321193282.8539405     
   2909105434.6331406     
   2846204492.3695741     
   2729438453.8799396     
   2559615616.9519629     
   2338570740.7852135     
   2466748893.8965459     
   2801340068.6182079     
   2918226309.2873330     
   2830486502.4672961     
   2572963485.9439797     
   2440780475.5174632     
   2622562611.3806195     
   2684770103.2192044     
   2623625877.9995103     
   2440790177.8270679     
   2379541870.7839742     
   2486875202.1782169     
   2592013119.4155102     
   2691892261.5148420     
   2785365116.1248670     
   2321193282.8539405     
   2400917476.5206599     
   2574498346.7001929     
   2838133609.9527073     
   3187103051.6138902     
   2338570740.7852135     
   2369472202.3378134     
   2581626658.0120597     
   2975398260.5058055     
   3551511800.1191177     
   2572963485.9439797     
   2038304735.6279993     
   1958343480.0970232     
   2356395300.5165977     
   3472549955.2333183     
   2440790177.8270679     
   2188408424.9916754     
   2465598157.8794627     
   3091425164.8744683     
   3958482887.9689622     
   2785365116.1248670     
   2511751449.6894264     
   2617119511.5142579     
   3062453401.0093303     
   3727734181.2499967     
   3187103051.6138902     
   2948057988.2942419     
   2562851379.7055440     
   2204335678.9775681     
   2310937461.2982879     
   3551511800.1191177     
   3452539230.0524154     
   2699977352.3375111     
   1426258742.3321202     
   1517346274.2487979     
   1140727005.4920492     
   1340424741.2672780     
   1540016178.2575543     
   1739502302.9445307     
   1938884170.1993117     
   1211892748.4919050     
   1405632501.0828650     
   1598815293.5051990     
   1790692436.9442165     
   1980826234.0513704     
   1398055186.0059528     
   1577467600.7917647     
   1758033597.3885369     
   1937792655.0639060     
   2115525379.3882985     
   1657546506.7248230     
   1825659493.0564253     
   1995918770.6593466     
   2165677871.4726405     
   2333207412.5021477     
   1958638247.8817537     
   2123304182.0849912     
   2290039891.4703102     
   2455945498.0377231     
   2619085133.3775353     
   1938884170.1993117     
   2065497276.9545510     
   2188265670.5899291     
   2307188070.3649197     
   2422264888.8709135     
   1980826234.0513704     
   2098091915.9445055     
   2213517728.8849673     
   2327019614.9305563     
   2438542696.0022206     
   2115525379.3882985     
   2219373144.8564982     
   2323614077.6082349     
   2428003518.3231821     
   2532371433.0295386     
   2333207412.5021477     
   2420588672.2468929     
   2510423757.6100473     
   2602319615.4616003     
   2695997262.7754669     
   2619085133.3775353     
   2688108342.7769189     
   2761253039.2625751     
   2838013269.6103444     
   2918029633.6276155     
   2422264888.8709135     
   2465522967.1046667     
   2510201006.8525019     
   2556330121.8691192     
   2603966237.6629977     
   2438542696.0022206     
   2483725768.0396576     
   2531879630.1538777     
   2583024682.5682578     
   2637184810.5057917     
   2532371433.0295386     
   2574887927.0115628     
   2621757854.2234569     
   2672999484.9854717     
   2728630478.4451480     
   2695997262.7754669     
   2731072225.4617186     
   2771649185.6614318     
   2817766882.4328294     
   2869476345.0781374     
   2918029633.6276155     
   2941353523.1162310     
   2971043475.1416817     
   3007179433.3874640     
   3049883767.4863563     
   2603966237.6629977     
   2589260476.0547562     
   2589962813.0858746     
   2606116488.3703866     
   2637957344.2121258     
   2637184810.5057917     
   2621466850.8959131     
   2619367319.2496290     
   2630846502.0469537     
   2655957344.9164476     
   2728630478.4451480     
   2709819787.5661159     
   2703182073.6277804     
   2708730194.4824958     
   2726509349.9422488     
   2869476345.0781374     
   2846615197.7191339     
   2834841232.4284406     
   2834310818.5082374     
   2845199917.2760148     
   3049883767.4863563     
   3022987808.5574594     
   3006460427.7926631     
   3000654776.5249047     
   3005977861.0868983     
   2637957344.2121258     
   2684846674.6158838     
   2745815802.6710424     
   2820605779.9582734     
   2909105434.6331406     
   2655957344.9164476     
   2694309128.0034499     
   2738946928.8762164     
   2789734437.3812709     
   2846558231.3259473     
   2726509349.9422488     
   2753638140.4786220     
   2778077616.1473598     
   2799611442.4444394     
   2818058346.5731707     
   2845199917.2760148     
   2863624642.0560870     
   2869635497.7094378     
   2862772437.2454123     
   2842677261.3774214     
   3005977861.0868983     
   3022613804.7114992     
   3017383171.7471161     
   2989721162.7584763     
   2939286150.2880335     
   2909105434.6331406     
   2846204492.3695741     
   2729438453.8799396     
   2559615616.9519629     
   2338570740.7852135     
   2846558231.3259473     
   2790730858.6344180     
   2735980935.1798453     
   2683282112.9055810     
   2633806429.5748520     
   2818058346.5731707     
   2769661113.1320825     
   2767811801.2582307     
   2810936503.2721806     
   2896953911.6007776     
   2842677261.3774214     
   2777805485.2931476     
   2796898072.7044444     
   2898336720.6563506     
   3081430832.1667604     
   2939286150.2880335     
   2809452048.0835958     
   2805035877.4556208     
   2932536459.5651479     
   3198923837.6715717     
   2338570740.7852135     
   2369472202.3378134     
   2581626658.0120597     
   2975398260.5058055     
   3551511800.1191177     
   2633806429.5748520     
   2719628133.5046792     
   2902275727.2863770     
   3182252189.9464426     
   3557594265.5983024     
   2896953911.6007776     
   3067407927.6063352     
   3246395519.8142700     
   3429117171.4709363     
   3612205292.6202540     
   3081430832.1667604     
   3399836997.2984085     
   3617541028.7336245     
   3728336214.8281178     
   3730145992.8581772     
   3198923837.6715717     
   3714283710.1130300     
   4020577108.9654531     
   4120205168.7874775     
   4020961486.8263030     
   3551511800.1191177     
   3452539230.0524154     
   2699977352.3375111     
   1426258742.3321202     
   1517346274.2487979     
   3557594265.5983024     
   3404020802.0321417     
   3152951353.2537594     
   2986194520.3914843     
   3222646169.9114223     
   3612205292.6202540     
   3429039419.2276640     
   3572931618.6391931     
   4002613772.3067007     
   4635323363.6799335     
   3730145992.8581772     
   3487663391.1662164     
   3738936951.4234014     
   4383512684.7645559     
   5346962878.7557354     
   4020961486.8263030     
   3562797696.7344041     
   3808695386.9838581     
   4775553249.4579229     
   6482525335.4083529     
   1958638247.8817537     
   2123304182.0849912     
   2290039891.4703102     
   2455945498.0377231     
   2619085133.3775353     
   2301721132.8161530     
   2452054158.5227637     
   2607527453.4999051     
   2766226677.1919241     
   2926716471.0131879     
   2696805207.9890294     
   2831728725.4687052     
   2974093231.4073071     
   3122787978.6861749     
   3276874889.4110551     
   3138642413.5054846     
   3255439946.8857179     
   3381517363.6790857     
   3516344410.1727548     
   3659410804.7705340     
   3623721379.8532901     
   3718419374.5135040     
   3823992310.4977307     
   3940281776.4839582     
   4067108836.2769141     
   2619085133.3775353     
   2688108342.7769189     
   2761253039.2625751     
   2838013269.6103444     
   2918029633.6276155     
   2926716471.0131879     
   2980191888.1995039     
   3035916004.6760378     
   3093235206.1873236     
   3151636122.3980632     
   3276874889.4110551     
   3319599980.7608843     
   3362931919.6282501     
   3406096635.1447091     
   3448453941.5628362     
   3659410804.7705340     
   3696609392.5459085     
   3733071113.5417337     
   3767951881.4603796     
   3800540805.6979680     
   4067108836.2769141     
   4103947191.5278015     
   4139012692.1152678     
   4171451027.9092951     
   4200548998.7400279     
   2918029633.6276155     
   2941353523.1162310     
   2971043475.1416817     
   3007179433.3874640     
   3049883767.4863563     
   3151636122.3980632     
   3149251037.1669984     
   3152566353.3314404     
   3161584678.9329405     
   3176449544.2347908     
   3448453941.5628362     
   3419316651.9527502     
   3394817213.3820930     
   3374761769.1158104     
   3359224254.6968699     
   3800540805.6979680     
   3744518202.8555598     
   3691946955.8989725     
   3642317283.9824266     
   3595516220.4777484     
   4200548998.7400279     
   4117910632.0291829     
   4037663753.7026629     
   3958897555.5948167     
   3881214292.0909767     
   3049883767.4863563     
   3022987808.5574594     
   3006460427.7926631     
   3000654776.5249047     
   3005977861.0868983     
   3176449544.2347908     
   3130071161.0388837     
   3095124962.5345325     
   3072101050.7944627     
   3061572768.0261064     
   3359224254.6968699     
   3289433412.1467266     
   3231650867.8772316     
   3186542866.0720158     
   3154914310.6868448     
   3595516220.4777484     
   3498798317.1064377     
   3414170824.6684599     
   3342476106.7152505     
   3284777587.9263740     
   3881214292.0909767     
   3754494350.3307991     
   3639508864.6161160     
   3537237811.6246052     
   3448983620.7927032     
   3005977861.0868983     
   3022613804.7114992     
   3017383171.7471161     
   2989721162.7584763     
   2939286150.2880335     
   3061572768.0261064     
   3081432697.1285729     
   3088642366.7460275     
   3083060845.3392997     
   3064733837.0624161     
   3154914310.6868448     
   3173345253.3340969     
   3187499878.9714546     
   3197492988.6438890     
   3203603650.8663397     
   3284777587.9263740     
   3293036408.4894786     
   3304017806.7174740     
   3318088132.9260178     
   3335829556.8658161     
   3448983620.7927032     
   3435320179.5862594     
   3429884611.4585772     
   3433479477.9685869     
   3447304741.6486835     
   2939286150.2880335     
   2809452048.0835958     
   2805035877.4556208     
   2932536459.5651479     
   3198923837.6715717     
   3064733837.0624161     
   2858967798.5201936     
   2735792402.8086786     
   2706611351.4441814     
   2781151192.7695694     
   3203603650.8663397     
   2947054643.9587507     
   2727746830.4071240     
   2554322790.9332824     
   2436251528.9616728     
   3335829556.8658161     
   3078776089.8269200     
   2809248439.2858901     
   2526526333.8273354     
   2231413863.1097851     
   3447304741.6486835     
   3257445311.3494539     
   3011378610.9258947     
   2705448327.8773561     
   2341558114.4623733     
   3198923837.6715717     
   3714283710.1130300     
   4020577108.9654531     
   4120205168.7874775     
   4020961486.8263030     
   2781151192.7695694     
   3245239625.4587641     
   3630477375.7764578     
   3937512690.6622863     
   4170801637.8727136     
   2436251528.9616728     
   2822148669.5879135     
   3248386373.1149883     
   3702907774.4749422     
   4178222195.6685233     
   2231413863.1097851     
   2499249928.9096880     
   2879104287.9078441     
   3359372495.6161346     
   3937883085.4291739     
   2341558114.4623733     
   2367295221.2467084     
   2534906565.0534081     
   2868819758.0891995     
   3413586819.1886210     
   4020961486.8263030     
   3562797696.7344041     
   3808695386.9838581     
   4775553249.4579229     
   6482525335.4083529     
   4170801637.8727136     
   3462106138.0559983     
   3276352054.2671299     
   3697469088.3693185     
   4642998435.8385429     
   4178222195.6685233     
   3372105125.4409738     
   2803731194.4191046     
   2647849894.6076970     
   2986514000.5793352     
   3937883085.4291739     
   3328153959.3255239     
   2433068387.2286224     
   1245690602.1880276     
   753739000.36054921     
   3413586819.1886210     
   3396012124.9365311     
   2865531179.9690609     
   2483330496.8588781     
   3716254821.9815750     
   3623721379.8532901     
   3718419374.5135040     
   3823992310.4977307     
   3940281776.4839582     
   4067108836.2769141     
   4131209021.1842904     
   4222001118.0069137     
   4318431840.6497593     
   4418791908.3616123     
   4521588335.2974148     
   4639966965.3483839     
   4752657547.4929495     
   4866317338.7072887     
   4978300775.2474308     
   5086677331.9500637     
   5148458303.9977980     
   5308519895.7257433     
   5465218283.4595270     
   5615674888.2694750     
   5758425902.9095621     
   5656397050.5371513     
   5888718970.0449572     
   6113591910.7213545     
   6328578440.9633265     
   6533435182.8162279     
   4067108836.2769141     
   4103947191.5278015     
   4139012692.1152678     
   4171451027.9092951     
   4200548998.7400279     
   4521588335.2974148     
   4530414614.1475554     
   4544254902.2813597     
   4560670665.8718481     
   4577963116.2067547     
   5086677331.9500637     
   5046046166.2339802     
   5015842612.1367903     
   4990929842.2325382     
   4968122949.8184919     
   5758425902.9095621     
   5645396620.0199490     
   5547965388.3915529     
   5457203167.0456018     
   5367581577.0600672     
   6533435182.8162279     
   6323773554.7287617     
   6135673846.7193871     
   5955470246.4227066     
   5774204717.3726778     
   4200548998.7400279     
   4117910632.0291829     
   4037663753.7026629     
   3958897555.5948167     
   3881214292.0909767     
   4577963116.2067547     
   4477115830.7612648     
   4378332970.8169804     
   4281235696.9783640     
   4185645733.2699165     
   4968122949.8184919     
   4851367521.1191835     
   4737147066.5962334     
   4625366684.3092537     
   4515994405.9396267     
   5367581577.0600672     
   5236228096.1008282     
   5108514016.9646463     
   4984429104.1783686     
   4864022506.8863449     
   5774204717.3726778     
   5628648457.4255829     
   5488377289.9810658     
   5353304318.7522306     
   5223502168.8213377     
   3881214292.0909767     
   3754494350.3307991     
   3639508864.6161160     
   3537237811.6246052     
   3448983620.7927032     
   4185645733.2699165     
   4038452259.6504712     
   3897996064.8507724     
   3764953379.7973375     
   3640188874.8297124     
   4515994405.9396267     
   4354795027.3613119     
   4196146078.8391247     
   4040331244.4450164     
   3887706284.9444566     
   4864022506.8863449     
   4696738645.5912580     
   4528632777.9409466     
   4359673010.8482323     
   4189847091.5105400     
   5223502168.8213377     
   5058867498.9401073     
   4890821345.6438913     
   4719193766.9504843     
   4543873678.9737797     
   3448983620.7927032     
   3435320179.5862594     
   3429884611.4585772     
   3433479477.9685869     
   3447304741.6486835     
   3640188874.8297124     
   3588592305.2581253     
   3543438548.7885919     
   3505138422.7800865     
   3474365113.4732523     
   3887706284.9444566     
   3805191840.9992390     
   3728032671.8997808     
   3656297080.8862491     
   3590207474.2230816     
   4189847091.5105400     
   4083187301.9036803     
   3981518947.6208506     
   3884684048.1648169     
   3792627646.7656331     
   4543873678.9737797     
   4419119815.1555128     
   4299603105.4281559     
   4185065512.7896795     
   4075370710.1589427     
   3447304741.6486835     
   3257445311.3494539     
   3011378610.9258947     
   2705448327.8773561     
   2341558114.4623733     
   3474365113.4732523     
   3360279655.1133242     
   3220399125.2119064     
   3054417473.9419975     
   2864067924.0494204     
   3590207474.2230816     
   3509106375.0989494     
   3424297684.9417758     
   3335788057.9691339     
   3243637955.0685539     
   3792627646.7656331     
   3690840800.6999993     
   3597599213.3978519     
   3514153007.8052440     
   3443026919.5446320     
   4075370710.1589427     
   3894266285.4228563     
   3725569147.3481588     
   3573887910.0026278     
   3450271167.5237393     
   2341558114.4623733     
   2367295221.2467084     
   2534906565.0534081     
   2868819758.0891995     
   3413586819.1886210     
   2864067924.0494204     
   2713532460.1380119     
   2633052186.5019493     
   2649615698.4988179     
   2798386061.9691052     
   3243637955.0685539     
   3033090715.5910120     
   2838060168.4099798     
   2663746043.5800872     
   2516729442.6285334     
   3443026919.5446320     
   3317918255.5795436     
   3158683068.3943424     
   2953164838.1191611     
   2696206858.5671463     
   3450271167.5237393     
   3563690410.4000115     
   3601949060.5242939     
   3558644116.3419423     
   3464614196.2047110     
   3413586819.1886210     
   3396012124.9365311     
   2865531179.9690609     
   2483330496.8588781     
   3716254821.9815750     
   2798386061.9691052     
   3352906171.9762492     
   3946294538.1100407     
   4750226157.3404484     
   5921933295.0159969     
   2516729442.6285334     
   3439827927.0521665     
   4606017107.5674753     
   5881285110.3823624     
   7216702250.0683136     
   2696206858.5671463     
   3592677293.5359697     
   4693120806.6222544     
   5860483254.9737148     
   7087910617.9341087     
   3464614196.2047110     
   3760090535.3788333     
   4178826365.9425263     
   4764788273.3084049     
   5795840515.7202187     
   5656397050.5371513     
   5888718970.0449572     
   6113591910.7213545     
   6328578440.9633265     
   6533435182.8162279     
   6491591986.1553745     
   6585706093.8442802     
   6755189246.4537868     
   6957959562.4215374     
   7167352684.5423384     
   7982150763.1318932     
   7734140496.3846846     
   7667564846.8438597     
   7667217555.9544516     
   7663172635.7975893     
   10128538694.079884     
   9320846803.8671856     
   8825506258.5833244     
   8442953669.6294861     
   8035479258.1441441     
   12930858630.408356     
   11338542680.483326     
   10210180337.009871     
   9274867154.7537308     
   8308512688.3681145     
   6533435182.8162279     
   6323773554.7287617     
   6135673846.7193871     
   5955470246.4227066     
   5774204717.3726778     
   7167352684.5423384     
   6907732415.2893295     
   6655856482.0091524     
   6407964681.4104338     
   6160968414.0539885     
   7663172635.7975893     
   7379738080.3020458     
   7101824006.2704697     
   6829506398.7364254     
   6562994011.7727060     
   8035479258.1441441     
   7747362240.0645761     
   7475139879.9527512     
   7216830682.1458797     
   6972417955.2917767     
   8308512688.3681145     
   8023102683.6322317     
   7779870507.8909254     
   7568250274.6392860     
   7383332235.8197889     
   5774204717.3726778     
   5628648457.4255829     
   5488377289.9810658     
   5353304318.7522306     
   5223502168.8213377     
   6160968414.0539885     
   6012836731.9197950     
   5866174827.9548578     
   5721020900.3743916     
   5577441863.3912306     
   6562994011.7727060     
   6412763712.5516109     
   6260486323.3694153     
   6106104595.4443178     
   5949632673.1828537     
   6972417955.2917767     
   6822156640.6193552     
   6666603596.3322830     
   6505460185.4503565     
   6338690382.5786238     
   7383332235.8197889     
   7236209150.7303371     
   7080848331.8907022     
   6916632452.9779425     
   6743528145.3312883     
   5223502168.8213377     
   5058867498.9401073     
   4890821345.6438913     
   4719193766.9504843     
   4543873678.9737797     
   5577441863.3912306     
   5413171044.1501312     
   5248551776.1067457     
   5083574927.6343861     
   4918231963.8798237     
   5949632673.1828537     
   5780698094.3464956     
   5614065441.9915972     
   5449764579.6503334     
   5287876369.7863693     
   6338690382.5786238     
   6158696203.8612509     
   5983243779.8602991     
   5812380545.1896515     
   5646359685.1425915     
   6743528145.3312883     
   6545063960.0392504     
   6353031169.5225096     
   6167552720.6003246     
   5989210863.5222244     
   4543873678.9737797     
   4419119815.1555128     
   4299603105.4281559     
   4185065512.7896795     
   4075370710.1589427     
   4918231963.8798237     
   4787358991.8137999     
   4658085063.6059160     
   4530298166.5310154     
   4403969810.5252790     
   5287876369.7863693     
   5144931004.2209034     
   5000022078.8433647     
   4853140428.8681555     
   4704526666.5171385     
   5646359685.1425915     
   5487426640.3690796     
   5322907369.1461067     
   5152795712.0756750     
   4977662787.5008831     
   5989210863.5222244     
   5811880805.7440948     
   5625249495.4151134     
   5429185485.9322710     
   5224591409.9510622     
   4075370710.1589427     
   3894266285.4228563     
   3725569147.3481588     
   3573887910.0026278     
   3450271167.5237393     
   4403969810.5252790     
   4131722511.7458768     
   3867519315.4202256     
   3613196018.4570270     
   3372877942.1453481     
   4704526666.5171385     
   4389383046.4518204     
   4081051871.0364900     
   3780571691.6318531     
   3489872751.9502211     
   4977662787.5008831     
   4667197072.1873074     
   4365249448.9448709     
   4072957719.6209722     
   3793824703.1666980     
   5224591409.9510622     
   4965033843.2884140     
   4718712945.4340496     
   4486196513.0596514     
   4273597003.6423883     
   3450271167.5237393     
   3563690410.4000115     
   3601949060.5242939     
   3558644116.3419423     
   3464614196.2047110     
   3372877942.1453481     
   3688640303.4021573     
   3976182988.2334666     
   4234138085.5560002     
   4472326965.9355354     
   3489872751.9502211     
   3906148812.2600255     
   4319745919.0528803     
   4728982256.5341692     
   5133616126.9839239     
   3793824703.1666980     
   4199511180.1946802     
   4607318768.5866108     
   5020389797.9064837     
   5442574488.8897657     
   4273597003.6423883     
   4552984897.1571875     
   4825410841.4865999     
   5102199128.7825346     
   5404258680.1176481     
   3464614196.2047110     
   3760090535.3788333     
   4178826365.9425263     
   4764788273.3084049     
   5795840515.7202187     
   4472326965.9355354     
   3987240399.0219002     
   3570366336.5121155     
   3272702737.8053536     
   3335784035.3838315     
   5133616126.9839239     
   4225584331.5236135     
   3338843020.1732216     
   2478560165.2769909     
   1724719406.3419054     
   5442574488.8897657     
   4472281860.0335817     
   3474095587.0512633     
   2459861234.4808979     
   1516322672.2981791     
   5404258680.1176481     
   4725976554.9299746     
   3983587419.1650176     
   3339288434.2382598     
   3228735158.7993584     
 </DataArray>
 <DataArray  type="Float64" Name="strain" NumberOfComponents="3" format="ascii">
  0.20344564937069520        0.0000000000000000       0.12533537711455678     
  0.18668898056361624       -2.7334765717549232E-002   7.4350259439700889E-002
  0.16993231175653725       -4.4698418160392411E-002   3.5143487363512832E-002
  0.15317564294945829       -5.2090957328529530E-002   7.7150608859927056E-003
  0.13641897414237930       -4.9512383221960554E-002  -7.9350199928596432E-003
  0.15990379112307096        0.0000000000000000        9.6367778119125794E-002
  0.15325322178441034       -2.1856905976616325E-002   6.2646863941551695E-002
  0.14660265244574971       -3.6197872634545922E-002   3.7359803102146476E-002
  0.13995208310708912       -4.3022899973788782E-002   2.0506595600910092E-002
  0.13330151376842850       -4.2331987994344900E-002   1.2087241437842650E-002
  0.12655485620628160        0.0000000000000000        7.4105625842637385E-002
  0.12666589407554035       -1.6379046235683415E-002   5.5193741206325767E-002
  0.12677693194479911       -2.7697327108699432E-002   4.1371217647683985E-002
  0.12688796981405787       -3.3954842619048048E-002   3.2638055166712129E-002
  0.12699900768331662       -3.5151592766729259E-002   2.8994253763410124E-002
  0.10339884462032711        0.0000000000000000        5.8548920285091559E-002
  0.10692699743700626       -1.0901186494750505E-002   5.1990891234023041E-002
  0.11045515025368541       -1.9196781582852943E-002   4.7177731000125449E-002
  0.11398330307036456       -2.4886785264307310E-002   4.4109439583398739E-002
  0.11751145588704368       -2.7971197539113597E-002   4.2786016983842878E-002
   9.0435756365207523E-002   0.0000000000000000        4.9697661446488309E-002
   9.4036531868808060E-002  -5.4233267538175969E-003   5.3038314024643610E-002
   9.7637307372408610E-002  -1.0696236057006453E-002   5.4779343159470806E-002
  0.10123808287600915       -1.5818727909566569E-002   5.4920748850969904E-002
  0.10483885837960970       -2.0790802311497943E-002   5.3462531099140891E-002
  0.13641897414237930       -4.9512383221960554E-002  -7.9350199928596432E-003
  0.13317536678025671       -4.2996448912043669E-002  -3.5247634885412910E-003
  0.12993175941813406       -3.8576907470137048E-002  -4.5137078330144409E-004
  0.12668815205601142       -3.6253758896240620E-002   1.2851581228601368E-003
  0.12344454469388882       -3.6027003190354345E-002   1.6848232299431221E-003
  0.13330151376842850       -4.2331987994344900E-002   1.2087241437842650E-002
  0.12909219312437686       -3.8476700263844622E-002   1.2041812405857256E-002
  0.12488287248032526       -3.5808600349918340E-002   1.1401820609092301E-002
  0.12067355183627364       -3.4327688252565922E-002   1.0167266047547738E-002
  0.11646423119222202       -3.4033963971787456E-002   8.3381487212237093E-003
  0.12699900768331662       -3.5151592766729259E-002   2.8994253763410124E-002
  0.12256627479163489       -3.3956951615645596E-002   2.5402344246557258E-002
  0.11813354189995309       -3.3040293229699598E-002   2.1958172999223702E-002
  0.11370080900827130       -3.2401617608891244E-002   1.8661740021409422E-002
  0.10926807611658954       -3.2040924753220568E-002   1.5513045313114482E-002
  0.11751145588704368       -2.7971197539113597E-002   4.2786016983842878E-002
  0.11359761178203064       -2.9437202967446546E-002   3.6556832033558834E-002
  0.10968376767701757       -3.0271986109480887E-002   3.1217686387093026E-002
  0.10576992357200451       -3.0475546965216611E-002   2.6768580044445274E-002
  0.10185607946699146       -3.0047885534653707E-002   2.3209513005615724E-002
  0.10483885837960970       -2.0790802311497943E-002   5.3462531099140891E-002
  0.10218620409556420       -2.4917454319247509E-002   4.5505275766861981E-002
   9.9533549811518685E-002  -2.7503678989262165E-002   3.9180360772700110E-002
   9.6880895527473185E-002  -2.8549476321541943E-002   3.4487786116655157E-002
   9.4228241243427685E-002  -2.8054846316086804E-002   3.1427551798727291E-002
  0.12344454469388882       -3.6027003190354345E-002   1.6848232299431221E-003
  0.12067624820775705       -3.6529132201839676E-002   8.9572466328857736E-004
  0.11790795172162527       -3.6392637780057940E-002   1.2787231554647893E-004
  0.11513965523549352       -3.5617519925008938E-002  -6.1873381328337446E-004
  0.11237135874936172       -3.4203778636692939E-002  -1.3440937232009342E-003
  0.11646423119222202       -3.4033963971787456E-002   8.3381487212237093E-003
  0.11374138259823278       -3.4120342597830353E-002   7.8902129719329028E-003
  0.11101853400424354       -3.3779739220941941E-002   7.5119267880148569E-003
  0.10829568541025428       -3.3012153841122181E-002   7.2032901694697310E-003
  0.10557283681626509       -3.1817586458371239E-002   6.9643031162970881E-003
  0.10926807611658954       -3.2040924753220568E-002   1.5513045313114482E-002
  0.10663907876120327       -3.1711552993821002E-002   1.5194630950851669E-002
  0.10401008140581695       -3.1166840661825942E-002   1.4994269500422042E-002
  0.10138108405043067       -3.0406787757235428E-002   1.4911960961825472E-002
   9.8752086695044330E-002  -2.9431394280049455E-002   1.4947705335062150E-002
  0.10185607946699146       -3.0047885534653707E-002   2.3209513005615724E-002
   9.9369336696668517E-002  -2.9302763389811637E-002   2.2808978600044980E-002
   9.6882593926345573E-002  -2.8553942102709971E-002   2.2574900452767967E-002
   9.4395851156022642E-002  -2.7801421673348620E-002   2.2507278563784400E-002
   9.1909108385699698E-002  -2.7045202101727631E-002   2.2606112933094391E-002
   9.4228241243427685E-002  -2.8054846316086804E-002   3.1427551798727291E-002
   9.1932156404628512E-002  -2.6893973785802300E-002   3.0733255919512883E-002
   8.9636071565829353E-002  -2.5941043543593969E-002   3.0253819645052478E-002
   8.7339986727030194E-002  -2.5196055589461842E-002   2.9989242975346098E-002
   8.5043901888231022E-002  -2.4659009923405889E-002   2.9939525910393616E-002
  0.11237135874936172       -3.4203778636692939E-002  -1.3440937232009342E-003
  0.10926159485113762       -3.2689201764464160E-002  -7.6948110350963383E-004
  0.10615183095291356       -3.1611577157676651E-002   1.0810645764552929E-004
  0.10304206705468945       -3.0970904816330622E-002   1.2886689602651519E-003
   9.9932303156465396E-002  -3.0767184740426112E-002   2.7722064043487760E-003
  0.10557283681626509       -3.1817586458371239E-002   6.9643031162970881E-003
  0.10270443930545778       -3.0566901049893735E-002   7.0792298853570024E-003
   9.9836041794650512E-002  -2.9630961592894536E-002   7.3739144877864593E-003
   9.6967644283843246E-002  -2.9009768087373797E-002   7.8483569235852021E-003
   9.4099246773035994E-002  -2.8703320533331467E-002   8.5025571927535848E-003
   9.8752086695044330E-002  -2.9431394280049455E-002   1.4947705335062150E-002
   9.6001838463559225E-002  -2.8444600335323339E-002   1.4725152567454047E-002
   9.3251590232074050E-002  -2.7650346028112477E-002   1.4559140525120425E-002
   9.0501342000588875E-002  -2.7048631358417029E-002   1.4449669208061733E-002
   8.7751093769103727E-002  -2.6639456326236682E-002   1.4396738616277868E-002
   9.1909108385699698E-002  -2.7045202101727631E-002   2.2606112933094391E-002
   8.9153792325441961E-002  -2.6322299620752984E-002   2.2168286942781060E-002
   8.6398476265184196E-002  -2.5669730463330445E-002   2.1663784569647706E-002
   8.3643160204926445E-002  -2.5087494629460107E-002   2.1092605813694501E-002
   8.0887844144668680E-002  -2.4575592119142023E-002   2.0454750674921442E-002
   8.5043901888231022E-002  -2.4659009923405889E-002   2.9939525910393616E-002
   8.2160300891105958E-002  -2.4199998906182504E-002   2.9408633011338225E-002
   7.9276699893980923E-002  -2.3689114898548302E-002   2.8687846621368279E-002
   7.6393098896855860E-002  -2.3126357900503200E-002   2.7777166740483659E-002
   7.3509497899730825E-002  -2.2511727912047336E-002   2.6676593368684415E-002
   9.9932303156465396E-002  -3.0767184740426112E-002   2.7722064043487760E-003
   9.6710264214550867E-002  -3.0431753562753766E-002   2.0601590836125672E-003
   9.3488225272636449E-002  -2.9395947916104906E-002   1.7541997695398881E-003
   9.0266186330721948E-002  -2.7659767800479410E-002   1.8543284621306416E-003
   8.7044147388807502E-002  -2.5223213215876950E-002   2.3605451613847306E-003
   9.4099246773035994E-002  -2.8703320533331467E-002   8.5025571927535848E-003
   9.1275927338465623E-002  -2.8309472625595855E-002   7.8630053161158897E-003
   8.8452607903895281E-002  -2.7426078058995676E-002   7.6148044475030513E-003
   8.5629288469324952E-002  -2.6053136833531085E-002   7.7579545869148406E-003
   8.2805969034754567E-002  -2.4190648949201699E-002   8.2924557343516114E-003
   8.7751093769103727E-002  -2.6639456326236682E-002   1.4396738616277868E-002
   8.5311756843238828E-002  -2.6187191688437930E-002   1.3618854373626518E-002
   8.2872419917373916E-002  -2.5456208201886495E-002   1.3217584140361262E-002
   8.0433082991509003E-002  -2.4446505866582757E-002   1.3192927916482061E-002
   7.7993746065644132E-002  -2.3158084682526558E-002   1.3544885701989140E-002
   8.0887844144668680E-002  -2.4575592119142023E-002   2.0454750674921442E-002
   7.8817752728870538E-002  -2.4064910751279901E-002   1.9327706256144338E-002
   7.6747661313072410E-002  -2.3486338344777289E-002   1.8562538848114561E-002
   7.4677569897274226E-002  -2.2839874899634544E-002   1.8159248450832430E-002
   7.2607478481476084E-002  -2.2125520415851418E-002   1.8117835064297497E-002
   7.3509497899730825E-002  -2.2511727912047336E-002   2.6676593368684415E-002
   7.1793914995360725E-002  -2.1942629814121942E-002   2.4989560963669416E-002
   7.0078332090990653E-002  -2.1516468487668076E-002   2.3649668570763227E-002
   6.8362749186620594E-002  -2.1233243932686247E-002   2.2656916189965688E-002
   6.6647166282250536E-002  -2.1092956149176278E-002   2.2011303821276751E-002
   8.7044147388807502E-002  -2.5223213215876950E-002   2.3605451613847306E-003
   8.2946918145319848E-002  -2.3037042458127932E-002   3.3612811648234264E-003
   7.8849688901832138E-002  -2.2052013823063044E-002   2.8535739348646283E-003
   7.4752459658344511E-002  -2.2268127310681660E-002   8.3742347150839169E-004
   7.0655230414856773E-002  -2.3685382920983877E-002  -2.6871702252447838E-003
   8.2805969034754567E-002  -2.4190648949201699E-002   8.2924557343516114E-003
   7.7626697847647891E-002  -2.2471115997105856E-002   8.1572490895032990E-003
   7.2447426660541131E-002  -2.1527039568341469E-002   7.3664017908143253E-003
   6.7268155473434427E-002  -2.1358419662908194E-002   5.9199138382848987E-003
   6.2088884286327639E-002  -2.1965256280806256E-002   3.8177852319146166E-003
   7.7993746065644132E-002  -2.3158084682526558E-002   1.3544885701989140E-002
   7.2585235514475016E-002  -2.1905189536083586E-002   1.2699422008206659E-002
   6.7176724963305914E-002  -2.1002065313619561E-002   1.2051120240140031E-002
   6.1768214412136889E-002  -2.0448712015134506E-002   1.1599980397789186E-002
   5.6359703860967753E-002  -2.0245129640628357E-002   1.1346002481154638E-002
   7.2607478481476084E-002  -2.2125520415851418E-002   1.8117835064297497E-002
   6.7822531145801307E-002  -2.1339263075061357E-002   1.6987799920932963E-002
   6.3037583810126474E-002  -2.0477091058897931E-002   1.6907729282841108E-002
   5.8252636474451683E-002  -1.9539004367360929E-002   1.7877623150021841E-002
   5.3467689138776885E-002  -1.8525003000450485E-002   1.9897481522475141E-002
   6.6647166282250536E-002  -2.1092956149176278E-002   2.2011303821276751E-002
   6.3338584741626652E-002  -2.0773336614039101E-002   2.1022382827682651E-002
   6.0030003201002824E-002  -1.9952116804176009E-002   2.1936228918917750E-002
   5.6721421660378940E-002  -1.8629296719587362E-002   2.4752842094982297E-002
   5.3412840119755112E-002  -1.6804876360272780E-002   2.9472222355875988E-002
   7.0655230414856773E-002  -2.3685382920983877E-002  -2.6871702252447838E-003
   7.5374201955392239E-002  -2.5510702202791113E-002  -2.2704813688070313E-003
   8.0093173495927594E-002  -2.6951006704924119E-002   1.7937991950125465E-003
   8.4812145036462977E-002  -2.8006296427382782E-002   9.5056714662139496E-003
   8.9531116576998415E-002  -2.8676571370167214E-002   2.0865135444796512E-002
   6.2088884286327639E-002  -2.1965256280806256E-002   3.8177852319146166E-003
   6.9293765443026123E-002  -2.2915155667284193E-002   6.1471305832266343E-003
   7.6498646599724551E-002  -2.3775724067589599E-002   9.8007034594831399E-003
   8.3703527756422980E-002  -2.4546961481722987E-002   1.4778503860683842E-002
   9.0908408913121463E-002  -2.5228867909684594E-002   2.1080531786829337E-002
   5.6359703860967753E-002  -2.0245129640628357E-002   1.1346002481154638E-002
   6.3727130451392278E-002  -2.0319609131776745E-002   1.5292320533838166E-002
   7.1094557041816733E-002  -2.0600441430254968E-002   1.8239501929029359E-002
   7.8461983632241300E-002  -2.1087626536063192E-002   2.0187546666728187E-002
   8.5829410222665714E-002  -2.1781164449201695E-002   2.1136454746934680E-002
   5.3467689138776885E-002  -1.8525003000450485E-002   1.9897481522475141E-002
   5.8674296980490502E-002  -1.7724062596269560E-002   2.5165088483028300E-002
   6.3880904822204154E-002  -1.7425158792920725E-002   2.7110194603652250E-002
   6.9087512663917730E-002  -1.7628291590403619E-002   2.5732799884346819E-002
   7.4294120505631431E-002  -1.8333460988718825E-002   2.1032904325111894E-002
   5.3412840119755112E-002  -1.6804876360272780E-002   2.9472222355875988E-002
   5.4135265030320900E-002  -1.5128516060762404E-002   3.5765434430796772E-002
   5.4857689940886772E-002  -1.4249876155586025E-002   3.6412781483351225E-002
   5.5580114851452631E-002  -1.4168956644743987E-002   3.1414263513539195E-002
   5.6302539762018489E-002  -1.4885757528236176E-002   2.0769880521361084E-002
   8.9531116576998415E-002  -2.8676571370167214E-002   2.0865135444796512E-002
   7.5143372508918671E-002  -2.7752255197257658E-002   1.6019661115527439E-002
   6.0755628440839093E-002  -2.4023771572634606E-002   5.8263043232568701E-003
   4.6367884372759460E-002  -1.7491120496297370E-002  -9.7149349320147238E-003
   3.1980140304679772E-002  -8.1543019682470685E-003  -3.0604056650287426E-002
   9.0908408913121463E-002  -2.5228867909684594E-002   2.1080531786829337E-002
   7.3597028001777420E-002  -2.4623065383372555E-002   1.4848139237763014E-002
   5.6285647090433544E-002  -2.1531175934685426E-002   8.1163554651693670E-003
   3.8974266179089528E-002  -1.5953199563623670E-002   8.8518046904842440E-004
   2.1662885267745624E-002  -7.8891362701871692E-003  -6.8453857505996751E-003
   8.5829410222665714E-002  -2.1781164449201695E-002   2.1136454746934680E-002
   7.0442883707531545E-002  -2.1493875569486953E-002   1.3199063448731868E-002
   5.5056357192397348E-002  -1.9038580296736010E-002   9.6107721664762252E-003
   3.9669830677263249E-002  -1.4415278630949411E-002   1.0371580900167425E-002
   2.4283304162128982E-002  -7.6239705721266038E-003   1.5481489649804558E-002
   7.4294120505631431E-002  -1.8333460988718825E-002   2.1032904325111894E-002
   6.5680939626181004E-002  -1.8364685755601490E-002   1.1072433748434148E-002
   5.7067758746730556E-002  -1.6545984658787045E-002   1.0309554427177400E-002
   4.8454577867280177E-002  -1.2877357698275431E-002   1.8744266361341369E-002
   3.9841396987829805E-002  -7.3588048740663714E-003   3.6376569550926080E-002
   5.6302539762018489E-002  -1.4885757528236176E-002   2.0769880521361084E-002
   5.9311195757725838E-002  -1.5235495941716193E-002   8.4682501368695817E-003
   6.2319851753433242E-002  -1.4053389020837914E-002   1.0212702247272998E-002
   6.5328507749140702E-002  -1.1339436765601299E-002   2.6003236852571054E-002
   6.8337163744847995E-002  -7.0936391760063611E-003   5.5839853952763807E-002
   9.0435756365207523E-002   0.0000000000000000        4.9697661446488309E-002
   9.4036531868808060E-002  -5.4233267538175969E-003   5.3038314024643610E-002
   9.7637307372408610E-002  -1.0696236057006453E-002   5.4779343159470806E-002
  0.10123808287600915       -1.5818727909566569E-002   5.4920748850969904E-002
  0.10483885837960970       -2.0790802311497943E-002   5.3462531099140891E-002
   8.2453731116036766E-002   0.0000000000000000        4.4625872908758260E-002
   8.4679184449937189E-002  -4.5849327085312657E-003   4.8095347054715548E-002
   8.6904637783837613E-002  -9.0496476414688009E-003   5.0413800304600707E-002
   8.9130091117738036E-002  -1.3394144798812603E-002   5.1581232658413689E-002
   9.1355544451638446E-002  -1.7618424180562677E-002   5.1597644116154584E-002
   7.4240908547928794E-002   0.0000000000000000        4.0407578253832052E-002
   7.5539642259385059E-002  -3.7465386632449349E-003   4.3975674292556312E-002
   7.6838375970841324E-002  -7.4030592259311488E-003   4.6841351982464391E-002
   7.8137109682297590E-002  -1.0969561688058642E-002   4.9004611323556303E-002
   7.9435843393753869E-002  -1.4446046049627417E-002   5.0465452315832070E-002
   6.5797288660883579E-002   0.0000000000000000        3.7042777481709671E-002
   6.6617905297151669E-002  -2.9081446179586041E-003   4.0679295738165901E-002
   6.7438521933419732E-002  -5.7564708103934976E-003   4.4061998193061919E-002
   6.8259138569687794E-002  -8.5449785773046780E-003   4.7190884846397753E-002
   6.9079755205955870E-002  -1.1273667918692156E-002   5.0065955698173334E-002
   5.7122871454901150E-002   0.0000000000000000        3.4531470592391131E-002
   5.7913973563236992E-002  -2.0697505726722737E-003   3.8206211391544322E-002
   5.8705075671572841E-002  -4.1098823948558464E-003   4.2075738936393277E-002
   5.9496177779908690E-002  -6.1203954665507154E-003   4.6140053226937962E-002
   6.0287279888244547E-002  -8.1012897877568903E-003   5.0399154263178425E-002
  0.10483885837960970       -2.0790802311497943E-002   5.3462531099140891E-002
  0.10218620409556420       -2.4917454319247509E-002   4.5505275766861981E-002
   9.9533549811518685E-002  -2.7503678989262165E-002   3.9180360772700110E-002
   9.6880895527473185E-002  -2.8549476321541943E-002   3.4487786116655157E-002
   9.4228241243427685E-002  -2.8054846316086804E-002   3.1427551798727291E-002
   9.1355544451638446E-002  -1.7618424180562677E-002   5.1597644116154584E-002
   9.0109496041990811E-002  -2.1180716401861636E-002   4.6350359131764871E-002
   8.8863447632343162E-002  -2.3539252077852062E-002   4.2283945558053891E-002
   8.7617399222695500E-002  -2.4694031208533966E-002   3.9398403395021625E-002
   8.6371350813047837E-002  -2.4645053793907370E-002   3.7693732642668037E-002
   7.9435843393753869E-002  -1.4446046049627417E-002   5.0465452315832070E-002
   7.9144931931065754E-002  -1.7443978484475764E-002   4.7591466886905173E-002
   7.8854020468377681E-002  -1.9574825166441961E-002   4.5446883941218735E-002
   7.8563109005689580E-002  -2.0838586095526020E-002   4.4031703478772659E-002
   7.8272197543001493E-002  -2.1235261271727958E-002   4.3345925499567048E-002
   6.9079755205955870E-002  -1.1273667918692156E-002   5.0065955698173334E-002
   6.9292511762789083E-002  -1.3707240567089893E-002   4.9228599032282917E-002
   6.9505268319622254E-002  -1.5610398255031865E-002   4.8669175922194587E-002
   6.9718024876455467E-002  -1.6983140982518085E-002   4.8387686367908397E-002
   6.9930781433288638E-002  -1.7825468749548542E-002   4.8384130369424391E-002
   6.0287279888244547E-002  -8.1012897877568903E-003   5.0399154263178425E-002
   6.0552235537160708E-002  -9.9705026497040224E-003   5.1261755567898040E-002
   6.0817191186076903E-002  -1.1645971343621768E-002   5.1950821500981487E-002
   6.1082146834993092E-002  -1.3127695869510103E-002   5.2466352062428813E-002
   6.1347102483909260E-002  -1.4415676227369112E-002   5.2808347252240012E-002
   9.4228241243427685E-002  -2.8054846316086804E-002   3.1427551798727291E-002
   9.1932156404628512E-002  -2.6893973785802300E-002   3.0733255919512883E-002
   8.9636071565829353E-002  -2.5941043543593969E-002   3.0253819645052478E-002
   8.7339986727030194E-002  -2.5196055589461842E-002   2.9989242975346098E-002
   8.5043901888231022E-002  -2.4659009923405889E-002   2.9939525910393616E-002
   8.6371350813047837E-002  -2.4645053793907370E-002   3.7693732642668037E-002
   8.4303338843553677E-002  -2.4025501962083293E-002   3.6635112188843313E-002
   8.2235326874059503E-002  -2.3468557841172733E-002   3.5817777868874544E-002
   8.0167314904565329E-002  -2.2974221431175685E-002   3.5241729682761895E-002
   7.8099302935071141E-002  -2.2542492732092162E-002   3.4906967630505201E-002
   7.8272197543001493E-002  -2.1235261271727958E-002   4.3345925499567048E-002
   7.6458684971914354E-002  -2.1157030138364244E-002   4.2068315048294669E-002
   7.4645172400827214E-002  -2.0996072138751445E-002   4.1058417259980315E-002
   7.2831659829740089E-002  -2.0752387272889489E-002   4.0316232134624014E-002
   7.1018147258652950E-002  -2.0425975540778421E-002   3.9841759672225807E-002
   6.9930781433288638E-002  -1.7825468749548542E-002   4.8384130369424391E-002
   6.8398194789710584E-002  -1.8288558314645202E-002   4.7032864497866936E-002
   6.6865608146132516E-002  -1.8523586436330133E-002   4.5975737818369583E-002
   6.5333021502554461E-002  -1.8530553114603322E-002   4.5212750330932291E-002
   6.3800434858976407E-002  -1.8309458349464701E-002   4.4743902035555200E-002
   6.1347102483909260E-002  -1.4415676227369112E-002   5.2808347252240012E-002
   6.0121868296942327E-002  -1.5420086490926178E-002   5.1528760537560073E-002
   5.8896634109975400E-002  -1.6051100733908880E-002   5.0569739544042459E-002
   5.7671399923008473E-002  -1.6308718956317147E-002   4.9931284271686902E-002
   5.6446165736041540E-002  -1.6192941158150967E-002   4.9613394720493462E-002
   8.5043901888231022E-002  -2.4659009923405889E-002   2.9939525910393616E-002
   8.2160300891105958E-002  -2.4199998906182504E-002   2.9408633011338225E-002
   7.9276699893980923E-002  -2.3689114898548302E-002   2.8687846621368279E-002
   7.6393098896855860E-002  -2.3126357900503200E-002   2.7777166740483659E-002
   7.3509497899730825E-002  -2.2511727912047336E-002   2.6676593368684415E-002
   7.8099302935071141E-002  -2.2542492732092162E-002   3.4906967630505201E-002
   7.5142523937558769E-002  -2.2121465821155303E-002   3.4402772061234224E-002
   7.2185744940046329E-002  -2.1659234775598571E-002   3.3942113982103263E-002
   6.9228965942533902E-002  -2.1155799595421704E-002   3.3524993393112046E-002
   6.6272186945021516E-002  -2.0611160280624902E-002   3.3151410294260761E-002
   7.1018147258652950E-002  -2.0425975540778421E-002   3.9841759672225807E-002
   6.8221621241807695E-002  -2.0042932736128165E-002   3.9353592576948385E-002
   6.5425095224962468E-002  -1.9629354652648812E-002   3.9142393952865326E-002
   6.2628569208117213E-002  -1.9185241290340195E-002   3.9208163799976839E-002
   5.9832043191271986E-002  -1.8710592649202454E-002   3.9550902118282751E-002
   6.3800434858976407E-002  -1.8309458349464701E-002   4.4743902035555200E-002
   6.1397592803852909E-002  -1.7964399651101023E-002   4.4261094558480416E-002
   5.8994750748729397E-002  -1.7599474529699011E-002   4.4288686533654656E-002
   5.6591908693605877E-002  -1.7214682985258651E-002   4.4826677961077907E-002
   5.4189066638482344E-002  -1.6810025017780013E-002   4.5875068840750183E-002
   5.6446165736041540E-002  -1.6192941158150967E-002   4.9613394720493462E-002
   5.4670438623694279E-002  -1.5885866566073825E-002   4.9125278005830567E-002
   5.2894711511347038E-002  -1.5569594406749297E-002   4.9380991724471170E-002
   5.1118984398999798E-002  -1.5244124680177155E-002   5.0380535876415333E-002
   4.9343257286652537E-002  -1.4909457386357572E-002   5.2123910461663203E-002
   7.3509497899730825E-002  -2.2511727912047336E-002   2.6676593368684415E-002
   7.1793914995360725E-002  -2.1942629814121942E-002   2.4989560963669416E-002
   7.0078332090990653E-002  -2.1516468487668076E-002   2.3649668570763227E-002
   6.8362749186620594E-002  -2.1233243932686247E-002   2.2656916189965688E-002
   6.6647166282250536E-002  -2.1092956149176278E-002   2.2011303821276751E-002
   6.6272186945021516E-002  -2.0611160280624902E-002   3.3151410294260761E-002
   6.4849501482974178E-002  -2.0076713895228651E-002   3.2105039137973274E-002
   6.3426816020926868E-002  -1.9603857503253518E-002   3.1297322854222383E-002
   6.2004130558879558E-002  -1.9192591104699695E-002   3.0728261443008453E-002
   6.0581445096832220E-002  -1.8842914699566948E-002   3.0397854904331306E-002
   5.9832043191271986E-002  -1.8710592649202454E-002   3.9550902118282751E-002
   5.8593770031975537E-002  -1.8210797976335381E-002   3.9226538988773187E-002
   5.7355496872679095E-002  -1.7691246518838907E-002   3.9032345592228457E-002
   5.6117223713382625E-002  -1.7151938276713033E-002   3.8968321928648623E-002
   5.4878950554086162E-002  -1.6592873249957785E-002   3.9034467998033687E-002
   5.4189066638482344E-002  -1.6810025017780013E-002   4.5875068840750183E-002
   5.3026720642364827E-002  -1.6344882057442129E-002   4.6354060516069155E-002
   5.1864374646247297E-002  -1.5778635534424323E-002   4.6854736784781151E-002
   5.0702028650129793E-002  -1.5111285448726398E-002   4.7377097646886086E-002
   4.9539682654012249E-002  -1.4342831800348593E-002   4.7921143102384003E-002
   4.9343257286652537E-002  -1.4909457386357572E-002   5.2123910461663203E-002
   4.8148353314142037E-002  -1.4478966138548863E-002   5.3487603719861221E-002
   4.6953449341631537E-002  -1.3866024550009640E-002   5.4764496431880610E-002
   4.5758545369121037E-002  -1.3070632620739781E-002   5.5954588597720845E-002
   4.4563641396610537E-002  -1.2092790350739346E-002   5.7057880217382229E-002
   6.6647166282250536E-002  -2.1092956149176278E-002   2.2011303821276751E-002
   6.3338584741626652E-002  -2.0773336614039101E-002   2.1022382827682651E-002
   6.0030003201002824E-002  -1.9952116804176009E-002   2.1936228918917750E-002
   5.6721421660378940E-002  -1.8629296719587362E-002   2.4752842094982297E-002
   5.3412840119755112E-002  -1.6804876360272780E-002   2.9472222355875988E-002
   6.0581445096832220E-002  -1.8842914699566948E-002   3.0397854904331306E-002
   5.8750537783429577E-002  -1.8401018867838806E-002   2.9720882256470224E-002
   5.6919630470026850E-002  -1.7713094189498596E-002   3.0096490978222312E-002
   5.5088723156624164E-002  -1.6779140664546117E-002   3.1524681069587258E-002
   5.3257815843221479E-002  -1.5599158292981641E-002   3.4005452530565333E-002
   5.4878950554086162E-002  -1.6592873249957785E-002   3.9034467998033687E-002
   5.3675531752688396E-002  -1.6028701121638608E-002   3.8413872267791999E-002
   5.2472112951290603E-002  -1.5474071574821023E-002   3.7995672191947168E-002
   5.1268694149892838E-002  -1.4928984609504875E-002   3.7779867770498965E-002
   5.0065275348495045E-002  -1.4393440225690418E-002   3.7766459003447647E-002
   4.9539682654012249E-002  -1.4342831800348593E-002   4.7921143102384003E-002
   4.8113566649403167E-002  -1.3656383375438223E-002   4.7101352861648009E-002
   4.6687450644794050E-002  -1.3235048960143419E-002   4.5633772560092552E-002
   4.5261334640184947E-002  -1.3078828554463618E-002   4.3518402197717576E-002
   4.3835218635575851E-002  -1.3187722158399209E-002   4.0755241774523374E-002
   4.4563641396610537E-002  -1.2092790350739346E-002   5.7057880217382229E-002
   4.2064642473573860E-002  -1.1284065629238060E-002   5.5783324038038262E-002
   3.9565643550537211E-002  -1.0996026345465870E-002   5.3010792082658270E-002
   3.7066644627500547E-002  -1.1228672499422207E-002   4.8740284351242946E-002
   3.4567645704463884E-002  -1.1982004091108056E-002   4.2971800843791874E-002
   5.3412840119755112E-002  -1.6804876360272780E-002   2.9472222355875988E-002
   5.4135265030320900E-002  -1.5128516060762404E-002   3.5765434430796772E-002
   5.4857689940886772E-002  -1.4249876155586025E-002   3.6412781483351225E-002
   5.5580114851452631E-002  -1.4168956644743987E-002   3.1414263513539195E-002
   5.6302539762018489E-002  -1.4885757528236176E-002   2.0769880521361084E-002
   5.3257815843221479E-002  -1.5599158292981641E-002   3.4005452530565333E-002
   4.9835654441521590E-002  -1.4424165941990669E-002   3.8235562456346711E-002
   4.6413493039821702E-002  -1.3505182478759245E-002   3.9822364779963357E-002
   4.2991331638121813E-002  -1.2842207903287366E-002   3.8765859501414472E-002
   3.9569170236421924E-002  -1.2435242215574849E-002   3.5066046620700286E-002
   5.0065275348495045E-002  -1.4393440225690418E-002   3.7766459003447647E-002
   4.5501085054730536E-002  -1.3719815823219086E-002   4.0475178286664956E-002
   4.0936894760966007E-002  -1.2760488801932417E-002   4.3543147387917959E-002
   3.6372704467201492E-002  -1.1515459161830692E-002   4.6970366307206954E-002
   3.1808514173436969E-002  -9.9847269029135211E-003   5.0756835044531878E-002
   4.3835218635575851E-002  -1.3187722158399209E-002   4.0755241774523374E-002
   4.1131556869947766E-002  -1.3015465704447317E-002   4.2484281921750688E-002
   3.8427895104319647E-002  -1.2015795125105529E-002   4.7575129307215316E-002
   3.5724233338691548E-002  -1.0188710420373878E-002   5.6027783930916765E-002
   3.3020571573063436E-002  -7.5342115902524154E-003   6.7842245792855096E-002
   3.4567645704463884E-002  -1.1982004091108056E-002   4.2971800843791874E-002
   3.6727069887173280E-002  -1.2311115585675769E-002   4.4262873361604393E-002
   3.8886494069882691E-002  -1.1271101448278767E-002   5.1918310537855034E-002
   4.1045918252592108E-002  -8.8619616789172469E-003   6.5938112372543586E-002
   4.3205342435301469E-002  -5.0836962775909211E-003   8.6322278865670399E-002
   5.6302539762018489E-002  -1.4885757528236176E-002   2.0769880521361084E-002
   5.9311195757725838E-002  -1.5235495941716193E-002   8.4682501368695817E-003
   6.2319851753433242E-002  -1.4053389020837914E-002   1.0212702247272998E-002
   6.5328507749140702E-002  -1.1339436765601299E-002   2.6003236852571054E-002
   6.8337163744847995E-002  -7.0936391760063611E-003   5.5839853952763807E-002
   3.9569170236421924E-002  -1.2435242215574849E-002   3.5066046620700286E-002
   5.2827974857805743E-002  -1.1986406350009637E-002   2.8876993118513994E-002
   6.6086779479189589E-002  -1.1197821240979108E-002   2.9142154372785223E-002
   7.9345584100573449E-002  -1.0069486888483605E-002   3.5861530383515236E-002
   9.2604388721957309E-002  -8.6014032925230133E-003   4.9035121150702743E-002
   3.1808514173436969E-002  -9.9847269029135211E-003   5.0756835044531878E-002
   4.7725599682060575E-002  -8.7373167583028877E-003   4.9488262333756985E-002
   6.3642685190684153E-002  -8.3422534611203025E-003   4.7082036641003563E-002
   7.9559770699307836E-002  -8.7995370113659668E-003   4.3538157966271293E-002
   9.5476856207931338E-002  -1.0109167409039554E-002   3.8856626309560938E-002
   3.3020571573063436E-002  -7.5342115902524154E-003   6.7842245792855096E-002
   4.4004070230490126E-002  -5.4882271665962906E-003   7.0302057782598612E-002
   5.4987568887916755E-002  -5.4866856812615522E-003   6.4032349051927201E-002
   6.5971067545343431E-002  -7.5295871342483008E-003   4.9033119600839947E-002
   7.6954566202770053E-002  -1.1616931525556151E-002   2.5304369429337628E-002
   4.3205342435301469E-002  -5.0836962775909211E-003   8.6322278865670399E-002
   4.1663386503094507E-002  -2.2391375748896380E-003   9.1318379465039123E-002
   4.0121430570887504E-002  -2.6311179014027880E-003   7.9993091605556038E-002
   3.8579474638680562E-002  -6.2596372571305757E-003   5.2346415287220852E-002
   3.7037518706473538E-002  -1.3124695642072748E-002   8.3783505100336608E-003
   5.7122871454901150E-002   0.0000000000000000        3.4531470592391131E-002
   5.7913973563236992E-002  -2.0697505726722737E-003   3.8206211391544322E-002
   5.8705075671572841E-002  -4.1098823948558464E-003   4.2075738936393277E-002
   5.9496177779908690E-002  -6.1203954665507154E-003   4.6140053226937962E-002
   6.0287279888244547E-002  -8.1012897877568903E-003   5.0399154263178425E-002
   4.8619900674219257E-002   0.0000000000000000        3.2649617984062011E-002
   4.9544092895115278E-002  -1.6878514135310200E-003   3.6842455550072879E-002
   5.0468285116011286E-002  -3.3931151166408588E-003   4.1106686595508327E-002
   5.1392477336907293E-002  -5.1157911093295122E-003   4.5442311120368367E-002
   5.2316669557803307E-002  -6.8558793915969845E-003   4.9849329124652952E-002
   4.0690620063075708E-002   0.0000000000000000        3.1173180054907913E-002
   4.1624509130260702E-002  -1.3059522543897657E-003   3.5837083347708958E-002
   4.2558398197445696E-002  -2.6763478384258669E-003   4.0448986853663375E-002
   4.3492287264630697E-002  -4.1111867521083055E-003   4.5008890572771187E-002
   4.4426176331815684E-002  -5.6104689954370795E-003   4.9516794505032435E-002
   3.3335029621470481E-002   0.0000000000000000        3.0102156804928819E-002
   3.4155222268673284E-002  -9.2405309524851132E-004   3.5190094784452494E-002
   3.4975414915876080E-002  -1.9595805602108771E-003   4.0102639710858388E-002
   3.5795607563078875E-002  -3.1065823948871014E-003   4.4839791584146506E-002
   3.6615800210281685E-002  -4.3650585992771745E-003   4.9401550404316825E-002
   2.6553129349403591E-002   0.0000000000000000        2.9436548234124740E-002
   2.7136232310353010E-002  -5.4215393610725863E-004   3.4901489860303544E-002
   2.7719335271302433E-002  -1.2428132819958873E-003   4.0067645167093387E-002
   2.8302438232251852E-002  -2.1019780376658938E-003   4.4935014154494267E-002
   2.8885541193201282E-002  -3.1196482031172704E-003   4.9503596822506178E-002
   6.0287279888244547E-002  -8.1012897877568903E-003   5.0399154263178425E-002
   6.0552235537160708E-002  -9.9705026497040224E-003   5.1261755567898040E-002
   6.0817191186076903E-002  -1.1645971343621768E-002   5.1950821500981487E-002
   6.1082146834993092E-002  -1.3127695869510103E-002   5.2466352062428813E-002
   6.1347102483909260E-002  -1.4415676227369112E-002   5.2808347252240012E-002
   5.2316669557803307E-002  -6.8558793915969845E-003   4.9849329124652952E-002
   5.2437042709355022E-002  -8.5092198831962229E-003   5.1013326427570199E-002
   5.2557415860906724E-002  -9.9716525038801799E-003   5.2061694107394606E-002
   5.2677789012458419E-002  -1.1243177253648848E-002   5.2994432164126248E-002
   5.2798162164010135E-002  -1.2323794132502244E-002   5.3811540597765065E-002
   4.4426176331815684E-002  -5.6104689954370795E-003   4.9516794505032435E-002
   4.4459872734546275E-002  -7.0479371166884287E-003   5.0979351509033169E-002
   4.4493569137276846E-002  -8.2973336641385918E-003   5.2384184638484460E-002
   4.4527265540007438E-002  -9.3586586377875734E-003   5.3731293893386323E-002
   4.4560961942738009E-002  -1.0231912037635363E-002   5.5020679273738701E-002
   3.6615800210281685E-002  -4.3650585992771745E-003   4.9401550404316825E-002
   3.6620725612734481E-002  -5.5866543501806370E-003   5.1159830812286998E-002
   3.6625651015187284E-002  -6.6230148243970211E-003   5.2918293094251063E-002
   3.6630576417640101E-002  -7.4741400219262887E-003   5.4676937250209008E-002
   3.6635501820092897E-002  -8.1400299427684883E-003   5.6435763280160908E-002
   2.8885541193201282E-002  -3.1196482031172704E-003   4.9503596822506178E-002
   2.8919601343919646E-002  -4.1253715836728410E-003   5.1554764337331666E-002
   2.8953661494638031E-002  -4.9486959846554209E-003   5.3664019474694395E-002
   2.8987721645356398E-002  -5.5896214060650266E-003   5.5831362234594333E-002
   2.9021781796074779E-002  -6.0481478479016137E-003   5.8056792617031616E-002
   6.1347102483909260E-002  -1.4415676227369112E-002   5.2808347252240012E-002
   6.0121868296942327E-002  -1.5420086490926178E-002   5.1528760537560073E-002
   5.8896634109975400E-002  -1.6051100733908880E-002   5.0569739544042459E-002
   5.7671399923008473E-002  -1.6308718956317147E-002   4.9931284271686902E-002
   5.6446165736041540E-002  -1.6192941158150967E-002   4.9613394720493462E-002
   5.2798162164010135E-002  -1.2323794132502244E-002   5.3811540597765065E-002
   5.1867865148248433E-002  -1.3165938511523867E-002   5.3147782006416608E-002
   5.0937568132486739E-002  -1.3722045761797343E-002   5.2753332036316485E-002
   5.0007271116725052E-002  -1.3992115883322555E-002   5.2628190687464681E-002
   4.9076974100963351E-002  -1.3976148876099589E-002   5.2772357959861238E-002
   4.4560961942738009E-002  -1.0231912037635363E-002   5.5020679273738701E-002
   4.3874344998267735E-002  -1.0911790532121568E-002   5.4885389913895459E-002
   4.3187728053797482E-002  -1.1392990789685789E-002   5.4968152075386689E-002
   4.2501111109327208E-002  -1.1675512810327976E-002   5.5268965758212538E-002
   4.1814494164856941E-002  -1.1759356594048177E-002   5.5787830962372831E-002
   3.6635501820092897E-002  -8.1400299427684883E-003   5.6435763280160908E-002
   3.6141307847000245E-002  -8.6576425527192490E-003   5.6741584259996619E-002
   3.5647113873907586E-002  -9.0639358175742292E-003   5.7214199661253087E-002
   3.5152919900814941E-002  -9.3589097373334082E-003   5.7853609483930202E-002
   3.4658725927722289E-002  -9.5425643119967825E-003   5.8659813728028136E-002
   2.9021781796074779E-002  -6.0481478479016137E-003   5.8056792617031616E-002
   2.8668753694445936E-002  -6.4034945733169486E-003   5.8716365044720123E-002
   2.8315725592817090E-002  -6.7348808454626846E-003   5.9491474793915533E-002
   2.7962697491188231E-002  -7.0423066643388495E-003   6.0382121864617819E-002
   2.7609669389559395E-002  -7.3257720299453877E-003   6.1388306256827063E-002
   5.6446165736041540E-002  -1.6192941158150967E-002   4.9613394720493462E-002
   5.4670438623694279E-002  -1.5885866566073825E-002   4.9125278005830567E-002
   5.2894711511347038E-002  -1.5569594406749297E-002   4.9380991724471170E-002
   5.1118984398999798E-002  -1.5244124680177155E-002   5.0380535876415333E-002
   4.9343257286652537E-002  -1.4909457386357572E-002   5.2123910461663203E-002
   4.9076974100963351E-002  -1.3976148876099589E-002   5.2772357959861238E-002
   4.7921115771922131E-002  -1.3802382141714198E-002   5.2286371240584661E-002
   4.6765257442880889E-002  -1.3599053081752310E-002   5.2296291654616495E-002
   4.5609399113839683E-002  -1.3366161696213835E-002   5.2802119201956904E-002
   4.4453540784798434E-002  -1.3103707985098911E-002   5.3803853882605737E-002
   4.1814494164856941E-002  -1.1759356594048177E-002   5.5787830962372831E-002
   4.1030581319126701E-002  -1.1718897717354598E-002   5.5324338996811495E-002
   4.0246668473396446E-002  -1.1628511756755404E-002   5.5108830864563696E-002
   3.9462755627666199E-002  -1.1488198712250621E-002   5.5141306565629301E-002
   3.8678842781935965E-002  -1.1297958583840251E-002   5.5421766100008388E-002
   3.4658725927722289E-002  -9.5425643119967825E-003   5.8659813728028136E-002
   3.3998835265307961E-002  -9.6354132929949710E-003   5.8239181274511158E-002
   3.3338944602893661E-002  -9.6579704317584850E-003   5.7818609354312600E-002
   3.2679053940479347E-002  -9.6102357282873679E-003   5.7398097967432456E-002
   3.2019163278065005E-002  -9.4922091825815624E-003   5.6977647113870780E-002
   2.7609669389559395E-002  -7.3257720299453877E-003   6.1388306256827063E-002
   2.6825877610465974E-002  -7.5519288686353298E-003   6.1030898073683532E-002
   2.6042085831372550E-002  -7.6874291067615050E-003   6.0425627123863401E-002
   2.5258294052279119E-002  -7.7322727443240851E-003   5.9572493407366651E-002
   2.4474502273185691E-002  -7.6864597813229574E-003   5.8471496924193150E-002
   4.9343257286652537E-002  -1.4909457386357572E-002   5.2123910461663203E-002
   4.8148353314142037E-002  -1.4478966138548863E-002   5.3487603719861221E-002
   4.6953449341631537E-002  -1.3866024550009640E-002   5.4764496431880610E-002
   4.5758545369121037E-002  -1.3070632620739781E-002   5.5954588597720845E-002
   4.4563641396610537E-002  -1.2092790350739346E-002   5.7057880217382229E-002
   4.4453540784798434E-002  -1.3103707985098911E-002   5.3803853882605737E-002
   4.3244968492386154E-002  -1.2758718457793930E-002   5.4514677689839683E-002
   4.2036396199973881E-002  -1.2278219623685582E-002   5.5284965403448995E-002
   4.0827823907561636E-002  -1.1662211482773660E-002   5.6114717023433666E-002
   3.9619251615149315E-002  -1.0910694035058566E-002   5.7003932549793607E-002
   3.8678842781935965E-002  -1.1297958583840251E-002   5.5421766100008388E-002
   3.7602866622176198E-002  -1.1038470777038949E-002   5.5432779422350781E-002
   3.6526890462416452E-002  -1.0690414697361435E-002   5.5649521103622944E-002
   3.5450914302656705E-002  -1.0253790344807648E-002   5.6071991143824731E-002
   3.4374938142896966E-002  -9.7285977193777018E-003   5.6700189542956247E-002
   3.2019163278065005E-002  -9.4922091825815624E-003   5.6977647113870780E-002
   3.1222047703512119E-002  -9.3182230962839778E-003   5.6241908917394667E-002
   3.0424932128959220E-002  -9.1026097710372768E-003   5.5858163532402465E-002
   2.9627816554406345E-002  -8.8453692068415808E-003   5.5826410958894360E-002
   2.8830700979853428E-002  -8.5465014036968795E-003   5.6146651196870179E-002
   2.4474502273185691E-002  -7.6864597813229574E-003   5.8471496924193150E-002
   2.4102511736393967E-002  -7.5979754155290208E-003   5.6942066174971190E-002
   2.3730521199602207E-002  -7.5148048447132784E-003   5.5910892689787536E-002
   2.3358530662810472E-002  -7.4369480688754579E-003   5.5377976468642211E-002
   2.2986540126018723E-002  -7.3644050880160572E-003   5.5343317511535206E-002
   4.4563641396610537E-002  -1.2092790350739346E-002   5.7057880217382229E-002
   4.2064642473573860E-002  -1.1284065629238060E-002   5.5783324038038262E-002
   3.9565643550537211E-002  -1.0996026345465870E-002   5.3010792082658270E-002
   3.7066644627500547E-002  -1.1228672499422207E-002   4.8740284351242946E-002
   3.4567645704463884E-002  -1.1982004091108056E-002   4.2971800843791874E-002
   3.9619251615149315E-002  -1.0910694035058566E-002   5.7003932549793607E-002
   3.6009929305662103E-002  -1.0276591359160425E-002   5.5371592925160140E-002
   3.2400606996174933E-002  -1.0012827533700044E-002   5.3016582303661519E-002
   2.8791284686687735E-002  -1.0119402558677357E-002   4.9938900685297216E-002
   2.5181962377200537E-002  -1.0596316434092368E-002   4.6138548070067675E-002
   3.4374938142896966E-002  -9.7285977193777018E-003   5.6700189542956247E-002
   3.0430597226129501E-002  -9.2691170890828178E-003   5.4860413060324908E-002
   2.6486256309362050E-002  -9.0296287219343851E-003   5.3073270359998273E-002
   2.2541915392594584E-002  -9.0101326179322858E-003   5.1338761441976632E-002
   1.8597574475827154E-002  -9.2106287770767903E-003   4.9656886306259904E-002
   2.8830700979853428E-002  -8.5465014036968795E-003   5.6146651196870179E-002
   2.5326646234976012E-002  -8.2616428190051411E-003   5.4249784443531845E-002
   2.1822591490098634E-002  -8.0464299101686704E-003   5.3180856251668754E-002
   1.8318536745221242E-002  -7.9008626771873251E-003   5.2939866621280848E-002
   1.4814482000343838E-002  -7.8249411200612407E-003   5.3526815552368254E-002
   2.2986540126018723E-002  -7.3644050880160572E-003   5.5343317511535206E-002
   2.0698076332201665E-002  -7.2541685489276031E-003   5.3539707074781229E-002
   1.8409612538384613E-002  -7.0632310984029140E-003   5.3339339978672906E-002
   1.6121148744567552E-002  -6.7915927364423680E-003   5.4742216223210100E-002
   1.3832684950750504E-002  -6.4392534630455800E-003   5.7748335808392670E-002
   3.4567645704463884E-002  -1.1982004091108056E-002   4.2971800843791874E-002
   3.6727069887173280E-002  -1.2311115585675769E-002   4.4262873361604393E-002
   3.8886494069882691E-002  -1.1271101448278767E-002   5.1918310537855034E-002
   4.1045918252592108E-002  -8.8619616789172469E-003   6.5938112372543586E-002
   4.3205342435301469E-002  -5.0836962775909211E-003   8.6322278865670399E-002
   2.5181962377200537E-002  -1.0596316434092368E-002   4.6138548070067675E-002
   3.2150909650175127E-002  -1.0835988606023056E-002   4.9783048390282886E-002
   3.9119856923149697E-002  -1.0230838520547403E-002   5.6682230232590475E-002
   4.6088804196124294E-002  -8.7808661776655750E-003   6.6836093596990484E-002
   5.3057751469098885E-002  -6.4860715773772948E-003   8.0244638483482678E-002
   1.8597574475827154E-002  -9.2106287770767903E-003   4.9656886306259904E-002
   2.7266361702721210E-002  -9.3608616263704536E-003   5.5130511054319403E-002
   3.5935148929615315E-002  -9.1905755928161428E-003   6.0749134188125602E-002
   4.4603936156509413E-002  -8.6997706764137348E-003   6.6512755707678367E-002
   5.3272723383403491E-002  -7.8884468771634186E-003   7.2421375612977859E-002
   1.4814482000343838E-002  -7.8249411200612407E-003   5.3526815552368254E-002
   2.2073426044811668E-002  -7.8857346467177403E-003   6.0305261353713627E-002
   2.9332370089279559E-002  -8.1503126650848030E-003   6.4119022404460185E-002
   3.6591314133747437E-002  -8.6186751751619224E-003   6.4968098704607763E-002
   4.3850258178215279E-002  -9.2908221769496674E-003   6.2852490254156068E-002
   1.3832684950750504E-002  -6.4392534630455800E-003   5.7748335808392670E-002
   1.6572102676446460E-002  -6.4106076670651657E-003   6.5307299288465903E-002
   1.9311520402142408E-002  -7.1100497373535604E-003   6.6791894881594510E-002
   2.2050938127838361E-002  -8.5375796739102887E-003   6.2202122587778033E-002
   2.4790355853534327E-002  -1.0693197476735805E-002   5.1537982407017013E-002
   4.3205342435301469E-002  -5.0836962775909211E-003   8.6322278865670399E-002
   4.1663386503094507E-002  -2.2391375748896380E-003   9.1318379465039123E-002
   4.0121430570887504E-002  -2.6311179014027880E-003   7.9993091605556038E-002
   3.8579474638680562E-002  -6.2596372571305757E-003   5.2346415287220852E-002
   3.7037518706473538E-002  -1.3124695642072748E-002   8.3783505100336608E-003
   5.3057751469098885E-002  -6.4860715773772948E-003   8.0244638483482678E-002
   3.9335262291748080E-002  -4.6419509202308140E-003   7.7252802590614594E-002
   2.5612773114397289E-002  -4.5440004067745926E-003   6.6221288666310968E-002
   1.1890283937046442E-002  -6.1922200370086965E-003   4.7150096710571437E-002
  -1.8322052403043076E-003  -9.5866098109329556E-003   2.0039226723396530E-002
   5.3272723383403491E-002  -7.8884468771634186E-003   7.2421375612977859E-002
   3.5651411388325220E-002  -7.0447642655719067E-003   6.2931972113397114E-002
   1.8030099393246925E-002  -6.4568829121464597E-003   5.3684601009797252E-002
   4.0878739816867411E-004  -6.1248028168867357E-003   4.4679262302177558E-002
  -1.7212524596909640E-002  -6.0485239797929413E-003   3.5915955990539206E-002
   4.3850258178215279E-002  -9.2908221769496674E-003   6.2852490254156068E-002
   3.0611833792825921E-002  -9.4475776109130410E-003   4.8355888033386862E-002
   1.7373409407436521E-002  -8.3697654175181845E-003   4.2383028636015091E-002
   4.1349850220470767E-003  -6.0573855967649267E-003   4.4933912062040338E-002
  -9.1034393633422361E-003  -2.5104381486530380E-003   5.6008538311462200E-002
   2.4790355853534327E-002  -1.0693197476735805E-002   5.1537982407017013E-002
   2.4216529505250148E-002  -1.1850390956254120E-002   3.3524550350583937E-002
   2.3642703156965990E-002  -1.0282647922890048E-002   3.2316571544964257E-002
   2.3068876808681808E-002  -5.9899683766428749E-003   4.7914045990157944E-002
   2.2495050460397625E-002   1.0276476824868652E-003   8.0316973686165083E-002
   2.6553129349403591E-002   0.0000000000000000        2.9436548234124740E-002
   2.7136232310353010E-002  -5.4215393610725863E-004   3.4901489860303544E-002
   2.7719335271302433E-002  -1.2428132819958873E-003   4.0067645167093387E-002
   2.8302438232251852E-002  -2.1019780376658938E-003   4.4935014154494267E-002
   2.8885541193201282E-002  -3.1196482031172704E-003   4.9503596822506178E-002
   2.0018225009842214E-002   0.0000000000000000        2.9033283942758600E-002
   2.0339552762905045E-002  -4.0188674055662184E-004   3.4318026281980898E-002
   2.0660880515967876E-002  -9.2029225919507476E-004   3.9378004524818960E-002
   2.0982208269030710E-002  -1.5552165559153605E-003   4.4213218671272841E-002
   2.1303536022093540E-002  -2.3066596307174773E-003   4.8823668721342479E-002
   1.3403622365753542E-002   0.0000000000000000        2.8749293531093328E-002
   1.3537197133934541E-002  -2.6161954500598548E-004   3.3895823215058650E-002
   1.3670771902115538E-002  -5.9777123639425875E-004   3.8891611025644493E-002
   1.3804346670296534E-002  -1.0084550741648246E-003   4.3736656962850874E-002
   1.3937921438477534E-002  -1.4936710583176764E-003   4.8430961026677835E-002
   6.7093214171375743E-003   0.0000000000000000        2.8584576999128922E-002
   6.7291654234414942E-003  -1.2135234945534847E-004   3.3634880659536799E-002
   6.7490094297454131E-003  -2.7525021359344534E-004   3.8608464669569964E-002
   6.7688534360493303E-003  -4.6169359241428646E-004   4.3505329029228441E-002
   6.7886974423532502E-003  -6.8068248591787598E-004   4.8325473738512204E-002
  -6.4677836005689118E-005   0.0000000000000000        2.8539134346865377E-002
  -8.4542368574093939E-005   1.8914846095286798E-005   3.3535198615415353E-002
  -1.0440690114249833E-004   4.7270809207371547E-005   3.8528565456595387E-002
  -1.2427143371090293E-004   8.5067889336244706E-005   4.3519234870405481E-002
  -1.4413596627930753E-004   1.3230608648191842E-004   4.8507206856845612E-002
   2.8885541193201282E-002  -3.1196482031172704E-003   4.9503596822506178E-002
   2.8919601343919646E-002  -4.1253715836728410E-003   5.1554764337331666E-002
   2.8953661494638031E-002  -4.9486959846554209E-003   5.3664019474694395E-002
   2.8987721645356398E-002  -5.5896214060650266E-003   5.5831362234594333E-002
   2.9021781796074779E-002  -6.0481478479016137E-003   5.8056792617031616E-002
   2.1303536022093540E-002  -2.3066596307174773E-003   4.8823668721342479E-002
   2.1376406895650377E-002  -3.0502888852809761E-003   5.1229222623026920E-002
   2.1449277769207218E-002  -3.6617717212854258E-003   5.3654310347851050E-002
   2.1522148642764052E-002  -4.1411081387308602E-003   5.6098931895814892E-002
   2.1595019516320896E-002  -4.4882981376172387E-003   5.8563087266918348E-002
   1.3937921438477534E-002  -1.4936710583176764E-003   4.8430961026677835E-002
   1.4011049235475265E-002  -1.9752061868891255E-003   5.1140648754207263E-002
   1.4084177032473002E-002  -2.3748474579154714E-003   5.3831316505478871E-002
   1.4157304829470729E-002  -2.6925948713967226E-003   5.6502964280492562E-002
   1.4230432626468463E-002  -2.9284484273328637E-003   5.9155592079248337E-002
   6.7886974423532502E-003  -6.8068248591787598E-004   4.8325473738512204E-002
   6.8235283633943135E-003  -9.0012348849726072E-004   5.1289042730872751E-002
   6.8583592844353759E-003  -1.0879231945455105E-003   5.4195037947577837E-002
   6.8931902054764375E-003  -1.2440816040625740E-003   5.7043459388627440E-002
   6.9280211265175008E-003  -1.3685987170484817E-003   5.9834307054021665E-002
  -1.4413596627930753E-004   1.3230608648191842E-004   4.8507206856845612E-002
  -1.8615572059248273E-004   1.7495920989460054E-004   5.1674404553023280E-002
  -2.2817547490565490E-004   1.9900106882447485E-004   5.4745474674147927E-002
  -2.7019522921882815E-004   2.0443166327157718E-004   5.7720417220219540E-002
  -3.1221498353200226E-004   1.9125099323588635E-004   6.0599232191238153E-002
   2.9021781796074779E-002  -6.0481478479016137E-003   5.8056792617031616E-002
   2.8668753694445936E-002  -6.4034945733169486E-003   5.8716365044720123E-002
   2.8315725592817090E-002  -6.7348808454626846E-003   5.9491474793915533E-002
   2.7962697491188231E-002  -7.0423066643388495E-003   6.0382121864617819E-002
   2.7609669389559395E-002  -7.3257720299453877E-003   6.1388306256827063E-002
   2.1595019516320896E-002  -4.4882981376172387E-003   5.8563087266918348E-002
   2.1347431993088126E-002  -4.7500688776672614E-003   5.9306064617589131E-002
   2.1099844469855359E-002  -4.9731475186036954E-003   6.0144385803545149E-002
   2.0852256946622592E-002  -5.1575340604264460E-003   6.1078050824786442E-002
   2.0604669423389829E-002  -5.3032285031355819E-003   6.2107059681312957E-002
   1.4230432626468463E-002  -2.9284484273328637E-003   5.9155592079248337E-002
   1.4068092195410140E-002  -3.0966431820176141E-003   5.9996705998745431E-002
   1.3905751764351808E-002  -3.2114141917446923E-003   6.0912970267306112E-002
   1.3743411333293478E-002  -3.2727614565140842E-003   6.1904384884930358E-002
   1.3581070902235147E-002  -3.2806849763258039E-003   6.2970949851618274E-002
   6.9280211265175008E-003  -1.3685987170484817E-003   5.9834307054021665E-002
   6.8307343014119663E-003  -1.4432174863679608E-003   6.0788289188189015E-002
   6.7334474763064292E-003  -1.4496808648856892E-003   6.1797228185198415E-002
   6.6361606512008947E-003  -1.3879888526017294E-003   6.2861124045049746E-002
   6.5388738260953559E-003  -1.2581414495160398E-003   6.3979976767743030E-002
  -3.1221498353200226E-004   1.9125099323588635E-004   6.0599232191238153E-002
  -3.6464168890638742E-004   2.1020820928172035E-004   6.1680814185919919E-002
  -4.1706839428077517E-004   3.1205246197326883E-004   6.2797159557222065E-002
  -4.6949509965516075E-004   4.9678375131065929E-004   6.3948268305144523E-002
  -5.2192180502954807E-004   7.6440207729379372E-004   6.5134140429687279E-002
   2.7609669389559395E-002  -7.3257720299453877E-003   6.1388306256827063E-002
   2.6825877610465974E-002  -7.5519288686353298E-003   6.1030898073683532E-002
   2.6042085831372550E-002  -7.6874291067615050E-003   6.0425627123863401E-002
   2.5258294052279119E-002  -7.7322727443240851E-003   5.9572493407366651E-002
   2.4474502273185691E-002  -7.6864597813229574E-003   5.8471496924193150E-002
   2.0604669423389829E-002  -5.3032285031355819E-003   6.2107059681312957E-002
   1.9651873625669423E-002  -5.4237343297030144E-003   6.1861082558100758E-002
   1.8699077827949023E-002  -5.5325550231005369E-003   6.1524960164311172E-002
   1.7746282030228624E-002  -5.6296905833283211E-003   6.1098692499944304E-002
   1.6793486232508217E-002  -5.7151410103860878E-003   6.0582279565000077E-002
   1.3581070902235147E-002  -3.2806849763258039E-003   6.2970949851618274E-002
   1.2616988581987064E-002  -3.2955397907707198E-003   6.2757432320943551E-002
   1.1652906261738982E-002  -3.3776809394395445E-003   6.2611487015790751E-002
   1.0688823941490901E-002  -3.5271084223324469E-003   6.2533113936159943E-002
   9.7247416212428162E-003  -3.7438222394492876E-003   6.2522313082051112E-002
   6.5388738260953559E-003  -1.2581414495160398E-003   6.3979976767743030E-002
   5.7212224794188984E-003  -1.1673452518383733E-003   6.3719947362211926E-002
   4.9035711327424392E-003  -1.2228068557786197E-003   6.3685207678302075E-002
   4.0859197860659792E-003  -1.4245262613365446E-003   6.3875757716013559E-002
   3.2682684393895234E-003  -1.7725034685124666E-003   6.4291597475346157E-002
  -5.2192180502954807E-004   7.6440207729379372E-004   6.5134140429687279E-002
  -1.0354246820350795E-003   9.6084928709392475E-004   6.4748627681905924E-002
  -1.5489275590406144E-003   9.3206722788240562E-004   6.4746122151845165E-002
  -2.0624304360461502E-003   6.7805589965924413E-004   6.5126623839504960E-002
  -2.5759333130516808E-003   1.9881530242438217E-004   6.5890132744885366E-002
   2.4474502273185691E-002  -7.6864597813229574E-003   5.8471496924193150E-002
   2.4102511736393967E-002  -7.5979754155290208E-003   5.6942066174971190E-002
   2.3730521199602207E-002  -7.5148048447132784E-003   5.5910892689787536E-002
   2.3358530662810472E-002  -7.4369480688754579E-003   5.5377976468642211E-002
   2.2986540126018723E-002  -7.3644050880160572E-003   5.5343317511535206E-002
   1.6793486232508217E-002  -5.7151410103860878E-003   6.0582279565000077E-002
   1.6895218402347645E-002  -5.7693258838777267E-003   5.9663351777275345E-002
   1.6996950572187079E-002  -5.7726647834067044E-003   5.9193612138774630E-002
   1.7098682742026517E-002  -5.7251577089729704E-003   5.9173060649497983E-002
   1.7200414911865941E-002  -5.6268046605766342E-003   5.9601697309445395E-002
   9.7247416212428162E-003  -3.7438222394492876E-003   6.2522313082051112E-002
   1.0251127382899163E-002  -3.9406763522264118E-003   6.2270048024764359E-002
   1.0777513144555511E-002  -4.0305247221001615E-003   6.2417902001887390E-002
   1.1303898906211859E-002  -4.0133673490703450E-003   6.2965875013420186E-002
   1.1830284667868198E-002  -3.8892042331372667E-003   6.3913967059362822E-002
   3.2682684393895234E-003  -1.7725034685124666E-003   6.4291597475346157E-002
   4.1702386780485129E-003  -2.1120268205751212E-003   6.4762154917438197E-002
   5.0722089167075032E-003  -2.2883846607935753E-003   6.5583762279125796E-002
   5.9741791553664927E-003  -2.3015769891678163E-003   6.6756419560408856E-002
   6.8761493940254831E-003  -2.1516038056978992E-003   6.8280126761287460E-002
  -2.5759333130516808E-003   1.9881530242438217E-004   6.5890132744885366E-002
  -1.3474477122043110E-003  -2.8337728892380287E-004   6.7139672455296950E-002
  -1.1896211135694300E-004  -5.4624459948705850E-004   6.8691192970489784E-002
   1.1095234894904250E-003  -5.8978662926515227E-004   7.0544694290463880E-002
   2.3380090903377948E-003  -4.1400337825847622E-004   7.2700176415219253E-002
   2.2986540126018723E-002  -7.3644050880160572E-003   5.5343317511535206E-002
   2.0698076332201665E-002  -7.2541685489276031E-003   5.3539707074781229E-002
   1.8409612538384613E-002  -7.0632310984029140E-003   5.3339339978672906E-002
   1.6121148744567552E-002  -6.7915927364423680E-003   5.4742216223210100E-002
   1.3832684950750504E-002  -6.4392534630455800E-003   5.7748335808392670E-002
   1.7200414911865941E-002  -5.6268046605766342E-003   5.9601697309445395E-002
   1.6130824826415313E-002  -5.4714090248198510E-003   5.7901682266664617E-002
   1.5061234740964685E-002  -5.2527741883048457E-003   5.7036171299971253E-002
   1.3991644655514043E-002  -4.9709001510314967E-003   5.7005164409365087E-002
   1.2922054570063402E-002  -4.6257869130000850E-003   5.7808661594846461E-002
   1.1830284667868198E-002  -3.8892042331372667E-003   6.3913967059362822E-002
   1.1210829026225839E-002  -3.6886495007121406E-003   6.2300085699877300E-002
   1.0591373384583483E-002  -3.4423172782066594E-003   6.0751969151921000E-002
   9.9719177429411186E-003  -3.1502075656207901E-003   5.9269617415494025E-002
   9.3524621012987634E-003  -2.8123203629544513E-003   5.7853030490596105E-002
   6.8761493940254831E-003  -2.1516038056978992E-003   6.8280126761287460E-002
   5.9380889316332404E-003  -1.9058899766044649E-003   6.6734917374419389E-002
   5.0000284692410021E-003  -1.6318603681085599E-003   6.4486733534522403E-002
   4.0619680068487611E-003  -1.3295149802099457E-003   6.1535575241596474E-002
   3.1239075444565194E-003  -9.9885381290894248E-004   5.7881442495641616E-002
   2.3380090903377948E-003  -4.1400337825847622E-004   7.2700176415219253E-002
   3.1260454263752624E-004  -1.2313045249670584E-004   7.1206177290290856E-002
  -1.7128000050627458E-003   1.7859654198962294E-004   6.8240464447775290E-002
  -3.7382045527630161E-003   4.9117760520082238E-004   6.3803037887672664E-002
  -5.7636091004632864E-003   8.1461273713673288E-004   5.7893897609983036E-002
   1.3832684950750504E-002  -6.4392534630455800E-003   5.7748335808392670E-002
   1.6572102676446460E-002  -6.4106076670651657E-003   6.5307299288465903E-002
   1.9311520402142408E-002  -7.1100497373535604E-003   6.6791894881594510E-002
   2.2050938127838361E-002  -8.5375796739102887E-003   6.2202122587778033E-002
   2.4790355853534327E-002  -1.0693197476735805E-002   5.1537982407017013E-002
   1.2922054570063402E-002  -4.6257869130000850E-003   5.7808661594846461E-002
   1.0919256626389207E-002  -4.5266298978568487E-003   6.3399195448015117E-002
   8.9164586827149908E-003  -4.9826245292481086E-003   6.5579665849388166E-002
   6.9136607390407750E-003  -5.9937708071739967E-003   6.4350072798965680E-002
   4.9108627953665801E-003  -7.5600687316346726E-003   5.9710416296747615E-002
   9.3524621012987634E-003  -2.8123203629544513E-003   5.7853030490596105E-002
   5.2717529234035804E-003  -2.6426521286482402E-003   6.1648070936594107E-002
   1.1910437455084025E-003  -2.8551993211427748E-003   6.4697352365945648E-002
  -2.8896654323867779E-003  -3.4499619404378176E-003   6.7000874778650993E-002
  -6.9703746102819548E-003  -4.4269399865337067E-003   6.8558638174709891E-002
   3.1239075444565194E-003  -9.9885381290894248E-004   5.7881442495641616E-002
  -3.7040843251041726E-004  -7.5867435943980516E-004   6.0053925754202965E-002
  -3.8647244094773534E-003  -7.2777411303743753E-004   6.4144954431267123E-002
  -7.3590403864442861E-003  -9.0615307370174852E-004   7.0154528526834126E-002
  -1.0853356363411219E-002  -1.2938112414327685E-003   7.8082648040904035E-002
  -5.7636091004632864E-003   8.1461273713673288E-004   5.7893897609983036E-002
  -6.0072274413527776E-003   1.1253034097686299E-003   5.8616759900841697E-002
  -6.2508457822422689E-003   1.3996510950678442E-003   6.3922472045352507E-002
  -6.4944641231317619E-003   1.6376557930345842E-003   7.3811034043515189E-002
  -6.7380824640212514E-003   1.8393175036683362E-003   8.8282445895330131E-002
   2.4790355853534327E-002  -1.0693197476735805E-002   5.1537982407017013E-002
   2.4216529505250148E-002  -1.1850390956254120E-002   3.3524550350583937E-002
   2.3642703156965990E-002  -1.0282647922890048E-002   3.2316571544964257E-002
   2.3068876808681808E-002  -5.9899683766428749E-003   4.7914045990157944E-002
   2.2495050460397625E-002   1.0276476824868652E-003   8.0316973686165083E-002
   4.9108627953665801E-003  -7.5600687316346726E-003   5.9710416296747615E-002
   1.6944450113534321E-002  -8.7069595428612978E-003   4.7556651501414998E-002
   2.8978037431702068E-002  -8.4598844810848672E-003   4.3812260788172991E-002
   4.1011624749869871E-002  -6.8188435463052838E-003   4.8477244157021537E-002
   5.3045212068037584E-002  -3.7838367385230054E-003   6.1551601607960138E-002
  -6.9703746102819548E-003  -4.4269399865337067E-003   6.8558638174709891E-002
   9.2745472056148075E-003  -5.5635281294682259E-003   6.0933570000598292E-002
   2.5519469021511559E-002  -6.6371210392796726E-003   5.3321796739854072E-002
   4.1764390837408308E-002  -7.6477187159678002E-003   4.5723318392477556E-002
   5.8009312653305084E-002  -8.5953211595328760E-003   3.8138134958468406E-002
  -1.0853356363411219E-002  -1.2938112414327685E-003   7.8082648040904035E-002
   1.2068207814915849E-003  -2.4200967160753345E-003   7.3655305848133429E-002
   1.3266997926394384E-002  -4.8143575974744848E-003   6.0845179400007471E-002
   2.5327175071297180E-002  -8.4765938856303739E-003   3.9652268696526181E-002
   3.7387352216199987E-002  -1.3406805580542747E-002   1.0076573737689026E-002
  -6.7380824640212514E-003   1.8393175036683362E-003   8.8282445895330131E-002
  -7.2587291588353357E-003   7.2333469731777900E-004   8.5721859044020743E-002
  -7.7793758536494270E-003  -2.9915941556693942E-003   6.6382408768633133E-002
  -8.3000225484635096E-003  -9.3054690552927498E-003   3.0264095069166982E-002
  -8.8206692432775957E-003  -1.8218290001552617E-002  -2.2633082054377196E-002
  -6.4677836005689118E-005   0.0000000000000000        2.8539134346865377E-002
  -8.4542368574093939E-005   1.8914846095286798E-005   3.3535198615415353E-002
  -1.0440690114249833E-004   4.7270809207371547E-005   3.8528565456595387E-002
  -1.2427143371090293E-004   8.5067889336244706E-005   4.3519234870405481E-002
  -1.4413596627930753E-004   1.3230608648191842E-004   4.8507206856845612E-002
  -6.8362275021082268E-003   0.0000000000000000        2.8615121803144374E-002
  -6.8940186100000123E-003   1.5948582134904434E-004   3.3686980157236000E-002
  -6.9518097178917979E-003   3.6238203545396405E-004   3.8685682788050811E-002
  -7.0096008257835817E-003   6.0868864231476173E-004   4.3611229695588810E-002
  -7.0673919336753672E-003   8.9840564193143391E-004   4.8463620879849997E-002
  -1.3523179689602018E-002   0.0000000000000000        2.8814695596807591E-002
  -1.3689355668724052E-002   3.0005679660280232E-004   3.3996317312179947E-002
  -1.3855531647846085E-002   6.7749326170056089E-004   3.9034325008368627E-002
  -1.4021707626968121E-002   1.1323093952932788E-003   4.3928718685373604E-002
  -1.4187883606090156E-002   1.6645051973809524E-003   4.8679498343194919E-002
  -2.0125534398487056E-002   0.0000000000000000        2.9137855727855017E-002
  -2.0470553544746216E-002   4.4062777185655965E-004   3.4463210080247192E-002
  -2.0815572691005365E-002   9.9260448794715990E-004   3.9574492117548807E-002
  -2.1160591837264518E-002   1.6559301482717958E-003   4.4471701839759868E-002
  -2.1505610983523677E-002   2.4306047528304675E-003   4.9154839246880369E-002
  -2.6643291628763353E-002   0.0000000000000000        2.9584602196286669E-002
  -2.7237612238066495E-002   5.8119874711031871E-004   3.5087658461437736E-002
  -2.7831932847369636E-002   1.3077157141937520E-003   4.0306184115591372E-002
  -2.8426253456672778E-002   2.1795509012503111E-003   4.5240179158747590E-002
  -2.9020574065975913E-002   3.1967043082799856E-003   4.9889643590906391E-002
  -1.4413596627930753E-004   1.3230608648191842E-004   4.8507206856845612E-002
  -1.8615572059248273E-004   1.7495920989460054E-004   5.1674404553023280E-002
  -2.2817547490565490E-004   1.9900106882447485E-004   5.4745474674147927E-002
  -2.7019522921882815E-004   2.0443166327157718E-004   5.7720417220219540E-002
  -3.1221498353200226E-004   1.9125099323588635E-004   6.0599232191238153E-002
  -7.0673919336753672E-003   8.9840564193143391E-004   4.8463620879849997E-002
  -7.1828736373706348E-003   1.1822189786525349E-003   5.1419334005164949E-002
  -7.2983553410659041E-003   1.4108145968266064E-003   5.4324250806768733E-002
  -7.4138370447611691E-003   1.5841924964536405E-003   5.7178371284661356E-002
  -7.5293187484564410E-003   1.7023526775336584E-003   5.9981695438842797E-002
  -1.4187883606090156E-002   1.6645051973809524E-003   4.8679498343194919E-002
  -1.4331496007825665E-002   2.1894787474104737E-003   5.1387120443582915E-002
  -1.4475108409561179E-002   2.6226281248287169E-003   5.4089277471601596E-002
  -1.4618720811296690E-002   2.9639533296357142E-003   5.6785969427250962E-002
  -1.4762333213032200E-002   3.2134543618314304E-003   5.9477196310530986E-002
  -2.1505610983523677E-002   2.4306047528304675E-003   4.9154839246880369E-002
  -2.1632022831957576E-002   3.1967385161684068E-003   5.1577763868277199E-002
  -2.1758434680391483E-002   3.8344416528308346E-003   5.4040554668646539E-002
  -2.1884846528825382E-002   4.3437141628177725E-003   5.6543211647988409E-002
  -2.2011258377259292E-002   4.7245560461292024E-003   5.9085734806302845E-002
  -2.9020574065975913E-002   3.1967043082799856E-003   4.9889643590906391E-002
  -2.9084454109766362E-002   4.2039982849263512E-003   5.1991264279247766E-002
  -2.9148334153556808E-002   5.0462551808329505E-003   5.4178082397903525E-002
  -2.9212214197347264E-002   5.7234749959998521E-003   5.6450097946873681E-002
  -2.9276094241137710E-002   6.2356577304269675E-003   5.8807310926158214E-002
  -3.1221498353200226E-004   1.9125099323588635E-004   6.0599232191238153E-002
  -3.6464168890638742E-004   2.1020820928172035E-004   6.1680814185919919E-002
  -4.1706839428077517E-004   3.1205246197326883E-004   6.2797159557222065E-002
  -4.6949509965516075E-004   4.9678375131065929E-004   6.3948268305144523E-002
  -5.2192180502954807E-004   7.6440207729379372E-004   6.5134140429687279E-002
  -7.5293187484564410E-003   1.7023526775336584E-003   5.9981695438842797E-002
  -7.5280031952617600E-003   1.8118142749865424E-003   6.1126699409791235E-002
  -7.5266876420670772E-003   1.9590964237321297E-003   6.2344424521257505E-002
  -7.5253720888723910E-003   2.1441991237704560E-003   6.3634870773241564E-002
  -7.5240565356777152E-003   2.3671223751014769E-003   6.4998038165743427E-002
  -1.4762333213032200E-002   3.2134543618314304E-003   5.9477196310530986E-002
  -1.4669317637370971E-002   3.4134203406913505E-003   6.0640555772393065E-002
  -1.4576302061709739E-002   3.6061403854909645E-003   6.1914594138670453E-002
  -1.4483286486048508E-002   3.7916144962302531E-003   6.3299311409363110E-002
  -1.4390270910387280E-002   3.9698426729092365E-003   6.4794707584471048E-002
  -2.2011258377259292E-002   4.7245560461292024E-003   5.9085734806302845E-002
  -2.1788585015234035E-002   5.0150264063961655E-003   6.0222383273725484E-002
  -2.1565911653208775E-002   5.2531843472498124E-003   6.1507668409460883E-002
  -2.1343238291183512E-002   5.4390298686900363E-003   6.2941590213509022E-002
  -2.1120564929158259E-002   5.5725629707169440E-003   6.4524148685869989E-002
  -2.9276094241137710E-002   6.2356577304269675E-003   5.8807310926158214E-002
  -2.8885805328850937E-002   6.6166324721009875E-003   5.9872181913788368E-002
  -2.8495516416564171E-002   6.9002283090086724E-003   6.1123647333628808E-002
  -2.8105227504277398E-002   7.0864452411498573E-003   6.2561707185679452E-002
  -2.7714938591990635E-002   7.1752832685247070E-003   6.4186361469940362E-002
  -5.2192180502954807E-004   7.6440207729379372E-004   6.5134140429687279E-002
  -1.0354246820350795E-003   9.6084928709392475E-004   6.4748627681905924E-002
  -1.5489275590406144E-003   9.3206722788240562E-004   6.4746122151845165E-002
  -2.0624304360461502E-003   6.7805589965924413E-004   6.5126623839504960E-002
  -2.5759333130516808E-003   1.9881530242438217E-004   6.5890132744885366E-002
  -7.5240565356777152E-003   2.3671223751014769E-003   6.4998038165743427E-002
  -7.6691073557082117E-003   2.5396040799558067E-003   6.4551924156526191E-002
  -7.8141581757387047E-003   2.5733821405639831E-003   6.4459707043538539E-002
  -7.9592089957692003E-003   2.4684565569259350E-003   6.4721386826780317E-002
  -8.1042598157997012E-003   2.2248273290417508E-003   6.5336963506251622E-002
  -1.4390270910387280E-002   3.9698426729092365E-003   6.4794707584471048E-002
  -1.4195979994933819E-002   4.1183588728177130E-003   6.4374517938583398E-002
  -1.4001689079480363E-002   4.2146970532455034E-003   6.4279114867434275E-002
  -1.3807398164026898E-002   4.2588572141926389E-003   6.4508498371023570E-002
  -1.3613107248573448E-002   4.2508393556591473E-003   6.5062668449351130E-002
  -2.1120564929158259E-002   5.5725629707169440E-003   6.4524148685869989E-002
  -2.0616042599711920E-002   5.6971136656796210E-003   6.4216409028077542E-002
  -2.0111520270265582E-002   5.8560119659270245E-003   6.4204345623532458E-002
  -1.9606997940819243E-002   6.0492578714593367E-003   6.4487958472234722E-002
  -1.9102475611372908E-002   6.2768513822765021E-003   6.5067247574184250E-002
  -2.7714938591990635E-002   7.1752832685247070E-003   6.4186361469940362E-002
  -2.6929295170042503E-002   7.2758684585414873E-003   6.4077597425008598E-002
  -2.6143651748094368E-002   7.4973268786085526E-003   6.4235399311833044E-002
  -2.5358008326146229E-002   7.8396585287260640E-003   6.4659767130413770E-002
  -2.4572364904198108E-002   8.3028634088939124E-003   6.5350700880750706E-002
  -2.5759333130516808E-003   1.9881530242438217E-004   6.5890132744885366E-002
  -1.3474477122043110E-003  -2.8337728892380287E-004   6.7139672455296950E-002
  -1.1896211135694300E-004  -5.4624459948705850E-004   6.8691192970489784E-002
   1.1095234894904250E-003  -5.8978662926515227E-004   7.0544694290463880E-002
   2.3380090903377948E-003  -4.1400337825847622E-004   7.2700176415219253E-002
  -8.1042598157997012E-003   2.2248273290417508E-003   6.5336963506251622E-002
  -6.6861660278290744E-003   1.9667034340488943E-003   6.6658129464386345E-002
  -5.2680722398584443E-003   1.8182938490847317E-003   6.8056530991986386E-002
  -3.8499784518878175E-003   1.7795985741495442E-003   6.9532168089051757E-002
  -2.4318846639171873E-003   1.8506176092431270E-003   7.1085040755582307E-002
  -1.3613107248573448E-002   4.2508393556591473E-003   6.5062668449351130E-002
  -1.2230150508795536E-002   4.2167841570215914E-003   6.6345849684452951E-002
  -1.0847193769017618E-002   4.1828322976566398E-003   6.7481521253704047E-002
  -9.4642370292397048E-003   4.1489837775643811E-003   6.8469683157104458E-002
  -8.0812802894617980E-003   4.1152385967446192E-003   6.9310335394654116E-002
  -1.9102475611372908E-002   6.2768513822765021E-003   6.5067247574184250E-002
  -1.7979401155103693E-002   6.4668648799942746E-003   6.6202833115496865E-002
  -1.6856326698834471E-002   6.5473707462285168E-003   6.6966163755642807E-002
  -1.5733252242565242E-002   6.5183689809791201E-003   6.7357239494622037E-002
  -1.4610177786296032E-002   6.3798595842462502E-003   6.7376060332434567E-002
  -2.4572364904198108E-002   8.3028634088939124E-003   6.5350700880750706E-002
  -2.3933917966753551E-002   8.7169456029669856E-003   6.6229079757517961E-002
  -2.3295471029308991E-002   8.9119091948003382E-003   6.6510458497802516E-002
  -2.2657024091864441E-002   8.8877541843939700E-003   6.6194837101604426E-002
  -2.2018577154419877E-002   8.6444805717477147E-003   6.5282215568923663E-002
   2.3380090903377948E-003  -4.1400337825847622E-004   7.2700176415219253E-002
   3.1260454263752624E-004  -1.2313045249670584E-004   7.1206177290290856E-002
  -1.7128000050627458E-003   1.7859654198962294E-004   6.8240464447775290E-002
  -3.7382045527630161E-003   4.9117760520082238E-004   6.3803037887672664E-002
  -5.7636091004632864E-003   8.1461273713673288E-004   5.7893897609983036E-002
  -2.4318846639171873E-003   1.8506176092431270E-003   7.1085040755582307E-002
  -5.3207792326203747E-003   1.9952602884549947E-003   6.9343956979414936E-002
  -8.2096738013235377E-003   2.1774359458749878E-003   6.7347606878828778E-002
  -1.1098568370026710E-002   2.3971445815028341E-003   6.5095990453823943E-002
  -1.3987462938729888E-002   2.6543861953389758E-003   6.2589107704400460E-002
  -8.0812802894617980E-003   4.1152385967446192E-003   6.9310335394654116E-002
  -1.0617217485999475E-002   4.1136510294069034E-003   6.7348845876730901E-002
  -1.3153154682537145E-002   4.1762753497604083E-003   6.6348537427557419E-002
  -1.5689091879074815E-002   4.3031115578051789E-003   6.6309410047133616E-002
  -1.8225029075612496E-002   4.4941596535413020E-003   6.7231463735459601E-002
  -1.4610177786296032E-002   6.3798595842462502E-003   6.7376060332434567E-002
  -1.5576710217499803E-002   6.2320417703587636E-003   6.5220843982238846E-002
  -1.6543242648703570E-002   6.1751147536458842E-003   6.5243256093961227E-002
  -1.7509775079907329E-002   6.2090785341073571E-003   6.7443296667601724E-002
  -1.8476307511111113E-002   6.3339331117435588E-003   7.1820965703160405E-002
  -2.2018577154419877E-002   8.6444805717477147E-003   6.5282215568923663E-002
  -2.0199257427121347E-002   8.3504325113105682E-003   6.2959951295938732E-002
  -1.8379937699822803E-002   8.1739541575312075E-003   6.4031762878040216E-002
  -1.6560617972524259E-002   8.1150455104096776E-003   6.8497650315228295E-002
  -1.4741298245225722E-002   8.1737065699459266E-003   7.6357613607502817E-002
  -5.7636091004632864E-003   8.1461273713673288E-004   5.7893897609983036E-002
  -6.0072274413527776E-003   1.1253034097686299E-003   5.8616759900841697E-002
  -6.2508457822422689E-003   1.3996510950678442E-003   6.3922472045352507E-002
  -6.4944641231317619E-003   1.6376557930345842E-003   7.3811034043515189E-002
  -6.7380824640212514E-003   1.8393175036683362E-003   8.8282445895330131E-002
  -1.3987462938729888E-002   2.6543861953389758E-003   6.2589107704400460E-002
  -1.0918192932176576E-002   2.9806408140686247E-003   6.6060371212557173E-002
  -7.8489229256232633E-003   3.4073884643775060E-003   7.1574561561947359E-002
  -4.7796529190699509E-003   3.9346291462655537E-003   7.9131678752571225E-002
  -1.7103829125166385E-003   4.5623628597329380E-003   8.8731722784428591E-002
  -1.8225029075612496E-002   4.4941596535413020E-003   6.7231463735459601E-002
  -1.4382793734034864E-002   4.8359782183685363E-003   7.3587964479826198E-002
  -1.0540558392457246E-002   5.4151258336870567E-003   7.9447469053008007E-002
  -6.6983230508796190E-003   6.2316024994966898E-003   8.4809977455004876E-002
  -2.8560877093019941E-003   7.2854082157975675E-003   8.9675489685816692E-002
  -1.8476307511111113E-002   6.3339331117435588E-003   7.1820965703160405E-002
  -1.6401029846927661E-002   6.6913156226685727E-003   8.1199539702648899E-002
  -1.4325752182744208E-002   7.4228632029966074E-003   8.7541194518534066E-002
  -1.2250474518560752E-002   8.5285758527277981E-003   9.0845930150815851E-002
  -1.0175196854377301E-002   1.0008453571862239E-002   9.1113746599494061E-002
  -1.4741298245225722E-002   8.1737065699459266E-003   7.6357613607502817E-002
  -1.6972901270854938E-002   8.5466530269684982E-003   8.8895096881025260E-002
  -1.9204504296484161E-002   9.4306005723061720E-003   9.5855737958525783E-002
  -2.1436107322113380E-002   1.0825549205958827E-002   9.7239536840004456E-002
  -2.3667710347742586E-002   1.2731498927926799E-002   9.3046493525461127E-002
  -6.7380824640212514E-003   1.8393175036683362E-003   8.8282445895330131E-002
  -7.2587291588353357E-003   7.2333469731777900E-004   8.5721859044020743E-002
  -7.7793758536494270E-003  -2.9915941556693942E-003   6.6382408768633133E-002
  -8.3000225484635096E-003  -9.3054690552927498E-003   3.0264095069166982E-002
  -8.8206692432775957E-003  -1.8218290001552617E-002  -2.2633082054377196E-002
  -1.7103829125166385E-003   4.5623628597329380E-003   8.8731722784428591E-002
  -1.4632453505052165E-002   4.4422387591685208E-003   8.2277593758046469E-002
  -2.7554524097587692E-002   2.7259059989609841E-003   6.7799480360299980E-002
  -4.0476594690123220E-002  -5.8663542088953705E-004   4.5297382591188970E-002
  -5.3398665282658769E-002  -5.4953855003829766E-003   1.4771300450713398E-002
  -2.8560877093019941E-003   7.2854082157975675E-003   8.9675489685816692E-002
  -1.9424703146845121E-002   8.1611428210192627E-003   8.0330555871355278E-002
  -3.5993318584388242E-002   8.4434061535912444E-003   7.1716516738243113E-002
  -5.2561934021931371E-002   8.1321982135136184E-003   6.3833372286480269E-002
  -6.9130549459474486E-002   7.2275190007865531E-003   5.6681122516067051E-002
  -1.0175196854377301E-002   1.0008453571862239E-002   9.1113746599494061E-002
  -2.1635478084214201E-002   1.1880046882870060E-002   7.9880745383946752E-002
  -3.3095759314051086E-002   1.4160906308221564E-002   7.8133517902462701E-002
  -4.4556040543887968E-002   1.6851031847916913E-002   8.5872064155041575E-002
  -5.6016321773724856E-002   1.9950423501956083E-002  0.10309638414168391     
  -2.3667710347742586E-002   1.2731498927926799E-002   9.3046493525461127E-002
  -2.1264778317159394E-002   1.5598950944720802E-002   8.0928162295821171E-002
  -1.8861846286576191E-002   1.9878406462851828E-002   8.7050483852958216E-002
  -1.6458914255993010E-002   2.5569865482320028E-002  0.11141345819687229     
  -1.4055982225409783E-002   3.2673328003125723E-002  0.15401708532756331     
  -2.6643291628763353E-002   0.0000000000000000        2.9584602196286669E-002
  -2.7237612238066495E-002   5.8119874711031871E-004   3.5087658461437736E-002
  -2.7831932847369636E-002   1.3077157141937520E-003   4.0306184115591372E-002
  -2.8426253456672778E-002   2.1795509012503111E-003   4.5240179158747590E-002
  -2.9020574065975913E-002   3.1967043082799856E-003   4.9889643590906391E-002
  -3.3403923284610781E-002   0.0000000000000000        3.0289728061162112E-002
  -3.4223188098462420E-002   9.5163040498509772E-004   3.5404601825355611E-002
  -3.5042452912314052E-002   2.0030974346861366E-003   4.0354117791449540E-002
  -3.5861717726165691E-002   3.1544010891031158E-003   4.5138275959443912E-002
  -3.6680982540017330E-002   4.4055413682360317E-003   4.9757076329338699E-002
  -4.0734901270209220E-002   0.0000000000000000        3.1388026381540923E-002
  -4.1659937475711506E-002   1.3220620628598789E-003   3.6069236049519685E-002
  -4.2584973681213799E-002   2.6984791551785186E-003   4.0704260732296729E-002
  -4.3510009886716071E-002   4.1292512769559231E-003   4.5293100429872050E-002
  -4.4435046092218357E-002   5.6143784281920892E-003   4.9835755142245662E-002
  -4.8636225585558690E-002   0.0000000000000000        3.2879497157423110E-002
  -4.9547860369813769E-002   1.6924937207346594E-003   3.7081561133929949E-002
  -5.0459495154068834E-002   3.3938608756709033E-003   4.1356612938132919E-002
  -5.1371129938323913E-002   5.1041014648087260E-003   4.5704652570032041E-002
  -5.2282764722578978E-002   6.8232154881481405E-003   5.0125680029627286E-002
  -5.7107896230659178E-002   0.0000000000000000        3.4764140388808658E-002
  -5.7886956780769182E-002   2.0629253786094400E-003   3.8441577078586406E-002
  -5.8666017330879193E-002   4.0892425961632853E-003   4.2311174408958131E-002
  -5.9445077880989211E-002   6.0789516526615368E-003   4.6372932379923855E-002
  -6.0224138431099215E-002   8.0320525481041918E-003   5.0626850991483563E-002
  -2.9020574065975913E-002   3.1967043082799856E-003   4.9889643590906391E-002
  -2.9084454109766362E-002   4.2039982849263512E-003   5.1991264279247766E-002
  -2.9148334153556808E-002   5.0462551808329505E-003   5.4178082397903525E-002
  -2.9212214197347264E-002   5.7234749959998521E-003   5.6450097946873681E-002
  -2.9276094241137710E-002   6.2356577304269675E-003   5.8807310926158214E-002
  -3.6680982540017330E-002   4.4055413682360317E-003   4.9757076329338699E-002
  -3.6691427441065093E-002   5.6212774754492954E-003   5.1565438627301265E-002
  -3.6701872342112869E-002   6.6663686141072882E-003   5.3395473780434799E-002
  -3.6712317243160639E-002   7.5408147842100396E-003   5.5247181788739309E-002
  -3.6722762144208415E-002   8.2446159857574933E-003   5.7120562652214789E-002
  -4.4435046092218357E-002   5.6143784281920892E-003   4.9835755142245662E-002
  -4.4455580425666857E-002   7.0385566659722388E-003   5.1345251162013904E-002
  -4.4476114759115344E-002   8.2864820473816190E-003   5.2812895461809686E-002
  -4.4496649092563845E-002   9.3581545724202193E-003   5.4238688041633044E-002
  -4.4517183426012352E-002   1.0253574241088022E-002   5.5622628901483978E-002
  -5.2282764722578978E-002   6.8232154881481405E-003   5.0125680029627286E-002
  -5.2376913063571624E-002   8.4558358564951839E-003   5.1330701883385663E-002
  -5.2471061404564270E-002   9.9065954806559341E-003   5.2430347442028201E-002
  -5.2565209745556903E-002   1.1175494360630403E-002   5.3424616705554887E-002
  -5.2659358086549542E-002   1.2262532496418557E-002   5.4313509673965733E-002
  -6.0224138431099215E-002   8.0320525481041918E-003   5.0626850991483563E-002
  -6.0455425354779407E-002   9.8731150470181307E-003   5.1521790791416562E-002
  -6.0686712278459606E-002   1.1526708913930270E-002   5.2247829721090322E-002
  -6.0917999202139798E-002   1.2992834148840600E-002   5.2804967780504808E-002
  -6.1149286125819990E-002   1.4271490751749077E-002   5.3193204969660068E-002
  -2.9276094241137710E-002   6.2356577304269675E-003   5.8807310926158214E-002
  -2.8885805328850937E-002   6.6166324721009875E-003   5.9872181913788368E-002
  -2.8495516416564171E-002   6.9002283090086724E-003   6.1123647333628808E-002
  -2.8105227504277398E-002   7.0864452411498573E-003   6.2561707185679452E-002
  -2.7714938591990635E-002   7.1752832685247070E-003   6.4186361469940362E-002
  -3.6722762144208415E-002   8.2446159857574933E-003   5.7120562652214789E-002
  -3.6135641926484469E-002   8.7722984553400378E-003   5.7708431434268154E-002
  -3.5548521708760550E-002   9.1183884295480706E-003   5.8503368394985572E-002
  -3.4961401491036596E-002   9.2828859083815066E-003   5.9505373534367086E-002
  -3.4374281273312685E-002   9.2657908918404308E-003   6.0714446852412673E-002
  -4.4517183426012352E-002   1.0253574241088022E-002   5.5622628901483978E-002
  -4.3712758156397427E-002   1.0927964438579078E-002   5.5649281887352353E-002
  -4.2908332886782523E-002   1.1336548550087498E-002   5.5903476798338653E-002
  -4.2103907617167605E-002   1.1479326575613144E-002   5.6385213634442856E-002
  -4.1299482347552673E-002   1.1356298515156169E-002   5.7094492395664949E-002
  -5.2659358086549542E-002   1.2262532496418557E-002   5.4313509673965733E-002
  -5.1617154018589809E-002   1.3083630421818130E-002   5.3694733273041015E-002
  -5.0574949950630069E-002   1.3554708670626910E-002   5.3323972543688050E-002
  -4.9532745882670329E-002   1.3675767242844814E-002   5.3201227485906812E-002
  -4.8490541814710596E-002   1.3446806138471941E-002   5.3326498099697299E-002
  -6.1149286125819990E-002   1.4271490751749077E-002   5.3193204969660068E-002
  -5.9848829513061606E-002   1.5239296405057154E-002   5.1844785591334153E-002
  -5.8548372900303236E-002   1.5772868791166322E-002   5.0764855631033778E-002
  -5.7247916287544852E-002   1.5872207910076444E-002   4.9953415088758939E-002
  -5.5947459674786482E-002   1.5537313761787658E-002   4.9410463964509682E-002
  -2.7714938591990635E-002   7.1752832685247070E-003   6.4186361469940362E-002
  -2.6929295170042503E-002   7.2758684585414873E-003   6.4077597425008598E-002
  -2.6143651748094368E-002   7.4973268786085526E-003   6.4235399311833044E-002
  -2.5358008326146229E-002   7.8396585287260640E-003   6.4659767130413770E-002
  -2.4572364904198108E-002   8.3028634088939124E-003   6.5350700880750706E-002
  -3.4374281273312685E-002   9.2657908918404308E-003   6.0714446852412673E-002
  -3.3296904079668760E-002   9.2168764961808661E-003   6.0484405738096471E-002
  -3.2219526886024863E-002   9.2859158376590104E-003   6.0571266235415581E-002
  -3.1142149692380931E-002   9.4729089162747474E-003   6.0975028344369991E-002
  -3.0064772498737027E-002   9.7778557320281623E-003   6.1695692064959728E-002
  -4.1299482347552673E-002   1.1356298515156169E-002   5.7094492395664949E-002
  -3.9880035702333914E-002   1.1157884533820321E-002   5.6740254719051635E-002
  -3.8460589057115142E-002   1.1074504796709354E-002   5.6753254333952702E-002
  -3.7041142411896384E-002   1.1106159303823401E-002   5.7133491240368151E-002
  -3.5621695766677612E-002   1.1252848055162384E-002   5.7880965438298002E-002
  -4.8490541814710596E-002   1.3446806138471941E-002   5.3326498099697299E-002
  -4.6678690038037936E-002   1.3098892571459794E-002   5.2845144367874144E-002
  -4.4866838261365276E-002   1.2863093755759754E-002   5.2781363607444502E-002
  -4.3054986484692581E-002   1.2739409691372099E-002   5.3135155818408268E-002
  -4.1243134708019963E-002   1.2727840378296634E-002   5.3906521000765456E-002
  -5.5947459674786482E-002   1.5537313761787658E-002   4.9410463964509682E-002
  -5.3692867086780845E-002   1.5039900609099197E-002   4.8799074684564014E-002
  -5.1438274498775208E-002   1.4651682714810155E-002   4.8655594055890899E-002
  -4.9183681910769557E-002   1.4372660078920782E-002   4.8980022078490254E-002
  -4.6929089322763920E-002   1.4202832701430884E-002   4.9772358752362134E-002
  -2.4572364904198108E-002   8.3028634088939124E-003   6.5350700880750706E-002
  -2.3933917966753551E-002   8.7169456029669856E-003   6.6229079757517961E-002
  -2.3295471029308991E-002   8.9119091948003382E-003   6.6510458497802516E-002
  -2.2657024091864441E-002   8.8877541843939700E-003   6.6194837101604426E-002
  -2.2018577154419877E-002   8.6444805717477147E-003   6.5282215568923663E-002
  -3.0064772498737027E-002   9.7778557320281623E-003   6.1695692064959728E-002
  -2.9892035343021321E-002   1.0028767150185552E-002   6.2418274055794365E-002
  -2.9719298187305586E-002   1.0053654036013437E-002   6.2806436619654030E-002
  -2.9546561031589879E-002   9.8525163895117063E-003   6.2860179756538584E-002
  -2.9373823875874155E-002   9.4253542106804700E-003   6.2579503466448139E-002
  -3.5621695766677612E-002   1.1252848055162384E-002   5.7880965438298002E-002
  -3.5652087683183127E-002   1.1340588697404147E-002   5.8440844613110304E-002
  -3.5682479599688677E-002   1.1195398877226537E-002   5.8928885070455128E-002
  -3.5712871516194206E-002   1.0817278594629526E-002   5.9345086810332542E-002
  -3.5743263432699721E-002   1.0206227849613170E-002   5.9689449832742533E-002
  -4.1243134708019963E-002   1.2727840378296634E-002   5.3906521000765456E-002
  -4.1214074987239099E-002   1.2652410244622714E-002   5.4296791429465571E-002
  -4.1185015266458222E-002   1.2337143718439636E-002   5.4877803850205846E-002
  -4.1155955545677386E-002   1.1782040799747276E-002   5.5649558262986273E-002
  -4.1126895824896516E-002   1.0987101488545897E-002   5.6612054667806902E-002
  -4.6929089322763920E-002   1.4202832701430884E-002   4.9772358752362134E-002
  -4.6577997255189067E-002   1.3964231791841294E-002   4.9986114504860263E-002
  -4.6226905187614256E-002   1.3478888559652714E-002   5.0653192958906149E-002
  -4.5875813120039445E-002   1.2746803004865160E-002   5.1773594114499909E-002
  -4.5524721052464592E-002   1.1767975127478569E-002   5.3347317971641328E-002
  -2.2018577154419877E-002   8.6444805717477147E-003   6.5282215568923663E-002
  -2.0199257427121347E-002   8.3504325113105682E-003   6.2959951295938732E-002
  -1.8379937699822803E-002   8.1739541575312075E-003   6.4031762878040216E-002
  -1.6560617972524259E-002   8.1150455104096776E-003   6.8497650315228295E-002
  -1.4741298245225722E-002   8.1737065699459266E-003   7.6357613607502817E-002
  -2.9373823875874155E-002   9.4253542106804700E-003   6.2579503466448139E-002
  -2.4881828676088097E-002   8.9623350101765281E-003   6.0657586073313854E-002
  -2.0389833476302001E-002   8.6536262986566109E-003   6.0686943770068141E-002
  -1.5897838276515922E-002   8.4992280761207982E-003   6.2667576556711083E-002
  -1.1405843076729854E-002   8.4991403425690448E-003   6.6599484433242429E-002
  -3.5743263432699721E-002   1.0206227849613170E-002   5.9689449832742533E-002
  -3.0021393525624038E-002   9.5742375090422660E-003   5.8204620101785370E-002
  -2.4299523618548362E-002   9.1332984397819519E-003   5.7228264695518734E-002
  -1.8577653711472682E-002   8.8834106418318060E-003   5.6760383613942783E-002
  -1.2855783804396972E-002   8.8245741151923018E-003   5.6800976857057497E-002
  -4.1126895824896516E-002   1.0987101488545897E-002   5.6612054667806902E-002
  -3.5617951975729201E-002   1.0186140007908143E-002   5.5601053381353155E-002
  -3.0109008126561820E-002   9.6129705809072132E-003   5.3655725654391924E-002
  -2.4600064277394487E-002   9.2675932075428694E-003   5.0776071486923376E-002
  -1.9091120428227124E-002   9.1500078878154895E-003   4.6962090878947690E-002
  -4.5524721052464592E-002   1.1767975127478569E-002   5.3347317971641328E-002
  -4.1671504026403544E-002   1.0798042506773936E-002   5.2846885912017139E-002
  -3.7818287000342447E-002   1.0092642722032585E-002   4.9969326646687712E-002
  -3.3965069974281364E-002   9.6517757732539067E-003   4.4714640175653117E-002
  -3.0111852948220288E-002   9.4754416604387326E-003   3.7082826498913202E-002
  -1.4741298245225722E-002   8.1737065699459266E-003   7.6357613607502817E-002
  -1.6972901270854938E-002   8.5466530269684982E-003   8.8895096881025260E-002
  -1.9204504296484161E-002   9.4306005723061720E-003   9.5855737958525783E-002
  -2.1436107322113380E-002   1.0825549205958827E-002   9.7239536840004456E-002
  -2.3667710347742586E-002   1.2731498927926799E-002   9.3046493525461127E-002
  -1.1405843076729854E-002   8.4991403425690448E-003   6.6599484433242429E-002
  -1.7772461195604432E-002   8.6690285822633717E-003   7.6141720186289924E-002
  -2.4139079314479023E-002   9.0245582794655638E-003   8.2990767948868532E-002
  -3.0505697433353615E-002   9.5657294341754649E-003   8.7146627720978295E-002
  -3.6872315552228196E-002   1.0292542046393294E-002   8.8609299502619143E-002
  -1.2855783804396972E-002   8.8245741151923018E-003   5.6800976857057497E-002
  -2.0473762810963841E-002   8.7914041375582175E-003   6.3022605458822697E-002
  -2.8091741817530727E-002   8.6185159866248931E-003   6.9434700275672084E-002
  -3.5709720824097596E-002   8.3059096623919904E-003   7.6037261307605700E-002
  -4.3327699830664472E-002   7.8535851648598998E-003   8.2830288554623710E-002
  -1.9091120428227124E-002   9.1500078878154895E-003   4.6962090878947690E-002
  -2.5076806116933192E-002   8.9137796928531882E-003   4.9537752698623413E-002
  -3.1062491805639289E-002   8.2124736937840871E-003   5.5187534938936453E-002
  -3.7048177494345351E-002   7.0460898906086278E-003   6.3911437599886864E-002
  -4.3033863183051427E-002   5.4146282833264503E-003   7.5709460681474675E-002
  -3.0111852948220288E-002   9.4754416604387326E-003   3.7082826498913202E-002
  -3.1581591113512456E-002   9.0361552481479090E-003   3.5687161905692266E-002
  -3.3051329278804657E-002   7.8064314009434893E-003   4.0249271938661735E-002
  -3.4521067444096859E-002   5.7862701188251507E-003   5.0769156597821621E-002
  -3.5990805609389026E-002   2.9756714017930008E-003   6.7246815883171940E-002
  -2.3667710347742586E-002   1.2731498927926799E-002   9.3046493525461127E-002
  -2.1264778317159394E-002   1.5598950944720802E-002   8.0928162295821171E-002
  -1.8861846286576191E-002   1.9878406462851828E-002   8.7050483852958216E-002
  -1.6458914255993010E-002   2.5569865482320028E-002  0.11141345819687229     
  -1.4055982225409783E-002   3.2673328003125723E-002  0.15401708532756331     
  -3.6872315552228196E-002   1.0292542046393294E-002   8.8609299502619143E-002
  -2.1038327774153643E-002   1.1574044019483892E-002   7.9598462542530418E-002
  -5.2043399960791086E-003   1.3779283256812228E-002   7.9209084290647408E-002
   1.0629647781995450E-002   1.6908259758377956E-002   8.7441164746969738E-002
   2.6463635560070010E-002   2.0960973524181803E-002  0.10429470391149842     
  -4.3327699830664472E-002   7.8535851648598998E-003   8.2830288554623710E-002
  -2.3681850383669899E-002   7.5491370942471214E-003   7.6438679626986514E-002
  -4.0360009366753212E-003   7.6801600507725165E-003   6.9049335328983552E-002
   1.5609848510319289E-002   8.2466540344360503E-003   6.0662255660615116E-002
   3.5255697957313772E-002   9.2486190452378825E-003   5.1277440621880943E-002
  -4.3033863183051427E-002   5.4146282833264503E-003   7.5709460681474675E-002
  -2.9195346145708130E-002   3.5242301690103922E-003   7.1448813549189527E-002
  -1.5356829108364885E-002   1.5810368447329165E-003   5.6571236967967585E-002
  -1.5183120710215540E-003  -4.1495168950599418E-004   3.1076730937808317E-002
   1.2320204966321680E-002  -2.4637354337060380E-003  -5.0347045412874603E-003
  -3.5990805609389026E-002   2.9756714017930008E-003   6.7246815883171940E-002
  -3.7578815060268361E-002  -5.0067675622639252E-004   6.4628864309139444E-002
  -3.9166824511147724E-002  -4.5180863613068223E-003   4.1774789207598750E-002
  -4.0754833962027101E-002  -9.0765574134481289E-003  -1.3154094214505446E-003
  -4.2342843412906395E-002  -1.4176089912649958E-002  -6.4641731578007677E-002
  -5.7107896230659178E-002   0.0000000000000000        3.4764140388808658E-002
  -5.7886956780769182E-002   2.0629253786094400E-003   3.8441577078586406E-002
  -5.8666017330879193E-002   4.0892425961632853E-003   4.2311174408958131E-002
  -5.9445077880989211E-002   6.0789516526615368E-003   4.6372932379923855E-002
  -6.0224138431099215E-002   8.0320525481041918E-003   5.0626850991483563E-002
  -6.5752040255568953E-002   0.0000000000000000        3.7268176303290573E-002
  -6.6563102799983134E-002   2.8957033942645389E-003   4.0897406872212737E-002
  -6.7374165344397330E-002   5.7291288374049596E-003   4.4270472811932561E-002
  -6.8185227888811498E-002   8.5002763294212587E-003   4.7387374122450053E-002
  -6.8996290433225679E-002   1.1209145870313450E-002   5.0248110803765220E-002
  -7.4170784710346285E-002   0.0000000000000000        4.0617825128461855E-002
  -7.5462174518860961E-002   3.7284814099196408E-003   4.4173179786459904E-002
  -7.6753564327375651E-002   7.3690150786466391E-003   4.7024044545459304E-002
  -7.8044954135890313E-002   1.0921601006180993E-002   4.9170419405460054E-002
  -7.9336343944404988E-002   1.4386239192522705E-002   5.0612304366462142E-002
  -8.2364129594991203E-002   0.0000000000000000        4.4813086864322497E-002
  -8.4584171937402711E-002   4.5612594255747436E-003   4.8268895821327915E-002
  -8.6804214279814190E-002   9.0089013198883169E-003   5.0571889609538359E-002
  -8.9024256622225670E-002   1.3342925682940727E-002   5.1722068228953831E-002
  -9.1244298964637163E-002   1.7563332514731963E-002   5.1719431679574310E-002
  -9.0332074909503693E-002   0.0000000000000000        4.9853961510872513E-002
  -9.3929095055608314E-002   5.3940374412298434E-003   5.3184554976816768E-002
  -9.7526115201712935E-002   1.0648787561129993E-002   5.4914008004169727E-002
 -0.10112313534781754        1.5764250359700454E-002   5.5042320592931404E-002
 -0.10472015549392219        2.0740425836941221E-002   5.3569492743101771E-002
  -6.0224138431099215E-002   8.0320525481041918E-003   5.0626850991483563E-002
  -6.0455425354779407E-002   9.8731150470181307E-003   5.1521790791416562E-002
  -6.0686712278459606E-002   1.1526708913930270E-002   5.2247829721090322E-002
  -6.0917999202139798E-002   1.2992834148840600E-002   5.2804967780504808E-002
  -6.1149286125819990E-002   1.4271490751749077E-002   5.3193204969660068E-002
  -6.8996290433225679E-002   1.1209145870313450E-002   5.0248110803765220E-002
  -6.9172081929397333E-002   1.3622108993363668E-002   4.9441043634132355E-002
  -6.9347873425568973E-002   1.5505537231854088E-002   4.8913868189775840E-002
  -6.9523664921740613E-002   1.6859430585784707E-002   4.8666584470695648E-002
  -6.9699456417912281E-002   1.7683789055155524E-002   4.8699192476891820E-002
  -7.9336343944404988E-002   1.4386239192522705E-002   5.0612304366462142E-002
  -7.9007847417532515E-002   1.7371102939709199E-002   4.7761163974705444E-002
  -7.8679350890660027E-002   1.9484365549777918E-002   4.5638707903760671E-002
  -7.8350854363787525E-002   2.0726027022728834E-002   4.4244936153627838E-002
  -7.8022357836915052E-002   2.1096087358561971E-002   4.3579848724306924E-002
  -9.1244298964637163E-002   1.7563332514731963E-002   5.1719431679574310E-002
  -8.9962721819184938E-002   2.1120096886054745E-002   4.6482151813135780E-002
  -8.8681144673732754E-002   2.3463193867701737E-002   4.2422348863044780E-002
  -8.7399567528280528E-002   2.4592623459672946E-002   3.9540022829301288E-002
  -8.6117990382828330E-002   2.4508385661968446E-002   3.7835173711905298E-002
 -0.10472015549392219        2.0740425836941221E-002   5.3569492743101771E-002
 -0.10203670513435464        2.4869090832400263E-002   4.5604007149423427E-002
  -9.9353254774787111E-002   2.7442022185625563E-002   3.9264791067628195E-002
  -9.6669804415219593E-002   2.8459219896617080E-002   3.4551844497716096E-002
  -9.3986354055652033E-002   2.7920683965374865E-002   3.1465167439687095E-002
  -6.1149286125819990E-002   1.4271490751749077E-002   5.3193204969660068E-002
  -5.9848829513061606E-002   1.5239296405057154E-002   5.1844785591334153E-002
  -5.8548372900303236E-002   1.5772868791166322E-002   5.0764855631033778E-002
  -5.7247916287544852E-002   1.5872207910076444E-002   4.9953415088758939E-002
  -5.5947459674786482E-002   1.5537313761787658E-002   4.9410463964509682E-002
  -6.9699456417912281E-002   1.7683789055155524E-002   4.8699192476891820E-002
  -6.8137725605314226E-002   1.8114251248244038E-002   4.7224581285867609E-002
  -6.6575994792716156E-002   1.8286455773327590E-002   4.6004029076497220E-002
  -6.5014263980118114E-002   1.8200402630406318E-002   4.5037535848780647E-002
  -6.3452533167520059E-002   1.7856091819480141E-002   4.4325101602717923E-002
  -7.8022357836915052E-002   2.1096087358561971E-002   4.3579848724306924E-002
  -7.6213783260849058E-002   2.0989206091430825E-002   4.2155021319778524E-002
  -7.4405208684783050E-002   2.0800042755488871E-002   4.0969822460532199E-002
  -7.2596634108717070E-002   2.0528597350736151E-002   4.0024252146567914E-002
  -7.0788059532651076E-002   2.0174869877172583E-002   3.9318310377885773E-002
  -8.6117990382828330E-002   2.4508385661968446E-002   3.7835173711905298E-002
  -8.4077002479666138E-002   2.3864160934617674E-002   3.6636105693066842E-002
  -8.2036014576503918E-002   2.3313629737650138E-002   3.5662235783138638E-002
  -7.9995026673341699E-002   2.2856792071065977E-002   3.4913563982120852E-002
  -7.7954038770179535E-002   2.2493647934865031E-002   3.4390090290013324E-002
  -9.3986354055652033E-002   2.7920683965374865E-002   3.1465167439687095E-002
  -9.1727383261765383E-002   2.6739115777804485E-002   3.0667834405732577E-002
  -8.9468412467878733E-002   2.5827216719811429E-002   3.0081269044316648E-002
  -8.7209441673992083E-002   2.5184986791395827E-002   2.9705471355439304E-002
  -8.4950470880105433E-002   2.4812425992557494E-002   2.9540441339100540E-002
  -5.5947459674786482E-002   1.5537313761787658E-002   4.9410463964509682E-002
  -5.3692867086780845E-002   1.5039900609099197E-002   4.8799074684564014E-002
  -5.1438274498775208E-002   1.4651682714810155E-002   4.8655594055890899E-002
  -4.9183681910769557E-002   1.4372660078920782E-002   4.8980022078490254E-002
  -4.6929089322763920E-002   1.4202832701430884E-002   4.9772358752362134E-002
  -6.3452533167520059E-002   1.7856091819480141E-002   4.4325101602717923E-002
  -6.0808127618098888E-002   1.7402147407450608E-002   4.3879256622616741E-002
  -5.8163722068677690E-002   1.6987193461219477E-002   4.3745128914074179E-002
  -5.5519316519256519E-002   1.6611229980786544E-002   4.3922718477090172E-002
  -5.2874910969835320E-002   1.6274256966151812E-002   4.4412025311664757E-002
  -7.0788059532651076E-002   2.0174869877172583E-002   3.9318310377885773E-002
  -6.7910032401528264E-002   1.9764394205802165E-002   3.8967804905027853E-002
  -6.5032005270405466E-002   1.9322704207628688E-002   3.8772825324014576E-002
  -6.2153978139282681E-002   1.8849799882652278E-002   3.8733371634846032E-002
  -5.9275951008159904E-002   1.8345681230872782E-002   3.8849443837522042E-002
  -7.7954038770179535E-002   2.2493647934865031E-002   3.4390090290013324E-002
  -7.4998581437069028E-002   2.2126641004153621E-002   3.4064719531797363E-002
  -7.2043124103958536E-002   2.1658214954037913E-002   3.3738683285712147E-002
  -6.9087666770848086E-002   2.1088369784517998E-002   3.3411981551757633E-002
  -6.6132209437737566E-002   2.0417105495593703E-002   3.3084614329933835E-002
  -8.4950470880105433E-002   2.4812425992557494E-002   2.9540441339100540E-002
  -8.2073774724721160E-002   2.4488887802505147E-002   2.9170000502925314E-002
  -7.9197078569336943E-002   2.3993725700447149E-002   2.8642702799166773E-002
  -7.6320382413952670E-002   2.3326939686383715E-002   2.7958548227825186E-002
  -7.3443686258568425E-002   2.2488529760314679E-002   2.7117536788900276E-002
  -4.6929089322763920E-002   1.4202832701430884E-002   4.9772358752362134E-002
  -4.6577997255189067E-002   1.3964231791841294E-002   4.9986114504860263E-002
  -4.6226905187614256E-002   1.3478888559652714E-002   5.0653192958906149E-002
  -4.5875813120039445E-002   1.2746803004865160E-002   5.1773594114499909E-002
  -4.5524721052464592E-002   1.1767975127478569E-002   5.3347317971641328E-002
  -5.2874910969835320E-002   1.6274256966151812E-002   4.4412025311664757E-002
  -5.2094476574804600E-002   1.5887730964658744E-002   4.3954162917760817E-002
  -5.1314042179773880E-002   1.5363108523650651E-002   4.3901662477220875E-002
  -5.0533607784743188E-002   1.4700389643127410E-002   4.4254523990044953E-002
  -4.9753173389712468E-002   1.3899574323089192E-002   4.5012747456232988E-002
  -5.9275951008159904E-002   1.8345681230872782E-002   3.8849443837522042E-002
  -5.8114135033857102E-002   1.7811230137476229E-002   3.7828609180299969E-002
  -5.6952319059554279E-002   1.7247328487648584E-002   3.7165175728258101E-002
  -5.5790503085251429E-002   1.6653976281389798E-002   3.6859143481396420E-002
  -5.4628687110948648E-002   1.6031173518699843E-002   3.6910512439714951E-002
  -6.6132209437737566E-002   2.0417105495593703E-002   3.3084614329933835E-002
  -6.4636972632346454E-002   1.9734729310293752E-002   3.1609453292477580E-002
  -6.3141735826955342E-002   1.9131548451646573E-002   3.0443732712017734E-002
  -6.1646499021564237E-002   1.8607562919652203E-002   2.9587452588554226E-002
  -6.0151262216173111E-002   1.8162772714310590E-002   2.9040612922087150E-002
  -7.3443686258568425E-002   2.2488529760314679E-002   2.7117536788900276E-002
  -7.1662989370272795E-002   2.1658228483111219E-002   2.5296695254293677E-002
  -6.9882292481977137E-002   2.1015768415644481E-002   2.3737333428499707E-002
  -6.8101595593681535E-002   2.0561149557914486E-002   2.2439451311518421E-002
  -6.6320898705385878E-002   2.0294371909921172E-002   2.1403048903349708E-002
  -4.5524721052464592E-002   1.1767975127478569E-002   5.3347317971641328E-002
  -4.1671504026403544E-002   1.0798042506773936E-002   5.2846885912017139E-002
  -3.7818287000342447E-002   1.0092642722032585E-002   4.9969326646687712E-002
  -3.3965069974281364E-002   9.6517757732539067E-003   4.4714640175653117E-002
  -3.0111852948220288E-002   9.4754416604387326E-003   3.7082826498913202E-002
  -4.9753173389712468E-002   1.3899574323089192E-002   4.5012747456232988E-002
  -4.7732452156169287E-002   1.3083710895248013E-002   4.4596151955744012E-002
  -4.5711730922626134E-002   1.2375847691316305E-002   4.2891692075924498E-002
  -4.3691009689082995E-002   1.1775984711293881E-002   3.9899367816774355E-002
  -4.1670288455539807E-002   1.1284121955180748E-002   3.5619179178293603E-002
  -5.4628687110948648E-002   1.6031173518699843E-002   3.6910512439714951E-002
  -5.3351198843548761E-002   1.5369379283722215E-002   3.6421220886307476E-002
  -5.2073710576148853E-002   1.4659052660600136E-002   3.5733327779944091E-002
  -5.0796222308748917E-002   1.3900193649333689E-002   3.4846833120624671E-002
  -4.9518734041349044E-002   1.3092802249922958E-002   3.3761736908349396E-002
  -6.0151262216173111E-002   1.8162772714310590E-002   2.9040612922087150E-002
  -5.8527744088541826E-002   1.7655047672196243E-002   2.8322092703707433E-002
  -5.6904225960910590E-002   1.6942257629883856E-002   2.8494233758746552E-002
  -5.5280707833279347E-002   1.6024402587373580E-002   2.9557036087204246E-002
  -5.3657189705648076E-002   1.4901482544665098E-002   3.1510499689080720E-002
  -6.6320898705385878E-002   2.0294371909921172E-002   2.1403048903349708E-002
  -6.3262087891148622E-002   1.9940716060670521E-002   2.0298767407944091E-002
  -6.0203277076911366E-002   1.9225462599167714E-002   2.1174410012331862E-002
  -5.7144466262674082E-002   1.8148611525413340E-002   2.4029976716512899E-002
  -5.4085655448436826E-002   1.6710162839407183E-002   2.8865467520487298E-002
  -3.0111852948220288E-002   9.4754416604387326E-003   3.7082826498913202E-002
  -3.1581591113512456E-002   9.0361552481479090E-003   3.5687161905692266E-002
  -3.3051329278804657E-002   7.8064314009434893E-003   4.0249271938661735E-002
  -3.4521067444096859E-002   5.7862701188251507E-003   5.0769156597821621E-002
  -3.5990805609389026E-002   2.9756714017930008E-003   6.7246815883171940E-002
  -4.1670288455539807E-002   1.1284121955180748E-002   3.5619179178293603E-002
  -3.8621006296826715E-002   1.0581104513616518E-002   3.5834376689534958E-002
  -3.5571724138113603E-002   9.3477774772402350E-003   3.9129840222596454E-002
  -3.2522441979400497E-002   7.5841408460521308E-003   4.5505569777478057E-002
  -2.9473159820687392E-002   5.2901946200518690E-003   5.4961565354179842E-002
  -4.9518734041349044E-002   1.3092802249922958E-002   3.3761736908349396E-002
  -4.4827940163000964E-002   1.2126053779084975E-002   3.5847924364154904E-002
  -4.0137146284652800E-002   1.0889123553536932E-002   3.8136869237410297E-002
  -3.5446352406304664E-002   9.3820115732791125E-003   4.0628571528115609E-002
  -3.0755558527956556E-002   7.6047178383110703E-003   4.3323031236270793E-002
  -5.3657189705648076E-002   1.4901482544665098E-002   3.1510499689080720E-002
  -5.0202392712035145E-002   1.3671003044553341E-002   3.5727804929552284E-002
  -4.6747595718422269E-002   1.2430469629833681E-002   3.7270358983103588E-002
  -4.3292798724809338E-002   1.1179882300505928E-002   3.6138161849734389E-002
  -3.9838001731196462E-002   9.9192410565702160E-003   3.2331213529444874E-002
  -5.4085655448436826E-002   1.6710162839407183E-002   2.8865467520487298E-002
  -5.4744363943929397E-002   1.5215952310021985E-002   3.5474018385726891E-002
  -5.5403072439421969E-002   1.3971815706130361E-002   3.6530309459675864E-002
  -5.6061780934914540E-002   1.2977753027733043E-002   3.2034340742334258E-002
  -5.6720489430407112E-002   1.2233764274829195E-002   2.1986112233701893E-002
  -3.5990805609389026E-002   2.9756714017930008E-003   6.7246815883171940E-002
  -3.7578815060268361E-002  -5.0067675622639252E-004   6.4628864309139444E-002
  -3.9166824511147724E-002  -4.5180863613068223E-003   4.1774789207598750E-002
  -4.0754833962027101E-002  -9.0765574134481289E-003  -1.3154094214505446E-003
  -4.2342843412906395E-002  -1.4176089912649958E-002  -6.4641731578007677E-002
  -2.9473159820687392E-002   5.2901946200518690E-003   5.4961565354179842E-002
  -4.6567011757550097E-002   2.6876730482461864E-003   4.8959899053771461E-002
  -6.3660863694412845E-002  -1.6896203586802550E-006   3.2182671308904370E-002
  -8.0754715631275661E-002  -2.7778933857629667E-003   4.6298821195792234E-003
  -9.7848567568138312E-002  -5.6409382479665204E-003  -3.3698468514205104E-002
  -3.0755558527956556E-002   7.6047178383110703E-003   4.3323031236270793E-002
  -5.3894690867752892E-002   5.8760228527192371E-003   3.4391870559747906E-002
  -7.7033823207549201E-002   4.5147071205895312E-003   2.4145710521816285E-002
 -0.10017295554734562        3.5207706419220323E-003   1.2584551122475668E-002
 -0.12331208788714193        2.8942134167166955E-003  -2.9160763827323910E-004
  -3.9838001731196462E-002   9.9192410565702160E-003   3.2331213529444874E-002
  -5.9561852390876614E-002   9.0643726571922184E-003   2.0924778827069043E-002
  -7.9285703050556822E-002   9.0311038615377634E-003   1.7663906846333972E-002
  -9.9009553710237064E-002   9.8194346696069464E-003   2.2548597587240565E-002
 -0.11873340436991717        1.1429365081399967E-002   3.5578851049787377E-002
  -5.6720489430407112E-002   1.2233764274829195E-002   2.1986112233701893E-002
  -6.3568496326921353E-002   1.2252722461664978E-002   8.5586238557345817E-003
  -7.0416503223435664E-002   1.3547500602485926E-002   1.2737260282458057E-002
  -7.7264510119949920E-002   1.6118098697292148E-002   3.4522021513872334E-002
  -8.4112517016464161E-002   1.9964516746083349E-002   7.3912907549977591E-002
  -9.0332074909503693E-002   0.0000000000000000        4.9853961510872513E-002
  -9.3929095055608314E-002   5.3940374412298434E-003   5.3184554976816768E-002
  -9.7526115201712935E-002   1.0648787561129993E-002   5.4914008004169727E-002
 -0.10112313534781754        1.5764250359700454E-002   5.5042320592931404E-002
 -0.10472015549392219        2.0740425836941221E-002   5.3569492743101771E-002
 -0.10329026274545143        0.0000000000000000        5.8673151077783939E-002
 -0.10681406390958527        1.0875985783608079E-002   5.2103863442302403E-002
 -0.11033786507371909        1.9154547070575987E-002   4.7282154209353743E-002
 -0.11386166623785293        2.4835683860903728E-002   4.4208023378937943E-002
 -0.11738546740198678        2.7919396154591276E-002   4.2881470951055010E-002
 -0.12645433519440211        0.0000000000000000        7.4203357574728845E-002
 -0.12655619853544098        1.6357934125986313E-002   5.5276051662511053E-002
 -0.12665806187647988        2.7660306580021984E-002   4.1445042993950271E-002
 -0.12675992521751875        3.3907117362106998E-002   3.2710331569046555E-002
 -0.12686178855855765        3.5098366472241335E-002   2.9071917387799805E-002
 -0.15982429225635569        0.0000000000000000        9.6444581001707219E-002
 -0.15315549893317548        2.1839882468364553E-002   6.2701119637442682E-002
 -0.14648670560999524        3.6166066089467958E-002   3.7402674357959319E-002
 -0.13981791228681503        4.2978550863310254E-002   2.0549245163257152E-002
 -0.13314911896363479        4.2277336789891401E-002   1.2140832053336175E-002
 -0.20340013393131223        0.0000000000000000       0.12539682135871907     
 -0.18661196510278877        2.7321830810742784E-002   7.4379067367097304E-002
 -0.16982379627426525        4.4671825598913972E-002   3.5155048301380880E-002
 -0.15303562744574176        5.2049984364513538E-002   7.7247641615698220E-003
 -0.13624745861721829        4.9456307107541453E-002  -7.9117850523359456E-003
 -0.10472015549392219        2.0740425836941221E-002   5.3569492743101771E-002
 -0.10203670513435464        2.4869090832400263E-002   4.5604007149423427E-002
  -9.9353254774787111E-002   2.7442022185625563E-002   3.9264791067628195E-002
  -9.6669804415219593E-002   2.8459219896617080E-002   3.4551844497716096E-002
  -9.3986354055652033E-002   2.7920683965374865E-002   3.1465167439687095E-002
 -0.11738546740198678        2.7919396154591276E-002   4.2881470951055010E-002
 -0.11344711696080981        2.9384543900357496E-002   3.6635887557878541E-002
 -0.10950876651963284        3.0209987046921145E-002   3.1273834816037800E-002
 -0.10557041607845589        3.0395725594282250E-002   2.6795312725532757E-002
 -0.10163206563727892        2.9941759542440771E-002   2.3200321286363523E-002
 -0.12686178855855765        3.5098366472241335E-002   2.9071917387799805E-002
 -0.12241127689631864        3.3899996968314708E-002   2.5462265238156381E-002
 -0.11796076523407963        3.2977951908216729E-002   2.1993404879301352E-002
 -0.11351025357184062        3.2332231291947372E-002   1.8665336311234605E-002
 -0.10905974190960162        3.1962835119506719E-002   1.5478059533956260E-002
 -0.13314911896363479        4.2277336789891401E-002   1.2140832053336175E-002
 -0.12892918494088113        3.8415450036271927E-002   1.2083140190257025E-002
 -0.12470925091812746        3.5745916769512283E-002   1.1423501257418853E-002
 -0.12048931689537382        3.4268736989612504E-002   1.0161915254821624E-002
 -0.11626938287262013        3.3983910696572597E-002   8.2983821824654420E-003
 -0.13624745861721829        4.9456307107541453E-002  -7.9117850523359456E-003
 -0.13300084109449734        4.2930903104229153E-002  -3.5014875858196647E-003
 -0.12975422357177635        3.8513881630807857E-002  -4.3587604960963755E-004
 -0.12650760604905537        3.6205242687277643E-002   1.2850495562938304E-003
 -0.12326098852633444        3.6004986273638545E-002   1.6612892318909889E-003
  -9.3986354055652033E-002   2.7920683965374865E-002   3.1465167439687095E-002
  -9.1727383261765383E-002   2.6739115777804485E-002   3.0667834405732577E-002
  -8.9468412467878733E-002   2.5827216719811429E-002   3.0081269044316648E-002
  -8.7209441673992083E-002   2.5184986791395827E-002   2.9705471355439304E-002
  -8.4950470880105433E-002   2.4812425992557494E-002   2.9540441339100540E-002
 -0.10163206563727892        2.9941759542440771E-002   2.3200321286363523E-002
  -9.9184911522200520E-002   2.9185875389228469E-002   2.2751207973385409E-002
  -9.6737757407122080E-002   2.8465859632476817E-002   2.2467693630252257E-002
  -9.4290603292043695E-002   2.7781712272186020E-002   2.2349778256963975E-002
  -9.1843449176965214E-002   2.7133433308355909E-002   2.2397461853520692E-002
 -0.10905974190960162        3.1962835119506719E-002   1.5478059533956260E-002
 -0.10646957317602510        3.1632635000652436E-002   1.5143365208837967E-002
 -0.10387940444244857        3.1104502545142222E-002   1.4929101150871002E-002
 -0.10128923570887205        3.0378437752976255E-002   1.4835267360055231E-002
  -9.8699066975295541E-002   2.9454440624154303E-002   1.4861863836390734E-002
 -0.11626938287262013        3.3983910696572597E-002   8.2983821824654420E-003
 -0.11358136822323917        3.4079394612076347E-002   7.8443061120902907E-003
 -0.11089335357385818        3.3743145457807648E-002   7.4654916061727365E-003
 -0.10820533892447724        3.2975163233766390E-002   7.1619386647129484E-003
 -0.10551732427509625        3.1775447939952697E-002   6.9336472877106923E-003
 -0.12326098852633444        3.6004986273638545E-002   1.6612892318909889E-003
 -0.12052029666384267        3.6526154223500404E-002   8.5403068314240937E-004
 -0.11777960480135091        3.6381788370473005E-002   7.6864996157839649E-005
 -0.11503891293885916        3.5571888714556688E-002  -6.7020782906300307E-004
 -0.11229822107636739        3.4096455255751112E-002  -1.3871877925195619E-003
  -8.4950470880105433E-002   2.4812425992557494E-002   2.9540441339100540E-002
  -8.2073774724721160E-002   2.4488887802505147E-002   2.9170000502925314E-002
  -7.9197078569336943E-002   2.3993725700447149E-002   2.8642702799166773E-002
  -7.6320382413952670E-002   2.3326939686383715E-002   2.7958548227825186E-002
  -7.3443686258568425E-002   2.2488529760314679E-002   2.7117536788900276E-002
  -9.1843449176965214E-002   2.7133433308355909E-002   2.2397461853520692E-002
  -8.9066150554164142E-002   2.6498393581684460E-002   2.2031333933800579E-002
  -8.6288851931363014E-002   2.5853963932869747E-002   2.1623267816497392E-002
  -8.3511553308561914E-002   2.5200144361911533E-002   2.1173263501611240E-002
  -8.0734254685760787E-002   2.4536934868810034E-002   2.0681320989141938E-002
  -9.8699066975295541E-002   2.9454440624154303E-002   1.4861863836390734E-002
  -9.5906247215077428E-002   2.8507899360863821E-002   1.4662282822988065E-002
  -9.3113427454859288E-002   2.7714202165292266E-002   1.4535682282002282E-002
  -9.0320607694641189E-002   2.7073349037439323E-002   1.4482062213433778E-002
  -8.7527787934423062E-002   2.6585339977305333E-002   1.4501422617282211E-002
 -0.10551732427509625        3.1775447939952697E-002   6.9336472877106923E-003
 -0.10259406470746101        3.0517405140043131E-002   7.0628471704875448E-003
  -9.9670805139825736E-002   2.9574440397714685E-002   7.3799461956814815E-003
  -9.6747545572190480E-002   2.8946553712967213E-002   7.8849443632927705E-003
  -9.3824286004555196E-002   2.8633745085800688E-002   8.5778416733210544E-003
 -0.11229822107636739        3.4096455255751112E-002  -1.3871877925195619E-003
 -0.10912960303131491        3.2526910919222440E-002  -7.6697302370093423E-004
 -0.10596098498626233        3.1434678630137242E-002   1.5605955753479617E-004
 -0.10279236694120980        3.0819758388494871E-002   1.3819099511880491E-003
  -9.9623748896157271E-002   3.0682150194295987E-002   2.9105781572585365E-003
  -7.3443686258568425E-002   2.2488529760314679E-002   2.7117536788900276E-002
  -7.1662989370272795E-002   2.1658228483111219E-002   2.5296695254293677E-002
  -6.9882292481977137E-002   2.1015768415644481E-002   2.3737333428499707E-002
  -6.8101595593681535E-002   2.0561149557914486E-002   2.2439451311518421E-002
  -6.6320898705385878E-002   2.0294371909921172E-002   2.1403048903349708E-002
  -8.0734254685760787E-002   2.4536934868810034E-002   2.0681320989141938E-002
  -7.8674692631190590E-002   2.3852386837774422E-002   1.9452177118533295E-002
  -7.6615130576620505E-002   2.3134551653013959E-002   1.8519283871661102E-002
  -7.4555568522050350E-002   2.2383429314528684E-002   1.7882641248525268E-002
  -7.2496006467480181E-002   2.1599019822318627E-002   1.7542249249125813E-002
  -8.7527787934423062E-002   2.6585339977305333E-002   1.4501422617282211E-002
  -8.5154589798654617E-002   2.6046545192437626E-002   1.3642848047209950E-002
  -8.2781391662886186E-002   2.5253334890383519E-002   1.3115295015797779E-002
  -8.0408193527117783E-002   2.4205709071142913E-002   1.2918763523046006E-002
  -7.8034995391349352E-002   2.2903667734715999E-002   1.3053253568954218E-002
  -9.3824286004555196E-002   2.8633745085800688E-002   8.5778416733210544E-003
  -9.1102680872664710E-002   2.8240703547100829E-002   7.8687080403237308E-003
  -8.8381075740774223E-002   2.7372118127753038E-002   7.5253668609101577E-003
  -8.5659470608883737E-002   2.6027988827757101E-002   7.5478181350806355E-003
  -8.2937865476993222E-002   2.4208315647113413E-002   7.9360618628352107E-003
  -9.9623748896157271E-002   3.0682150194295987E-002   2.9105781572585365E-003
  -9.6518965853220950E-002   3.0434861901763977E-002   2.1297570978745517E-003
  -9.3414182810284602E-002   2.9490901365122502E-002   1.7494994069979924E-003
  -9.0309399767348239E-002   2.7850268584371382E-002   1.7698050846291814E-003
  -8.7204616724411932E-002   2.5512963559510715E-002   2.1906741307684552E-003
  -6.6320898705385878E-002   2.0294371909921172E-002   2.1403048903349708E-002
  -6.3262087891148622E-002   1.9940716060670521E-002   2.0298767407944091E-002
  -6.0203277076911366E-002   1.9225462599167714E-002   2.1174410012331862E-002
  -5.7144466262674082E-002   1.8148611525413340E-002   2.4029976716512899E-002
  -5.4085655448436826E-002   1.6710162839407183E-002   2.8865467520487298E-002
  -7.2496006467480181E-002   2.1599019822318627E-002   1.7542249249125813E-002
  -6.7882794820402464E-002   2.0808005086003389E-002   1.6477802851623896E-002
  -6.3269583173324734E-002   2.0037067015202185E-002   1.6542234020009483E-002
  -5.8656371526247017E-002   1.9286205609915633E-002   1.7735542754282720E-002
  -5.4043159879169231E-002   1.8555420870143335E-002   2.0057729054443640E-002
  -7.8034995391349352E-002   2.2903667734715999E-002   1.3053253568954218E-002
  -7.2718429445336755E-002   2.1675294111336132E-002   1.2410316547122095E-002
  -6.7401863499324297E-002   2.0848671431236712E-002   1.2045210557271882E-002
  -6.2085297553311838E-002   2.0423799694417977E-002   1.1957935599403439E-002
  -5.6768731607299242E-002   2.0400678900879543E-002   1.2148491673517128E-002
  -8.2937865476993222E-002   2.4208315647113413E-002   7.9360618628352107E-003
  -7.7768991765951617E-002   2.2542583136668994E-002   8.0963084944388596E-003
  -7.2600118054910040E-002   2.1660275847271156E-002   7.6833396241187020E-003
  -6.7431244343868435E-002   2.1561393778920100E-002   6.6971552518750414E-003
  -6.2262370632826872E-002   2.2245936931615667E-002   5.1377553777073801E-003
  -8.7204616724411932E-002   2.5512963559510715E-002   2.1906741307684552E-003
  -8.3034481782246983E-002   2.3409872162001855E-002   3.5357786935743540E-003
  -7.8864346840082034E-002   2.2471880263305599E-002   3.4566212205504598E-003
  -7.4694211897917140E-002   2.2698987863422643E-002   1.9532017116973555E-003
  -7.0524076955752135E-002   2.4091194962352014E-002  -9.7447983298515339E-004
  -5.4085655448436826E-002   1.6710162839407183E-002   2.8865467520487298E-002
  -5.4744363943929397E-002   1.5215952310021985E-002   3.5474018385726891E-002
  -5.5403072439421969E-002   1.3971815706130361E-002   3.6530309459675864E-002
  -5.6061780934914540E-002   1.2977753027733043E-002   3.2034340742334258E-002
  -5.6720489430407112E-002   1.2233764274829195E-002   2.1986112233701893E-002
  -5.4043159879169231E-002   1.8555420870143335E-002   2.0057729054443640E-002
  -5.9110017845550700E-002   1.7870185448171066E-002   2.5202870890477236E-002
  -6.4176875811932127E-002   1.7255971996284827E-002   2.7083973576023629E-002
  -6.9243733778313568E-002   1.6712780514484275E-002   2.5701037111083000E-002
  -7.4310591744695051E-002   1.6240611002769412E-002   2.1054061495655252E-002
  -5.6768731607299242E-002   2.0400678900879543E-002   1.2148491673517128E-002
  -6.3955518403766037E-002   2.0524418586320453E-002   1.5651172524936585E-002
  -7.1142305200232875E-002   2.0540128286438857E-002   1.8178034866672459E-002
  -7.8329091996699671E-002   2.0447808001235454E-002   1.9729078698724849E-002
  -8.5515878793166439E-002   2.0247457730709600E-002   2.0304304021093497E-002
  -6.2262370632826872E-002   2.2245936931615667E-002   5.1377553777073801E-003
  -6.9280865618575549E-002   2.3178651724469576E-002   6.8189232891048036E-003
  -7.6299360604324185E-002   2.3824284576592993E-002   9.8124933316223201E-003
  -8.3317855590072862E-002   2.4182835487986658E-002   1.4118465505259598E-002
  -9.0336350575821497E-002   2.4254304458649803E-002   1.9736839810016876E-002
  -7.0524076955752135E-002   2.4091194962352014E-002  -9.7447983298515339E-004
  -7.5086059489979151E-002   2.5832884862618755E-002  -1.2938768170177584E-003
  -7.9648042024206112E-002   2.7108440866747435E-002   1.9873489708731595E-003
  -8.4210024558433100E-002   2.7917862974738077E-002   8.8691975306875170E-003
  -8.8772007092660088E-002   2.8261151186590006E-002   1.9351668862425231E-002
  -5.6720489430407112E-002   1.2233764274829195E-002   2.1986112233701893E-002
  -6.3568496326921353E-002   1.2252722461664978E-002   8.5586238557345817E-003
  -7.0416503223435664E-002   1.3547500602485926E-002   1.2737260282458057E-002
  -7.7264510119949920E-002   1.6118098697292148E-002   3.4522021513872334E-002
  -8.4112517016464161E-002   1.9964516746083349E-002   7.3912907549977591E-002
  -7.4310591744695051E-002   1.6240611002769412E-002   2.1054061495655252E-002
  -6.6810064798639726E-002   1.5877163348261419E-002   1.1464918270539609E-002
  -5.9309537852584492E-002   1.5660137438081395E-002   1.2966717925871951E-002
  -5.1809010906529188E-002   1.5589533272229235E-002   2.5559460461652694E-002
  -4.4308483960473877E-002   1.5665350850704862E-002   4.9243145877881589E-002
  -8.5515878793166439E-002   2.0247457730709600E-002   2.0304304021093497E-002
  -7.0181999928784267E-002   1.9501604234858194E-002   1.3424107739171923E-002
  -5.4848121064402081E-002   1.7772774273676982E-002   1.1119672413456287E-002
  -3.9514242200019818E-002   1.5060967847166462E-002   1.3390998043946150E-002
  -2.4180363335637750E-002   1.1366184955326264E-002   2.0238084630641529E-002
  -9.0336350575821497E-002   2.4254304458649803E-002   1.9736839810016876E-002
  -7.3684301717355044E-002   2.3126045121454691E-002   1.4436192261632258E-002
  -5.7032252858888563E-002   1.9885411109272510E-002   7.1961237452107928E-003
  -4.0380204000422047E-002   1.4532402422103508E-002  -1.9833657392477498E-003
  -2.3728155141955580E-002   7.0670190599476657E-003  -1.3102276191743270E-002
  -8.8772007092660088E-002   2.8261151186590006E-002   1.9351668862425231E-002
  -7.7316970164351906E-002   2.6750486008051522E-002   1.4501171837920324E-002
  -6.5861933236043724E-002   2.1998047944868093E-002   1.1960719211356885E-003
  -5.4406896307735486E-002   1.4003836997040900E-002  -2.0563630887928425E-002
  -4.2951859379427360E-002   2.7678531645691784E-003  -5.0777936589272432E-002
 </DataArray>
 </PointData>
 </Piece>
 <Piece  NumberOfPoints="          1600 "  NumberOfCells="         1024 ">
 <Points>
 <DataArray  type="Float64" NumberOfComponents="3"  format="ascii" >
  0.50000000000000000        0.0000000000000000        0.0000000000000000     
  0.53125000000000000        0.0000000000000000        0.0000000000000000     
  0.56250000000000000        0.0000000000000000        0.0000000000000000     
  0.59375000000000000        0.0000000000000000        0.0000000000000000     
  0.62500000000000000        0.0000000000000000        0.0000000000000000     
  0.50000000000000000        3.1250000000000000E-002   0.0000000000000000     
  0.53125000000000000        3.1250000000000000E-002   0.0000000000000000     
  0.56250000000000000        3.1250000000000000E-002   0.0000000000000000     
  0.59375000000000000        3.1250000000000000E-002   0.0000000000000000     
  0.62500000000000000        3.1250000000000000E-002   0.0000000000000000     
  0.50000000000000000        6.2500000000000000E-002   0.0000000000000000     
  0.53125000000000000        6.2500000000000000E-002   0.0000000000000000     
  0.56250000000000000        6.2500000000000000E-002   0.0000000000000000     
  0.59375000000000000        6.2500000000000000E-002   0.0000000000000000     
  0.62500000000000000        6.2500000000000000E-002   0.0000000000000000     
  0.50000000000000000        9.3750000000000000E-002   0.0000000000000000     
  0.53125000000000000        9.3750000000000000E-002   0.0000000000000000     
  0.56250000000000000        9.3750000000000000E-002   0.0000000000000000     
  0.59375000000000000        9.3750000000000000E-002   0.0000000000000000     
  0.62500000000000000        9.3750000000000000E-002   0.0000000000000000     
  0.50000000000000000       0.12500000000000000        0.0000000000000000     
  0.53125000000000000       0.12500000000000000        0.0000000000000000     
  0.56250000000000000       0.12500000000000000        0.0000000000000000     
  0.59375000000000000       0.12500000000000000        0.0000000000000000     
  0.62500000000000000       0.12500000000000000        0.0000000000000000     
  0.62500000000000000        0.0000000000000000        0.0000000000000000     
  0.65625000000000000        0.0000000000000000        0.0000000000000000     
  0.68750000000000000        0.0000000000000000        0.0000000000000000     
  0.71875000000000000        0.0000000000000000        0.0000000000000000     
  0.75000000000000000        0.0000000000000000        0.0000000000000000     
  0.62500000000000000        3.1250000000000000E-002   0.0000000000000000     
  0.65625000000000000        3.1250000000000000E-002   0.0000000000000000     
  0.68750000000000000        3.1250000000000000E-002   0.0000000000000000     
  0.71875000000000000        3.1250000000000000E-002   0.0000000000000000     
  0.75000000000000000        3.1250000000000000E-002   0.0000000000000000     
  0.62500000000000000        6.2500000000000000E-002   0.0000000000000000     
  0.65625000000000000        6.2500000000000000E-002   0.0000000000000000     
  0.68750000000000000        6.2500000000000000E-002   0.0000000000000000     
  0.71875000000000000        6.2500000000000000E-002   0.0000000000000000     
  0.75000000000000000        6.2500000000000000E-002   0.0000000000000000     
  0.62500000000000000        9.3750000000000000E-002   0.0000000000000000     
  0.65625000000000000        9.3750000000000000E-002   0.0000000000000000     
  0.68750000000000000        9.3750000000000000E-002   0.0000000000000000     
  0.71875000000000000        9.3750000000000000E-002   0.0000000000000000     
  0.75000000000000000        9.3750000000000000E-002   0.0000000000000000     
  0.62500000000000000       0.12500000000000000        0.0000000000000000     
  0.65625000000000000       0.12500000000000000        0.0000000000000000     
  0.68750000000000000       0.12500000000000000        0.0000000000000000     
  0.71875000000000000       0.12500000000000000        0.0000000000000000     
  0.75000000000000000       0.12500000000000000        0.0000000000000000     
  0.75000000000000000        0.0000000000000000        0.0000000000000000     
  0.78125000000000000        0.0000000000000000        0.0000000000000000     
  0.81250000000000000        0.0000000000000000        0.0000000000000000     
  0.84375000000000000        0.0000000000000000        0.0000000000000000     
  0.87500000000000000        0.0000000000000000        0.0000000000000000     
  0.75000000000000000        3.1250000000000000E-002   0.0000000000000000     
  0.78125000000000000        3.1250000000000000E-002   0.0000000000000000     
  0.81250000000000000        3.1250000000000000E-002   0.0000000000000000     
  0.84375000000000000        3.1250000000000000E-002   0.0000000000000000     
  0.87500000000000000        3.1250000000000000E-002   0.0000000000000000     
  0.75000000000000000        6.2500000000000000E-002   0.0000000000000000     
  0.78125000000000000        6.2500000000000000E-002   0.0000000000000000     
  0.81250000000000000        6.2500000000000000E-002   0.0000000000000000     
  0.84375000000000000        6.2500000000000000E-002   0.0000000000000000     
  0.87500000000000000        6.2500000000000000E-002   0.0000000000000000     
  0.75000000000000000        9.3750000000000000E-002   0.0000000000000000     
  0.78125000000000000        9.3750000000000000E-002   0.0000000000000000     
  0.81250000000000000        9.3750000000000000E-002   0.0000000000000000     
  0.84375000000000000        9.3750000000000000E-002   0.0000000000000000     
  0.87500000000000000        9.3750000000000000E-002   0.0000000000000000     
  0.75000000000000000       0.12500000000000000        0.0000000000000000     
  0.78125000000000000       0.12500000000000000        0.0000000000000000     
  0.81250000000000000       0.12500000000000000        0.0000000000000000     
  0.84375000000000000       0.12500000000000000        0.0000000000000000     
  0.87500000000000000       0.12500000000000000        0.0000000000000000     
  0.87500000000000000        0.0000000000000000        0.0000000000000000     
  0.90625000000000000        0.0000000000000000        0.0000000000000000     
  0.93750000000000000        0.0000000000000000        0.0000000000000000     
  0.96875000000000000        0.0000000000000000        0.0000000000000000     
   1.0000000000000000        0.0000000000000000        0.0000000000000000     
  0.87500000000000000        3.1250000000000000E-002   0.0000000000000000     
  0.90625000000000000        3.1250000000000000E-002   0.0000000000000000     
  0.93750000000000000        3.1250000000000000E-002   0.0000000000000000     
  0.96875000000000000        3.1250000000000000E-002   0.0000000000000000     
   1.0000000000000000        3.1250000000000000E-002   0.0000000000000000     
  0.87500000000000000        6.2500000000000000E-002   0.0000000000000000     
  0.90625000000000000        6.2500000000000000E-002   0.0000000000000000     
  0.93750000000000000        6.2500000000000000E-002   0.0000000000000000     
  0.96875000000000000        6.2500000000000000E-002   0.0000000000000000     
   1.0000000000000000        6.2500000000000000E-002   0.0000000000000000     
  0.87500000000000000        9.3750000000000000E-002   0.0000000000000000     
  0.90625000000000000        9.3750000000000000E-002   0.0000000000000000     
  0.93750000000000000        9.3750000000000000E-002   0.0000000000000000     
  0.96875000000000000        9.3750000000000000E-002   0.0000000000000000     
   1.0000000000000000        9.3750000000000000E-002   0.0000000000000000     
  0.87500000000000000       0.12500000000000000        0.0000000000000000     
  0.90625000000000000       0.12500000000000000        0.0000000000000000     
  0.93750000000000000       0.12500000000000000        0.0000000000000000     
  0.96875000000000000       0.12500000000000000        0.0000000000000000     
   1.0000000000000000       0.12500000000000000        0.0000000000000000     
   1.0000000000000000        0.0000000000000000        0.0000000000000000     
   1.0312500000000000        0.0000000000000000        0.0000000000000000     
   1.0625000000000000        0.0000000000000000        0.0000000000000000     
   1.0937500000000000        0.0000000000000000        0.0000000000000000     
   1.1250000000000000        0.0000000000000000        0.0000000000000000     
   1.0000000000000000        3.1250000000000000E-002   0.0000000000000000     
   1.0312500000000000        3.1250000000000000E-002   0.0000000000000000     
   1.0625000000000000        3.1250000000000000E-002   0.0000000000000000     
   1.0937500000000000        3.1250000000000000E-002   0.0000000000000000     
   1.1250000000000000        3.1250000000000000E-002   0.0000000000000000     
   1.0000000000000000        6.2500000000000000E-002   0.0000000000000000     
   1.0312500000000000        6.2500000000000000E-002   0.0000000000000000     
   1.0625000000000000        6.2500000000000000E-002   0.0000000000000000     
   1.0937500000000000        6.2500000000000000E-002   0.0000000000000000     
   1.1250000000000000        6.2500000000000000E-002   0.0000000000000000     
   1.0000000000000000        9.3750000000000000E-002   0.0000000000000000     
   1.0312500000000000        9.3750000000000000E-002   0.0000000000000000     
   1.0625000000000000        9.3750000000000000E-002   0.0000000000000000     
   1.0937500000000000        9.3750000000000000E-002   0.0000000000000000     
   1.1250000000000000        9.3750000000000000E-002   0.0000000000000000     
   1.0000000000000000       0.12500000000000000        0.0000000000000000     
   1.0312500000000000       0.12500000000000000        0.0000000000000000     
   1.0625000000000000       0.12500000000000000        0.0000000000000000     
   1.0937500000000000       0.12500000000000000        0.0000000000000000     
   1.1250000000000000       0.12500000000000000        0.0000000000000000     
   1.1250000000000000        0.0000000000000000        0.0000000000000000     
   1.1562500000000000        0.0000000000000000        0.0000000000000000     
   1.1875000000000000        0.0000000000000000        0.0000000000000000     
   1.2187500000000000        0.0000000000000000        0.0000000000000000     
   1.2500000000000000        0.0000000000000000        0.0000000000000000     
   1.1250000000000000        3.1250000000000000E-002   0.0000000000000000     
   1.1562500000000000        3.1250000000000000E-002   0.0000000000000000     
   1.1875000000000000        3.1250000000000000E-002   0.0000000000000000     
   1.2187500000000000        3.1250000000000000E-002   0.0000000000000000     
   1.2500000000000000        3.1250000000000000E-002   0.0000000000000000     
   1.1250000000000000        6.2500000000000000E-002   0.0000000000000000     
   1.1562500000000000        6.2500000000000000E-002   0.0000000000000000     
   1.1875000000000000        6.2500000000000000E-002   0.0000000000000000     
   1.2187500000000000        6.2500000000000000E-002   0.0000000000000000     
   1.2500000000000000        6.2500000000000000E-002   0.0000000000000000     
   1.1250000000000000        9.3750000000000000E-002   0.0000000000000000     
   1.1562500000000000        9.3750000000000000E-002   0.0000000000000000     
   1.1875000000000000        9.3750000000000000E-002   0.0000000000000000     
   1.2187500000000000        9.3750000000000000E-002   0.0000000000000000     
   1.2500000000000000        9.3750000000000000E-002   0.0000000000000000     
   1.1250000000000000       0.12500000000000000        0.0000000000000000     
   1.1562500000000000       0.12500000000000000        0.0000000000000000     
   1.1875000000000000       0.12500000000000000        0.0000000000000000     
   1.2187500000000000       0.12500000000000000        0.0000000000000000     
   1.2500000000000000       0.12500000000000000        0.0000000000000000     
   1.2500000000000000        0.0000000000000000        0.0000000000000000     
   1.2812500000000000        0.0000000000000000        0.0000000000000000     
   1.3125000000000000        0.0000000000000000        0.0000000000000000     
   1.3437500000000000        0.0000000000000000        0.0000000000000000     
   1.3750000000000000        0.0000000000000000        0.0000000000000000     
   1.2500000000000000        3.1250000000000000E-002   0.0000000000000000     
   1.2812500000000000        3.1250000000000000E-002   0.0000000000000000     
   1.3125000000000000        3.1250000000000000E-002   0.0000000000000000     
   1.3437500000000000        3.1250000000000000E-002   0.0000000000000000     
   1.3750000000000000        3.1250000000000000E-002   0.0000000000000000     
   1.2500000000000000        6.2500000000000000E-002   0.0000000000000000     
   1.2812500000000000        6.2500000000000000E-002   0.0000000000000000     
   1.3125000000000000        6.2500000000000000E-002   0.0000000000000000     
   1.3437500000000000        6.2500000000000000E-002   0.0000000000000000     
   1.3750000000000000        6.2500000000000000E-002   0.0000000000000000     
   1.2500000000000000        9.3750000000000000E-002   0.0000000000000000     
   1.2812500000000000        9.3750000000000000E-002   0.0000000000000000     
   1.3125000000000000        9.3750000000000000E-002   0.0000000000000000     
   1.3437500000000000        9.3750000000000000E-002   0.0000000000000000     
   1.3750000000000000        9.3750000000000000E-002   0.0000000000000000     
   1.2500000000000000       0.12500000000000000        0.0000000000000000     
   1.2812500000000000       0.12500000000000000        0.0000000000000000     
   1.3125000000000000       0.12500000000000000        0.0000000000000000     
   1.3437500000000000       0.12500000000000000        0.0000000000000000     
   1.3750000000000000       0.12500000000000000        0.0000000000000000     
   1.3750000000000000        0.0000000000000000        0.0000000000000000     
   1.4062500000000000        0.0000000000000000        0.0000000000000000     
   1.4375000000000000        0.0000000000000000        0.0000000000000000     
   1.4687500000000000        0.0000000000000000        0.0000000000000000     
   1.5000000000000000        0.0000000000000000        0.0000000000000000     
   1.3750000000000000        3.1250000000000000E-002   0.0000000000000000     
   1.4062500000000000        3.1250000000000000E-002   0.0000000000000000     
   1.4375000000000000        3.1250000000000000E-002   0.0000000000000000     
   1.4687500000000000        3.1250000000000000E-002   0.0000000000000000     
   1.5000000000000000        3.1250000000000000E-002   0.0000000000000000     
   1.3750000000000000        6.2500000000000000E-002   0.0000000000000000     
   1.4062500000000000        6.2500000000000000E-002   0.0000000000000000     
   1.4375000000000000        6.2500000000000000E-002   0.0000000000000000     
   1.4687500000000000        6.2500000000000000E-002   0.0000000000000000     
   1.5000000000000000        6.2500000000000000E-002   0.0000000000000000     
   1.3750000000000000        9.3750000000000000E-002   0.0000000000000000     
   1.4062500000000000        9.3750000000000000E-002   0.0000000000000000     
   1.4375000000000000        9.3750000000000000E-002   0.0000000000000000     
   1.4687500000000000        9.3750000000000000E-002   0.0000000000000000     
   1.5000000000000000        9.3750000000000000E-002   0.0000000000000000     
   1.3750000000000000       0.12500000000000000        0.0000000000000000     
   1.4062500000000000       0.12500000000000000        0.0000000000000000     
   1.4375000000000000       0.12500000000000000        0.0000000000000000     
   1.4687500000000000       0.12500000000000000        0.0000000000000000     
   1.5000000000000000       0.12500000000000000        0.0000000000000000     
  0.50000000000000000       0.12500000000000000        0.0000000000000000     
  0.53125000000000000       0.12500000000000000        0.0000000000000000     
  0.56250000000000000       0.12500000000000000        0.0000000000000000     
  0.59375000000000000       0.12500000000000000        0.0000000000000000     
  0.62500000000000000       0.12500000000000000        0.0000000000000000     
  0.50000000000000000       0.15625000000000000        0.0000000000000000     
  0.53125000000000000       0.15625000000000000        0.0000000000000000     
  0.56250000000000000       0.15625000000000000        0.0000000000000000     
  0.59375000000000000       0.15625000000000000        0.0000000000000000     
  0.62500000000000000       0.15625000000000000        0.0000000000000000     
  0.50000000000000000       0.18750000000000000        0.0000000000000000     
  0.53125000000000000       0.18750000000000000        0.0000000000000000     
  0.56250000000000000       0.18750000000000000        0.0000000000000000     
  0.59375000000000000       0.18750000000000000        0.0000000000000000     
  0.62500000000000000       0.18750000000000000        0.0000000000000000     
  0.50000000000000000       0.21875000000000000        0.0000000000000000     
  0.53125000000000000       0.21875000000000000        0.0000000000000000     
  0.56250000000000000       0.21875000000000000        0.0000000000000000     
  0.59375000000000000       0.21875000000000000        0.0000000000000000     
  0.62500000000000000       0.21875000000000000        0.0000000000000000     
  0.50000000000000000       0.25000000000000000        0.0000000000000000     
  0.53125000000000000       0.25000000000000000        0.0000000000000000     
  0.56250000000000000       0.25000000000000000        0.0000000000000000     
  0.59375000000000000       0.25000000000000000        0.0000000000000000     
  0.62500000000000000       0.25000000000000000        0.0000000000000000     
  0.62500000000000000       0.12500000000000000        0.0000000000000000     
  0.65625000000000000       0.12500000000000000        0.0000000000000000     
  0.68750000000000000       0.12500000000000000        0.0000000000000000     
  0.71875000000000000       0.12500000000000000        0.0000000000000000     
  0.75000000000000000       0.12500000000000000        0.0000000000000000     
  0.62500000000000000       0.15625000000000000        0.0000000000000000     
  0.65625000000000000       0.15625000000000000        0.0000000000000000     
  0.68750000000000000       0.15625000000000000        0.0000000000000000     
  0.71875000000000000       0.15625000000000000        0.0000000000000000     
  0.75000000000000000       0.15625000000000000        0.0000000000000000     
  0.62500000000000000       0.18750000000000000        0.0000000000000000     
  0.65625000000000000       0.18750000000000000        0.0000000000000000     
  0.68750000000000000       0.18750000000000000        0.0000000000000000     
  0.71875000000000000       0.18750000000000000        0.0000000000000000     
  0.75000000000000000       0.18750000000000000        0.0000000000000000     
  0.62500000000000000       0.21875000000000000        0.0000000000000000     
  0.65625000000000000       0.21875000000000000        0.0000000000000000     
  0.68750000000000000       0.21875000000000000        0.0000000000000000     
  0.71875000000000000       0.21875000000000000        0.0000000000000000     
  0.75000000000000000       0.21875000000000000        0.0000000000000000     
  0.62500000000000000       0.25000000000000000        0.0000000000000000     
  0.65625000000000000       0.25000000000000000        0.0000000000000000     
  0.68750000000000000       0.25000000000000000        0.0000000000000000     
  0.71875000000000000       0.25000000000000000        0.0000000000000000     
  0.75000000000000000       0.25000000000000000        0.0000000000000000     
  0.75000000000000000       0.12500000000000000        0.0000000000000000     
  0.78125000000000000       0.12500000000000000        0.0000000000000000     
  0.81250000000000000       0.12500000000000000        0.0000000000000000     
  0.84375000000000000       0.12500000000000000        0.0000000000000000     
  0.87500000000000000       0.12500000000000000        0.0000000000000000     
  0.75000000000000000       0.15625000000000000        0.0000000000000000     
  0.78125000000000000       0.15625000000000000        0.0000000000000000     
  0.81250000000000000       0.15625000000000000        0.0000000000000000     
  0.84375000000000000       0.15625000000000000        0.0000000000000000     
  0.87500000000000000       0.15625000000000000        0.0000000000000000     
  0.75000000000000000       0.18750000000000000        0.0000000000000000     
  0.78125000000000000       0.18750000000000000        0.0000000000000000     
  0.81250000000000000       0.18750000000000000        0.0000000000000000     
  0.84375000000000000       0.18750000000000000        0.0000000000000000     
  0.87500000000000000       0.18750000000000000        0.0000000000000000     
  0.75000000000000000       0.21875000000000000        0.0000000000000000     
  0.78125000000000000       0.21875000000000000        0.0000000000000000     
  0.81250000000000000       0.21875000000000000        0.0000000000000000     
  0.84375000000000000       0.21875000000000000        0.0000000000000000     
  0.87500000000000000       0.21875000000000000        0.0000000000000000     
  0.75000000000000000       0.25000000000000000        0.0000000000000000     
  0.78125000000000000       0.25000000000000000        0.0000000000000000     
  0.81250000000000000       0.25000000000000000        0.0000000000000000     
  0.84375000000000000       0.25000000000000000        0.0000000000000000     
  0.87500000000000000       0.25000000000000000        0.0000000000000000     
  0.87500000000000000       0.12500000000000000        0.0000000000000000     
  0.90625000000000000       0.12500000000000000        0.0000000000000000     
  0.93750000000000000       0.12500000000000000        0.0000000000000000     
  0.96875000000000000       0.12500000000000000        0.0000000000000000     
   1.0000000000000000       0.12500000000000000        0.0000000000000000     
  0.87500000000000000       0.15625000000000000        0.0000000000000000     
  0.90625000000000000       0.15625000000000000        0.0000000000000000     
  0.93750000000000000       0.15625000000000000        0.0000000000000000     
  0.96875000000000000       0.15625000000000000        0.0000000000000000     
   1.0000000000000000       0.15625000000000000        0.0000000000000000     
  0.87500000000000000       0.18750000000000000        0.0000000000000000     
  0.90625000000000000       0.18750000000000000        0.0000000000000000     
  0.93750000000000000       0.18750000000000000        0.0000000000000000     
  0.96875000000000000       0.18750000000000000        0.0000000000000000     
   1.0000000000000000       0.18750000000000000        0.0000000000000000     
  0.87500000000000000       0.21875000000000000        0.0000000000000000     
  0.90625000000000000       0.21875000000000000        0.0000000000000000     
  0.93750000000000000       0.21875000000000000        0.0000000000000000     
  0.96875000000000000       0.21875000000000000        0.0000000000000000     
   1.0000000000000000       0.21875000000000000        0.0000000000000000     
  0.87500000000000000       0.25000000000000000        0.0000000000000000     
  0.90625000000000000       0.25000000000000000        0.0000000000000000     
  0.93750000000000000       0.25000000000000000        0.0000000000000000     
  0.96875000000000000       0.25000000000000000        0.0000000000000000     
   1.0000000000000000       0.25000000000000000        0.0000000000000000     
   1.0000000000000000       0.12500000000000000        0.0000000000000000     
   1.0312500000000000       0.12500000000000000        0.0000000000000000     
   1.0625000000000000       0.12500000000000000        0.0000000000000000     
   1.0937500000000000       0.12500000000000000        0.0000000000000000     
   1.1250000000000000       0.12500000000000000        0.0000000000000000     
   1.0000000000000000       0.15625000000000000        0.0000000000000000     
   1.0312500000000000       0.15625000000000000        0.0000000000000000     
   1.0625000000000000       0.15625000000000000        0.0000000000000000     
   1.0937500000000000       0.15625000000000000        0.0000000000000000     
   1.1250000000000000       0.15625000000000000        0.0000000000000000     
   1.0000000000000000       0.18750000000000000        0.0000000000000000     
   1.0312500000000000       0.18750000000000000        0.0000000000000000     
   1.0625000000000000       0.18750000000000000        0.0000000000000000     
   1.0937500000000000       0.18750000000000000        0.0000000000000000     
   1.1250000000000000       0.18750000000000000        0.0000000000000000     
   1.0000000000000000       0.21875000000000000        0.0000000000000000     
   1.0312500000000000       0.21875000000000000        0.0000000000000000     
   1.0625000000000000       0.21875000000000000        0.0000000000000000     
   1.0937500000000000       0.21875000000000000        0.0000000000000000     
   1.1250000000000000       0.21875000000000000        0.0000000000000000     
   1.0000000000000000       0.25000000000000000        0.0000000000000000     
   1.0312500000000000       0.25000000000000000        0.0000000000000000     
   1.0625000000000000       0.25000000000000000        0.0000000000000000     
   1.0937500000000000       0.25000000000000000        0.0000000000000000     
   1.1250000000000000       0.25000000000000000        0.0000000000000000     
   1.1250000000000000       0.12500000000000000        0.0000000000000000     
   1.1562500000000000       0.12500000000000000        0.0000000000000000     
   1.1875000000000000       0.12500000000000000        0.0000000000000000     
   1.2187500000000000       0.12500000000000000        0.0000000000000000     
   1.2500000000000000       0.12500000000000000        0.0000000000000000     
   1.1250000000000000       0.15625000000000000        0.0000000000000000     
   1.1562500000000000       0.15625000000000000        0.0000000000000000     
   1.1875000000000000       0.15625000000000000        0.0000000000000000     
   1.2187500000000000       0.15625000000000000        0.0000000000000000     
   1.2500000000000000       0.15625000000000000        0.0000000000000000     
   1.1250000000000000       0.18750000000000000        0.0000000000000000     
   1.1562500000000000       0.18750000000000000        0.0000000000000000     
   1.1875000000000000       0.18750000000000000        0.0000000000000000     
   1.2187500000000000       0.18750000000000000        0.0000000000000000     
   1.2500000000000000       0.18750000000000000        0.0000000000000000     
   1.1250000000000000       0.21875000000000000        0.0000000000000000     
   1.1562500000000000       0.21875000000000000        0.0000000000000000     
   1.1875000000000000       0.21875000000000000        0.0000000000000000     
   1.2187500000000000       0.21875000000000000        0.0000000000000000     
   1.2500000000000000       0.21875000000000000        0.0000000000000000     
   1.1250000000000000       0.25000000000000000        0.0000000000000000     
   1.1562500000000000       0.25000000000000000        0.0000000000000000     
   1.1875000000000000       0.25000000000000000        0.0000000000000000     
   1.2187500000000000       0.25000000000000000        0.0000000000000000     
   1.2500000000000000       0.25000000000000000        0.0000000000000000     
   1.2500000000000000       0.12500000000000000        0.0000000000000000     
   1.2812500000000000       0.12500000000000000        0.0000000000000000     
   1.3125000000000000       0.12500000000000000        0.0000000000000000     
   1.3437500000000000       0.12500000000000000        0.0000000000000000     
   1.3750000000000000       0.12500000000000000        0.0000000000000000     
   1.2500000000000000       0.15625000000000000        0.0000000000000000     
   1.2812500000000000       0.15625000000000000        0.0000000000000000     
   1.3125000000000000       0.15625000000000000        0.0000000000000000     
   1.3437500000000000       0.15625000000000000        0.0000000000000000     
   1.3750000000000000       0.15625000000000000        0.0000000000000000     
   1.2500000000000000       0.18750000000000000        0.0000000000000000     
   1.2812500000000000       0.18750000000000000        0.0000000000000000     
   1.3125000000000000       0.18750000000000000        0.0000000000000000     
   1.3437500000000000       0.18750000000000000        0.0000000000000000     
   1.3750000000000000       0.18750000000000000        0.0000000000000000     
   1.2500000000000000       0.21875000000000000        0.0000000000000000     
   1.2812500000000000       0.21875000000000000        0.0000000000000000     
   1.3125000000000000       0.21875000000000000        0.0000000000000000     
   1.3437500000000000       0.21875000000000000        0.0000000000000000     
   1.3750000000000000       0.21875000000000000        0.0000000000000000     
   1.2500000000000000       0.25000000000000000        0.0000000000000000     
   1.2812500000000000       0.25000000000000000        0.0000000000000000     
   1.3125000000000000       0.25000000000000000        0.0000000000000000     
   1.3437500000000000       0.25000000000000000        0.0000000000000000     
   1.3750000000000000       0.25000000000000000        0.0000000000000000     
   1.3750000000000000       0.12500000000000000        0.0000000000000000     
   1.4062500000000000       0.12500000000000000        0.0000000000000000     
   1.4375000000000000       0.12500000000000000        0.0000000000000000     
   1.4687500000000000       0.12500000000000000        0.0000000000000000     
   1.5000000000000000       0.12500000000000000        0.0000000000000000     
   1.3750000000000000       0.15625000000000000        0.0000000000000000     
   1.4062500000000000       0.15625000000000000        0.0000000000000000     
   1.4375000000000000       0.15625000000000000        0.0000000000000000     
   1.4687500000000000       0.15625000000000000        0.0000000000000000     
   1.5000000000000000       0.15625000000000000        0.0000000000000000     
   1.3750000000000000       0.18750000000000000        0.0000000000000000     
   1.4062500000000000       0.18750000000000000        0.0000000000000000     
   1.4375000000000000       0.18750000000000000        0.0000000000000000     
   1.4687500000000000       0.18750000000000000        0.0000000000000000     
   1.5000000000000000       0.18750000000000000        0.0000000000000000     
   1.3750000000000000       0.21875000000000000        0.0000000000000000     
   1.4062500000000000       0.21875000000000000        0.0000000000000000     
   1.4375000000000000       0.21875000000000000        0.0000000000000000     
   1.4687500000000000       0.21875000000000000        0.0000000000000000     
   1.5000000000000000       0.21875000000000000        0.0000000000000000     
   1.3750000000000000       0.25000000000000000        0.0000000000000000     
   1.4062500000000000       0.25000000000000000        0.0000000000000000     
   1.4375000000000000       0.25000000000000000        0.0000000000000000     
   1.4687500000000000       0.25000000000000000        0.0000000000000000     
   1.5000000000000000       0.25000000000000000        0.0000000000000000     
  0.50000000000000000       0.25000000000000000        0.0000000000000000     
  0.53125000000000000       0.25000000000000000        0.0000000000000000     
  0.56250000000000000       0.25000000000000000        0.0000000000000000     
  0.59375000000000000       0.25000000000000000        0.0000000000000000     
  0.62500000000000000       0.25000000000000000        0.0000000000000000     
  0.50000000000000000       0.28125000000000000        0.0000000000000000     
  0.53125000000000000       0.28125000000000000        0.0000000000000000     
  0.56250000000000000       0.28125000000000000        0.0000000000000000     
  0.59375000000000000       0.28125000000000000        0.0000000000000000     
  0.62500000000000000       0.28125000000000000        0.0000000000000000     
  0.50000000000000000       0.31250000000000000        0.0000000000000000     
  0.53125000000000000       0.31250000000000000        0.0000000000000000     
  0.56250000000000000       0.31250000000000000        0.0000000000000000     
  0.59375000000000000       0.31250000000000000        0.0000000000000000     
  0.62500000000000000       0.31250000000000000        0.0000000000000000     
  0.50000000000000000       0.34375000000000000        0.0000000000000000     
  0.53125000000000000       0.34375000000000000        0.0000000000000000     
  0.56250000000000000       0.34375000000000000        0.0000000000000000     
  0.59375000000000000       0.34375000000000000        0.0000000000000000     
  0.62500000000000000       0.34375000000000000        0.0000000000000000     
  0.50000000000000000       0.37500000000000000        0.0000000000000000     
  0.53125000000000000       0.37500000000000000        0.0000000000000000     
  0.56250000000000000       0.37500000000000000        0.0000000000000000     
  0.59375000000000000       0.37500000000000000        0.0000000000000000     
  0.62500000000000000       0.37500000000000000        0.0000000000000000     
  0.62500000000000000       0.25000000000000000        0.0000000000000000     
  0.65625000000000000       0.25000000000000000        0.0000000000000000     
  0.68750000000000000       0.25000000000000000        0.0000000000000000     
  0.71875000000000000       0.25000000000000000        0.0000000000000000     
  0.75000000000000000       0.25000000000000000        0.0000000000000000     
  0.62500000000000000       0.28125000000000000        0.0000000000000000     
  0.65625000000000000       0.28125000000000000        0.0000000000000000     
  0.68750000000000000       0.28125000000000000        0.0000000000000000     
  0.71875000000000000       0.28125000000000000        0.0000000000000000     
  0.75000000000000000       0.28125000000000000        0.0000000000000000     
  0.62500000000000000       0.31250000000000000        0.0000000000000000     
  0.65625000000000000       0.31250000000000000        0.0000000000000000     
  0.68750000000000000       0.31250000000000000        0.0000000000000000     
  0.71875000000000000       0.31250000000000000        0.0000000000000000     
  0.75000000000000000       0.31250000000000000        0.0000000000000000     
  0.62500000000000000       0.34375000000000000        0.0000000000000000     
  0.65625000000000000       0.34375000000000000        0.0000000000000000     
  0.68750000000000000       0.34375000000000000        0.0000000000000000     
  0.71875000000000000       0.34375000000000000        0.0000000000000000     
  0.75000000000000000       0.34375000000000000        0.0000000000000000     
  0.62500000000000000       0.37500000000000000        0.0000000000000000     
  0.65625000000000000       0.37500000000000000        0.0000000000000000     
  0.68750000000000000       0.37500000000000000        0.0000000000000000     
  0.71875000000000000       0.37500000000000000        0.0000000000000000     
  0.75000000000000000       0.37500000000000000        0.0000000000000000     
  0.75000000000000000       0.25000000000000000        0.0000000000000000     
  0.78125000000000000       0.25000000000000000        0.0000000000000000     
  0.81250000000000000       0.25000000000000000        0.0000000000000000     
  0.84375000000000000       0.25000000000000000        0.0000000000000000     
  0.87500000000000000       0.25000000000000000        0.0000000000000000     
  0.75000000000000000       0.28125000000000000        0.0000000000000000     
  0.78125000000000000       0.28125000000000000        0.0000000000000000     
  0.81250000000000000       0.28125000000000000        0.0000000000000000     
  0.84375000000000000       0.28125000000000000        0.0000000000000000     
  0.87500000000000000       0.28125000000000000        0.0000000000000000     
  0.75000000000000000       0.31250000000000000        0.0000000000000000     
  0.78125000000000000       0.31250000000000000        0.0000000000000000     
  0.81250000000000000       0.31250000000000000        0.0000000000000000     
  0.84375000000000000       0.31250000000000000        0.0000000000000000     
  0.87500000000000000       0.31250000000000000        0.0000000000000000     
  0.75000000000000000       0.34375000000000000        0.0000000000000000     
  0.78125000000000000       0.34375000000000000        0.0000000000000000     
  0.81250000000000000       0.34375000000000000        0.0000000000000000     
  0.84375000000000000       0.34375000000000000        0.0000000000000000     
  0.87500000000000000       0.34375000000000000        0.0000000000000000     
  0.75000000000000000       0.37500000000000000        0.0000000000000000     
  0.78125000000000000       0.37500000000000000        0.0000000000000000     
  0.81250000000000000       0.37500000000000000        0.0000000000000000     
  0.84375000000000000       0.37500000000000000        0.0000000000000000     
  0.87500000000000000       0.37500000000000000        0.0000000000000000     
  0.87500000000000000       0.25000000000000000        0.0000000000000000     
  0.90625000000000000       0.25000000000000000        0.0000000000000000     
  0.93750000000000000       0.25000000000000000        0.0000000000000000     
  0.96875000000000000       0.25000000000000000        0.0000000000000000     
   1.0000000000000000       0.25000000000000000        0.0000000000000000     
  0.87500000000000000       0.28125000000000000        0.0000000000000000     
  0.90625000000000000       0.28125000000000000        0.0000000000000000     
  0.93750000000000000       0.28125000000000000        0.0000000000000000     
  0.96875000000000000       0.28125000000000000        0.0000000000000000     
   1.0000000000000000       0.28125000000000000        0.0000000000000000     
  0.87500000000000000       0.31250000000000000        0.0000000000000000     
  0.90625000000000000       0.31250000000000000        0.0000000000000000     
  0.93750000000000000       0.31250000000000000        0.0000000000000000     
  0.96875000000000000       0.31250000000000000        0.0000000000000000     
   1.0000000000000000       0.31250000000000000        0.0000000000000000     
  0.87500000000000000       0.34375000000000000        0.0000000000000000     
  0.90625000000000000       0.34375000000000000        0.0000000000000000     
  0.93750000000000000       0.34375000000000000        0.0000000000000000     
  0.96875000000000000       0.34375000000000000        0.0000000000000000     
   1.0000000000000000       0.34375000000000000        0.0000000000000000     
  0.87500000000000000       0.37500000000000000        0.0000000000000000     
  0.90625000000000000       0.37500000000000000        0.0000000000000000     
  0.93750000000000000       0.37500000000000000        0.0000000000000000     
  0.96875000000000000       0.37500000000000000        0.0000000000000000     
   1.0000000000000000       0.37500000000000000        0.0000000000000000     
   1.0000000000000000       0.25000000000000000        0.0000000000000000     
   1.0312500000000000       0.25000000000000000        0.0000000000000000     
   1.0625000000000000       0.25000000000000000        0.0000000000000000     
   1.0937500000000000       0.25000000000000000        0.0000000000000000     
   1.1250000000000000       0.25000000000000000        0.0000000000000000     
   1.0000000000000000       0.28125000000000000        0.0000000000000000     
   1.0312500000000000       0.28125000000000000        0.0000000000000000     
   1.0625000000000000       0.28125000000000000        0.0000000000000000     
   1.0937500000000000       0.28125000000000000        0.0000000000000000     
   1.1250000000000000       0.28125000000000000        0.0000000000000000     
   1.0000000000000000       0.31250000000000000        0.0000000000000000     
   1.0312500000000000       0.31250000000000000        0.0000000000000000     
   1.0625000000000000       0.31250000000000000        0.0000000000000000     
   1.0937500000000000       0.31250000000000000        0.0000000000000000     
   1.1250000000000000       0.31250000000000000        0.0000000000000000     
   1.0000000000000000       0.34375000000000000        0.0000000000000000     
   1.0312500000000000       0.34375000000000000        0.0000000000000000     
   1.0625000000000000       0.34375000000000000        0.0000000000000000     
   1.0937500000000000       0.34375000000000000        0.0000000000000000     
   1.1250000000000000       0.34375000000000000        0.0000000000000000     
   1.0000000000000000       0.37500000000000000        0.0000000000000000     
   1.0312500000000000       0.37500000000000000        0.0000000000000000     
   1.0625000000000000       0.37500000000000000        0.0000000000000000     
   1.0937500000000000       0.37500000000000000        0.0000000000000000     
   1.1250000000000000       0.37500000000000000        0.0000000000000000     
   1.1250000000000000       0.25000000000000000        0.0000000000000000     
   1.1562500000000000       0.25000000000000000        0.0000000000000000     
   1.1875000000000000       0.25000000000000000        0.0000000000000000     
   1.2187500000000000       0.25000000000000000        0.0000000000000000     
   1.2500000000000000       0.25000000000000000        0.0000000000000000     
   1.1250000000000000       0.28125000000000000        0.0000000000000000     
   1.1562500000000000       0.28125000000000000        0.0000000000000000     
   1.1875000000000000       0.28125000000000000        0.0000000000000000     
   1.2187500000000000       0.28125000000000000        0.0000000000000000     
   1.2500000000000000       0.28125000000000000        0.0000000000000000     
   1.1250000000000000       0.31250000000000000        0.0000000000000000     
   1.1562500000000000       0.31250000000000000        0.0000000000000000     
   1.1875000000000000       0.31250000000000000        0.0000000000000000     
   1.2187500000000000       0.31250000000000000        0.0000000000000000     
   1.2500000000000000       0.31250000000000000        0.0000000000000000     
   1.1250000000000000       0.34375000000000000        0.0000000000000000     
   1.1562500000000000       0.34375000000000000        0.0000000000000000     
   1.1875000000000000       0.34375000000000000        0.0000000000000000     
   1.2187500000000000       0.34375000000000000        0.0000000000000000     
   1.2500000000000000       0.34375000000000000        0.0000000000000000     
   1.1250000000000000       0.37500000000000000        0.0000000000000000     
   1.1562500000000000       0.37500000000000000        0.0000000000000000     
   1.1875000000000000       0.37500000000000000        0.0000000000000000     
   1.2187500000000000       0.37500000000000000        0.0000000000000000     
   1.2500000000000000       0.37500000000000000        0.0000000000000000     
   1.2500000000000000       0.25000000000000000        0.0000000000000000     
   1.2812500000000000       0.25000000000000000        0.0000000000000000     
   1.3125000000000000       0.25000000000000000        0.0000000000000000     
   1.3437500000000000       0.25000000000000000        0.0000000000000000     
   1.3750000000000000       0.25000000000000000        0.0000000000000000     
   1.2500000000000000       0.28125000000000000        0.0000000000000000     
   1.2812500000000000       0.28125000000000000        0.0000000000000000     
   1.3125000000000000       0.28125000000000000        0.0000000000000000     
   1.3437500000000000       0.28125000000000000        0.0000000000000000     
   1.3750000000000000       0.28125000000000000        0.0000000000000000     
   1.2500000000000000       0.31250000000000000        0.0000000000000000     
   1.2812500000000000       0.31250000000000000        0.0000000000000000     
   1.3125000000000000       0.31250000000000000        0.0000000000000000     
   1.3437500000000000       0.31250000000000000        0.0000000000000000     
   1.3750000000000000       0.31250000000000000        0.0000000000000000     
   1.2500000000000000       0.34375000000000000        0.0000000000000000     
   1.2812500000000000       0.34375000000000000        0.0000000000000000     
   1.3125000000000000       0.34375000000000000        0.0000000000000000     
   1.3437500000000000       0.34375000000000000        0.0000000000000000     
   1.3750000000000000       0.34375000000000000        0.0000000000000000     
   1.2500000000000000       0.37500000000000000        0.0000000000000000     
   1.2812500000000000       0.37500000000000000        0.0000000000000000     
   1.3125000000000000       0.37500000000000000        0.0000000000000000     
   1.3437500000000000       0.37500000000000000        0.0000000000000000     
   1.3750000000000000       0.37500000000000000        0.0000000000000000     
   1.3750000000000000       0.25000000000000000        0.0000000000000000     
   1.4062500000000000       0.25000000000000000        0.0000000000000000     
   1.4375000000000000       0.25000000000000000        0.0000000000000000     
   1.4687500000000000       0.25000000000000000        0.0000000000000000     
   1.5000000000000000       0.25000000000000000        0.0000000000000000     
   1.3750000000000000       0.28125000000000000        0.0000000000000000     
   1.4062500000000000       0.28125000000000000        0.0000000000000000     
   1.4375000000000000       0.28125000000000000        0.0000000000000000     
   1.4687500000000000       0.28125000000000000        0.0000000000000000     
   1.5000000000000000       0.28125000000000000        0.0000000000000000     
   1.3750000000000000       0.31250000000000000        0.0000000000000000     
   1.4062500000000000       0.31250000000000000        0.0000000000000000     
   1.4375000000000000       0.31250000000000000        0.0000000000000000     
   1.4687500000000000       0.31250000000000000        0.0000000000000000     
   1.5000000000000000       0.31250000000000000        0.0000000000000000     
   1.3750000000000000       0.34375000000000000        0.0000000000000000     
   1.4062500000000000       0.34375000000000000        0.0000000000000000     
   1.4375000000000000       0.34375000000000000        0.0000000000000000     
   1.4687500000000000       0.34375000000000000        0.0000000000000000     
   1.5000000000000000       0.34375000000000000        0.0000000000000000     
   1.3750000000000000       0.37500000000000000        0.0000000000000000     
   1.4062500000000000       0.37500000000000000        0.0000000000000000     
   1.4375000000000000       0.37500000000000000        0.0000000000000000     
   1.4687500000000000       0.37500000000000000        0.0000000000000000     
   1.5000000000000000       0.37500000000000000        0.0000000000000000     
  0.50000000000000000       0.37500000000000000        0.0000000000000000     
  0.53125000000000000       0.37500000000000000        0.0000000000000000     
  0.56250000000000000       0.37500000000000000        0.0000000000000000     
  0.59375000000000000       0.37500000000000000        0.0000000000000000     
  0.62500000000000000       0.37500000000000000        0.0000000000000000     
  0.50000000000000000       0.40625000000000000        0.0000000000000000     
  0.53125000000000000       0.40625000000000000        0.0000000000000000     
  0.56250000000000000       0.40625000000000000        0.0000000000000000     
  0.59375000000000000       0.40625000000000000        0.0000000000000000     
  0.62500000000000000       0.40625000000000000        0.0000000000000000     
  0.50000000000000000       0.43750000000000000        0.0000000000000000     
  0.53125000000000000       0.43750000000000000        0.0000000000000000     
  0.56250000000000000       0.43750000000000000        0.0000000000000000     
  0.59375000000000000       0.43750000000000000        0.0000000000000000     
  0.62500000000000000       0.43750000000000000        0.0000000000000000     
  0.50000000000000000       0.46875000000000000        0.0000000000000000     
  0.53125000000000000       0.46875000000000000        0.0000000000000000     
  0.56250000000000000       0.46875000000000000        0.0000000000000000     
  0.59375000000000000       0.46875000000000000        0.0000000000000000     
  0.62500000000000000       0.46875000000000000        0.0000000000000000     
  0.50000000000000000       0.50000000000000000        0.0000000000000000     
  0.53125000000000000       0.50000000000000000        0.0000000000000000     
  0.56250000000000000       0.50000000000000000        0.0000000000000000     
  0.59375000000000000       0.50000000000000000        0.0000000000000000     
  0.62500000000000000       0.50000000000000000        0.0000000000000000     
  0.62500000000000000       0.37500000000000000        0.0000000000000000     
  0.65625000000000000       0.37500000000000000        0.0000000000000000     
  0.68750000000000000       0.37500000000000000        0.0000000000000000     
  0.71875000000000000       0.37500000000000000        0.0000000000000000     
  0.75000000000000000       0.37500000000000000        0.0000000000000000     
  0.62500000000000000       0.40625000000000000        0.0000000000000000     
  0.65625000000000000       0.40625000000000000        0.0000000000000000     
  0.68750000000000000       0.40625000000000000        0.0000000000000000     
  0.71875000000000000       0.40625000000000000        0.0000000000000000     
  0.75000000000000000       0.40625000000000000        0.0000000000000000     
  0.62500000000000000       0.43750000000000000        0.0000000000000000     
  0.65625000000000000       0.43750000000000000        0.0000000000000000     
  0.68750000000000000       0.43750000000000000        0.0000000000000000     
  0.71875000000000000       0.43750000000000000        0.0000000000000000     
  0.75000000000000000       0.43750000000000000        0.0000000000000000     
  0.62500000000000000       0.46875000000000000        0.0000000000000000     
  0.65625000000000000       0.46875000000000000        0.0000000000000000     
  0.68750000000000000       0.46875000000000000        0.0000000000000000     
  0.71875000000000000       0.46875000000000000        0.0000000000000000     
  0.75000000000000000       0.46875000000000000        0.0000000000000000     
  0.62500000000000000       0.50000000000000000        0.0000000000000000     
  0.65625000000000000       0.50000000000000000        0.0000000000000000     
  0.68750000000000000       0.50000000000000000        0.0000000000000000     
  0.71875000000000000       0.50000000000000000        0.0000000000000000     
  0.75000000000000000       0.50000000000000000        0.0000000000000000     
  0.75000000000000000       0.37500000000000000        0.0000000000000000     
  0.78125000000000000       0.37500000000000000        0.0000000000000000     
  0.81250000000000000       0.37500000000000000        0.0000000000000000     
  0.84375000000000000       0.37500000000000000        0.0000000000000000     
  0.87500000000000000       0.37500000000000000        0.0000000000000000     
  0.75000000000000000       0.40625000000000000        0.0000000000000000     
  0.78125000000000000       0.40625000000000000        0.0000000000000000     
  0.81250000000000000       0.40625000000000000        0.0000000000000000     
  0.84375000000000000       0.40625000000000000        0.0000000000000000     
  0.87500000000000000       0.40625000000000000        0.0000000000000000     
  0.75000000000000000       0.43750000000000000        0.0000000000000000     
  0.78125000000000000       0.43750000000000000        0.0000000000000000     
  0.81250000000000000       0.43750000000000000        0.0000000000000000     
  0.84375000000000000       0.43750000000000000        0.0000000000000000     
  0.87500000000000000       0.43750000000000000        0.0000000000000000     
  0.75000000000000000       0.46875000000000000        0.0000000000000000     
  0.78125000000000000       0.46875000000000000        0.0000000000000000     
  0.81250000000000000       0.46875000000000000        0.0000000000000000     
  0.84375000000000000       0.46875000000000000        0.0000000000000000     
  0.87500000000000000       0.46875000000000000        0.0000000000000000     
  0.75000000000000000       0.50000000000000000        0.0000000000000000     
  0.78125000000000000       0.50000000000000000        0.0000000000000000     
  0.81250000000000000       0.50000000000000000        0.0000000000000000     
  0.84375000000000000       0.50000000000000000        0.0000000000000000     
  0.87500000000000000       0.50000000000000000        0.0000000000000000     
  0.87500000000000000       0.37500000000000000        0.0000000000000000     
  0.90625000000000000       0.37500000000000000        0.0000000000000000     
  0.93750000000000000       0.37500000000000000        0.0000000000000000     
  0.96875000000000000       0.37500000000000000        0.0000000000000000     
   1.0000000000000000       0.37500000000000000        0.0000000000000000     
  0.87500000000000000       0.40625000000000000        0.0000000000000000     
  0.90625000000000000       0.40625000000000000        0.0000000000000000     
  0.93750000000000000       0.40625000000000000        0.0000000000000000     
  0.96875000000000000       0.40625000000000000        0.0000000000000000     
   1.0000000000000000       0.40625000000000000        0.0000000000000000     
  0.87500000000000000       0.43750000000000000        0.0000000000000000     
  0.90625000000000000       0.43750000000000000        0.0000000000000000     
  0.93750000000000000       0.43750000000000000        0.0000000000000000     
  0.96875000000000000       0.43750000000000000        0.0000000000000000     
   1.0000000000000000       0.43750000000000000        0.0000000000000000     
  0.87500000000000000       0.46875000000000000        0.0000000000000000     
  0.90625000000000000       0.46875000000000000        0.0000000000000000     
  0.93750000000000000       0.46875000000000000        0.0000000000000000     
  0.96875000000000000       0.46875000000000000        0.0000000000000000     
   1.0000000000000000       0.46875000000000000        0.0000000000000000     
  0.87500000000000000       0.50000000000000000        0.0000000000000000     
  0.90625000000000000       0.50000000000000000        0.0000000000000000     
  0.93750000000000000       0.50000000000000000        0.0000000000000000     
  0.96875000000000000       0.50000000000000000        0.0000000000000000     
   1.0000000000000000       0.50000000000000000        0.0000000000000000     
   1.0000000000000000       0.37500000000000000        0.0000000000000000     
   1.0312500000000000       0.37500000000000000        0.0000000000000000     
   1.0625000000000000       0.37500000000000000        0.0000000000000000     
   1.0937500000000000       0.37500000000000000        0.0000000000000000     
   1.1250000000000000       0.37500000000000000        0.0000000000000000     
   1.0000000000000000       0.40625000000000000        0.0000000000000000     
   1.0312500000000000       0.40625000000000000        0.0000000000000000     
   1.0625000000000000       0.40625000000000000        0.0000000000000000     
   1.0937500000000000       0.40625000000000000        0.0000000000000000     
   1.1250000000000000       0.40625000000000000        0.0000000000000000     
   1.0000000000000000       0.43750000000000000        0.0000000000000000     
   1.0312500000000000       0.43750000000000000        0.0000000000000000     
   1.0625000000000000       0.43750000000000000        0.0000000000000000     
   1.0937500000000000       0.43750000000000000        0.0000000000000000     
   1.1250000000000000       0.43750000000000000        0.0000000000000000     
   1.0000000000000000       0.46875000000000000        0.0000000000000000     
   1.0312500000000000       0.46875000000000000        0.0000000000000000     
   1.0625000000000000       0.46875000000000000        0.0000000000000000     
   1.0937500000000000       0.46875000000000000        0.0000000000000000     
   1.1250000000000000       0.46875000000000000        0.0000000000000000     
   1.0000000000000000       0.50000000000000000        0.0000000000000000     
   1.0312500000000000       0.50000000000000000        0.0000000000000000     
   1.0625000000000000       0.50000000000000000        0.0000000000000000     
   1.0937500000000000       0.50000000000000000        0.0000000000000000     
   1.1250000000000000       0.50000000000000000        0.0000000000000000     
   1.1250000000000000       0.37500000000000000        0.0000000000000000     
   1.1562500000000000       0.37500000000000000        0.0000000000000000     
   1.1875000000000000       0.37500000000000000        0.0000000000000000     
   1.2187500000000000       0.37500000000000000        0.0000000000000000     
   1.2500000000000000       0.37500000000000000        0.0000000000000000     
   1.1250000000000000       0.40625000000000000        0.0000000000000000     
   1.1562500000000000       0.40625000000000000        0.0000000000000000     
   1.1875000000000000       0.40625000000000000        0.0000000000000000     
   1.2187500000000000       0.40625000000000000        0.0000000000000000     
   1.2500000000000000       0.40625000000000000        0.0000000000000000     
   1.1250000000000000       0.43750000000000000        0.0000000000000000     
   1.1562500000000000       0.43750000000000000        0.0000000000000000     
   1.1875000000000000       0.43750000000000000        0.0000000000000000     
   1.2187500000000000       0.43750000000000000        0.0000000000000000     
   1.2500000000000000       0.43750000000000000        0.0000000000000000     
   1.1250000000000000       0.46875000000000000        0.0000000000000000     
   1.1562500000000000       0.46875000000000000        0.0000000000000000     
   1.1875000000000000       0.46875000000000000        0.0000000000000000     
   1.2187500000000000       0.46875000000000000        0.0000000000000000     
   1.2500000000000000       0.46875000000000000        0.0000000000000000     
   1.1250000000000000       0.50000000000000000        0.0000000000000000     
   1.1562500000000000       0.50000000000000000        0.0000000000000000     
   1.1875000000000000       0.50000000000000000        0.0000000000000000     
   1.2187500000000000       0.50000000000000000        0.0000000000000000     
   1.2500000000000000       0.50000000000000000        0.0000000000000000     
   1.2500000000000000       0.37500000000000000        0.0000000000000000     
   1.2812500000000000       0.37500000000000000        0.0000000000000000     
   1.3125000000000000       0.37500000000000000        0.0000000000000000     
   1.3437500000000000       0.37500000000000000        0.0000000000000000     
   1.3750000000000000       0.37500000000000000        0.0000000000000000     
   1.2500000000000000       0.40625000000000000        0.0000000000000000     
   1.2812500000000000       0.40625000000000000        0.0000000000000000     
   1.3125000000000000       0.40625000000000000        0.0000000000000000     
   1.3437500000000000       0.40625000000000000        0.0000000000000000     
   1.3750000000000000       0.40625000000000000        0.0000000000000000     
   1.2500000000000000       0.43750000000000000        0.0000000000000000     
   1.2812500000000000       0.43750000000000000        0.0000000000000000     
   1.3125000000000000       0.43750000000000000        0.0000000000000000     
   1.3437500000000000       0.43750000000000000        0.0000000000000000     
   1.3750000000000000       0.43750000000000000        0.0000000000000000     
   1.2500000000000000       0.46875000000000000        0.0000000000000000     
   1.2812500000000000       0.46875000000000000        0.0000000000000000     
   1.3125000000000000       0.46875000000000000        0.0000000000000000     
   1.3437500000000000       0.46875000000000000        0.0000000000000000     
   1.3750000000000000       0.46875000000000000        0.0000000000000000     
   1.2500000000000000       0.50000000000000000        0.0000000000000000     
   1.2812500000000000       0.50000000000000000        0.0000000000000000     
   1.3125000000000000       0.50000000000000000        0.0000000000000000     
   1.3437500000000000       0.50000000000000000        0.0000000000000000     
   1.3750000000000000       0.50000000000000000        0.0000000000000000     
   1.3750000000000000       0.37500000000000000        0.0000000000000000     
   1.4062500000000000       0.37500000000000000        0.0000000000000000     
   1.4375000000000000       0.37500000000000000        0.0000000000000000     
   1.4687500000000000       0.37500000000000000        0.0000000000000000     
   1.5000000000000000       0.37500000000000000        0.0000000000000000     
   1.3750000000000000       0.40625000000000000        0.0000000000000000     
   1.4062500000000000       0.40625000000000000        0.0000000000000000     
   1.4375000000000000       0.40625000000000000        0.0000000000000000     
   1.4687500000000000       0.40625000000000000        0.0000000000000000     
   1.5000000000000000       0.40625000000000000        0.0000000000000000     
   1.3750000000000000       0.43750000000000000        0.0000000000000000     
   1.4062500000000000       0.43750000000000000        0.0000000000000000     
   1.4375000000000000       0.43750000000000000        0.0000000000000000     
   1.4687500000000000       0.43750000000000000        0.0000000000000000     
   1.5000000000000000       0.43750000000000000        0.0000000000000000     
   1.3750000000000000       0.46875000000000000        0.0000000000000000     
   1.4062500000000000       0.46875000000000000        0.0000000000000000     
   1.4375000000000000       0.46875000000000000        0.0000000000000000     
   1.4687500000000000       0.46875000000000000        0.0000000000000000     
   1.5000000000000000       0.46875000000000000        0.0000000000000000     
   1.3750000000000000       0.50000000000000000        0.0000000000000000     
   1.4062500000000000       0.50000000000000000        0.0000000000000000     
   1.4375000000000000       0.50000000000000000        0.0000000000000000     
   1.4687500000000000       0.50000000000000000        0.0000000000000000     
   1.5000000000000000       0.50000000000000000        0.0000000000000000     
  0.50000000000000000       0.50000000000000000        0.0000000000000000     
  0.53125000000000000       0.50000000000000000        0.0000000000000000     
  0.56250000000000000       0.50000000000000000        0.0000000000000000     
  0.59375000000000000       0.50000000000000000        0.0000000000000000     
  0.62500000000000000       0.50000000000000000        0.0000000000000000     
  0.50000000000000000       0.53125000000000000        0.0000000000000000     
  0.53125000000000000       0.53125000000000000        0.0000000000000000     
  0.56250000000000000       0.53125000000000000        0.0000000000000000     
  0.59375000000000000       0.53125000000000000        0.0000000000000000     
  0.62500000000000000       0.53125000000000000        0.0000000000000000     
  0.50000000000000000       0.56250000000000000        0.0000000000000000     
  0.53125000000000000       0.56250000000000000        0.0000000000000000     
  0.56250000000000000       0.56250000000000000        0.0000000000000000     
  0.59375000000000000       0.56250000000000000        0.0000000000000000     
  0.62500000000000000       0.56250000000000000        0.0000000000000000     
  0.50000000000000000       0.59375000000000000        0.0000000000000000     
  0.53125000000000000       0.59375000000000000        0.0000000000000000     
  0.56250000000000000       0.59375000000000000        0.0000000000000000     
  0.59375000000000000       0.59375000000000000        0.0000000000000000     
  0.62500000000000000       0.59375000000000000        0.0000000000000000     
  0.50000000000000000       0.62500000000000000        0.0000000000000000     
  0.53125000000000000       0.62500000000000000        0.0000000000000000     
  0.56250000000000000       0.62500000000000000        0.0000000000000000     
  0.59375000000000000       0.62500000000000000        0.0000000000000000     
  0.62500000000000000       0.62500000000000000        0.0000000000000000     
  0.62500000000000000       0.50000000000000000        0.0000000000000000     
  0.65625000000000000       0.50000000000000000        0.0000000000000000     
  0.68750000000000000       0.50000000000000000        0.0000000000000000     
  0.71875000000000000       0.50000000000000000        0.0000000000000000     
  0.75000000000000000       0.50000000000000000        0.0000000000000000     
  0.62500000000000000       0.53125000000000000        0.0000000000000000     
  0.65625000000000000       0.53125000000000000        0.0000000000000000     
  0.68750000000000000       0.53125000000000000        0.0000000000000000     
  0.71875000000000000       0.53125000000000000        0.0000000000000000     
  0.75000000000000000       0.53125000000000000        0.0000000000000000     
  0.62500000000000000       0.56250000000000000        0.0000000000000000     
  0.65625000000000000       0.56250000000000000        0.0000000000000000     
  0.68750000000000000       0.56250000000000000        0.0000000000000000     
  0.71875000000000000       0.56250000000000000        0.0000000000000000     
  0.75000000000000000       0.56250000000000000        0.0000000000000000     
  0.62500000000000000       0.59375000000000000        0.0000000000000000     
  0.65625000000000000       0.59375000000000000        0.0000000000000000     
  0.68750000000000000       0.59375000000000000        0.0000000000000000     
  0.71875000000000000       0.59375000000000000        0.0000000000000000     
  0.75000000000000000       0.59375000000000000        0.0000000000000000     
  0.62500000000000000       0.62500000000000000        0.0000000000000000     
  0.65625000000000000       0.62500000000000000        0.0000000000000000     
  0.68750000000000000       0.62500000000000000        0.0000000000000000     
  0.71875000000000000       0.62500000000000000        0.0000000000000000     
  0.75000000000000000       0.62500000000000000        0.0000000000000000     
  0.75000000000000000       0.50000000000000000        0.0000000000000000     
  0.78125000000000000       0.50000000000000000        0.0000000000000000     
  0.81250000000000000       0.50000000000000000        0.0000000000000000     
  0.84375000000000000       0.50000000000000000        0.0000000000000000     
  0.87500000000000000       0.50000000000000000        0.0000000000000000     
  0.75000000000000000       0.53125000000000000        0.0000000000000000     
  0.78125000000000000       0.53125000000000000        0.0000000000000000     
  0.81250000000000000       0.53125000000000000        0.0000000000000000     
  0.84375000000000000       0.53125000000000000        0.0000000000000000     
  0.87500000000000000       0.53125000000000000        0.0000000000000000     
  0.75000000000000000       0.56250000000000000        0.0000000000000000     
  0.78125000000000000       0.56250000000000000        0.0000000000000000     
  0.81250000000000000       0.56250000000000000        0.0000000000000000     
  0.84375000000000000       0.56250000000000000        0.0000000000000000     
  0.87500000000000000       0.56250000000000000        0.0000000000000000     
  0.75000000000000000       0.59375000000000000        0.0000000000000000     
  0.78125000000000000       0.59375000000000000        0.0000000000000000     
  0.81250000000000000       0.59375000000000000        0.0000000000000000     
  0.84375000000000000       0.59375000000000000        0.0000000000000000     
  0.87500000000000000       0.59375000000000000        0.0000000000000000     
  0.75000000000000000       0.62500000000000000        0.0000000000000000     
  0.78125000000000000       0.62500000000000000        0.0000000000000000     
  0.81250000000000000       0.62500000000000000        0.0000000000000000     
  0.84375000000000000       0.62500000000000000        0.0000000000000000     
  0.87500000000000000       0.62500000000000000        0.0000000000000000     
  0.87500000000000000       0.50000000000000000        0.0000000000000000     
  0.90625000000000000       0.50000000000000000        0.0000000000000000     
  0.93750000000000000       0.50000000000000000        0.0000000000000000     
  0.96875000000000000       0.50000000000000000        0.0000000000000000     
   1.0000000000000000       0.50000000000000000        0.0000000000000000     
  0.87500000000000000       0.53125000000000000        0.0000000000000000     
  0.90625000000000000       0.53125000000000000        0.0000000000000000     
  0.93750000000000000       0.53125000000000000        0.0000000000000000     
  0.96875000000000000       0.53125000000000000        0.0000000000000000     
   1.0000000000000000       0.53125000000000000        0.0000000000000000     
  0.87500000000000000       0.56250000000000000        0.0000000000000000     
  0.90625000000000000       0.56250000000000000        0.0000000000000000     
  0.93750000000000000       0.56250000000000000        0.0000000000000000     
  0.96875000000000000       0.56250000000000000        0.0000000000000000     
   1.0000000000000000       0.56250000000000000        0.0000000000000000     
  0.87500000000000000       0.59375000000000000        0.0000000000000000     
  0.90625000000000000       0.59375000000000000        0.0000000000000000     
  0.93750000000000000       0.59375000000000000        0.0000000000000000     
  0.96875000000000000       0.59375000000000000        0.0000000000000000     
   1.0000000000000000       0.59375000000000000        0.0000000000000000     
  0.87500000000000000       0.62500000000000000        0.0000000000000000     
  0.90625000000000000       0.62500000000000000        0.0000000000000000     
  0.93750000000000000       0.62500000000000000        0.0000000000000000     
  0.96875000000000000       0.62500000000000000        0.0000000000000000     
   1.0000000000000000       0.62500000000000000        0.0000000000000000     
   1.0000000000000000       0.50000000000000000        0.0000000000000000     
   1.0312500000000000       0.50000000000000000        0.0000000000000000     
   1.0625000000000000       0.50000000000000000        0.0000000000000000     
   1.0937500000000000       0.50000000000000000        0.0000000000000000     
   1.1250000000000000       0.50000000000000000        0.0000000000000000     
   1.0000000000000000       0.53125000000000000        0.0000000000000000     
   1.0312500000000000       0.53125000000000000        0.0000000000000000     
   1.0625000000000000       0.53125000000000000        0.0000000000000000     
   1.0937500000000000       0.53125000000000000        0.0000000000000000     
   1.1250000000000000       0.53125000000000000        0.0000000000000000     
   1.0000000000000000       0.56250000000000000        0.0000000000000000     
   1.0312500000000000       0.56250000000000000        0.0000000000000000     
   1.0625000000000000       0.56250000000000000        0.0000000000000000     
   1.0937500000000000       0.56250000000000000        0.0000000000000000     
   1.1250000000000000       0.56250000000000000        0.0000000000000000     
   1.0000000000000000       0.59375000000000000        0.0000000000000000     
   1.0312500000000000       0.59375000000000000        0.0000000000000000     
   1.0625000000000000       0.59375000000000000        0.0000000000000000     
   1.0937500000000000       0.59375000000000000        0.0000000000000000     
   1.1250000000000000       0.59375000000000000        0.0000000000000000     
   1.0000000000000000       0.62500000000000000        0.0000000000000000     
   1.0312500000000000       0.62500000000000000        0.0000000000000000     
   1.0625000000000000       0.62500000000000000        0.0000000000000000     
   1.0937500000000000       0.62500000000000000        0.0000000000000000     
   1.1250000000000000       0.62500000000000000        0.0000000000000000     
   1.1250000000000000       0.50000000000000000        0.0000000000000000     
   1.1562500000000000       0.50000000000000000        0.0000000000000000     
   1.1875000000000000       0.50000000000000000        0.0000000000000000     
   1.2187500000000000       0.50000000000000000        0.0000000000000000     
   1.2500000000000000       0.50000000000000000        0.0000000000000000     
   1.1250000000000000       0.53125000000000000        0.0000000000000000     
   1.1562500000000000       0.53125000000000000        0.0000000000000000     
   1.1875000000000000       0.53125000000000000        0.0000000000000000     
   1.2187500000000000       0.53125000000000000        0.0000000000000000     
   1.2500000000000000       0.53125000000000000        0.0000000000000000     
   1.1250000000000000       0.56250000000000000        0.0000000000000000     
   1.1562500000000000       0.56250000000000000        0.0000000000000000     
   1.1875000000000000       0.56250000000000000        0.0000000000000000     
   1.2187500000000000       0.56250000000000000        0.0000000000000000     
   1.2500000000000000       0.56250000000000000        0.0000000000000000     
   1.1250000000000000       0.59375000000000000        0.0000000000000000     
   1.1562500000000000       0.59375000000000000        0.0000000000000000     
   1.1875000000000000       0.59375000000000000        0.0000000000000000     
   1.2187500000000000       0.59375000000000000        0.0000000000000000     
   1.2500000000000000       0.59375000000000000        0.0000000000000000     
   1.1250000000000000       0.62500000000000000        0.0000000000000000     
   1.1562500000000000       0.62500000000000000        0.0000000000000000     
   1.1875000000000000       0.62500000000000000        0.0000000000000000     
   1.2187500000000000       0.62500000000000000        0.0000000000000000     
   1.2500000000000000       0.62500000000000000        0.0000000000000000     
   1.2500000000000000       0.50000000000000000        0.0000000000000000     
   1.2812500000000000       0.50000000000000000        0.0000000000000000     
   1.3125000000000000       0.50000000000000000        0.0000000000000000     
   1.3437500000000000       0.50000000000000000        0.0000000000000000     
   1.3750000000000000       0.50000000000000000        0.0000000000000000     
   1.2500000000000000       0.53125000000000000        0.0000000000000000     
   1.2812500000000000       0.53125000000000000        0.0000000000000000     
   1.3125000000000000       0.53125000000000000        0.0000000000000000     
   1.3437500000000000       0.53125000000000000        0.0000000000000000     
   1.3750000000000000       0.53125000000000000        0.0000000000000000     
   1.2500000000000000       0.56250000000000000        0.0000000000000000     
   1.2812500000000000       0.56250000000000000        0.0000000000000000     
   1.3125000000000000       0.56250000000000000        0.0000000000000000     
   1.3437500000000000       0.56250000000000000        0.0000000000000000     
   1.3750000000000000       0.56250000000000000        0.0000000000000000     
   1.2500000000000000       0.59375000000000000        0.0000000000000000     
   1.2812500000000000       0.59375000000000000        0.0000000000000000     
   1.3125000000000000       0.59375000000000000        0.0000000000000000     
   1.3437500000000000       0.59375000000000000        0.0000000000000000     
   1.3750000000000000       0.59375000000000000        0.0000000000000000     
   1.2500000000000000       0.62500000000000000        0.0000000000000000     
   1.2812500000000000       0.62500000000000000        0.0000000000000000     
   1.3125000000000000       0.62500000000000000        0.0000000000000000     
   1.3437500000000000       0.62500000000000000        0.0000000000000000     
   1.3750000000000000       0.62500000000000000        0.0000000000000000     
   1.3750000000000000       0.50000000000000000        0.0000000000000000     
   1.4062500000000000       0.50000000000000000        0.0000000000000000     
   1.4375000000000000       0.50000000000000000        0.0000000000000000     
   1.4687500000000000       0.50000000000000000        0.0000000000000000     
   1.5000000000000000       0.50000000000000000        0.0000000000000000     
   1.3750000000000000       0.53125000000000000        0.0000000000000000     
   1.4062500000000000       0.53125000000000000        0.0000000000000000     
   1.4375000000000000       0.53125000000000000        0.0000000000000000     
   1.4687500000000000       0.53125000000000000        0.0000000000000000     
   1.5000000000000000       0.53125000000000000        0.0000000000000000     
   1.3750000000000000       0.56250000000000000        0.0000000000000000     
   1.4062500000000000       0.56250000000000000        0.0000000000000000     
   1.4375000000000000       0.56250000000000000        0.0000000000000000     
   1.4687500000000000       0.56250000000000000        0.0000000000000000     
   1.5000000000000000       0.56250000000000000        0.0000000000000000     
   1.3750000000000000       0.59375000000000000        0.0000000000000000     
   1.4062500000000000       0.59375000000000000        0.0000000000000000     
   1.4375000000000000       0.59375000000000000        0.0000000000000000     
   1.4687500000000000       0.59375000000000000        0.0000000000000000     
   1.5000000000000000       0.59375000000000000        0.0000000000000000     
   1.3750000000000000       0.62500000000000000        0.0000000000000000     
   1.4062500000000000       0.62500000000000000        0.0000000000000000     
   1.4375000000000000       0.62500000000000000        0.0000000000000000     
   1.4687500000000000       0.62500000000000000        0.0000000000000000     
   1.5000000000000000       0.62500000000000000        0.0000000000000000     
  0.50000000000000000       0.62500000000000000        0.0000000000000000     
  0.53125000000000000       0.62500000000000000        0.0000000000000000     
  0.56250000000000000       0.62500000000000000        0.0000000000000000     
  0.59375000000000000       0.62500000000000000        0.0000000000000000     
  0.62500000000000000       0.62500000000000000        0.0000000000000000     
  0.50000000000000000       0.65625000000000000        0.0000000000000000     
  0.53125000000000000       0.65625000000000000        0.0000000000000000     
  0.56250000000000000       0.65625000000000000        0.0000000000000000     
  0.59375000000000000       0.65625000000000000        0.0000000000000000     
  0.62500000000000000       0.65625000000000000        0.0000000000000000     
  0.50000000000000000       0.68750000000000000        0.0000000000000000     
  0.53125000000000000       0.68750000000000000        0.0000000000000000     
  0.56250000000000000       0.68750000000000000        0.0000000000000000     
  0.59375000000000000       0.68750000000000000        0.0000000000000000     
  0.62500000000000000       0.68750000000000000        0.0000000000000000     
  0.50000000000000000       0.71875000000000000        0.0000000000000000     
  0.53125000000000000       0.71875000000000000        0.0000000000000000     
  0.56250000000000000       0.71875000000000000        0.0000000000000000     
  0.59375000000000000       0.71875000000000000        0.0000000000000000     
  0.62500000000000000       0.71875000000000000        0.0000000000000000     
  0.50000000000000000       0.75000000000000000        0.0000000000000000     
  0.53125000000000000       0.75000000000000000        0.0000000000000000     
  0.56250000000000000       0.75000000000000000        0.0000000000000000     
  0.59375000000000000       0.75000000000000000        0.0000000000000000     
  0.62500000000000000       0.75000000000000000        0.0000000000000000     
  0.62500000000000000       0.62500000000000000        0.0000000000000000     
  0.65625000000000000       0.62500000000000000        0.0000000000000000     
  0.68750000000000000       0.62500000000000000        0.0000000000000000     
  0.71875000000000000       0.62500000000000000        0.0000000000000000     
  0.75000000000000000       0.62500000000000000        0.0000000000000000     
  0.62500000000000000       0.65625000000000000        0.0000000000000000     
  0.65625000000000000       0.65625000000000000        0.0000000000000000     
  0.68750000000000000       0.65625000000000000        0.0000000000000000     
  0.71875000000000000       0.65625000000000000        0.0000000000000000     
  0.75000000000000000       0.65625000000000000        0.0000000000000000     
  0.62500000000000000       0.68750000000000000        0.0000000000000000     
  0.65625000000000000       0.68750000000000000        0.0000000000000000     
  0.68750000000000000       0.68750000000000000        0.0000000000000000     
  0.71875000000000000       0.68750000000000000        0.0000000000000000     
  0.75000000000000000       0.68750000000000000        0.0000000000000000     
  0.62500000000000000       0.71875000000000000        0.0000000000000000     
  0.65625000000000000       0.71875000000000000        0.0000000000000000     
  0.68750000000000000       0.71875000000000000        0.0000000000000000     
  0.71875000000000000       0.71875000000000000        0.0000000000000000     
  0.75000000000000000       0.71875000000000000        0.0000000000000000     
  0.62500000000000000       0.75000000000000000        0.0000000000000000     
  0.65625000000000000       0.75000000000000000        0.0000000000000000     
  0.68750000000000000       0.75000000000000000        0.0000000000000000     
  0.71875000000000000       0.75000000000000000        0.0000000000000000     
  0.75000000000000000       0.75000000000000000        0.0000000000000000     
  0.75000000000000000       0.62500000000000000        0.0000000000000000     
  0.78125000000000000       0.62500000000000000        0.0000000000000000     
  0.81250000000000000       0.62500000000000000        0.0000000000000000     
  0.84375000000000000       0.62500000000000000        0.0000000000000000     
  0.87500000000000000       0.62500000000000000        0.0000000000000000     
  0.75000000000000000       0.65625000000000000        0.0000000000000000     
  0.78125000000000000       0.65625000000000000        0.0000000000000000     
  0.81250000000000000       0.65625000000000000        0.0000000000000000     
  0.84375000000000000       0.65625000000000000        0.0000000000000000     
  0.87500000000000000       0.65625000000000000        0.0000000000000000     
  0.75000000000000000       0.68750000000000000        0.0000000000000000     
  0.78125000000000000       0.68750000000000000        0.0000000000000000     
  0.81250000000000000       0.68750000000000000        0.0000000000000000     
  0.84375000000000000       0.68750000000000000        0.0000000000000000     
  0.87500000000000000       0.68750000000000000        0.0000000000000000     
  0.75000000000000000       0.71875000000000000        0.0000000000000000     
  0.78125000000000000       0.71875000000000000        0.0000000000000000     
  0.81250000000000000       0.71875000000000000        0.0000000000000000     
  0.84375000000000000       0.71875000000000000        0.0000000000000000     
  0.87500000000000000       0.71875000000000000        0.0000000000000000     
  0.75000000000000000       0.75000000000000000        0.0000000000000000     
  0.78125000000000000       0.75000000000000000        0.0000000000000000     
  0.81250000000000000       0.75000000000000000        0.0000000000000000     
  0.84375000000000000       0.75000000000000000        0.0000000000000000     
  0.87500000000000000       0.75000000000000000        0.0000000000000000     
  0.87500000000000000       0.62500000000000000        0.0000000000000000     
  0.90625000000000000       0.62500000000000000        0.0000000000000000     
  0.93750000000000000       0.62500000000000000        0.0000000000000000     
  0.96875000000000000       0.62500000000000000        0.0000000000000000     
   1.0000000000000000       0.62500000000000000        0.0000000000000000     
  0.87500000000000000       0.65625000000000000        0.0000000000000000     
  0.90625000000000000       0.65625000000000000        0.0000000000000000     
  0.93750000000000000       0.65625000000000000        0.0000000000000000     
  0.96875000000000000       0.65625000000000000        0.0000000000000000     
   1.0000000000000000       0.65625000000000000        0.0000000000000000     
  0.87500000000000000       0.68750000000000000        0.0000000000000000     
  0.90625000000000000       0.68750000000000000        0.0000000000000000     
  0.93750000000000000       0.68750000000000000        0.0000000000000000     
  0.96875000000000000       0.68750000000000000        0.0000000000000000     
   1.0000000000000000       0.68750000000000000        0.0000000000000000     
  0.87500000000000000       0.71875000000000000        0.0000000000000000     
  0.90625000000000000       0.71875000000000000        0.0000000000000000     
  0.93750000000000000       0.71875000000000000        0.0000000000000000     
  0.96875000000000000       0.71875000000000000        0.0000000000000000     
   1.0000000000000000       0.71875000000000000        0.0000000000000000     
  0.87500000000000000       0.75000000000000000        0.0000000000000000     
  0.90625000000000000       0.75000000000000000        0.0000000000000000     
  0.93750000000000000       0.75000000000000000        0.0000000000000000     
  0.96875000000000000       0.75000000000000000        0.0000000000000000     
   1.0000000000000000       0.75000000000000000        0.0000000000000000     
   1.0000000000000000       0.62500000000000000        0.0000000000000000     
   1.0312500000000000       0.62500000000000000        0.0000000000000000     
   1.0625000000000000       0.62500000000000000        0.0000000000000000     
   1.0937500000000000       0.62500000000000000        0.0000000000000000     
   1.1250000000000000       0.62500000000000000        0.0000000000000000     
   1.0000000000000000       0.65625000000000000        0.0000000000000000     
   1.0312500000000000       0.65625000000000000        0.0000000000000000     
   1.0625000000000000       0.65625000000000000        0.0000000000000000     
   1.0937500000000000       0.65625000000000000        0.0000000000000000     
   1.1250000000000000       0.65625000000000000        0.0000000000000000     
   1.0000000000000000       0.68750000000000000        0.0000000000000000     
   1.0312500000000000       0.68750000000000000        0.0000000000000000     
   1.0625000000000000       0.68750000000000000        0.0000000000000000     
   1.0937500000000000       0.68750000000000000        0.0000000000000000     
   1.1250000000000000       0.68750000000000000        0.0000000000000000     
   1.0000000000000000       0.71875000000000000        0.0000000000000000     
   1.0312500000000000       0.71875000000000000        0.0000000000000000     
   1.0625000000000000       0.71875000000000000        0.0000000000000000     
   1.0937500000000000       0.71875000000000000        0.0000000000000000     
   1.1250000000000000       0.71875000000000000        0.0000000000000000     
   1.0000000000000000       0.75000000000000000        0.0000000000000000     
   1.0312500000000000       0.75000000000000000        0.0000000000000000     
   1.0625000000000000       0.75000000000000000        0.0000000000000000     
   1.0937500000000000       0.75000000000000000        0.0000000000000000     
   1.1250000000000000       0.75000000000000000        0.0000000000000000     
   1.1250000000000000       0.62500000000000000        0.0000000000000000     
   1.1562500000000000       0.62500000000000000        0.0000000000000000     
   1.1875000000000000       0.62500000000000000        0.0000000000000000     
   1.2187500000000000       0.62500000000000000        0.0000000000000000     
   1.2500000000000000       0.62500000000000000        0.0000000000000000     
   1.1250000000000000       0.65625000000000000        0.0000000000000000     
   1.1562500000000000       0.65625000000000000        0.0000000000000000     
   1.1875000000000000       0.65625000000000000        0.0000000000000000     
   1.2187500000000000       0.65625000000000000        0.0000000000000000     
   1.2500000000000000       0.65625000000000000        0.0000000000000000     
   1.1250000000000000       0.68750000000000000        0.0000000000000000     
   1.1562500000000000       0.68750000000000000        0.0000000000000000     
   1.1875000000000000       0.68750000000000000        0.0000000000000000     
   1.2187500000000000       0.68750000000000000        0.0000000000000000     
   1.2500000000000000       0.68750000000000000        0.0000000000000000     
   1.1250000000000000       0.71875000000000000        0.0000000000000000     
   1.1562500000000000       0.71875000000000000        0.0000000000000000     
   1.1875000000000000       0.71875000000000000        0.0000000000000000     
   1.2187500000000000       0.71875000000000000        0.0000000000000000     
   1.2500000000000000       0.71875000000000000        0.0000000000000000     
   1.1250000000000000       0.75000000000000000        0.0000000000000000     
   1.1562500000000000       0.75000000000000000        0.0000000000000000     
   1.1875000000000000       0.75000000000000000        0.0000000000000000     
   1.2187500000000000       0.75000000000000000        0.0000000000000000     
   1.2500000000000000       0.75000000000000000        0.0000000000000000     
   1.2500000000000000       0.62500000000000000        0.0000000000000000     
   1.2812500000000000       0.62500000000000000        0.0000000000000000     
   1.3125000000000000       0.62500000000000000        0.0000000000000000     
   1.3437500000000000       0.62500000000000000        0.0000000000000000     
   1.3750000000000000       0.62500000000000000        0.0000000000000000     
   1.2500000000000000       0.65625000000000000        0.0000000000000000     
   1.2812500000000000       0.65625000000000000        0.0000000000000000     
   1.3125000000000000       0.65625000000000000        0.0000000000000000     
   1.3437500000000000       0.65625000000000000        0.0000000000000000     
   1.3750000000000000       0.65625000000000000        0.0000000000000000     
   1.2500000000000000       0.68750000000000000        0.0000000000000000     
   1.2812500000000000       0.68750000000000000        0.0000000000000000     
   1.3125000000000000       0.68750000000000000        0.0000000000000000     
   1.3437500000000000       0.68750000000000000        0.0000000000000000     
   1.3750000000000000       0.68750000000000000        0.0000000000000000     
   1.2500000000000000       0.71875000000000000        0.0000000000000000     
   1.2812500000000000       0.71875000000000000        0.0000000000000000     
   1.3125000000000000       0.71875000000000000        0.0000000000000000     
   1.3437500000000000       0.71875000000000000        0.0000000000000000     
   1.3750000000000000       0.71875000000000000        0.0000000000000000     
   1.2500000000000000       0.75000000000000000        0.0000000000000000     
   1.2812500000000000       0.75000000000000000        0.0000000000000000     
   1.3125000000000000       0.75000000000000000        0.0000000000000000     
   1.3437500000000000       0.75000000000000000        0.0000000000000000     
   1.3750000000000000       0.75000000000000000        0.0000000000000000     
   1.3750000000000000       0.62500000000000000        0.0000000000000000     
   1.4062500000000000       0.62500000000000000        0.0000000000000000     
   1.4375000000000000       0.62500000000000000        0.0000000000000000     
   1.4687500000000000       0.62500000000000000        0.0000000000000000     
   1.5000000000000000       0.62500000000000000        0.0000000000000000     
   1.3750000000000000       0.65625000000000000        0.0000000000000000     
   1.4062500000000000       0.65625000000000000        0.0000000000000000     
   1.4375000000000000       0.65625000000000000        0.0000000000000000     
   1.4687500000000000       0.65625000000000000        0.0000000000000000     
   1.5000000000000000       0.65625000000000000        0.0000000000000000     
   1.3750000000000000       0.68750000000000000        0.0000000000000000     
   1.4062500000000000       0.68750000000000000        0.0000000000000000     
   1.4375000000000000       0.68750000000000000        0.0000000000000000     
   1.4687500000000000       0.68750000000000000        0.0000000000000000     
   1.5000000000000000       0.68750000000000000        0.0000000000000000     
   1.3750000000000000       0.71875000000000000        0.0000000000000000     
   1.4062500000000000       0.71875000000000000        0.0000000000000000     
   1.4375000000000000       0.71875000000000000        0.0000000000000000     
   1.4687500000000000       0.71875000000000000        0.0000000000000000     
   1.5000000000000000       0.71875000000000000        0.0000000000000000     
   1.3750000000000000       0.75000000000000000        0.0000000000000000     
   1.4062500000000000       0.75000000000000000        0.0000000000000000     
   1.4375000000000000       0.75000000000000000        0.0000000000000000     
   1.4687500000000000       0.75000000000000000        0.0000000000000000     
   1.5000000000000000       0.75000000000000000        0.0000000000000000     
  0.50000000000000000       0.75000000000000000        0.0000000000000000     
  0.53125000000000000       0.75000000000000000        0.0000000000000000     
  0.56250000000000000       0.75000000000000000        0.0000000000000000     
  0.59375000000000000       0.75000000000000000        0.0000000000000000     
  0.62500000000000000       0.75000000000000000        0.0000000000000000     
  0.50000000000000000       0.78125000000000000        0.0000000000000000     
  0.53125000000000000       0.78125000000000000        0.0000000000000000     
  0.56250000000000000       0.78125000000000000        0.0000000000000000     
  0.59375000000000000       0.78125000000000000        0.0000000000000000     
  0.62500000000000000       0.78125000000000000        0.0000000000000000     
  0.50000000000000000       0.81250000000000000        0.0000000000000000     
  0.53125000000000000       0.81250000000000000        0.0000000000000000     
  0.56250000000000000       0.81250000000000000        0.0000000000000000     
  0.59375000000000000       0.81250000000000000        0.0000000000000000     
  0.62500000000000000       0.81250000000000000        0.0000000000000000     
  0.50000000000000000       0.84375000000000000        0.0000000000000000     
  0.53125000000000000       0.84375000000000000        0.0000000000000000     
  0.56250000000000000       0.84375000000000000        0.0000000000000000     
  0.59375000000000000       0.84375000000000000        0.0000000000000000     
  0.62500000000000000       0.84375000000000000        0.0000000000000000     
  0.50000000000000000       0.87500000000000000        0.0000000000000000     
  0.53125000000000000       0.87500000000000000        0.0000000000000000     
  0.56250000000000000       0.87500000000000000        0.0000000000000000     
  0.59375000000000000       0.87500000000000000        0.0000000000000000     
  0.62500000000000000       0.87500000000000000        0.0000000000000000     
  0.62500000000000000       0.75000000000000000        0.0000000000000000     
  0.65625000000000000       0.75000000000000000        0.0000000000000000     
  0.68750000000000000       0.75000000000000000        0.0000000000000000     
  0.71875000000000000       0.75000000000000000        0.0000000000000000     
  0.75000000000000000       0.75000000000000000        0.0000000000000000     
  0.62500000000000000       0.78125000000000000        0.0000000000000000     
  0.65625000000000000       0.78125000000000000        0.0000000000000000     
  0.68750000000000000       0.78125000000000000        0.0000000000000000     
  0.71875000000000000       0.78125000000000000        0.0000000000000000     
  0.75000000000000000       0.78125000000000000        0.0000000000000000     
  0.62500000000000000       0.81250000000000000        0.0000000000000000     
  0.65625000000000000       0.81250000000000000        0.0000000000000000     
  0.68750000000000000       0.81250000000000000        0.0000000000000000     
  0.71875000000000000       0.81250000000000000        0.0000000000000000     
  0.75000000000000000       0.81250000000000000        0.0000000000000000     
  0.62500000000000000       0.84375000000000000        0.0000000000000000     
  0.65625000000000000       0.84375000000000000        0.0000000000000000     
  0.68750000000000000       0.84375000000000000        0.0000000000000000     
  0.71875000000000000       0.84375000000000000        0.0000000000000000     
  0.75000000000000000       0.84375000000000000        0.0000000000000000     
  0.62500000000000000       0.87500000000000000        0.0000000000000000     
  0.65625000000000000       0.87500000000000000        0.0000000000000000     
  0.68750000000000000       0.87500000000000000        0.0000000000000000     
  0.71875000000000000       0.87500000000000000        0.0000000000000000     
  0.75000000000000000       0.87500000000000000        0.0000000000000000     
  0.75000000000000000       0.75000000000000000        0.0000000000000000     
  0.78125000000000000       0.75000000000000000        0.0000000000000000     
  0.81250000000000000       0.75000000000000000        0.0000000000000000     
  0.84375000000000000       0.75000000000000000        0.0000000000000000     
  0.87500000000000000       0.75000000000000000        0.0000000000000000     
  0.75000000000000000       0.78125000000000000        0.0000000000000000     
  0.78125000000000000       0.78125000000000000        0.0000000000000000     
  0.81250000000000000       0.78125000000000000        0.0000000000000000     
  0.84375000000000000       0.78125000000000000        0.0000000000000000     
  0.87500000000000000       0.78125000000000000        0.0000000000000000     
  0.75000000000000000       0.81250000000000000        0.0000000000000000     
  0.78125000000000000       0.81250000000000000        0.0000000000000000     
  0.81250000000000000       0.81250000000000000        0.0000000000000000     
  0.84375000000000000       0.81250000000000000        0.0000000000000000     
  0.87500000000000000       0.81250000000000000        0.0000000000000000     
  0.75000000000000000       0.84375000000000000        0.0000000000000000     
  0.78125000000000000       0.84375000000000000        0.0000000000000000     
  0.81250000000000000       0.84375000000000000        0.0000000000000000     
  0.84375000000000000       0.84375000000000000        0.0000000000000000     
  0.87500000000000000       0.84375000000000000        0.0000000000000000     
  0.75000000000000000       0.87500000000000000        0.0000000000000000     
  0.78125000000000000       0.87500000000000000        0.0000000000000000     
  0.81250000000000000       0.87500000000000000        0.0000000000000000     
  0.84375000000000000       0.87500000000000000        0.0000000000000000     
  0.87500000000000000       0.87500000000000000        0.0000000000000000     
  0.87500000000000000       0.75000000000000000        0.0000000000000000     
  0.90625000000000000       0.75000000000000000        0.0000000000000000     
  0.93750000000000000       0.75000000000000000        0.0000000000000000     
  0.96875000000000000       0.75000000000000000        0.0000000000000000     
   1.0000000000000000       0.75000000000000000        0.0000000000000000     
  0.87500000000000000       0.78125000000000000        0.0000000000000000     
  0.90625000000000000       0.78125000000000000        0.0000000000000000     
  0.93750000000000000       0.78125000000000000        0.0000000000000000     
  0.96875000000000000       0.78125000000000000        0.0000000000000000     
   1.0000000000000000       0.78125000000000000        0.0000000000000000     
  0.87500000000000000       0.81250000000000000        0.0000000000000000     
  0.90625000000000000       0.81250000000000000        0.0000000000000000     
  0.93750000000000000       0.81250000000000000        0.0000000000000000     
  0.96875000000000000       0.81250000000000000        0.0000000000000000     
   1.0000000000000000       0.81250000000000000        0.0000000000000000     
  0.87500000000000000       0.84375000000000000        0.0000000000000000     
  0.90625000000000000       0.84375000000000000        0.0000000000000000     
  0.93750000000000000       0.84375000000000000        0.0000000000000000     
  0.96875000000000000       0.84375000000000000        0.0000000000000000     
   1.0000000000000000       0.84375000000000000        0.0000000000000000     
  0.87500000000000000       0.87500000000000000        0.0000000000000000     
  0.90625000000000000       0.87500000000000000        0.0000000000000000     
  0.93750000000000000       0.87500000000000000        0.0000000000000000     
  0.96875000000000000       0.87500000000000000        0.0000000000000000     
   1.0000000000000000       0.87500000000000000        0.0000000000000000     
   1.0000000000000000       0.75000000000000000        0.0000000000000000     
   1.0312500000000000       0.75000000000000000        0.0000000000000000     
   1.0625000000000000       0.75000000000000000        0.0000000000000000     
   1.0937500000000000       0.75000000000000000        0.0000000000000000     
   1.1250000000000000       0.75000000000000000        0.0000000000000000     
   1.0000000000000000       0.78125000000000000        0.0000000000000000     
   1.0312500000000000       0.78125000000000000        0.0000000000000000     
   1.0625000000000000       0.78125000000000000        0.0000000000000000     
   1.0937500000000000       0.78125000000000000        0.0000000000000000     
   1.1250000000000000       0.78125000000000000        0.0000000000000000     
   1.0000000000000000       0.81250000000000000        0.0000000000000000     
   1.0312500000000000       0.81250000000000000        0.0000000000000000     
   1.0625000000000000       0.81250000000000000        0.0000000000000000     
   1.0937500000000000       0.81250000000000000        0.0000000000000000     
   1.1250000000000000       0.81250000000000000        0.0000000000000000     
   1.0000000000000000       0.84375000000000000        0.0000000000000000     
   1.0312500000000000       0.84375000000000000        0.0000000000000000     
   1.0625000000000000       0.84375000000000000        0.0000000000000000     
   1.0937500000000000       0.84375000000000000        0.0000000000000000     
   1.1250000000000000       0.84375000000000000        0.0000000000000000     
   1.0000000000000000       0.87500000000000000        0.0000000000000000     
   1.0312500000000000       0.87500000000000000        0.0000000000000000     
   1.0625000000000000       0.87500000000000000        0.0000000000000000     
   1.0937500000000000       0.87500000000000000        0.0000000000000000     
   1.1250000000000000       0.87500000000000000        0.0000000000000000     
   1.1250000000000000       0.75000000000000000        0.0000000000000000     
   1.1562500000000000       0.75000000000000000        0.0000000000000000     
   1.1875000000000000       0.75000000000000000        0.0000000000000000     
   1.2187500000000000       0.75000000000000000        0.0000000000000000     
   1.2500000000000000       0.75000000000000000        0.0000000000000000     
   1.1250000000000000       0.78125000000000000        0.0000000000000000     
   1.1562500000000000       0.78125000000000000        0.0000000000000000     
   1.1875000000000000       0.78125000000000000        0.0000000000000000     
   1.2187500000000000       0.78125000000000000        0.0000000000000000     
   1.2500000000000000       0.78125000000000000        0.0000000000000000     
   1.1250000000000000       0.81250000000000000        0.0000000000000000     
   1.1562500000000000       0.81250000000000000        0.0000000000000000     
   1.1875000000000000       0.81250000000000000        0.0000000000000000     
   1.2187500000000000       0.81250000000000000        0.0000000000000000     
   1.2500000000000000       0.81250000000000000        0.0000000000000000     
   1.1250000000000000       0.84375000000000000        0.0000000000000000     
   1.1562500000000000       0.84375000000000000        0.0000000000000000     
   1.1875000000000000       0.84375000000000000        0.0000000000000000     
   1.2187500000000000       0.84375000000000000        0.0000000000000000     
   1.2500000000000000       0.84375000000000000        0.0000000000000000     
   1.1250000000000000       0.87500000000000000        0.0000000000000000     
   1.1562500000000000       0.87500000000000000        0.0000000000000000     
   1.1875000000000000       0.87500000000000000        0.0000000000000000     
   1.2187500000000000       0.87500000000000000        0.0000000000000000     
   1.2500000000000000       0.87500000000000000        0.0000000000000000     
   1.2500000000000000       0.75000000000000000        0.0000000000000000     
   1.2812500000000000       0.75000000000000000        0.0000000000000000     
   1.3125000000000000       0.75000000000000000        0.0000000000000000     
   1.3437500000000000       0.75000000000000000        0.0000000000000000     
   1.3750000000000000       0.75000000000000000        0.0000000000000000     
   1.2500000000000000       0.78125000000000000        0.0000000000000000     
   1.2812500000000000       0.78125000000000000        0.0000000000000000     
   1.3125000000000000       0.78125000000000000        0.0000000000000000     
   1.3437500000000000       0.78125000000000000        0.0000000000000000     
   1.3750000000000000       0.78125000000000000        0.0000000000000000     
   1.2500000000000000       0.81250000000000000        0.0000000000000000     
   1.2812500000000000       0.81250000000000000        0.0000000000000000     
   1.3125000000000000       0.81250000000000000        0.0000000000000000     
   1.3437500000000000       0.81250000000000000        0.0000000000000000     
   1.3750000000000000       0.81250000000000000        0.0000000000000000     
   1.2500000000000000       0.84375000000000000        0.0000000000000000     
   1.2812500000000000       0.84375000000000000        0.0000000000000000     
   1.3125000000000000       0.84375000000000000        0.0000000000000000     
   1.3437500000000000       0.84375000000000000        0.0000000000000000     
   1.3750000000000000       0.84375000000000000        0.0000000000000000     
   1.2500000000000000       0.87500000000000000        0.0000000000000000     
   1.2812500000000000       0.87500000000000000        0.0000000000000000     
   1.3125000000000000       0.87500000000000000        0.0000000000000000     
   1.3437500000000000       0.87500000000000000        0.0000000000000000     
   1.3750000000000000       0.87500000000000000        0.0000000000000000     
   1.3750000000000000       0.75000000000000000        0.0000000000000000     
   1.4062500000000000       0.75000000000000000        0.0000000000000000     
   1.4375000000000000       0.75000000000000000        0.0000000000000000     
   1.4687500000000000       0.75000000000000000        0.0000000000000000     
   1.5000000000000000       0.75000000000000000        0.0000000000000000     
   1.3750000000000000       0.78125000000000000        0.0000000000000000     
   1.4062500000000000       0.78125000000000000        0.0000000000000000     
   1.4375000000000000       0.78125000000000000        0.0000000000000000     
   1.4687500000000000       0.78125000000000000        0.0000000000000000     
   1.5000000000000000       0.78125000000000000        0.0000000000000000     
   1.3750000000000000       0.81250000000000000        0.0000000000000000     
   1.4062500000000000       0.81250000000000000        0.0000000000000000     
   1.4375000000000000       0.81250000000000000        0.0000000000000000     
   1.4687500000000000       0.81250000000000000        0.0000000000000000     
   1.5000000000000000       0.81250000000000000        0.0000000000000000     
   1.3750000000000000       0.84375000000000000        0.0000000000000000     
   1.4062500000000000       0.84375000000000000        0.0000000000000000     
   1.4375000000000000       0.84375000000000000        0.0000000000000000     
   1.4687500000000000       0.84375000000000000        0.0000000000000000     
   1.5000000000000000       0.84375000000000000        0.0000000000000000     
   1.3750000000000000       0.87500000000000000        0.0000000000000000     
   1.4062500000000000       0.87500000000000000        0.0000000000000000     
   1.4375000000000000       0.87500000000000000        0.0000000000000000     
   1.4687500000000000       0.87500000000000000        0.0000000000000000     
   1.5000000000000000       0.87500000000000000        0.0000000000000000     
  0.50000000000000000       0.87500000000000000        0.0000000000000000     
  0.53125000000000000       0.87500000000000000        0.0000000000000000     
  0.56250000000000000       0.87500000000000000        0.0000000000000000     
  0.59375000000000000       0.87500000000000000        0.0000000000000000     
  0.62500000000000000       0.87500000000000000        0.0000000000000000     
  0.50000000000000000       0.90625000000000000        0.0000000000000000     
  0.53125000000000000       0.90625000000000000        0.0000000000000000     
  0.56250000000000000       0.90625000000000000        0.0000000000000000     
  0.59375000000000000       0.90625000000000000        0.0000000000000000     
  0.62500000000000000       0.90625000000000000        0.0000000000000000     
  0.50000000000000000       0.93750000000000000        0.0000000000000000     
  0.53125000000000000       0.93750000000000000        0.0000000000000000     
  0.56250000000000000       0.93750000000000000        0.0000000000000000     
  0.59375000000000000       0.93750000000000000        0.0000000000000000     
  0.62500000000000000       0.93750000000000000        0.0000000000000000     
  0.50000000000000000       0.96875000000000000        0.0000000000000000     
  0.53125000000000000       0.96875000000000000        0.0000000000000000     
  0.56250000000000000       0.96875000000000000        0.0000000000000000     
  0.59375000000000000       0.96875000000000000        0.0000000000000000     
  0.62500000000000000       0.96875000000000000        0.0000000000000000     
  0.50000000000000000        1.0000000000000000        0.0000000000000000     
  0.53125000000000000        1.0000000000000000        0.0000000000000000     
  0.56250000000000000        1.0000000000000000        0.0000000000000000     
  0.59375000000000000        1.0000000000000000        0.0000000000000000     
  0.62500000000000000        1.0000000000000000        0.0000000000000000     
  0.62500000000000000       0.87500000000000000        0.0000000000000000     
  0.65625000000000000       0.87500000000000000        0.0000000000000000     
  0.68750000000000000       0.87500000000000000        0.0000000000000000     
  0.71875000000000000       0.87500000000000000        0.0000000000000000     
  0.75000000000000000       0.87500000000000000        0.0000000000000000     
  0.62500000000000000       0.90625000000000000        0.0000000000000000     
  0.65625000000000000       0.90625000000000000        0.0000000000000000     
  0.68750000000000000       0.90625000000000000        0.0000000000000000     
  0.71875000000000000       0.90625000000000000        0.0000000000000000     
  0.75000000000000000       0.90625000000000000        0.0000000000000000     
  0.62500000000000000       0.93750000000000000        0.0000000000000000     
  0.65625000000000000       0.93750000000000000        0.0000000000000000     
  0.68750000000000000       0.93750000000000000        0.0000000000000000     
  0.71875000000000000       0.93750000000000000        0.0000000000000000     
  0.75000000000000000       0.93750000000000000        0.0000000000000000     
  0.62500000000000000       0.96875000000000000        0.0000000000000000     
  0.65625000000000000       0.96875000000000000        0.0000000000000000     
  0.68750000000000000       0.96875000000000000        0.0000000000000000     
  0.71875000000000000       0.96875000000000000        0.0000000000000000     
  0.75000000000000000       0.96875000000000000        0.0000000000000000     
  0.62500000000000000        1.0000000000000000        0.0000000000000000     
  0.65625000000000000        1.0000000000000000        0.0000000000000000     
  0.68750000000000000        1.0000000000000000        0.0000000000000000     
  0.71875000000000000        1.0000000000000000        0.0000000000000000     
  0.75000000000000000        1.0000000000000000        0.0000000000000000     
  0.75000000000000000       0.87500000000000000        0.0000000000000000     
  0.78125000000000000       0.87500000000000000        0.0000000000000000     
  0.81250000000000000       0.87500000000000000        0.0000000000000000     
  0.84375000000000000       0.87500000000000000        0.0000000000000000     
  0.87500000000000000       0.87500000000000000        0.0000000000000000     
  0.75000000000000000       0.90625000000000000        0.0000000000000000     
  0.78125000000000000       0.90625000000000000        0.0000000000000000     
  0.81250000000000000       0.90625000000000000        0.0000000000000000     
  0.84375000000000000       0.90625000000000000        0.0000000000000000     
  0.87500000000000000       0.90625000000000000        0.0000000000000000     
  0.75000000000000000       0.93750000000000000        0.0000000000000000     
  0.78125000000000000       0.93750000000000000        0.0000000000000000     
  0.81250000000000000       0.93750000000000000        0.0000000000000000     
  0.84375000000000000       0.93750000000000000        0.0000000000000000     
  0.87500000000000000       0.93750000000000000        0.0000000000000000     
  0.75000000000000000       0.96875000000000000        0.0000000000000000     
  0.78125000000000000       0.96875000000000000        0.0000000000000000     
  0.81250000000000000       0.96875000000000000        0.0000000000000000     
  0.84375000000000000       0.96875000000000000        0.0000000000000000     
  0.87500000000000000       0.96875000000000000        0.0000000000000000     
  0.75000000000000000        1.0000000000000000        0.0000000000000000     
  0.78125000000000000        1.0000000000000000        0.0000000000000000     
  0.81250000000000000        1.0000000000000000        0.0000000000000000     
  0.84375000000000000        1.0000000000000000        0.0000000000000000     
  0.87500000000000000        1.0000000000000000        0.0000000000000000     
  0.87500000000000000       0.87500000000000000        0.0000000000000000     
  0.90625000000000000       0.87500000000000000        0.0000000000000000     
  0.93750000000000000       0.87500000000000000        0.0000000000000000     
  0.96875000000000000       0.87500000000000000        0.0000000000000000     
   1.0000000000000000       0.87500000000000000        0.0000000000000000     
  0.87500000000000000       0.90625000000000000        0.0000000000000000     
  0.90625000000000000       0.90625000000000000        0.0000000000000000     
  0.93750000000000000       0.90625000000000000        0.0000000000000000     
  0.96875000000000000       0.90625000000000000        0.0000000000000000     
   1.0000000000000000       0.90625000000000000        0.0000000000000000     
  0.87500000000000000       0.93750000000000000        0.0000000000000000     
  0.90625000000000000       0.93750000000000000        0.0000000000000000     
  0.93750000000000000       0.93750000000000000        0.0000000000000000     
  0.96875000000000000       0.93750000000000000        0.0000000000000000     
   1.0000000000000000       0.93750000000000000        0.0000000000000000     
  0.87500000000000000       0.96875000000000000        0.0000000000000000     
  0.90625000000000000       0.96875000000000000        0.0000000000000000     
  0.93750000000000000       0.96875000000000000        0.0000000000000000     
  0.96875000000000000       0.96875000000000000        0.0000000000000000     
   1.0000000000000000       0.96875000000000000        0.0000000000000000     
  0.87500000000000000        1.0000000000000000        0.0000000000000000     
  0.90625000000000000        1.0000000000000000        0.0000000000000000     
  0.93750000000000000        1.0000000000000000        0.0000000000000000     
  0.96875000000000000        1.0000000000000000        0.0000000000000000     
   1.0000000000000000        1.0000000000000000        0.0000000000000000     
   1.0000000000000000       0.87500000000000000        0.0000000000000000     
   1.0312500000000000       0.87500000000000000        0.0000000000000000     
   1.0625000000000000       0.87500000000000000        0.0000000000000000     
   1.0937500000000000       0.87500000000000000        0.0000000000000000     
   1.1250000000000000       0.87500000000000000        0.0000000000000000     
   1.0000000000000000       0.90625000000000000        0.0000000000000000     
   1.0312500000000000       0.90625000000000000        0.0000000000000000     
   1.0625000000000000       0.90625000000000000        0.0000000000000000     
   1.0937500000000000       0.90625000000000000        0.0000000000000000     
   1.1250000000000000       0.90625000000000000        0.0000000000000000     
   1.0000000000000000       0.93750000000000000        0.0000000000000000     
   1.0312500000000000       0.93750000000000000        0.0000000000000000     
   1.0625000000000000       0.93750000000000000        0.0000000000000000     
   1.0937500000000000       0.93750000000000000        0.0000000000000000     
   1.1250000000000000       0.93750000000000000        0.0000000000000000     
   1.0000000000000000       0.96875000000000000        0.0000000000000000     
   1.0312500000000000       0.96875000000000000        0.0000000000000000     
   1.0625000000000000       0.96875000000000000        0.0000000000000000     
   1.0937500000000000       0.96875000000000000        0.0000000000000000     
   1.1250000000000000       0.96875000000000000        0.0000000000000000     
   1.0000000000000000        1.0000000000000000        0.0000000000000000     
   1.0312500000000000        1.0000000000000000        0.0000000000000000     
   1.0625000000000000        1.0000000000000000        0.0000000000000000     
   1.0937500000000000        1.0000000000000000        0.0000000000000000     
   1.1250000000000000        1.0000000000000000        0.0000000000000000     
   1.1250000000000000       0.87500000000000000        0.0000000000000000     
   1.1562500000000000       0.87500000000000000        0.0000000000000000     
   1.1875000000000000       0.87500000000000000        0.0000000000000000     
   1.2187500000000000       0.87500000000000000        0.0000000000000000     
   1.2500000000000000       0.87500000000000000        0.0000000000000000     
   1.1250000000000000       0.90625000000000000        0.0000000000000000     
   1.1562500000000000       0.90625000000000000        0.0000000000000000     
   1.1875000000000000       0.90625000000000000        0.0000000000000000     
   1.2187500000000000       0.90625000000000000        0.0000000000000000     
   1.2500000000000000       0.90625000000000000        0.0000000000000000     
   1.1250000000000000       0.93750000000000000        0.0000000000000000     
   1.1562500000000000       0.93750000000000000        0.0000000000000000     
   1.1875000000000000       0.93750000000000000        0.0000000000000000     
   1.2187500000000000       0.93750000000000000        0.0000000000000000     
   1.2500000000000000       0.93750000000000000        0.0000000000000000     
   1.1250000000000000       0.96875000000000000        0.0000000000000000     
   1.1562500000000000       0.96875000000000000        0.0000000000000000     
   1.1875000000000000       0.96875000000000000        0.0000000000000000     
   1.2187500000000000       0.96875000000000000        0.0000000000000000     
   1.2500000000000000       0.96875000000000000        0.0000000000000000     
   1.1250000000000000        1.0000000000000000        0.0000000000000000     
   1.1562500000000000        1.0000000000000000        0.0000000000000000     
   1.1875000000000000        1.0000000000000000        0.0000000000000000     
   1.2187500000000000        1.0000000000000000        0.0000000000000000     
   1.2500000000000000        1.0000000000000000        0.0000000000000000     
   1.2500000000000000       0.87500000000000000        0.0000000000000000     
   1.2812500000000000       0.87500000000000000        0.0000000000000000     
   1.3125000000000000       0.87500000000000000        0.0000000000000000     
   1.3437500000000000       0.87500000000000000        0.0000000000000000     
   1.3750000000000000       0.87500000000000000        0.0000000000000000     
   1.2500000000000000       0.90625000000000000        0.0000000000000000     
   1.2812500000000000       0.90625000000000000        0.0000000000000000     
   1.3125000000000000       0.90625000000000000        0.0000000000000000     
   1.3437500000000000       0.90625000000000000        0.0000000000000000     
   1.3750000000000000       0.90625000000000000        0.0000000000000000     
   1.2500000000000000       0.93750000000000000        0.0000000000000000     
   1.2812500000000000       0.93750000000000000        0.0000000000000000     
   1.3125000000000000       0.93750000000000000        0.0000000000000000     
   1.3437500000000000       0.93750000000000000        0.0000000000000000     
   1.3750000000000000       0.93750000000000000        0.0000000000000000     
   1.2500000000000000       0.96875000000000000        0.0000000000000000     
   1.2812500000000000       0.96875000000000000        0.0000000000000000     
   1.3125000000000000       0.96875000000000000        0.0000000000000000     
   1.3437500000000000       0.96875000000000000        0.0000000000000000     
   1.3750000000000000       0.96875000000000000        0.0000000000000000     
   1.2500000000000000        1.0000000000000000        0.0000000000000000     
   1.2812500000000000        1.0000000000000000        0.0000000000000000     
   1.3125000000000000        1.0000000000000000        0.0000000000000000     
   1.3437500000000000        1.0000000000000000        0.0000000000000000     
   1.3750000000000000        1.0000000000000000        0.0000000000000000     
   1.3750000000000000       0.87500000000000000        0.0000000000000000     
   1.4062500000000000       0.87500000000000000        0.0000000000000000     
   1.4375000000000000       0.87500000000000000        0.0000000000000000     
   1.4687500000000000       0.87500000000000000        0.0000000000000000     
   1.5000000000000000       0.87500000000000000        0.0000000000000000     
   1.3750000000000000       0.90625000000000000        0.0000000000000000     
   1.4062500000000000       0.90625000000000000        0.0000000000000000     
   1.4375000000000000       0.90625000000000000        0.0000000000000000     
   1.4687500000000000       0.90625000000000000        0.0000000000000000     
   1.5000000000000000       0.90625000000000000        0.0000000000000000     
   1.3750000000000000       0.93750000000000000        0.0000000000000000     
   1.4062500000000000       0.93750000000000000        0.0000000000000000     
   1.4375000000000000       0.93750000000000000        0.0000000000000000     
   1.4687500000000000       0.93750000000000000        0.0000000000000000     
   1.5000000000000000       0.93750000000000000        0.0000000000000000     
   1.3750000000000000       0.96875000000000000        0.0000000000000000     
   1.4062500000000000       0.96875000000000000        0.0000000000000000     
   1.4375000000000000       0.96875000000000000        0.0000000000000000     
   1.4687500000000000       0.96875000000000000        0.0000000000000000     
   1.5000000000000000       0.96875000000000000        0.0000000000000000     
   1.3750000000000000        1.0000000000000000        0.0000000000000000     
   1.4062500000000000        1.0000000000000000        0.0000000000000000     
   1.4375000000000000        1.0000000000000000        0.0000000000000000     
   1.4687500000000000        1.0000000000000000        0.0000000000000000     
   1.5000000000000000        1.0000000000000000        0.0000000000000000     
 </DataArray>
 </Points>
 <Cells>
 <DataArray  type="Int32"  Name="connectivity"  format="ascii">
           0           1           6           5
           1           2           7           6
           2           3           8           7
           3           4           9           8
           5           6          11          10
           6           7          12          11
           7           8          13          12
           8           9          14          13
          10          11          16          15
          11          12          17          16
          12          13          18          17
          13          14          19          18
          15          16          21          20
          16          17          22          21
          17          18          23          22
          18          19          24          23
          25          26          31          30
          26          27          32          31
          27          28          33          32
          28          29          34          33
          30          31          36          35
          31          32          37          36
          32          33          38          37
          33          34          39          38
          35          36          41          40
          36          37          42          41
          37          38          43          42
          38          39          44          43
          40          41          46          45
          41          42          47          46
          42          43          48          47
          43          44          49          48
          50          51          56          55
          51          52          57          56
          52          53          58          57
          53          54          59          58
          55          56          61          60
          56          57          62          61
          57          58          63          62
          58          59          64          63
          60          61          66          65
          61          62          67          66
          62          63          68          67
          63          64          69          68
          65          66          71          70
          66          67          72          71
          67          68          73          72
          68          69          74          73
          75          76          81          80
          76          77          82          81
          77          78          83          82
          78          79          84          83
          80          81          86          85
          81          82          87          86
          82          83          88          87
          83          84          89          88
          85          86          91          90
          86          87          92          91
          87          88          93          92
          88          89          94          93
          90          91          96          95
          91          92          97          96
          92          93          98          97
          93          94          99          98
         100         101         106         105
         101         102         107         106
         102         103         108         107
         103         104         109         108
         105         106         111         110
         106         107         112         111
         107         108         113         112
         108         109         114         113
         110         111         116         115
         111         112         117         116
         112         113         118         117
         113         114         119         118
         115         116         121         120
         116         117         122         121
         117         118         123         122
         118         119         124         123
         125         126         131         130
         126         127         132         131
         127         128         133         132
         128         129         134         133
         130         131         136         135
         131         132         137         136
         132         133         138         137
         133         134         139         138
         135         136         141         140
         136         137         142         141
         137         138         143         142
         138         139         144         143
         140         141         146         145
         141         142         147         146
         142         143         148         147
         143         144         149         148
         150         151         156         155
         151         152         157         156
         152         153         158         157
         153         154         159         158
         155         156         161         160
         156         157         162         161
         157         158         163         162
         158         159         164         163
         160         161         166         165
         161         162         167         166
         162         163         168         167
         163         164         169         168
         165         166         171         170
         166         167         172         171
         167         168         173         172
         168         169         174         173
         175         176         181         180
         176         177         182         181
         177         178         183         182
         178         179         184         183
         180         181         186         185
         181         182         187         186
         182         183         188         187
         183         184         189         188
         185         186         191         190
         186         187         192         191
         187         188         193         192
         188         189         194         193
         190         191         196         195
         191         192         197         196
         192         193         198         197
         193         194         199         198
         200         201         206         205
         201         202         207         206
         202         203         208         207
         203         204         209         208
         205         206         211         210
         206         207         212         211
         207         208         213         212
         208         209         214         213
         210         211         216         215
         211         212         217         216
         212         213         218         217
         213         214         219         218
         215         216         221         220
         216         217         222         221
         217         218         223         222
         218         219         224         223
         225         226         231         230
         226         227         232         231
         227         228         233         232
         228         229         234         233
         230         231         236         235
         231         232         237         236
         232         233         238         237
         233         234         239         238
         235         236         241         240
         236         237         242         241
         237         238         243         242
         238         239         244         243
         240         241         246         245
         241         242         247         246
         242         243         248         247
         243         244         249         248
         250         251         256         255
         251         252         257         256
         252         253         258         257
         253         254         259         258
         255         256         261         260
         256         257         262         261
         257         258         263         262
         258         259         264         263
         260         261         266         265
         261         262         267         266
         262         263         268         267
         263         264         269         268
         265         266         271         270
         266         267         272         271
         267         268         273         272
         268         269         274         273
         275         276         281         280
         276         277         282         281
         277         278         283         282
         278         279         284         283
         280         281         286         285
         281         282         287         286
         282         283         288         287
         283         284         289         288
         285         286         291         290
         286         287         292         291
         287         288         293         292
         288         289         294         293
         290         291         296         295
         291         292         297         296
         292         293         298         297
         293         294         299         298
         300         301         306         305
         301         302         307         306
         302         303         308         307
         303         304         309         308
         305         306         311         310
         306         307         312         311
         307         308         313         312
         308         309         314         313
         310         311         316         315
         311         312         317         316
         312         313         318         317
         313         314         319         318
         315         316         321         320
         316         317         322         321
         317         318         323         322
         318         319         324         323
         325         326         331         330
         326         327         332         331
         327         328         333         332
         328         329         334         333
         330         331         336         335
         331         332         337         336
         332         333         338         337
         333         334         339         338
         335         336         341         340
         336         337         342         341
         337         338         343         342
         338         339         344         343
         340         341         346         345
         341         342         347         346
         342         343         348         347
         343         344         349         348
         350         351         356         355
         351         352         357         356
         352         353         358         357
         353         354         359         358
         355         356         361         360
         356         357         362         361
         357         358         363         362
         358         359         364         363
         360         361         366         365
         361         362         367         366
         362         363         368         367
         363         364         369         368
         365         366         371         370
         366         367         372         371
         367         368         373         372
         368         369         374         373
         375         376         381         380
         376         377         382         381
         377         378         383         382
         378         379         384         383
         380         381         386         385
         381         382         387         386
         382         383         388         387
         383         384         389         388
         385         386         391         390
         386         387         392         391
         387         388         393         392
         388         389         394         393
         390         391         396         395
         391         392         397         396
         392         393         398         397
         393         394         399         398
         400         401         406         405
         401         402         407         406
         402         403         408         407
         403         404         409         408
         405         406         411         410
         406         407         412         411
         407         408         413         412
         408         409         414         413
         410         411         416         415
         411         412         417         416
         412         413         418         417
         413         414         419         418
         415         416         421         420
         416         417         422         421
         417         418         423         422
         418         419         424         423
         425         426         431         430
         426         427         432         431
         427         428         433         432
         428         429         434         433
         430         431         436         435
         431         432         437         436
         432         433         438         437
         433         434         439         438
         435         436         441         440
         436         437         442         441
         437         438         443         442
         438         439         444         443
         440         441         446         445
         441         442         447         446
         442         443         448         447
         443         444         449         448
         450         451         456         455
         451         452         457         456
         452         453         458         457
         453         454         459         458
         455         456         461         460
         456         457         462         461
         457         458         463         462
         458         459         464         463
         460         461         466         465
         461         462         467         466
         462         463         468         467
         463         464         469         468
         465         466         471         470
         466         467         472         471
         467         468         473         472
         468         469         474         473
         475         476         481         480
         476         477         482         481
         477         478         483         482
         478         479         484         483
         480         481         486         485
         481         482         487         486
         482         483         488         487
         483         484         489         488
         485         486         491         490
         486         487         492         491
         487         488         493         492
         488         489         494         493
         490         491         496         495
         491         492         497         496
         492         493         498         497
         493         494         499         498
         500         501         506         505
         501         502         507         506
         502         503         508         507
         503         504         509         508
         505         506         511         510
         506         507         512         511
         507         508         513         512
         508         509         514         513
         510         511         516         515
         511         512         517         516
         512         513         518         517
         513         514         519         518
         515         516         521         520
         516         517         522         521
         517         518         523         522
         518         519         524         523
         525         526         531         530
         526         527         532         531
         527         528         533         532
         528         529         534         533
         530         531         536         535
         531         532         537         536
         532         533         538         537
         533         534         539         538
         535         536         541         540
         536         537         542         541
         537         538         543         542
         538         539         544         543
         540         541         546         545
         541         542         547         546
         542         543         548         547
         543         544         549         548
         550         551         556         555
         551         552         557         556
         552         553         558         557
         553         554         559         558
         555         556         561         560
         556         557         562         561
         557         558         563         562
         558         559         564         563
         560         561         566         565
         561         562         567         566
         562         563         568         567
         563         564         569         568
         565         566         571         570
         566         567         572         571
         567         568         573         572
         568         569         574         573
         575         576         581         580
         576         577         582         581
         577         578         583         582
         578         579         584         583
         580         581         586         585
         581         582         587         586
         582         583         588         587
         583         584         589         588
         585         586         591         590
         586         587         592         591
         587         588         593         592
         588         589         594         593
         590         591         596         595
         591         592         597         596
         592         593         598         597
         593         594         599         598
         600         601         606         605
         601         602         607         606
         602         603         608         607
         603         604         609         608
         605         606         611         610
         606         607         612         611
         607         608         613         612
         608         609         614         613
         610         611         616         615
         611         612         617         616
         612         613         618         617
         613         614         619         618
         615         616         621         620
         616         617         622         621
         617         618         623         622
         618         619         624         623
         625         626         631         630
         626         627         632         631
         627         628         633         632
         628         629         634         633
         630         631         636         635
         631         632         637         636
         632         633         638         637
         633         634         639         638
         635         636         641         640
         636         637         642         641
         637         638         643         642
         638         639         644         643
         640         641         646         645
         641         642         647         646
         642         643         648         647
         643         644         649         648
         650         651         656         655
         651         652         657         656
         652         653         658         657
         653         654         659         658
         655         656         661         660
         656         657         662         661
         657         658         663         662
         658         659         664         663
         660         661         666         665
         661         662         667         666
         662         663         668         667
         663         664         669         668
         665         666         671         670
         666         667         672         671
         667         668         673         672
         668         669         674         673
         675         676         681         680
         676         677         682         681
         677         678         683         682
         678         679         684         683
         680         681         686         685
         681         682         687         686
         682         683         688         687
         683         684         689         688
         685         686         691         690
         686         687         692         691
         687         688         693         692
         688         689         694         693
         690         691         696         695
         691         692         697         696
         692         693         698         697
         693         694         699         698
         700         701         706         705
         701         702         707         706
         702         703         708         707
         703         704         709         708
         705         706         711         710
         706         707         712         711
         707         708         713         712
         708         709         714         713
         710         711         716         715
         711         712         717         716
         712         713         718         717
         713         714         719         718
         715         716         721         720
         716         717         722         721
         717         718         723         722
         718         719         724         723
         725         726         731         730
         726         727         732         731
         727         728         733         732
         728         729         734         733
         730         731         736         735
         731         732         737         736
         732         733         738         737
         733         734         739         738
         735         736         741         740
         736         737         742         741
         737         738         743         742
         738         739         744         743
         740         741         746         745
         741         742         747         746
         742         743         748         747
         743         744         749         748
         750         751         756         755
         751         752         757         756
         752         753         758         757
         753         754         759         758
         755         756         761         760
         756         757         762         761
         757         758         763         762
         758         759         764         763
         760         761         766         765
         761         762         767         766
         762         763         768         767
         763         764         769         768
         765         766         771         770
         766         767         772         771
         767         768         773         772
         768         769         774         773
         775         776         781         780
         776         777         782         781
         777         778         783         782
         778         779         784         783
         780         781         786         785
         781         782         787         786
         782         783         788         787
         783         784         789         788
         785         786         791         790
         786         787         792         791
         787         788         793         792
         788         789         794         793
         790         791         796         795
         791         792         797         796
         792         793         798         797
         793         794         799         798
         800         801         806         805
         801         802         807         806
         802         803         808         807
         803         804         809         808
         805         806         811         810
         806         807         812         811
         807         808         813         812
         808         809         814         813
         810         811         816         815
         811         812         817         816
         812         813         818         817
         813         814         819         818
         815         816         821         820
         816         817         822         821
         817         818         823         822
         818         819         824         823
         825         826         831         830
         826         827         832         831
         827         828         833         832
         828         829         834         833
         830         831         836         835
         831         832         837         836
         832         833         838         837
         833         834         839         838
         835         836         841         840
         836         837         842         841
         837         838         843         842
         838         839         844         843
         840         841         846         845
         841         842         847         846
         842         843         848         847
         843         844         849         848
         850         851         856         855
         851         852         857         856
         852         853         858         857
         853         854         859         858
         855         856         861         860
         856         857         862         861
         857         858         863         862
         858         859         864         863
         860         861         866         865
         861         862         867         866
         862         863         868         867
         863         864         869         868
         865         866         871         870
         866         867         872         871
         867         868         873         872
         868         869         874         873
         875         876         881         880
         876         877         882         881
         877         878         883         882
         878         879         884         883
         880         881         886         885
         881         882         887         886
         882         883         888         887
         883         884         889         888
         885         886         891         890
         886         887         892         891
         887         888         893         892
         888         889         894         893
         890         891         896         895
         891         892         897         896
         892         893         898         897
         893         894         899         898
         900         901         906         905
         901         902         907         906
         902         903         908         907
         903         904         909         908
         905         906         911         910
         906         907         912         911
         907         908         913         912
         908         909         914         913
         910         911         916         915
         911         912         917         916
         912         913         918         917
         913         914         919         918
         915         916         921         920
         916         917         922         921
         917         918         923         922
         918         919         924         923
         925         926         931         930
         926         927         932         931
         927         928         933         932
         928         929         934         933
         930         931         936         935
         931         932         937         936
         932         933         938         937
         933         934         939         938
         935         936         941         940
         936         937         942         941
         937         938         943         942
         938         939         944         943
         940         941         946         945
         941         942         947         946
         942         943         948         947
         943         944         949         948
         950         951         956         955
         951         952         957         956
         952         953         958         957
         953         954         959         958
         955         956         961         960
         956         957         962         961
         957         958         963         962
         958         959         964         963
         960         961         966         965
         961         962         967         966
         962         963         968         967
         963         964         969         968
         965         966         971         970
         966         967         972         971
         967         968         973         972
         968         969         974         973
         975         976         981         980
         976         977         982         981
         977         978         983         982
         978         979         984         983
         980         981         986         985
         981         982         987         986
         982         983         988         987
         983         984         989         988
         985         986         991         990
         986         987         992         991
         987         988         993         992
         988         989         994         993
         990         991         996         995
         991         992         997         996
         992         993         998         997
         993         994         999         998
        1000        1001        1006        1005
        1001        1002        1007        1006
        1002        1003        1008        1007
        1003        1004        1009        1008
        1005        1006        1011        1010
        1006        1007        1012        1011
        1007        1008        1013        1012
        1008        1009        1014        1013
        1010        1011        1016        1015
        1011        1012        1017        1016
        1012        1013        1018        1017
        1013        1014        1019        1018
        1015        1016        1021        1020
        1016        1017        1022        1021
        1017        1018        1023        1022
        1018        1019        1024        1023
        1025        1026        1031        1030
        1026        1027        1032        1031
        1027        1028        1033        1032
        1028        1029        1034        1033
        1030        1031        1036        1035
        1031        1032        1037        1036
        1032        1033        1038        1037
        1033        1034        1039        1038
        1035        1036        1041        1040
        1036        1037        1042        1041
        1037        1038        1043        1042
        1038        1039        1044        1043
        1040        1041        1046        1045
        1041        1042        1047        1046
        1042        1043        1048        1047
        1043        1044        1049        1048
        1050        1051        1056        1055
        1051        1052        1057        1056
        1052        1053        1058        1057
        1053        1054        1059        1058
        1055        1056        1061        1060
        1056        1057        1062        1061
        1057        1058        1063        1062
        1058        1059        1064        1063
        1060        1061        1066        1065
        1061        1062        1067        1066
        1062        1063        1068        1067
        1063        1064        1069        1068
        1065        1066        1071        1070
        1066        1067        1072        1071
        1067        1068        1073        1072
        1068        1069        1074        1073
        1075        1076        1081        1080
        1076        1077        1082        1081
        1077        1078        1083        1082
        1078        1079        1084        1083
        1080        1081        1086        1085
        1081        1082        1087        1086
        1082        1083        1088        1087
        1083        1084        1089        1088
        1085        1086        1091        1090
        1086        1087        1092        1091
        1087        1088        1093        1092
        1088        1089        1094        1093
        1090        1091        1096        1095
        1091        1092        1097        1096
        1092        1093        1098        1097
        1093        1094        1099        1098
        1100        1101        1106        1105
        1101        1102        1107        1106
        1102        1103        1108        1107
        1103        1104        1109        1108
        1105        1106        1111        1110
        1106        1107        1112        1111
        1107        1108        1113        1112
        1108        1109        1114        1113
        1110        1111        1116        1115
        1111        1112        1117        1116
        1112        1113        1118        1117
        1113        1114        1119        1118
        1115        1116        1121        1120
        1116        1117        1122        1121
        1117        1118        1123        1122
        1118        1119        1124        1123
        1125        1126        1131        1130
        1126        1127        1132        1131
        1127        1128        1133        1132
        1128        1129        1134        1133
        1130        1131        1136        1135
        1131        1132        1137        1136
        1132        1133        1138        1137
        1133        1134        1139        1138
        1135        1136        1141        1140
        1136        1137        1142        1141
        1137        1138        1143        1142
        1138        1139        1144        1143
        1140        1141        1146        1145
        1141        1142        1147        1146
        1142        1143        1148        1147
        1143        1144        1149        1148
        1150        1151        1156        1155
        1151        1152        1157        1156
        1152        1153        1158        1157
        1153        1154        1159        1158
        1155        1156        1161        1160
        1156        1157        1162        1161
        1157        1158        1163        1162
        1158        1159        1164        1163
        1160        1161        1166        1165
        1161        1162        1167        1166
        1162        1163        1168        1167
        1163        1164        1169        1168
        1165        1166        1171        1170
        1166        1167        1172        1171
        1167        1168        1173        1172
        1168        1169        1174        1173
        1175        1176        1181        1180
        1176        1177        1182        1181
        1177        1178        1183        1182
        1178        1179        1184        1183
        1180        1181        1186        1185
        1181        1182        1187        1186
        1182        1183        1188        1187
        1183        1184        1189        1188
        1185        1186        1191        1190
        1186        1187        1192        1191
        1187        1188        1193        1192
        1188        1189        1194        1193
        1190        1191        1196        1195
        1191        1192        1197        1196
        1192        1193        1198        1197
        1193        1194        1199        1198
        1200        1201        1206        1205
        1201        1202        1207        1206
        1202        1203        1208        1207
        1203        1204        1209        1208
        1205        1206        1211        1210
        1206        1207        1212        1211
        1207        1208        1213        1212
        1208        1209        1214        1213
        1210        1211        1216        1215
        1211        1212        1217        1216
        1212        1213        1218        1217
        1213        1214        1219        1218
        1215        1216        1221        1220
        1216        1217        1222        1221
        1217        1218        1223        1222
        1218        1219        1224        1223
        1225        1226        1231        1230
        1226        1227        1232        1231
        1227        1228        1233        1232
        1228        1229        1234        1233
        1230        1231        1236        1235
        1231        1232        1237        1236
        1232        1233        1238        1237
        1233        1234        1239        1238
        1235        1236        1241        1240
        1236        1237        1242        1241
        1237        1238        1243        1242
        1238        1239        1244        1243
        1240        1241        1246        1245
        1241        1242        1247        1246
        1242        1243        1248        1247
        1243        1244        1249        1248
        1250        1251        1256        1255
        1251        1252        1257        1256
        1252        1253        1258        1257
        1253        1254        1259        1258
        1255        1256        1261        1260
        1256        1257        1262        1261
        1257        1258        1263        1262
        1258        1259        1264        1263
        1260        1261        1266        1265
        1261        1262        1267        1266
        1262        1263        1268        1267
        1263        1264        1269        1268
        1265        1266        1271        1270
        1266        1267        1272        1271
        1267        1268        1273        1272
        1268        1269        1274        1273
        1275        1276        1281        1280
        1276        1277        1282        1281
        1277        1278        1283        1282
        1278        1279        1284        1283
        1280        1281        1286        1285
        1281        1282        1287        1286
        1282        1283        1288        1287
        1283        1284        1289        1288
        1285        1286        1291        1290
        1286        1287        1292        1291
        1287        1288        1293        1292
        1288        1289        1294        1293
        1290        1291        1296        1295
        1291        1292        1297        1296
        1292        1293        1298        1297
        1293        1294        1299        1298
        1300        1301        1306        1305
        1301        1302        1307        1306
        1302        1303        1308        1307
        1303        1304        1309        1308
        1305        1306        1311        1310
        1306        1307        1312        1311
        1307        1308        1313        1312
        1308        1309        1314        1313
        1310        1311        1316        1315
        1311        1312        1317        1316
        1312        1313        1318        1317
        1313        1314        1319        1318
        1315        1316        1321        1320
        1316        1317        1322        1321
        1317        1318        1323        1322
        1318        1319        1324        1323
        1325        1326        1331        1330
        1326        1327        1332        1331
        1327        1328        1333        1332
        1328        1329        1334        1333
        1330        1331        1336        1335
        1331        1332        1337        1336
        1332        1333        1338        1337
        1333        1334        1339        1338
        1335        1336        1341        1340
        1336        1337        1342        1341
        1337        1338        1343        1342
        1338        1339        1344        1343
        1340        1341        1346        1345
        1341        1342        1347        1346
        1342        1343        1348        1347
        1343        1344        1349        1348
        1350        1351        1356        1355
        1351        1352        1357        1356
        1352        1353        1358        1357
        1353        1354        1359        1358
        1355        1356        1361        1360
        1356        1357        1362        1361
        1357        1358        1363        1362
        1358        1359        1364        1363
        1360        1361        1366        1365
        1361        1362        1367        1366
        1362        1363        1368        1367
        1363        1364        1369        1368
        1365        1366        1371        1370
        1366        1367        1372        1371
        1367        1368        1373        1372
        1368        1369        1374        1373
        1375        1376        1381        1380
        1376        1377        1382        1381
        1377        1378        1383        1382
        1378        1379        1384        1383
        1380        1381        1386        1385
        1381        1382        1387        1386
        1382        1383        1388        1387
        1383        1384        1389        1388
        1385        1386        1391        1390
        1386        1387        1392        1391
        1387        1388        1393        1392
        1388        1389        1394        1393
        1390        1391        1396        1395
        1391        1392        1397        1396
        1392        1393        1398        1397
        1393        1394        1399        1398
        1400        1401        1406        1405
        1401        1402        1407        1406
        1402        1403        1408        1407
        1403        1404        1409        1408
        1405        1406        1411        1410
        1406        1407        1412        1411
        1407        1408        1413        1412
        1408        1409        1414        1413
        1410        1411        1416        1415
        1411        1412        1417        1416
        1412        1413        1418        1417
        1413        1414        1419        1418
        1415        1416        1421        1420
        1416        1417        1422        1421
        1417        1418        1423        1422
        1418        1419        1424        1423
        1425        1426        1431        1430
        1426        1427        1432        1431
        1427        1428        1433        1432
        1428        1429        1434        1433
        1430        1431        1436        1435
        1431        1432        1437        1436
        1432        1433        1438        1437
        1433        1434        1439        1438
        1435        1436        1441        1440
        1436        1437        1442        1441
        1437        1438        1443        1442
        1438        1439        1444        1443
        1440        1441        1446        1445
        1441        1442        1447        1446
        1442        1443        1448        1447
        1443        1444        1449        1448
        1450        1451        1456        1455
        1451        1452        1457        1456
        1452        1453        1458        1457
        1453        1454        1459        1458
        1455        1456        1461        1460
        1456        1457        1462        1461
        1457        1458        1463        1462
        1458        1459        1464        1463
        1460        1461        1466        1465
        1461        1462        1467        1466
        1462        1463        1468        1467
        1463        1464        1469        1468
        1465        1466        1471        1470
        1466        1467        1472        1471
        1467        1468        1473        1472
        1468        1469        1474        1473
        1475        1476        1481        1480
        1476        1477        1482        1481
        1477        1478        1483        1482
        1478        1479        1484        1483
        1480        1481        1486        1485
        1481        1482        1487        1486
        1482        1483        1488        1487
        1483        1484        1489        1488
        1485        1486        1491        1490
        1486        1487        1492        1491
        1487        1488        1493        1492
        1488        1489        1494        1493
        1490        1491        1496        1495
        1491        1492        1497        1496
        1492        1493        1498        1497
        1493        1494        1499        1498
        1500        1501        1506        1505
        1501        1502        1507        1506
        1502        1503        1508        1507
        1503        1504        1509        1508
        1505        1506        1511        1510
        1506        1507        1512        1511
        1507        1508        1513        1512
        1508        1509        1514        1513
        1510        1511        1516        1515
        1511        1512        1517        1516
        1512        1513        1518        1517
        1513        1514        1519        1518
        1515        1516        1521        1520
        1516        1517        1522        1521
        1517        1518        1523        1522
        1518        1519        1524        1523
        1525        1526        1531        1530
        1526        1527        1532        1531
        1527        1528        1533        1532
        1528        1529        1534        1533
        1530        1531        1536        1535
        1531        1532        1537        1536
        1532        1533        1538        1537
        1533        1534        1539        1538
        1535        1536        1541        1540
        1536        1537        1542        1541
        1537        1538        1543        1542
        1538        1539        1544        1543
        1540        1541        1546        1545
        1541        1542        1547        1546
        1542        1543        1548        1547
        1543        1544        1549        1548
        1550        1551        1556        1555
        1551        1552        1557        1556
        1552        1553        1558        1557
        1553        1554        1559        1558
        1555        1556        1561        1560
        1556        1557        1562        1561
        1557        1558        1563        1562
        1558        1559        1564        1563
        1560        1561        1566        1565
        1561        1562        1567        1566
        1562        1563        1568        1567
        1563        1564        1569        1568
        1565        1566        1571        1570
        1566        1567        1572        1571
        1567        1568        1573        1572
        1568        1569        1574        1573
        1575        1576        1581        1580
        1576        1577        1582        1581
        1577        1578        1583        1582
        1578        1579        1584        1583
        1580        1581        1586        1585
        1581        1582        1587        1586
        1582        1583        1588        1587
        1583        1584        1589        1588
        1585        1586        1591        1590
        1586        1587        1592        1591
        1587        1588        1593        1592
        1588        1589        1594        1593
        1590        1591        1596        1595
        1591        1592        1597        1596
        1592        1593        1598        1597
        1593        1594        1599        1598
 </DataArray>
 <DataArray  type="Int32"  Name="offsets"  format="ascii"> 
           4
           8
          12
          16
          20
          24
          28
          32
          36
          40
          44
          48
          52
          56
          60
          64
          68
          72
          76
          80
          84
          88
          92
          96
         100
         104
         108
         112
         116
         120
         124
         128
         132
         136
         140
         144
         148
         152
         156
         160
         164
         168
         172
         176
         180
         184
         188
         192
         196
         200
         204
         208
         212
         216
         220
         224
         228
         232
         236
         240
         244
         248
         252
         256
         260
         264
         268
         272
         276
         280
         284
         288
         292
         296
         300
         304
         308
         312
         316
         320
         324
         328
         332
         336
         340
         344
         348
         352
         356
         360
         364
         368
         372
         376
         380
         384
         388
         392
         396
         400
         404
         408
         412
         416
         420
         424
         428
         432
         436
         440
         444
         448
         452
         456
         460
         464
         468
         472
         476
         480
         484
         488
         492
         496
         500
         504
         508
         512
         516
         520
         524
         528
         532
         536
         540
         544
         548
         552
         556
         560
         564
         568
         572
         576
         580
         584
         588
         592
         596
         600
         604
         608
         612
         616
         620
         624
         628
         632
         636
         640
         644
         648
         652
         656
         660
         664
         668
         672
         676
         680
         684
         688
         692
         696
         700
         704
         708
         712
         716
         720
         724
         728
         732
         736
         740
         744
         748
         752
         756
         760
         764
         768
         772
         776
         780
         784
         788
         792
         796
         800
         804
         808
         812
         816
         820
         824
         828
         832
         836
         840
         844
         848
         852
         856
         860
         864
         868
         872
         876
         880
         884
         888
         892
         896
         900
         904
         908
         912
         916
         920
         924
         928
         932
         936
         940
         944
         948
         952
         956
         960
         964
         968
         972
         976
         980
         984
         988
         992
         996
        1000
        1004
        1008
        1012
        1016
        1020
        1024
        1028
        1032
        1036
        1040
        1044
        1048
        1052
        1056
        1060
        1064
        1068
        1072
        1076
        1080
        1084
        1088
        1092
        1096
        1100
        1104
        1108
        1112
        1116
        1120
        1124
        1128
        1132
        1136
        1140
        1144
        1148
        1152
        1156
        1160
        1164
        1168
        1172
        1176
        1180
        1184
        1188
        1192
        1196
        1200
        1204
        1208
        1212
        1216
        1220
        1224
        1228
        1232
        1236
        1240
        1244
        1248
        1252
        1256
        1260
        1264
        1268
        1272
        1276
        1280
        1284
        1288
        1292
        1296
        1300
        1304
        1308
        1312
        1316
        1320
        1324
        1328
        1332
        1336
        1340
        1344
        1348
        1352
        1356
        1360
        1364
        1368
        1372
        1376
        1380
        1384
        1388
        1392
        1396
        1400
        1404
        1408
        1412
        1416
        1420
        1424
        1428
        1432
        1436
        1440
        1444
        1448
        1452
        1456
        1460
        1464
        1468
        1472
        1476
        1480
        1484
        1488
        1492
        1496
        1500
        1504
        1508
        1512
        1516
        1520
        1524
        1528
        1532
        1536
        1540
        1544
        1548
        1552
        1556
        1560
        1564
        1568
        1572
        1576
        1580
        1584
        1588
        1592
        1596
        1600
        1604
        1608
        1612
        1616
        1620
        1624
        1628
        1632
        1636
        1640
        1644
        1648
        1652
        1656
        1660
        1664
        1668
        1672
        1676
        1680
        1684
        1688
        1692
        1696
        1700
        1704
        1708
        1712
        1716
        1720
        1724
        1728
        1732
        1736
        1740
        1744
        1748
        1752
        1756
        1760
        1764
        1768
        1772
        1776
        1780
        1784
        1788
        1792
        1796
        1800
        1804
        1808
        1812
        1816
        1820
        1824
        1828
        1832
        1836
        1840
        1844
        1848
        1852
        1856
        1860
        1864
        1868
        1872
        1876
        1880
        1884
        1888
        1892
        1896
        1900
        1904
        1908
        1912
        1916
        1920
        1924
        1928
        1932
        1936
        1940
        1944
        1948
        1952
        1956
        1960
        1964
        1968
        1972
        1976
        1980
        1984
        1988
        1992
        1996
        2000
        2004
        2008
        2012
        2016
        2020
        2024
        2028
        2032
        2036
        2040
        2044
        2048
        2052
        2056
        2060
        2064
        2068
        2072
        2076
        2080
        2084
        2088
        2092
        2096
        2100
        2104
        2108
        2112
        2116
        2120
        2124
        2128
        2132
        2136
        2140
        2144
        2148
        2152
        2156
        2160
        2164
        2168
        2172
        2176
        2180
        2184
        2188
        2192
        2196
        2200
        2204
        2208
        2212
        2216
        2220
        2224
        2228
        2232
        2236
        2240
        2244
        2248
        2252
        2256
        2260
        2264
        2268
        2272
        2276
        2280
        2284
        2288
        2292
        2296
        2300
        2304
        2308
        2312
        2316
        2320
        2324
        2328
        2332
        2336
        2340
        2344
        2348
        2352
        2356
        2360
        2364
        2368
        2372
        2376
        2380
        2384
        2388
        2392
        2396
        2400
        2404
        2408
        2412
        2416
        2420
        2424
        2428
        2432
        2436
        2440
        2444
        2448
        2452
        2456
        2460
        2464
        2468
        2472
        2476
        2480
        2484
        2488
        2492
        2496
        2500
        2504
        2508
        2512
        2516
        2520
        2524
        2528
        2532
        2536
        2540
        2544
        2548
        2552
        2556
        2560
        2564
        2568
        2572
        2576
        2580
        2584
        2588
        2592
        2596
        2600
        2604
        2608
        2612
        2616
        2620
        2624
        2628
        2632
        2636
        2640
        2644
        2648
        2652
        2656
        2660
        2664
        2668
        2672
        2676
        2680
        2684
        2688
        2692
        2696
        2700
        2704
        2708
        2712
        2716
        2720
        2724
        2728
        2732
        2736
        2740
        2744
        2748
        2752
        2756
        2760
        2764
        2768
        2772
        2776
        2780
        2784
        2788
        2792
        2796
        2800
        2804
        2808
        2812
        2816
        2820
        2824
        2828
        2832
        2836
        2840
        2844
        2848
        2852
        2856
        2860
        2864
        2868
        2872
        2876
        2880
        2884
        2888
        2892
        2896
        2900
        2904
        2908
        2912
        2916
        2920
        2924
        2928
        2932
        2936
        2940
        2944
        2948
        2952
        2956
        2960
        2964
        2968
        2972
        2976
        2980
        2984
        2988
        2992
        2996
        3000
        3004
        3008
        3012
        3016
        3020
        3024
        3028
        3032
        3036
        3040
        3044
        3048
        3052
        3056
        3060
        3064
        3068
        3072
        3076
        3080
        3084
        3088
        3092
        3096
        3100
        3104
        3108
        3112
        3116
        3120
        3124
        3128
        3132
        3136
        3140
        3144
        3148
        3152
        3156
        3160
        3164
        3168
        3172
        3176
        3180
        3184
        3188
        3192
        3196
        3200
        3204
        3208
        3212
        3216
        3220
        3224
        3228
        3232
        3236
        3240
        3244
        3248
        3252
        3256
        3260
        3264
        3268
        3272
        3276
        3280
        3284
        3288
        3292
        3296
        3300
        3304
        3308
        3312
        3316
        3320
        3324
        3328
        3332
        3336
        3340
        3344
        3348
        3352
        3356
        3360
        3364
        3368
        3372
        3376
        3380
        3384
        3388
        3392
        3396
        3400
        3404
        3408
        3412
        3416
        3420
        3424
        3428
        3432
        3436
        3440
        3444
        3448
        3452
        3456
        3460
        3464
        3468
        3472
        3476
        3480
        3484
        3488
        3492
        3496
        3500
        3504
        3508
        3512
        3516
        3520
        3524
        3528
        3532
        3536
        3540
        3544
        3548
        3552
        3556
        3560
        3564
        3568
        3572
        3576
        3580
        3584
        3588
        3592
        3596
        3600
        3604
        3608
        3612
        3616
        3620
        3624
        3628
        3632
        3636
        3640
        3644
        3648
        3652
        3656
        3660
        3664
        3668
        3672
        3676
        3680
        3684
        3688
        3692
        3696
        3700
        3704
        3708
        3712
        3716
        3720
        3724
        3728
        3732
        3736
        3740
        3744
        3748
        3752
        3756
        3760
        3764
        3768
        3772
        3776
        3780
        3784
        3788
        3792
        3796
        3800
        3804
        3808
        3812
        3816
        3820
        3824
        3828
        3832
        3836
        3840
        3844
        3848
        3852
        3856
        3860
        3864
        3868
        3872
        3876
        3880
        3884
        3888
        3892
        3896
        3900
        3904
        3908
        3912
        3916
        3920
        3924
        3928
        3932
        3936
        3940
        3944
        3948
        3952
        3956
        3960
        3964
        3968
        3972
        3976
        3980
        3984
        3988
        3992
        3996
        4000
        4004
        4008
        4012
        4016
        4020
        4024
        4028
        4032
        4036
        4040
        4044
        4048
        4052
        4056
        4060
        4064
        4068
        4072
        4076
        4080
        4084
        4088
        4092
        4096
 </DataArray>
 <DataArray  type="UInt8"  Name="types"  format="ascii">
 9
 9
 9
 9
 9
 9
 9
 9
 9
 9
 9
 9
 9
 9
 9
 9
 9
 9
 9
 9
 9
 9
 9
 9
 9
 9
 9
 9
 9
 9
 9
 9
 9
 9
 9
 9
 9
 9
 9
 9
 9
 9
 9
 9
 9
 9
 9
 9
 9
 9
 9
 9
 9
 9
 9
 9
 9
 9
 9
 9
 9
 9
 9
 9
 9
 9
 9
 9
 9
 9
 9
 9
 9
 9
 9
 9
 9
 9
 9
 9
 9
 9
 9
 9
 9
 9
 9
 9
 9
 9
 9
 9
 9
 9
 9
 9
 9
 9
 9
 9
 9
 9
 9
 9
 9
 9
 9
 9
 9
 9
 9
 9
 9
 9
 9
 9
 9
 9
 9
 9
 9
 9
 9
 9
 9
 9
 9
 9
 9
 9
 9
 9
 9
 9
 9
 9
 9
 9
 9
 9
 9
 9
 9
 9
 9
 9
 9
 9
 9
 9
 9
 9
 9
 9
 9
 9
 9
 9
 9
 9
 9
 9
 9
 9
 9
 9
 9
 9
 9
 9
 9
 9
 9
 9
 9
 9
 9
 9
 9
 9
 9
 9
 9
 9
 9
 9
 9
 9
 9
 9
 9
 9
 9
 9
 9
 9
 9
 9
 9
 9
 9
 9
 9
 9
 9
 9
 9
 9
 9
 9
 9
 9
 9
 9
 9
 9
 9
 9
 9
 9
 9
 9
 9
 9
 9
 9
 9
 9
 9
 9
 9
 9
 9
 9
 9
 9
 9
 9
 9
 9
 9
 9
 9
 9
 9
 9
 9
 9
 9
 9
 9
 9
 9
 9
 9
 9
 9
 9
 9
 9
 9
 9
 9
 9
 9
 9
 9
 9
 9
 9
 9
 9
 9
 9
 9
 9
 9
 9
 9
 9
 9
 9
 9
 9
 9
 9
 9
 9
 9
 9
 9
 9
 9
 9
 9
 9
 9
 9
 9
 9
 9
 9
 9
 9
 9
 9
 9
 9
 9
 9
 9
 9
 9
 9
 9
 9
 9
 9
 9
 9
 9
 9
 9
 9
 9
 9
 9
 9
 9
 9
 9
 9
 9
 9
 9
 9
 9
 9
 9
 9
 9
 9
 9
 9
 9
 9
 9
 9
 9
 9
 9
 9
 9
 9
 9
 9
 9
 9
 9
 9
 9
 9
 9
 9
 9
 9
 9
 9
 9
 9
 9
 9
 9
 9
 9
 9
 9
 9
 9
 9
 9
 9
 9
 9
 9
 9
 9
 9
 9
 9
 9
 9
 9
 9
 9
 9
 9
 9
 9
 9
 9
 9
 9
 9
 9
 9
 9
 9
 9
 9
 9
 9
 9
 9
 9
 9
 9
 9
 9
 9
 9
 9
 9
 9
 9
 9
 9
 9
 9
 9
 9
 9
 9
 9
 9
 9
 9
 9
 9
 9
 9
 9
 9
 9
 9
 9
 9
 9
 9
 9
 9
 9
 9
 9
 9
 9
 9
 9
 9
 9
 9
 9
 9
 9
 9
 9
 9
 9
 9
 9
 9
 9
 9
 9
 9
 9
 9
 9
 9
 9
 9
 9
 9
 9
 9
 9
 9
 9
 9
 9
 9
 9
 9
 9
 9
 9
 9
 9
 9
 9
 9
 9
 9
 9
 9
 9
 9
 9
 9
 9
 9
 9
 9
 9
 9
 9
 9
 9
 9
 9
 9
 9
 9
 9
 9
 9
 9
 9
 9
 9
 9
 9
 9
 9
 9
 9
 9
 9
 9
 9
 9
 9
 9
 9
 9
 9
 9
 9
 9
 9
 9
 9
 9
 9
 9
 9
 9
 9
 9
 9
 9
 9
 9
 9
 9
 9
 9
 9
 9
 9
 9
 9
 9
 9
 9
 9
 9
 9
 9
 9
 9
 9
 9
 9
 9
 9
 9
 9
 9
 9
 9
 9
 9
 9
 9
 9
 9
 9
 9
 9
 9
 9
 9
 9
 9
 9
 9
 9
 9
 9
 9
 9
 9
 9
 9
 9
 9
 9
 9
 9
 9
 9
 9
 9
 9
 9
 9
 9
 9
 9
 9
 9
 9
 9
 9
 9
 9
 9
 9
 9
 9
 9
 9
 9
 9
 9
 9
 9
 9
 9
 9
 9
 9
 9
 9
 9
 9
 9
 9
 9
 9
 9
 9
 9
 9
 9
 9
 9
 9
 9
 9
 9
 9
 9
 9
 9
 9
 9
 9
 9
 9
 9
 9
 9
 9
 9
 9
 9
 9
 9
 9
 9
 9
 9
 9
 9
 9
 9
 9
 9
 9
 9
 9
 9
 9
 9
 9
 9
 9
 9
 9
 9
 9
 9
 9
 9
 9
 9
 9
 9
 9
 9
 9
 9
 9
 9
 9
 9
 9
 9
 9
 9
 9
 9
 9
 9
 9
 9
 9
 9
 9
 9
 9
 9
 9
 9
 9
 9
 9
 9
 9
 9
 9
 9
 9
 9
 9
 9
 9
 9
 9
 9
 9
 9
 9
 9
 9
 9
 9
 9
 9
 9
 9
 9
 9
 9
 9
 9
 9
 9
 9
 9
 9
 9
 9
 9
 9
 9
 9
 9
 9
 9
 9
 9
 9
 9
 9
 9
 9
 9
 9
 9
 9
 9
 9
 9
 9
 9
 9
 9
 9
 9
 9
 9
 9
 9
 9
 9
 9
 9
 9
 9
 9
 9
 9
 9
 9
 9
 9
 9
 9
 9
 9
 9
 9
 9
 9
 9
 9
 9
 9
 9
 9
 9
 9
 9
 9
 9
 9
 9
 9
 9
 9
 9
 9
 9
 9
 9
 9
 9
 9
 9
 9
 9
 9
 9
 9
 9
 9
 9
 9
 9
 9
 9
 9
 9
 9
 9
 9
 9
 9
 9
 9
 9
 9
 9
 9
 9
 9
 9
 9
 9
 9
 9
 9
 9
 9
 9
 9
 9
 9
 9
 9
 9
 9
 9
 9
 9
 9
 9
 9
 9
 9
 9
 9
 9
 9
 9
 9
 9
 9
 9
 9
 9
 9
 9
 9
 9
 9
 9
 9
 9
 9
 9
 9
 9
 9
 9
 9
 9
 9
 9
 9
 9
 9
 9
 9
 9
 9
 9
 9
 9
 9
 9
 9
 9
 9
 9
 9
 9
 9
 9
 9
 9
 9
 9
 9
 9
 9
 9
 9
 9
 9
 9
 9
 9
 9
 9
 9
 9
 9
 9
 9
 9
 9
 9
 9
 9
 9
 9
 9
 9
 9
 9
 9
 9
 9
 9
 9
 9
 9
 9
 9
 9
 9
 9
 9
 9
 9
 9
 9
 9
 9
 9
 9
 9
 9
 9
 9
 9
 9
 9
 9
 9
 </DataArray>
 </Cells> 
 <PointData>
 <DataArray  type="Float64" Name="disp" NumberOfComponents="3" format="ascii">
   6.5191546889935614E-002   6.3159842433381630E-002   0.0000000000000000     
   6.8654370350460070E-002   6.8265543449118865E-002   0.0000000000000000     
   7.1913576955597108E-002   7.3699635208201011E-002   0.0000000000000000     
   7.4969166705346701E-002   7.9462117710628055E-002   0.0000000000000000     
   7.7821139599708877E-002   8.5552990956399996E-002   0.0000000000000000     
   6.0279963735686469E-002   6.2031966166214092E-002   0.0000000000000000     
   6.3198781942315457E-002   6.7378671401637308E-002   0.0000000000000000     
   6.6057982459081094E-002   7.2956741807806244E-002   0.0000000000000000     
   6.8857565285983371E-002   7.8766177384720873E-002   0.0000000000000000     
   7.1597530423022332E-002   8.4806978132381208E-002   0.0000000000000000     
   5.5239736723240895E-002   6.1029953228612072E-002   0.0000000000000000     
   5.7987058157833837E-002   6.6553023929176044E-002   0.0000000000000000     
   6.0676209005467330E-002   7.2241380782413378E-002   0.0000000000000000     
   6.3307189266141373E-002   7.8095023788324044E-002   0.0000000000000000     
   6.5879998939855966E-002   8.4113952946908072E-002   0.0000000000000000     
   5.0070865852598886E-002   6.0153803620575597E-002   0.0000000000000000     
   5.3019198997015231E-002   6.5788601031735075E-002   0.0000000000000000     
   5.5768256594755823E-002   7.1553552132022399E-002   0.0000000000000000     
   5.8318038645820691E-002   7.7448656921437584E-002   0.0000000000000000     
   6.0668545150209800E-002   8.3473915399980600E-002   0.0000000000000000     
   4.4773351123760435E-002   5.9403517342104653E-002   0.0000000000000000     
   4.8295204459859610E-002   6.5085402709314386E-002   0.0000000000000000     
   5.1334125226946574E-002   7.0893255856633308E-002   0.0000000000000000     
   5.3890113425021313E-002   7.6827076784061449E-002   0.0000000000000000     
   5.5963169054083821E-002   8.2886865491598793E-002   0.0000000000000000     
   7.7821139599708877E-002   8.5552990956399996E-002   0.0000000000000000     
   8.0547729493011894E-002   9.1859450504253676E-002   0.0000000000000000     
   8.3227170239583967E-002   9.8268691912925935E-002   0.0000000000000000     
   8.5859461839425097E-002  0.10478071518241677        0.0000000000000000     
   8.8444604292535312E-002  0.11139552031272619        0.0000000000000000     
   7.1597530423022332E-002   8.4806978132381208E-002   0.0000000000000000     
   7.4272669294261295E-002   9.1040061076630013E-002   0.0000000000000000     
   7.6877773323763637E-002   9.7426343243310121E-002   0.0000000000000000     
   7.9412842511529358E-002  0.10396582463242152        0.0000000000000000     
   8.1877876857558457E-002  0.11065850524396420        0.0000000000000000     
   6.5879998939855966E-002   8.4113952946908072E-002   0.0000000000000000     
   6.8389421333965167E-002   9.0307810758871704E-002   0.0000000000000000     
   7.0830239755823005E-002   9.6686239724921241E-002   0.0000000000000000     
   7.3202454205429549E-002  0.10324923984505664        0.0000000000000000     
   7.5506064682784729E-002  0.10999681111927793        0.0000000000000000     
   6.0668545150209800E-002   8.3473915399980600E-002   0.0000000000000000     
   6.2897985612123494E-002   8.9662699550978719E-002   0.0000000000000000     
   6.5084569535762138E-002   9.6048381357759213E-002   0.0000000000000000     
   6.7228296921125696E-002  0.10263096082032211        0.0000000000000000     
   6.9329167768214198E-002  0.10941043793866735        0.0000000000000000     
   5.5963169054083821E-002   8.2886865491598793E-002   0.0000000000000000     
   5.7798362128736305E-002   8.9104727452951116E-002   0.0000000000000000     
   5.9640762663580961E-002   9.5512768141824134E-002   0.0000000000000000     
   6.1490370658617788E-002  0.10211098755821794        0.0000000000000000     
   6.3347186113846793E-002  0.10889938570213249        0.0000000000000000     
   8.8444604292535312E-002  0.11139552031272619        0.0000000000000000     
   9.0896999667589684E-002  0.11812355930195272        0.0000000000000000     
   9.3131050033263260E-002  0.12497528414819489        0.0000000000000000     
   9.5146755389556081E-002  0.13195069485145272        0.0000000000000000     
   9.6944115736468120E-002  0.13904979141172619        0.0000000000000000     
   8.1877876857558457E-002  0.11065850524396420        0.0000000000000000     
   8.4197407532020208E-002  0.11747915266378231        0.0000000000000000     
   8.6295965705083869E-002  0.12440253447771994        0.0000000000000000     
   8.8173551376749468E-002  0.13142865068577708        0.0000000000000000     
   8.9830164547017005E-002  0.13855750128795374        0.0000000000000000     
   7.5506064682784729E-002  0.10999681111927793        0.0000000000000000     
   7.7671402812717019E-002  0.11688170777426224        0.0000000000000000     
   7.9628800220054807E-002  0.12385668403668669        0.0000000000000000     
   8.1378256904798121E-002  0.13092173990655126        0.0000000000000000     
   8.2919772866946947E-002  0.13807687538385593        0.0000000000000000     
   6.9329167768214198E-002  0.10941043793866735        0.0000000000000000     
   7.1318985509680133E-002  0.11633122463339252        0.0000000000000000     
   7.3129553578176090E-002  0.12333773282509516        0.0000000000000000     
   7.4760871973702014E-002  0.13042996251377523        0.0000000000000000     
   7.6212940696257947E-002  0.13760791369943279        0.0000000000000000     
   6.3347186113846793E-002  0.10889938570213249        0.0000000000000000     
   6.5140155622909562E-002  0.11582770324117315        0.0000000000000000     
   6.6798225779447690E-002  0.12284568084294535        0.0000000000000000     
   6.8321396583461175E-002  0.12995331850744904        0.0000000000000000     
   6.9709668034950018E-002  0.13715061623468427        0.0000000000000000     
   9.6944115736468120E-002  0.13904979141172619        0.0000000000000000     
   9.8629170571327709E-002  0.14627931538321745        0.0000000000000000     
  0.10030795939146318       0.15364600832012870        0.0000000000000000     
  0.10198048219687453       0.16114987022245991        0.0000000000000000     
  0.10364673898756176       0.16879090109021105        0.0000000000000000     
   8.9830164547017005E-002  0.13855750128795374        0.0000000000000000     
   9.1380397967061794E-002  0.14580352022862575        0.0000000000000000     
   9.2938844388059202E-002  0.15318114145216882        0.0000000000000000     
   9.4505503810009217E-002  0.16069036495858316        0.0000000000000000     
   9.6080376232911852E-002  0.16833119074786856        0.0000000000000000     
   8.2919772866946947E-002  0.13807687538385593        0.0000000000000000     
   8.4361143867427324E-002  0.14534131741973888        0.0000000000000000     
   8.5810165667165331E-002  0.15273429296533839        0.0000000000000000     
   8.7266838266160954E-002  0.16025580202065429        0.0000000000000000     
   8.8731161664414193E-002  0.16790584458568669        0.0000000000000000     
   7.6212940696257947E-002  0.13760791369943279        0.0000000000000000     
   7.7571408272424328E-002  0.14489270695655704        0.0000000000000000     
   7.8921923228781568E-002  0.15230546285963720        0.0000000000000000     
   8.0264485565329738E-002  0.15984618140867335        0.0000000000000000     
   8.1599095282068768E-002  0.16751486260366544        0.0000000000000000     
   6.9709668034950018E-002  0.13715061623468427        0.0000000000000000     
   7.1011191182052749E-002  0.14445768883908006        0.0000000000000000     
   7.2274117072907942E-002  0.15189465113506542        0.0000000000000000     
   7.3498445707515528E-002  0.15946150312264032        0.0000000000000000     
   7.4684177085875575E-002  0.16715824480180480        0.0000000000000000     
  0.10364673898756176       0.16879090109021105        0.0000000000000000     
  0.10525764559897441       0.17653831558866642        0.0000000000000000     
  0.10676411786656201       0.18436132838311020        0.0000000000000000     
  0.10816615579032456       0.19225993947354239        0.0000000000000000     
  0.10946375937026208       0.20023414885996299        0.0000000000000000     
   9.6080376232911852E-002  0.16833119074786856        0.0000000000000000     
   9.7605190717363247E-002  0.17608180379041399        0.0000000000000000     
   9.9021676323959543E-002  0.18392038905660835        0.0000000000000000     
  0.10032983305270075       0.19184694654645162        0.0000000000000000     
  0.10152966090358687       0.19986147625994380        0.0000000000000000     
   8.8731161664414193E-002  0.16790584458568669        0.0000000000000000     
   9.0147296770207802E-002  0.17566778186832552        0.0000000000000000     
   9.1459404491824547E-002  0.18352497507646079        0.0000000000000000     
   9.2667484829264388E-002  0.19147742421009251        0.0000000000000000     
   9.3771537782527378E-002  0.19952512926922059        0.0000000000000000     
   8.1599095282068768E-002  0.16751486260366544        0.0000000000000000     
   8.2883963757508075E-002  0.17529624982240100        0.0000000000000000     
   8.4077302370156981E-002  0.18317508644266747        0.0000000000000000     
   8.5179111120015527E-002  0.19115137246446501        0.0000000000000000     
   8.6189390007083672E-002  0.19922510788779349        0.0000000000000000     
   7.4684177085875575E-002  0.16715824480180480        0.0000000000000000     
   7.5815191679264038E-002  0.17496720765264037        0.0000000000000000     
   7.6875369958956885E-002  0.18287072315522848        0.0000000000000000     
   7.7864711924954103E-002  0.19086879130956919        0.0000000000000000     
   7.8783217577255704E-002  0.19896141211566240        0.0000000000000000     
  0.10946375937026208       0.20023414885996299        0.0000000000000000     
  0.11067200282838026       0.20829096866751670        0.0000000000000000     
  0.11180596038668481       0.21643741102134806        0.0000000000000000     
  0.11286563204517572       0.22467347592145723        0.0000000000000000     
  0.11385101780385300       0.23299916336784404        0.0000000000000000     
  0.10152966090358687       0.19986147625994380        0.0000000000000000     
  0.10264060986620648       0.20795919272023330        0.0000000000000000     
  0.10368212993014821       0.21613531045046855        0.0000000000000000     
  0.10465422109541204       0.22438982945064961        0.0000000000000000     
  0.10555688336199798       0.23272274972077647        0.0000000000000000     
   9.3771537782527378E-002  0.19952512926922059        0.0000000000000000     
   9.4789678608349012E-002  0.20765639828384438        0.0000000000000000     
   9.5740022563464700E-002  0.21585953928396309        0.0000000000000000     
   9.6622569647874523E-002  0.22413455226957657        0.0000000000000000     
   9.7437319861578414E-002  0.23248143724068501        0.0000000000000000     
   8.6189390007083672E-002  0.19922510788779349        0.0000000000000000     
   8.7119209054807828E-002  0.20738258535835002        0.0000000000000000     
   8.7979638286634299E-002  0.21561009752183152        0.0000000000000000     
   8.8770677702563139E-002  0.22390764437823812        0.0000000000000000     
   8.9492327302594321E-002  0.23227522592756977        0.0000000000000000     
   7.8783217577255704E-002  0.19896141211566240        0.0000000000000000     
   7.9629201205582922E-002  0.20713775394375009        0.0000000000000000     
   8.0400977099657003E-002  0.21538698516407401        0.0000000000000000     
   8.1098545259477905E-002  0.22370910577663422        0.0000000000000000     
   8.1721905685045684E-002  0.23210411578143067        0.0000000000000000     
  0.11385101780385300       0.23299916336784404        0.0000000000000000     
  0.11478944100972013       0.24142475186541007        0.0000000000000000     
  0.11570822500978056       0.24996051991905682        0.0000000000000000     
  0.11660736980403434       0.25860646752878425        0.0000000000000000     
  0.11748687539248143       0.26736259469459245        0.0000000000000000     
  0.10555688336199798       0.23272274972077647        0.0000000000000000     
  0.10639245914975584       0.24115662142198077        0.0000000000000000     
  0.10716329087853542       0.24971399471539427        0.0000000000000000     
  0.10786937854833675       0.25839486960101693        0.0000000000000000     
  0.10851072215915979       0.26719924607884882        0.0000000000000000     
   9.7437319861578414E-002  0.23248143724068501        0.0000000000000000     
   9.8172003971619709E-002  0.24092883420783665        0.0000000000000000     
   9.8814352745041675E-002  0.24950538318157969        0.0000000000000000     
   9.9364366181844271E-002  0.25821108416191424        0.0000000000000000     
   9.9822044282027553E-002  0.26704593714884028        0.0000000000000000     
   8.9492327302594321E-002  0.23227522592756977        0.0000000000000000     
   9.0128075475311736E-002  0.24074139022297769        0.0000000000000000     
   9.0661410609299276E-002  0.24933468531761316        0.0000000000000000     
   9.1092332704556939E-002  0.25805511121147617        0.0000000000000000     
   9.1420841761084684E-002  0.26690266790456663        0.0000000000000000     
   8.1721905685045684E-002  0.23210411578143067        0.0000000000000000     
   8.2260673660831923E-002  0.24059428946740394        0.0000000000000000     
   8.2704464471308262E-002  0.24920190112349461        0.0000000000000000     
   8.3053278116474713E-002  0.25792695074970268        0.0000000000000000     
   8.3307114596331236E-002  0.26676943834602806        0.0000000000000000     
  0.11748687539248143       0.26736259469459245        0.0000000000000000     
  0.11828709522733051       0.27639730336210411        0.0000000000000000     
  0.11894838276079019       0.28587899547694212        0.0000000000000000     
  0.11947073799286047       0.29580767103910655        0.0000000000000000     
  0.11985416092354140       0.30618333004859727        0.0000000000000000     
  0.10851072215915979       0.26719924607884882        0.0000000000000000     
  0.10906904602005982       0.27625978992388195        0.0000000000000000     
  0.10952607444009203       0.28570916691110826        0.0000000000000000     
  0.10988180741925646       0.29554737704052786        0.0000000000000000     
  0.11013624495755309       0.30577442031214075        0.0000000000000000     
   9.9822044282027553E-002  0.26704593714884028        0.0000000000000000     
  0.10019936224628556       0.27610679423513018        0.0000000000000000     
  0.10050829527531235       0.28549050751355648        0.0000000000000000     
  0.10074884336910796       0.29519707698411912        0.0000000000000000     
  0.10092100652767233       0.30522650264681817        0.0000000000000000     
   9.1420841761084684E-002  0.26690266790456663        0.0000000000000000     
   9.1678043906007728E-002  0.27593831629584881        0.0000000000000000     
   9.1895045266451134E-002  0.28522301728428667        0.0000000000000000     
   9.2071845842414929E-002  0.29475677086988028        0.0000000000000000     
   9.2208445633899100E-002  0.30453957705262968        0.0000000000000000     
   8.3307114596331236E-002  0.26676943834602806        0.0000000000000000     
   8.3505090999226317E-002  0.27575435610603782        0.0000000000000000     
   8.3686324413508373E-002  0.28490669622329895        0.0000000000000000     
   8.3850814839177404E-002  0.29422645869781133        0.0000000000000000     
   8.3998562276233410E-002  0.30371364352957508        0.0000000000000000     
   4.4773351123760435E-002   5.9403517342104653E-002   0.0000000000000000     
   4.8295204459859610E-002   6.5085402709314386E-002   0.0000000000000000     
   5.1334125226946574E-002   7.0893255856633308E-002   0.0000000000000000     
   5.3890113425021313E-002   7.6827076784061449E-002   0.0000000000000000     
   5.5963169054083821E-002   8.2886865491598793E-002   0.0000000000000000     
   3.9721288628267015E-002   5.8748806336203531E-002   0.0000000000000000     
   4.3737462848456393E-002   6.4436705217093881E-002   0.0000000000000000     
   4.7015927288229509E-002   7.0263277380819361E-002   0.0000000000000000     
   4.9556681947586390E-002   7.6228522827379963E-002   0.0000000000000000     
   5.1359726826526980E-002   8.2332441556775729E-002   0.0000000000000000     
   3.5288774457660092E-002   5.8159382545876541E-002   0.0000000000000000     
   3.9268362464894929E-002   6.3835784810253426E-002   0.0000000000000000     
   4.2455775164794575E-002   6.9666402129153718E-002   0.0000000000000000     
   4.4851012557359023E-002   7.5651234502577394E-002   0.0000000000000000     
   4.6454074642588265E-002   8.1790281930524483E-002   0.0000000000000000     
   3.1475808611939680E-002   5.7635245971123669E-002   0.0000000000000000     
   3.4887903309175267E-002   6.3282641488793062E-002   0.0000000000000000     
   3.7653668856641787E-002   6.9102630101636406E-002   0.0000000000000000     
   3.9773105254339254E-002   7.5095211809653756E-002   0.0000000000000000     
   4.1246212502267648E-002   8.1260386612845042E-002   0.0000000000000000     
   2.8282391091105766E-002   5.7176396611944923E-002   0.0000000000000000     
   3.0596085381297364E-002   6.2777275252712761E-002   0.0000000000000000     
   3.2609608363771123E-002   6.8571961298267453E-002   0.0000000000000000     
   3.4322960038527056E-002   7.4560454748609006E-002   0.0000000000000000     
   3.5736140405565137E-002   8.0742755603737434E-002   0.0000000000000000     
   5.5963169054083821E-002   8.2886865491598793E-002   0.0000000000000000     
   5.7798362128736305E-002   8.9104727452951116E-002   0.0000000000000000     
   5.9640762663580961E-002   9.5512768141824134E-002   0.0000000000000000     
   6.1490370658617788E-002  0.10211098755821794        0.0000000000000000     
   6.3347186113846793E-002  0.10889938570213249        0.0000000000000000     
   5.1359726826526980E-002   8.2332441556775729E-002   0.0000000000000000     
   5.2820753626787217E-002   8.8593946090049683E-002   0.0000000000000000     
   5.4335454050102920E-002   9.5031948948244863E-002   0.0000000000000000     
   5.5903828096474102E-002  0.10164645013136125        0.0000000000000000     
   5.7525875765900777E-002  0.10843744963939890        0.0000000000000000     
   4.6454074642588265E-002   8.1790281930524483E-002   0.0000000000000000     
   4.7695362849259883E-002   8.8090407087535294E-002   0.0000000000000000     
   4.9005278606151413E-002   9.4558472648150191E-002   0.0000000000000000     
   5.0383821913262898E-002  0.10119447861236916        0.0000000000000000     
   5.1830992770594310E-002  0.10799842498019219        0.0000000000000000     
   4.1246212502267648E-002   8.1260386612845042E-002   0.0000000000000000     
   4.2422189796154287E-002   8.7594110445407977E-002   0.0000000000000000     
   4.3650236331726468E-002   9.4092339241540160E-002   0.0000000000000000     
   4.4930352108984196E-002  0.10075507300124160        0.0000000000000000     
   4.6262537127927439E-002  0.10758231172451231        0.0000000000000000     
   3.5736140405565137E-002   8.0742755603737434E-002   0.0000000000000000     
   3.7001234467470452E-002   8.7105056163667691E-002   0.0000000000000000     
   3.8270327226828056E-002   9.3633548728414770E-002   0.0000000000000000     
   3.9543418683637949E-002  0.10032823329797866        0.0000000000000000     
   4.0820508837900137E-002  0.10718910987235936        0.0000000000000000     
   6.3347186113846793E-002  0.10889938570213249        0.0000000000000000     
   6.5140155622909562E-002  0.11582770324117315        0.0000000000000000     
   6.6798225779447690E-002  0.12284568084294535        0.0000000000000000     
   6.8321396583461175E-002  0.12995331850744904        0.0000000000000000     
   6.9709668034950018E-002  0.13715061623468427        0.0000000000000000     
   5.7525875765900777E-002  0.10843744963939890        0.0000000000000000     
   5.9127542460794824E-002  0.11536448706337449        0.0000000000000000     
   6.0634773583568120E-002  0.12238710199430478        0.0000000000000000     
   6.2047569134220722E-002  0.12950529443218972        0.0000000000000000     
   6.3365929112752586E-002  0.13671906437702938        0.0000000000000000     
   5.1830992770594310E-002  0.10799842498019219        0.0000000000000000     
   5.3273775331725400E-002  0.11493491956576690        0.0000000000000000     
   5.4639153750235904E-002  0.12196857018324095        0.0000000000000000     
   5.5927128026125802E-002  0.12909937683261435        0.0000000000000000     
   5.7137698159395109E-002  0.13632733951388706        0.0000000000000000     
   4.6262537127927439E-002  0.10758231172451231        0.0000000000000000     
   4.7578854235701344E-002  0.11453900074835040        0.0000000000000000     
   4.8811366279450992E-002  0.12159008540975390        0.0000000000000000     
   4.9960073259176410E-002  0.12873556570872283        0.0000000000000000     
   5.1024975174877571E-002  0.13597544164525721        0.0000000000000000     
   4.0820508837900137E-002  0.10718910987235936        0.0000000000000000     
   4.2042779172722616E-002  0.11417673061112495        0.0000000000000000     
   4.3151411171213426E-002  0.12125164767384361        0.0000000000000000     
   4.4146404833372552E-002  0.12841386106051525        0.0000000000000000     
   4.5027760159199993E-002  0.13566337077113994        0.0000000000000000     
   6.9709668034950018E-002  0.13715061623468427        0.0000000000000000     
   7.1011191182052749E-002  0.14445768883908006        0.0000000000000000     
   7.2274117072907942E-002  0.15189465113506542        0.0000000000000000     
   7.3498445707515528E-002  0.15946150312264032        0.0000000000000000     
   7.4684177085875575E-002  0.16715824480180480        0.0000000000000000     
   6.3365929112752586E-002  0.13671906437702938        0.0000000000000000     
   6.4604280546459822E-002  0.14404736448082067        0.0000000000000000     
   6.5777050462638487E-002  0.15150914739556043        0.0000000000000000     
   6.6884238861288622E-002  0.15910441312124868        0.0000000000000000     
   6.7925845742410187E-002  0.16683316165788545        0.0000000000000000     
   5.7137698159395109E-002  0.13632733951388706        0.0000000000000000     
   5.8274464315792682E-002  0.14367283529529137        0.0000000000000000     
   5.9341026661067373E-002  0.15115624124505966        0.0000000000000000     
   6.0337385195219195E-002  0.15877755736319185        0.0000000000000000     
   6.1263539918248150E-002  0.16653678364968807        0.0000000000000000     
   5.1024975174877571E-002  0.13597544164525721        0.0000000000000000     
   5.2021742490051356E-002  0.14333410128249224        0.0000000000000000     
   5.2966045668194600E-002  0.15083593268356316        0.0000000000000000     
   5.3857884709307288E-002  0.15848093584846989        0.0000000000000000     
   5.4697259613389455E-002  0.16626911077721257        0.0000000000000000     
   4.5027760159199993E-002  0.13566337077113994        0.0000000000000000     
   4.5846115069235818E-002  0.14303116244242325        0.0000000000000000     
   4.6652107484020114E-002  0.15054822171107091        0.0000000000000000     
   4.7445737403552880E-002  0.15821454857708281        0.0000000000000000     
   4.8227004827834111E-002  0.16603014304045899        0.0000000000000000     
   7.4684177085875575E-002  0.16715824480180480        0.0000000000000000     
   7.5815191679264038E-002  0.17496720765264037        0.0000000000000000     
   7.6875369958956885E-002  0.18287072315522848        0.0000000000000000     
   7.7864711924954103E-002  0.19086879130956919        0.0000000000000000     
   7.8783217577255704E-002  0.19896141211566240        0.0000000000000000     
   6.7925845742410187E-002  0.16683316165788545        0.0000000000000000     
   6.8908837133564882E-002  0.17467335370579926        0.0000000000000000     
   6.9840179062314295E-002  0.18260294996531856        0.0000000000000000     
   7.0719871528658496E-002  0.19062195043644345        0.0000000000000000     
   7.1547914532597442E-002  0.19873035511917386        0.0000000000000000     
   6.1263539918248150E-002  0.16653678364968807        0.0000000000000000     
   6.2132756718499701E-002  0.17440738632863328        0.0000000000000000     
   6.2958301484319329E-002  0.18236283162411276        0.0000000000000000     
   6.3740174215707046E-002  0.19040311953612649        0.0000000000000000     
   6.4478374912662853E-002  0.19852825006467439        0.0000000000000000     
   5.4697259613389455E-002  0.16626911077721257        0.0000000000000000     
   5.5486950434068538E-002  0.17416930552114246        0.0000000000000000     
   5.6229737224971953E-002  0.18215036813161098        0.0000000000000000     
   5.6925619986099768E-002  0.19021229860861819        0.0000000000000000     
   5.7574598717451908E-002  0.19835509695216400        0.0000000000000000     
   4.8227004827834111E-002  0.16603014304045899        0.0000000000000000     
   4.8971418280271364E-002  0.17395911128332672        0.0000000000000000     
   4.9654486284272194E-002  0.18196555948781323        0.0000000000000000     
   5.0276208839836620E-002  0.19004948765391855        0.0000000000000000     
   5.0836585946964621E-002  0.19821089578164261        0.0000000000000000     
   7.8783217577255704E-002  0.19896141211566240        0.0000000000000000     
   7.9629201205582922E-002  0.20713775394375009        0.0000000000000000     
   8.0400977099657003E-002  0.21538698516407401        0.0000000000000000     
   8.1098545259477905E-002  0.22370910577663422        0.0000000000000000     
   8.1721905685045684E-002  0.23210411578143067        0.0000000000000000     
   7.1547914532597442E-002  0.19873035511917386        0.0000000000000000     
   7.2311087568658880E-002  0.20692198752543839        0.0000000000000000     
   7.2996170131370497E-002  0.21519067116716550        0.0000000000000000     
   7.3603162220732307E-002  0.22353640604435532        0.0000000000000000     
   7.4132063836744311E-002  0.23195919215700778        0.0000000000000000     
   6.4478374912662853E-002  0.19852825006467439        0.0000000000000000     
   6.5156300652020160E-002  0.20673536958880859        0.0000000000000000     
   6.5757348510612476E-002  0.21502162448758111        0.0000000000000000     
   6.6281518488439758E-002  0.22338701476099196        0.0000000000000000     
   6.6728810585502008E-002  0.23183154040904108        0.0000000000000000     
   5.7574598717451908E-002  0.19835509695216400        0.0000000000000000     
   5.8164840455666833E-002  0.20657790013386076        0.0000000000000000     
   5.8684512237382955E-002  0.21487984512532082        0.0000000000000000     
   5.9133614062600273E-002  0.22326093192654412        0.0000000000000000     
   5.9512145931318768E-002  0.23172116053753070        0.0000000000000000     
   5.0836585946964621E-002  0.19821089578164261        0.0000000000000000     
   5.1336706979598835E-002  0.20644957916059484        0.0000000000000000     
   5.1777661311681912E-002  0.21476533308038456        0.0000000000000000     
   5.2159448943213831E-002  0.22315815754101179        0.0000000000000000     
   5.2482069874194612E-002  0.23162805254247656        0.0000000000000000     
   8.1721905685045684E-002  0.23210411578143067        0.0000000000000000     
   8.2260673660831923E-002  0.24059428946740394        0.0000000000000000     
   8.2704464471308262E-002  0.24920190112349461        0.0000000000000000     
   8.3053278116474713E-002  0.25792695074970268        0.0000000000000000     
   8.3307114596331236E-002  0.26676943834602806        0.0000000000000000     
   7.4132063836744311E-002  0.23195919215700778        0.0000000000000000     
   7.4582049610183013E-002  0.24047213178552404        0.0000000000000000     
   7.4952294171824918E-002  0.24908832721030538        0.0000000000000000     
   7.5242797521670027E-002  0.25780777843135172        0.0000000000000000     
   7.5453559659718339E-002  0.26663048544866313        0.0000000000000000     
   6.6728810585502008E-002  0.23183154040904108        0.0000000000000000     
   6.7104454405367761E-002  0.24035951702174671        0.0000000000000000     
   6.7413679551605543E-002  0.24897526018912677        0.0000000000000000     
   6.7656486024215354E-002  0.25767876991118138        0.0000000000000000     
   6.7832873823197179E-002  0.26647004618791054        0.0000000000000000     
   5.9512145931318768E-002  0.23172116053753070        0.0000000000000000     
   5.9827888046386168E-002  0.24025644517607186        0.0000000000000000     
   6.0088620610650137E-002  0.24886270005995881        0.0000000000000000     
   6.0294343624110666E-002  0.25753992518919161        0.0000000000000000     
   6.0445057086767763E-002  0.26628812056377016        0.0000000000000000     
   5.2482069874194612E-002  0.23162805254247656        0.0000000000000000     
   5.2752350533238221E-002  0.24016291624849950        0.0000000000000000     
   5.2977117348958679E-002  0.24875064682280146        0.0000000000000000     
   5.3156370321355971E-002  0.25739124426538235        0.0000000000000000     
   5.3290109450430084E-002  0.26608470857624211        0.0000000000000000     
   8.3307114596331236E-002  0.26676943834602806        0.0000000000000000     
   8.3505090999226317E-002  0.27575435610603782        0.0000000000000000     
   8.3686324413508373E-002  0.28490669622329895        0.0000000000000000     
   8.3850814839177404E-002  0.29422645869781133        0.0000000000000000     
   8.3998562276233410E-002  0.30371364352957508        0.0000000000000000     
   7.5453559659718339E-002  0.26663048544866313        0.0000000000000000     
   7.5625058616275623E-002  0.27554983625186780        0.0000000000000000     
   7.5797772421647591E-002  0.28455921883059393        0.0000000000000000     
   7.5971701075834314E-002  0.29365863318484153        0.0000000000000000     
   7.6146844578835721E-002  0.30284807931461055        0.0000000000000000     
   6.7832873823197179E-002  0.26647004618791054        0.0000000000000000     
   6.7982501847489898E-002  0.27531967931950913        0.0000000000000000     
   6.8145028996032350E-002  0.28419825960617223        0.0000000000000000     
   6.8320455268824562E-002  0.29310578704789986        0.0000000000000000     
   6.8508780665866492E-002  0.30204226164469195        0.0000000000000000     
   6.0445057086767763E-002  0.26628812056377016        0.0000000000000000     
   6.0577420692869179E-002  0.27506388530896192        0.0000000000000000     
   6.0728094136662636E-002  0.28382381855003402        0.0000000000000000     
   6.0897077418148163E-002  0.29256792028698642        0.0000000000000000     
   6.1084370537325725E-002  0.30129619051981937        0.0000000000000000     
   5.3290109450430084E-002  0.26608470857624211        0.0000000000000000     
   5.3409815152413456E-002  0.27478245422022601        0.0000000000000000     
   5.3546967843538462E-002  0.28343589566217908        0.0000000000000000     
   5.3701567523805130E-002  0.29204503290210138        0.0000000000000000     
   5.3873614193213425E-002  0.30060986593999273        0.0000000000000000     
   2.8282391091105766E-002   5.7176396611944923E-002   0.0000000000000000     
   3.0596085381297364E-002   6.2777275252712761E-002   0.0000000000000000     
   3.2609608363771123E-002   6.8571961298267453E-002   0.0000000000000000     
   3.4322960038527056E-002   7.4560454748609006E-002   0.0000000000000000     
   3.5736140405565137E-002   8.0742755603737434E-002   0.0000000000000000     
   2.5220793929982201E-002   5.6771827531802196E-002   0.0000000000000000     
   2.6438715581742489E-002   6.2336571255171190E-002   0.0000000000000000     
   2.7699971708188231E-002   6.8109684343243174E-002   0.0000000000000000     
   2.9004562309319429E-002   7.4091166796018099E-002   0.0000000000000000     
   3.0352487385136094E-002   8.0281018613496000E-002   0.0000000000000000     
   2.1803289163392837E-002   5.6410531794157379E-002   0.0000000000000000     
   2.2461600810991880E-002   6.1977414649327059E-002   0.0000000000000000     
   2.3301136911898737E-002   6.7751087860759909E-002   0.0000000000000000     
   2.4321897466113396E-002   7.3731551428455944E-002   0.0000000000000000     
   2.5523882473635864E-002   7.9918805352415120E-002   0.0000000000000000     
   1.8029876791337662E-002   5.6092509399010476E-002   0.0000000000000000     
   1.8664741069045546E-002   6.1699805435180333E-002   0.0000000000000000     
   1.9413103974902646E-002   6.7496171850817702E-002   0.0000000000000000     
   2.0274965508908949E-002   7.3481608645922500E-002   0.0000000000000000     
   2.1250325671064465E-002   7.9656115820494811E-002   0.0000000000000000     
   1.3900556813816686E-002   5.5817760346361489E-002   0.0000000000000000     
   1.5048136355903482E-002   6.1503743612731053E-002   0.0000000000000000     
   1.6035872897199946E-002   6.7344936313416495E-002   0.0000000000000000     
   1.6863766437706082E-002   7.3341338448417837E-002   0.0000000000000000     
   1.7531816977421885E-002   7.9492950017735042E-002   0.0000000000000000     
   3.5736140405565137E-002   8.0742755603737434E-002   0.0000000000000000     
   3.7001234467470452E-002   8.7105056163667691E-002   0.0000000000000000     
   3.8270327226828056E-002   9.3633548728414770E-002   0.0000000000000000     
   3.9543418683637949E-002  0.10032823329797866        0.0000000000000000     
   4.0820508837900137E-002  0.10718910987235936        0.0000000000000000     
   3.0352487385136094E-002   8.0281018613496000E-002   0.0000000000000000     
   3.1700997709598576E-002   8.6661081257702083E-002   0.0000000000000000     
   3.3007344056667234E-002   9.3213196190661554E-002   0.0000000000000000     
   3.4271526426342083E-002   9.9937363412374428E-002   0.0000000000000000     
   3.5493544818623102E-002  0.10683358292284072        0.0000000000000000     
   2.5523882473635864E-002   7.9918805352415120E-002   0.0000000000000000     
   2.6789980368928847E-002   8.6300022742898760E-002   0.0000000000000000     
   2.8003079586455034E-002   9.2862376710168101E-002   0.0000000000000000     
   2.9163180126214435E-002   9.9605867254223143E-002   0.0000000000000000     
   3.0270281988207054E-002  0.10653049437506390        0.0000000000000000     
   2.1250325671064465E-002   7.9656115820494811E-002   0.0000000000000000     
   2.2268182445461276E-002   8.6021880619257696E-002   0.0000000000000000     
   2.3257533816191459E-002   9.2581090286934356E-002   0.0000000000000000     
   2.4218379783255028E-002   9.9333744823524750E-002   0.0000000000000000     
   2.5150720346651969E-002  0.10627984422902891        0.0000000000000000     
   1.7531816977421885E-002   7.9492950017735042E-002   0.0000000000000000     
   1.8135603939195860E-002   8.5826654886778972E-002   0.0000000000000000     
   1.8770706745876515E-002   9.2369336920960388E-002   0.0000000000000000     
   1.9437125397463846E-002   9.9120996120279317E-002   0.0000000000000000     
   2.0134859893957861E-002  0.10608163248473573        0.0000000000000000     
   4.0820508837900137E-002  0.10718910987235936        0.0000000000000000     
   4.2042779172722616E-002  0.11417673061112495        0.0000000000000000     
   4.3151411171213426E-002  0.12125164767384361        0.0000000000000000     
   4.4146404833372552E-002  0.12841386106051525        0.0000000000000000     
   4.5027760159199993E-002  0.13566337077113994        0.0000000000000000     
   3.5493544818623102E-002  0.10683358292284072        0.0000000000000000     
   3.6622851037703408E-002  0.11385531783316574        0.0000000000000000     
   3.7608896887776078E-002  0.12095603125445489        0.0000000000000000     
   3.8451682368841111E-002  0.12813572318670821        0.0000000000000000     
   3.9151207480898523E-002  0.13539439362992559        0.0000000000000000     
   3.0270281988207054E-002  0.10653049437506390        0.0000000000000000     
   3.1276370725557855E-002  0.11358197109354791        0.0000000000000000     
   3.2133431891391839E-002  0.12070601043053271        0.0000000000000000     
   3.2841465485709001E-002  0.12790261238601827        0.0000000000000000     
   3.3400471508509340E-002  0.13517177696000462        0.0000000000000000     
   2.5150720346651969E-002  0.10627984422902891        0.0000000000000000     
   2.6003338236285971E-002  0.11335669039227142        0.0000000000000000     
   2.6725016182060721E-002  0.12050158520207693        0.0000000000000000     
   2.7315754183976214E-002  0.12771452865844549        0.0000000000000000     
   2.7775552242032452E-002  0.13499552076137700        0.0000000000000000     
   2.0134859893957861E-002  0.10608163248473573        0.0000000000000000     
   2.0803753569887749E-002  0.11317947572933630        0.0000000000000000     
   2.1383649759782710E-002  0.12034275556908766        0.0000000000000000     
   2.1874548463642743E-002  0.12757147200398980        0.0000000000000000     
   2.2276449681467844E-002  0.13486562503404276        0.0000000000000000     
   4.5027760159199993E-002  0.13566337077113994        0.0000000000000000     
   4.5846115069235818E-002  0.14303116244242325        0.0000000000000000     
   4.6652107484020114E-002  0.15054822171107091        0.0000000000000000     
   4.7445737403552880E-002  0.15821454857708281        0.0000000000000000     
   4.8227004827834111E-002  0.16603014304045899        0.0000000000000000     
   3.9151207480898523E-002  0.13539439362992559        0.0000000000000000     
   3.9792720041241923E-002  0.14276978155673647        0.0000000000000000     
   4.0461467867164952E-002  0.15029962593977003        0.0000000000000000     
   4.1157450958667595E-002  0.15798392677902645        0.0000000000000000     
   4.1880669315749866E-002  0.16582268407450554        0.0000000000000000     
   3.3400471508509340E-002  0.13517177696000462        0.0000000000000000     
   3.3906695393965486E-002  0.14255572140708384        0.0000000000000000     
   3.4456382576250055E-002  0.15009666298184782        0.0000000000000000     
   3.5049533055363041E-002  0.15779460168429668        0.0000000000000000     
   3.5686146831304472E-002  0.16564953751443037        0.0000000000000000     
   2.7775552242032452E-002  0.13499552076137700        0.0000000000000000     
   2.8188041127406499E-002  0.14238898199346534        0.0000000000000000     
   2.8636851611275434E-002  0.14993933283730418        0.0000000000000000     
   2.9121983693639240E-002  0.15764657329289355        0.0000000000000000     
   2.9643437374497934E-002  0.16551070336023346        0.0000000000000000     
   2.2276449681467844E-002  0.13486562503404276        0.0000000000000000     
   2.2636757241564973E-002  0.14226956331588103        0.0000000000000000     
   2.3002874972241086E-002  0.14982763550613915        0.0000000000000000     
   2.3374802873496175E-002  0.15753984160481707        0.0000000000000000     
   2.3752540945330247E-002  0.16540618161191489        0.0000000000000000     
   4.8227004827834111E-002  0.16603014304045899        0.0000000000000000     
   4.8971418280271364E-002  0.17395911128332672        0.0000000000000000     
   4.9654486284272194E-002  0.18196555948781323        0.0000000000000000     
   5.0276208839836620E-002  0.19004948765391855        0.0000000000000000     
   5.0836585946964621E-002  0.19821089578164261        0.0000000000000000     
   4.1880669315749866E-002  0.16582268407450554        0.0000000000000000     
   4.2580136598086592E-002  0.17377633875662549        0.0000000000000000     
   4.3204866465352591E-002  0.18180533175580435        0.0000000000000000     
   4.3754858917547879E-002  0.18990966307204213        0.0000000000000000     
   4.4230113954672447E-002  0.19808933270533882        0.0000000000000000     
   3.5686146831304472E-002  0.16564953751443037        0.0000000000000000     
   3.6307081728492598E-002  0.17362052308247816        0.0000000000000000     
   3.6853195571345698E-002  0.18166661099866918        0.0000000000000000     
   3.7324488359863781E-002  0.18978780126300351        0.0000000000000000     
   3.7720960094046831E-002  0.19798409387548108        0.0000000000000000     
   2.9643437374497934E-002  0.16551070336023346        0.0000000000000000     
   3.0152253671489403E-002  0.17349166426088464        0.0000000000000000     
   3.0599473602251525E-002  0.18154939721640767        0.0000000000000000     
   3.0985097166784322E-002  0.18968390222680256        0.0000000000000000     
   3.1309124365087773E-002  0.19789517929206937        0.0000000000000000     
   2.3752540945330247E-002  0.16540618161191489        0.0000000000000000     
   2.4115652427076986E-002  0.17338976229184500        0.0000000000000000     
   2.4443700558070065E-002  0.18145369040901982        0.0000000000000000     
   2.4736685338309500E-002  0.18959796596343939        0.0000000000000000     
   2.4994606767795274E-002  0.19782258895510371        0.0000000000000000     
   5.0836585946964621E-002  0.19821089578164261        0.0000000000000000     
   5.1336706979598835E-002  0.20644957916059484        0.0000000000000000     
   5.1777661311681912E-002  0.21476533308038456        0.0000000000000000     
   5.2159448943213831E-002  0.22315815754101179        0.0000000000000000     
   5.2482069874194612E-002  0.23162805254247656        0.0000000000000000     
   4.4230113954672447E-002  0.19808933270533882        0.0000000000000000     
   4.4644591125653291E-002  0.20634351471481260        0.0000000000000000     
   4.5012249979417412E-002  0.21467138315958156        0.0000000000000000     
   4.5333090515964798E-002  0.22307293803964581        0.0000000000000000     
   4.5607112735295469E-002  0.23154817935500527        0.0000000000000000     
   3.7720960094046831E-002  0.19798409387548108        0.0000000000000000     
   3.8061183795667267E-002  0.20625281484231564        0.0000000000000000     
   3.8363732486497479E-002  0.21459129016972087        0.0000000000000000     
   3.8628606166537495E-002  0.22299951985769681        0.0000000000000000     
   3.8855804835787287E-002  0.23147750390624353        0.0000000000000000     
   3.1309124365087773E-002  0.19789517929206937        0.0000000000000000     
   3.1586484989640756E-002  0.20617747954310403        0.0000000000000000     
   3.1832108832922139E-002  0.21452505411080258        0.0000000000000000     
   3.2045995894931914E-002  0.22293790299516500        0.0000000000000000     
   3.2228146175670082E-002  0.23141602619619125        0.0000000000000000     
   2.4994606767795274E-002  0.19782258895510371        0.0000000000000000     
   2.5220494707573773E-002  0.20611750881717777        0.0000000000000000     
   2.5417379018691372E-002  0.21447267498282660        0.0000000000000000     
   2.5585259701148062E-002  0.22288808745205019        0.0000000000000000     
   2.5724136754943852E-002  0.23136374622484845        0.0000000000000000     
   5.2482069874194612E-002  0.23162805254247656        0.0000000000000000     
   5.2752350533238221E-002  0.24016291624849950        0.0000000000000000     
   5.2977117348958679E-002  0.24875064682280146        0.0000000000000000     
   5.3156370321355971E-002  0.25739124426538235        0.0000000000000000     
   5.3290109450430084E-002  0.26608470857624211        0.0000000000000000     
   4.5607112735295469E-002  0.23154817935500527        0.0000000000000000     
   4.5839103605426347E-002  0.24007805931459986        0.0000000000000000     
   4.6033850094374378E-002  0.24864353012736934        0.0000000000000000     
   4.6191352202139567E-002  0.25724459179331371        0.0000000000000000     
   4.6311609928721922E-002  0.26588124431243310        0.0000000000000000     
   3.8855804835787287E-002  0.23147750390624353        0.0000000000000000     
   3.9049409002452913E-002  0.24000100344994291        0.0000000000000000     
   3.9213499174740409E-002  0.24854577962337704        0.0000000000000000     
   3.9348075352649781E-002  0.25711183242654595        0.0000000000000000     
   3.9453137536181022E-002  0.26569916185944964        0.0000000000000000     
   3.2228146175670082E-002  0.23141602619619125        0.0000000000000000     
   3.2383266724317940E-002  0.23993174865452868        0.0000000000000000     
   3.2516064590056785E-002  0.24845739531082459        0.0000000000000000     
   3.2626539772886598E-002  0.25699296616507894        0.0000000000000000     
   3.2714692272807398E-002  0.26553846121729180        0.0000000000000000     
   2.5724136754943852E-002  0.23136374622484845        0.0000000000000000     
   2.5840676771021431E-002  0.23987029492835721        0.0000000000000000     
   2.5941546340323491E-002  0.24837837718971195        0.0000000000000000     
   2.6026745462850037E-002  0.25688799300891274        0.0000000000000000     
   2.6096274138601050E-002  0.26539914238595952        0.0000000000000000     
   5.3290109450430084E-002  0.26608470857624211        0.0000000000000000     
   5.3409815152413456E-002  0.27478245422022601        0.0000000000000000     
   5.3546967843538462E-002  0.28343589566217908        0.0000000000000000     
   5.3701567523805130E-002  0.29204503290210138        0.0000000000000000     
   5.3873614193213425E-002  0.30060986593999273        0.0000000000000000     
   4.6311609928721922E-002  0.26588124431243310        0.0000000000000000     
   4.6420161473460425E-002  0.27450390233835675        0.0000000000000000     
   4.6542545035694105E-002  0.28306298052471418        0.0000000000000000     
   4.6678760615422955E-002  0.29155847887150532        0.0000000000000000     
   4.6828808212646962E-002  0.29999039737873023        0.0000000000000000     
   3.9453137536181022E-002  0.26569916185944964        0.0000000000000000     
   3.9548935903347827E-002  0.27425674594840921        0.0000000000000000     
   3.9655720632163868E-002  0.28273356271974581        0.0000000000000000     
   3.9773491722629166E-002  0.29112961217345940        0.0000000000000000     
   3.9902249174743713E-002  0.29944489430955001        0.0000000000000000     
   3.2714692272807398E-002  0.26553846121729180        0.0000000000000000     
   3.2796138442075635E-002  0.27404098505038332        0.0000000000000000     
   3.2886494632947759E-002  0.28244764224727392        0.0000000000000000     
   3.2985760845423776E-002  0.29075843280796354        0.0000000000000000     
   3.3093937079503685E-002  0.29897335673245218        0.0000000000000000     
   2.6096274138601050E-002  0.26539914238595952        0.0000000000000000     
   2.6161769089643863E-002  0.27385661964427921        0.0000000000000000     
   2.6234867038045766E-002  0.28220521910729862        0.0000000000000000     
   2.6315567983806777E-002  0.29044494077501770        0.0000000000000000     
   2.6403871926926881E-002  0.29857578464743656        0.0000000000000000     
   1.3900556813816686E-002   5.5817760346361489E-002   0.0000000000000000     
   1.5048136355903482E-002   6.1503743612731053E-002   0.0000000000000000     
   1.6035872897199946E-002   6.7344936313416495E-002   0.0000000000000000     
   1.6863766437706082E-002   7.3341338448417837E-002   0.0000000000000000     
   1.7531816977421885E-002   7.9492950017735042E-002   0.0000000000000000     
   9.9384264697364791E-003   5.5644796785156873E-002   0.0000000000000000     
   1.1599274427644354E-002   6.1397830291871090E-002   0.0000000000000000     
   1.2819803054230420E-002   6.7275354485025002E-002   0.0000000000000000     
   1.3600012349494676E-002   7.3277369364618691E-002   0.0000000000000000     
   1.3939902313437121E-002   7.9403874930652069E-002   0.0000000000000000     
   6.6665829980036145E-003   5.5632130864343099E-002   0.0000000000000000     
   8.3056430403468245E-003   6.1390666582492349E-002   0.0000000000000000     
   9.4152538214338204E-003   6.7265399602111961E-002   0.0000000000000000     
   9.9954153412646005E-003   7.3256329923201871E-002   0.0000000000000000     
   1.0046127599839168E-002   7.9363457545762114E-002   0.0000000000000000     
   4.0850263986180963E-003   5.5779762583920166E-002   0.0000000000000000     
   5.1672421940108966E-003   6.1482252484594872E-002   0.0000000000000000     
   5.8222251988101536E-003   6.7315071664677276E-002   0.0000000000000000     
   6.0499754130158637E-003   7.3278220124167348E-002   0.0000000000000000     
   5.8504928366280287E-003   7.9371697863065152E-002   0.0000000000000000     
   2.1937566715799208E-003   5.6087691943888074E-002   0.0000000000000000     
   2.1840718886365685E-003   6.1672587998178624E-002   0.0000000000000000     
   2.0407171863594145E-003   6.7424370672721001E-002   0.0000000000000000     
   1.7636925647484579E-003   7.3343039967515206E-002   0.0000000000000000     
   1.3529980238036997E-003   7.9428595882561195E-002   0.0000000000000000     
   1.7531816977421885E-002   7.9492950017735042E-002   0.0000000000000000     
   1.8135603939195860E-002   8.5826654886778972E-002   0.0000000000000000     
   1.8770706745876515E-002   9.2369336920960388E-002   0.0000000000000000     
   1.9437125397463846E-002   9.9120996120279317E-002   0.0000000000000000     
   2.0134859893957861E-002  0.10608163248473573        0.0000000000000000     
   1.3939902313437121E-002   7.9403874930652069E-002   0.0000000000000000     
   1.4107732929203871E-002   8.5703762667670977E-002   0.0000000000000000     
   1.4371764179941040E-002   9.2225924060221190E-002   0.0000000000000000     
   1.4731996065648630E-002   9.8970359108302680E-002   0.0000000000000000     
   1.5188428586326639E-002  0.10593706781191546        0.0000000000000000     
   1.0046127599839168E-002   7.9363457545762114E-002   0.0000000000000000     
   9.9000574945565800E-003   8.5642621084142251E-002   0.0000000000000000     
   9.8898719228158877E-003   9.2149659152691799E-002   0.0000000000000000     
   1.0015570884617098E-002   9.8884571751410813E-002   0.0000000000000000     
   1.0277154379960206E-002  0.10584735888029925        0.0000000000000000     
   5.8504928366280287E-003   7.9371697863065152E-002   0.0000000000000000     
   5.5125776352539825E-003   8.5643230136192738E-002   0.0000000000000000     
   5.3250299745010565E-003   9.2140542198372269E-002   0.0000000000000000     
   5.2878498543692531E-003   9.8863634049603702E-002   0.0000000000000000     
   5.4010372748585691E-003  0.10581250568988704        0.0000000000000000     
   1.3529980238036997E-003   7.9428595882561195E-002   0.0000000000000000     
   9.4529335129608233E-004   8.5705589823822495E-002   0.0000000000000000     
   6.7723833499654671E-004   9.2198573197262532E-002   0.0000000000000000     
   5.4883297490509444E-004   9.8907546002881333E-002   0.0000000000000000     
   5.6007727102172500E-004  0.10583250824067887        0.0000000000000000     
   2.0134859893957861E-002  0.10608163248473573        0.0000000000000000     
   2.0803753569887749E-002  0.11317947572933630        0.0000000000000000     
   2.1383649759782710E-002  0.12034275556908766        0.0000000000000000     
   2.1874548463642743E-002  0.12757147200398980        0.0000000000000000     
   2.2276449681467844E-002  0.13486562503404276        0.0000000000000000     
   1.5188428586326639E-002  0.10593706781191546        0.0000000000000000     
   1.5670479583800433E-002  0.11304762651223173        0.0000000000000000     
   1.6107566899895370E-002  0.12022361155042359        0.0000000000000000     
   1.6499690534611464E-002  0.12746502292649106        0.0000000000000000     
   1.6846850487948699E-002  0.13477186064043420        0.0000000000000000     
   1.0277154379960206E-002  0.10584735888029925        0.0000000000000000     
   1.0596379135461253E-002  0.11295844214844687        0.0000000000000000     
   1.0895001877736264E-002  0.12013824316494347        0.0000000000000000     
   1.1173022606785243E-002  0.12738676192978904        0.0000000000000000     
   1.1430441322608191E-002  0.13470399844298356        0.0000000000000000     
   5.4010372748585691E-003  0.10581250568988704        0.0000000000000000     
   5.5814522248702125E-003  0.11291192263798176        0.0000000000000000     
   5.7459546933053846E-003  0.12008665041264729        0.0000000000000000     
   5.8945446801640863E-003  0.12733668901388365        0.0000000000000000     
   6.0272221854463159E-003  0.13466203844169086        0.0000000000000000     
   5.6007727102172500E-004  0.10583250824067887        0.0000000000000000     
   6.2569885202731377E-004  0.11290806798083639        0.0000000000000000     
   6.6042534660273400E-004  0.12006883329353511        0.0000000000000000     
   6.6425675474798883E-004  0.12731480417877503        0.0000000000000000     
   6.3719307646307576E-004  0.13464598063655614        0.0000000000000000     
   2.2276449681467844E-002  0.13486562503404276        0.0000000000000000     
   2.2636757241564973E-002  0.14226956331588103        0.0000000000000000     
   2.3002874972241086E-002  0.14982763550613915        0.0000000000000000     
   2.3374802873496175E-002  0.15753984160481707        0.0000000000000000     
   2.3752540945330247E-002  0.16540618161191489        0.0000000000000000     
   1.6846850487948699E-002  0.13477186064043420        0.0000000000000000     
   1.7158319398501320E-002  0.14218656653315803        0.0000000000000000     
   1.7443369904863545E-002  0.14975158244556777        0.0000000000000000     
   1.7702002007035377E-002  0.15746690837766333        0.0000000000000000     
   1.7934215705016819E-002  0.16533254432944472        0.0000000000000000     
   1.1430441322608191E-002  0.13470399844298356        0.0000000000000000     
   1.1658203260275944E-002  0.14212909280412342        0.0000000000000000     
   1.1847253654859337E-002  0.14970118511280495        0.0000000000000000     
   1.1997592506358375E-002  0.15742027536902822        0.0000000000000000     
   1.2109219814773052E-002  0.16528636357279322        0.0000000000000000     
   6.0272221854463159E-003  0.13466203844169086        0.0000000000000000     
   6.1364088268888537E-003  0.14209714212877717        0.0000000000000000     
   6.2145262222284706E-003  0.14967644350785081        0.0000000000000000     
   6.2615743714651683E-003  0.15739994257891188        0.0000000000000000     
   6.2775532745989451E-003  0.16526763934196023        0.0000000000000000     
   6.3719307646307576E-004  0.13464598063655614        0.0000000000000000     
   5.9293609834004191E-004  0.14209071450711930        0.0000000000000000     
   5.4518760697093590E-004  0.14967735763070530        0.0000000000000000     
   4.9394760235575621E-004  0.15740591000731419        0.0000000000000000     
   4.3921608449450219E-004  0.16527637163694592        0.0000000000000000     
   2.3752540945330247E-002  0.16540618161191489        0.0000000000000000     
   2.4115652427076986E-002  0.17338976229184500        0.0000000000000000     
   2.4443700558070065E-002  0.18145369040901982        0.0000000000000000     
   2.4736685338309500E-002  0.18959796596343939        0.0000000000000000     
   2.4994606767795274E-002  0.19782258895510371        0.0000000000000000     
   1.7934215705016819E-002  0.16533254432944472        0.0000000000000000     
   1.8149481475605477E-002  0.17331539096089299        0.0000000000000000     
   1.8357269795598961E-002  0.18138234893198898        0.0000000000000000     
   1.8557580664997270E-002  0.18953341824273276        0.0000000000000000     
   1.8750414083800397E-002  0.19776859889312431        0.0000000000000000     
   1.2109219814773052E-002  0.16528636357279322        0.0000000000000000     
   1.2205944297424999E-002  0.17326912405356246        0.0000000000000000     
   1.2311574671635843E-002  0.18133823114079858        0.0000000000000000     
   1.2426110937405579E-002  0.18949368483450155        0.0000000000000000     
   1.2549553094734215E-002  0.19773548513467146        0.0000000000000000     
   6.2775532745989451E-003  0.16526763934196023        0.0000000000000000     
   6.2850408925355476E-003  0.17325096156985340        0.0000000000000000     
   6.3066151861807104E-003  0.18132133703544853        0.0000000000000000     
   6.3422761555344360E-003  0.18947876573874572        0.0000000000000000     
   6.3920238005967210E-003  0.19772324767974506        0.0000000000000000     
   4.3921608449450219E-004  0.16527637163694592        0.0000000000000000     
   3.8677126093712342E-004  0.17326090350976575        0.0000000000000000     
   3.4239133923356577E-004  0.18133166661593891        0.0000000000000000     
   3.0607631938383054E-004  0.18948866095546535        0.0000000000000000     
   2.7782620138791904E-004  0.19773188652834514        0.0000000000000000     
   2.4994606767795274E-002  0.19782258895510371        0.0000000000000000     
   2.5220494707573773E-002  0.20611750881717777        0.0000000000000000     
   2.5417379018691372E-002  0.21447267498282660        0.0000000000000000     
   2.5585259701148062E-002  0.22288808745205019        0.0000000000000000     
   2.5724136754943852E-002  0.23136374622484845        0.0000000000000000     
   1.8750414083800397E-002  0.19776859889312431        0.0000000000000000     
   1.8926457705511244E-002  0.20607368406038029        0.0000000000000000     
   1.9076399183632686E-002  0.21443446692171736        0.0000000000000000     
   1.9200238518164731E-002  0.22285094747713555        0.0000000000000000     
   1.9297975709107372E-002  0.23132312572663480        0.0000000000000000     
   1.2549553094734215E-002  0.19773548513467146        0.0000000000000000     
   1.2667618739498104E-002  0.20604678666855503        0.0000000000000000     
   1.2766025467573602E-002  0.21441074406339933        0.0000000000000000     
   1.2844773278960712E-002  0.22282735731920422        0.0000000000000000     
   1.2903862173659427E-002  0.23129662643596974        0.0000000000000000     
   6.3920238005967210E-003  0.19772324767974506        0.0000000000000000     
   6.4439778095343537E-003  0.20603681664170201        0.0000000000000000     
   6.4862578705141135E-003  0.21440150640787242        0.0000000000000000     
   6.5188639835360006E-003  0.22281731697825621        0.0000000000000000     
   6.5417961486000133E-003  0.23128424835285338        0.0000000000000000     
   2.7782620138791904E-004  0.19773188652834514        0.0000000000000000     
   2.5553491561999407E-004  0.20604377397982127        0.0000000000000000     
   2.3709639245422180E-004  0.21440675395513670        0.0000000000000000     
   2.2251063189060143E-004  0.22282082645429152        0.0000000000000000     
   2.1177763392913555E-004  0.23128599147728562        0.0000000000000000     
   2.5724136754943852E-002  0.23136374622484845        0.0000000000000000     
   2.5840676771021431E-002  0.23987029492835721        0.0000000000000000     
   2.5941546340323491E-002  0.24837837718971195        0.0000000000000000     
   2.6026745462850037E-002  0.25688799300891274        0.0000000000000000     
   2.6096274138601050E-002  0.26539914238595952        0.0000000000000000     
   1.9297975709107372E-002  0.23132312572663480        0.0000000000000000     
   1.9377751379355747E-002  0.23982091454748980        0.0000000000000000     
   1.9447706151804984E-002  0.24831422681697524        0.0000000000000000     
   1.9507840026455073E-002  0.25680306253509094        0.0000000000000000     
   1.9558153003306024E-002  0.26528742170183717        0.0000000000000000     
   1.2903862173659427E-002  0.23129662643596974        0.0000000000000000     
   1.2950602786113253E-002  0.23978787978798785        0.0000000000000000     
   1.2992305750765685E-002  0.24827044574955046        0.0000000000000000     
   1.3028971067616725E-002  0.25674432432065747        0.0000000000000000     
   1.3060598736666370E-002  0.26520951550130906        0.0000000000000000     
   6.5417961486000133E-003  0.23128424835285338        0.0000000000000000     
   6.5592309912939524E-003  0.23977119064985136        0.0000000000000000     
   6.5753451372056113E-003  0.24824703398743764        0.0000000000000000     
   6.5901385863349890E-003  0.25671177836561221        0.0000000000000000     
   6.6036113386820890E-003  0.26516542378437508        0.0000000000000000     
   2.1177763392913555E-004  0.23128599147728562        0.0000000000000000     
   2.0363599489784507E-004  0.23977084713308033        0.0000000000000000     
   1.9682431112475439E-004  0.24824399153063686        0.0000000000000000     
   1.9134258260986698E-004  0.25670542466995516        0.0000000000000000     
   1.8719080935317763E-004  0.26515514655103534        0.0000000000000000     
   2.6096274138601050E-002  0.26539914238595952        0.0000000000000000     
   2.6161769089643863E-002  0.27385661964427921        0.0000000000000000     
   2.6234867038045766E-002  0.28220521910729862        0.0000000000000000     
   2.6315567983806777E-002  0.29044494077501770        0.0000000000000000     
   2.6403871926926881E-002  0.29857578464743656        0.0000000000000000     
   1.9558153003306024E-002  0.26528742170183717        0.0000000000000000     
   1.9606780960873840E-002  0.27370989946731217        0.0000000000000000     
   1.9661859777674508E-002  0.28201309098161426        0.0000000000000000     
   1.9723389453708044E-002  0.29019699624474349        0.0000000000000000     
   1.9791369988974440E-002  0.29826161525669992        0.0000000000000000     
   1.3060598736666370E-002  0.26520951550130906        0.0000000000000000     
   1.3092127170586904E-002  0.27360707425669750        0.0000000000000000     
   1.3128494782050606E-002  0.28187805555201523        0.0000000000000000     
   1.3169701571057473E-002  0.29002245938726240        0.0000000000000000     
   1.3215747537607509E-002  0.29804028576243885        0.0000000000000000     
   6.6036113386820890E-003  0.26516542378437508        0.0000000000000000     
   6.6178077187830581E-003  0.27354814401243516        0.0000000000000000     
   6.6347720511740500E-003  0.28180011281850159        0.0000000000000000     
   6.6545043358550602E-003  0.28992133020257438        0.0000000000000000     
   6.6770045728260941E-003  0.29791179616465330        0.0000000000000000     
   1.8719080935317763E-004  0.26515514655103534        0.0000000000000000     
   1.8382260546230046E-004  0.27353310873452541        0.0000000000000000     
   1.8069158504484414E-004  0.28177926278107340        0.0000000000000000     
   1.7779774810080580E-004  0.28989360869067937        0.0000000000000000     
   1.7514109463019015E-004  0.29787614646334326        0.0000000000000000     
   2.1937566715799208E-003   5.6087691943888074E-002   0.0000000000000000     
   2.1840718886365685E-003   6.1672587998178624E-002   0.0000000000000000     
   2.0407171863594145E-003   6.7424370672721001E-002   0.0000000000000000     
   1.7636925647484579E-003   7.3343039967515206E-002   0.0000000000000000     
   1.3529980238036997E-003   7.9428595882561195E-002   0.0000000000000000     
   2.5016380713736679E-005   5.6361671479489464E-002   0.0000000000000000     
  -1.0604510864171660E-003   6.1834072315043828E-002   0.0000000000000000     
  -1.9747973283479269E-003   6.7513155756844689E-002   0.0000000000000000     
  -2.7180223450785457E-003   7.3398921804892076E-002   0.0000000000000000     
  -3.2901261366090201E-003   7.9491370459185959E-002   0.0000000000000000     
  -3.3889519101558091E-003   5.6407453725966970E-002   0.0000000000000000     
  -4.9829099417913157E-003   6.1839104626990681E-002   0.0000000000000000     
  -6.2698454577414060E-003   6.7501286047649947E-002   0.0000000000000000     
  -7.2497584580060778E-003   7.3393997987944756E-002   0.0000000000000000     
  -7.9226489425853336E-003   7.9517240447875129E-002   0.0000000000000000     
  -8.0481482010287177E-003   5.6225038683320606E-002   0.0000000000000000     
  -9.5833046774858790E-003   6.1687684934019174E-002   0.0000000000000000     
  -1.0844427201821020E-002   6.7388761545136719E-002   0.0000000000000000     
  -1.1831515774034141E-002   7.3328268516673220E-002   0.0000000000000000     
  -1.2544570394125241E-002   7.9506205848628719E-002   0.0000000000000000     
  -1.3952572491904985E-002   5.5814426351550359E-002   0.0000000000000000     
  -1.4861635293500857E-002   6.1379813236129316E-002   0.0000000000000000     
  -1.5698542560586774E-002   6.7175582249305033E-002   0.0000000000000000     
  -1.6463294293162737E-002   7.3201733391077495E-002   0.0000000000000000     
  -1.7155890491228742E-002   7.9458266661446703E-002   0.0000000000000000     
   1.3529980238036997E-003   7.9428595882561195E-002   0.0000000000000000     
   9.4529335129608233E-004   8.5705589823822495E-002   0.0000000000000000     
   6.7723833499654671E-004   9.2198573197262532E-002   0.0000000000000000     
   5.4883297490509444E-004   9.8907546002881333E-002   0.0000000000000000     
   5.6007727102172500E-004  0.10583250824067887        0.0000000000000000     
  -3.2901261366090201E-003   7.9491370459185959E-002   0.0000000000000000     
  -3.7200988485248322E-003   8.5787825617075597E-002   0.0000000000000000     
  -4.0369306264114663E-003   9.2285611175910248E-002   0.0000000000000000     
  -4.2406214702689167E-003   9.8984727135689898E-002   0.0000000000000000     
  -4.3311713800971855E-003  0.10588517349641455        0.0000000000000000     
  -7.9226489425853336E-003   7.9517240447875129E-002   0.0000000000000000     
  -8.4019024554164747E-003   8.5848062985996162E-002   0.0000000000000000     
  -8.8009045404368047E-003   9.2363515160862983E-002   0.0000000000000000     
  -9.1196551976463185E-003   9.9063596972475534E-002   0.0000000000000000     
  -9.3581544270450248E-003  0.10594830842083387        0.0000000000000000     
  -1.2544570394125241E-002   7.9506205848628719E-002   0.0000000000000000     
  -1.3100117469378843E-002   8.5886301930584205E-002   0.0000000000000000     
  -1.3614683407079468E-002   9.2432285152120736E-002   0.0000000000000000     
  -1.4088268207227117E-002   9.9144155513238283E-002   0.0000000000000000     
  -1.4520871869821785E-002  0.10602191301393686        0.0000000000000000     
  -1.7155890491228742E-002   7.9458266661446703E-002   0.0000000000000000     
  -1.7814743890411933E-002   8.5902542450839697E-002   0.0000000000000000     
  -1.8478267226339457E-002   9.2491921149683506E-002   0.0000000000000000     
  -1.9146460499011302E-002   9.9226402757978102E-002   0.0000000000000000     
  -1.9819323708427476E-002  0.10610598727572354        0.0000000000000000     
   5.6007727102172500E-004  0.10583250824067887        0.0000000000000000     
   6.2569885202731377E-004  0.11290806798083639        0.0000000000000000     
   6.6042534660273400E-004  0.12006883329353511        0.0000000000000000     
   6.6425675474798883E-004  0.12731480417877503        0.0000000000000000     
   6.3719307646307576E-004  0.13464598063655614        0.0000000000000000     
  -4.3311713800971855E-003  0.10588517349641455        0.0000000000000000     
  -4.3864897577814282E-003  0.11293380344127520        0.0000000000000000     
  -4.4844860052067927E-003  0.12007747015346282        0.0000000000000000     
  -4.6251601223732813E-003  0.12731617363297743        0.0000000000000000     
  -4.8085121092808925E-003  0.13464991387981901        0.0000000000000000     
  -9.3581544270450248E-003  0.10594830842083387        0.0000000000000000     
  -9.5707223792699907E-003  0.11297605428356264        0.0000000000000000     
  -9.8116792049583023E-003  0.12010523933828639        0.0000000000000000     
  -1.0081024904109956E-002  0.12733586358500518        0.0000000000000000     
  -1.0378759476724952E-002  0.13466792702371902        0.0000000000000000     
  -1.4520871869821785E-002  0.10602191301393686        0.0000000000000000     
  -1.4926999012438382E-002  0.11303482050769868        0.0000000000000000     
  -1.5321154252651799E-002  0.12015214084800584        0.0000000000000000     
  -1.5703337590462038E-002  0.12737387403485834        0.0000000000000000     
  -1.6073549025869101E-002  0.13470002006825618        0.0000000000000000     
  -1.9819323708427476E-002  0.10610598727572354        0.0000000000000000     
  -2.0455319657286596E-002  0.11311010211368333        0.0000000000000000     
  -2.1012911148287284E-002  0.12021817468262112        0.0000000000000000     
  -2.1492098181429532E-002  0.12743020498253688        0.0000000000000000     
  -2.1892880756713341E-002  0.13474619301343058        0.0000000000000000     
   6.3719307646307576E-004  0.13464598063655614        0.0000000000000000     
   5.9293609834004191E-004  0.14209071450711930        0.0000000000000000     
   5.4518760697093590E-004  0.14967735763070530        0.0000000000000000     
   4.9394760235575621E-004  0.15740591000731419        0.0000000000000000     
   4.3921608449450219E-004  0.16527637163694592        0.0000000000000000     
  -4.8085121092808925E-003  0.13464991387981901        0.0000000000000000     
  -5.0008566037216592E-003  0.14210168387054845        0.0000000000000000     
  -5.1685082434876056E-003  0.14969447658172660        0.0000000000000000     
  -5.3114670285787360E-003  0.15742829201335348        0.0000000000000000     
  -5.4297329589950514E-003  0.16530313016542908        0.0000000000000000     
  -1.0378759476724952E-002  0.13466792702371902        0.0000000000000000     
  -1.0673610957647421E-002  0.14212192415046315        0.0000000000000000     
  -1.0934307381721501E-002  0.14971834946127277        0.0000000000000000     
  -1.1160848748947190E-002  0.15745720295614793        0.0000000000000000     
  -1.1353235059324486E-002  0.16533848463508868        0.0000000000000000     
  -1.6073549025869101E-002  0.13470002006825618        0.0000000000000000     
  -1.6425326963437251E-002  0.14215143534686336        0.0000000000000000     
  -1.6752209807730751E-002  0.14974897626934389        0.0000000000000000     
  -1.7054197558749599E-002  0.15749264283569761        0.0000000000000000     
  -1.7331290216493801E-002  0.16538243504592468        0.0000000000000000     
  -2.1892880756713341E-002  0.13474619301343058        0.0000000000000000     
  -2.2256004621091143E-002  0.14219021745974925        0.0000000000000000     
  -2.2622215521515349E-002  0.14978635700593990        0.0000000000000000     
  -2.2991513457985970E-002  0.15753461165200250        0.0000000000000000     
  -2.3363898430502999E-002  0.16543498139793703        0.0000000000000000     
   4.3921608449450219E-004  0.16527637163694592        0.0000000000000000     
   3.8677126093712342E-004  0.17326090350976575        0.0000000000000000     
   3.4239133923356577E-004  0.18133166661593891        0.0000000000000000     
   3.0607631938383054E-004  0.18948866095546535        0.0000000000000000     
   2.7782620138791904E-004  0.19773188652834514        0.0000000000000000     
  -5.4297329589950514E-003  0.16530313016542908        0.0000000000000000     
  -5.5352547440850339E-003  0.17329047306838508        0.0000000000000000     
  -5.6399810931971701E-003  0.18136180275265304        0.0000000000000000     
  -5.7439120063314626E-003  0.18951711921823294        0.0000000000000000     
  -5.8470474834879061E-003  0.19775642246512484        0.0000000000000000     
  -1.1353235059324486E-002  0.16533848463508868        0.0000000000000000     
  -1.1527427269245686E-002  0.17333119344079684        0.0000000000000000     
  -1.1699386335103082E-002  0.18140432831597431        0.0000000000000000     
  -1.1869112256896675E-002  0.18955788926062112        0.0000000000000000     
  -1.2036605034626462E-002  0.19779187627473718        0.0000000000000000     
  -1.7331290216493801E-002  0.16538243504592468        0.0000000000000000     
  -1.7589746314544831E-002  0.17338306462700098        0.0000000000000000     
  -1.7835824386484171E-002  0.18145924330590271        0.0000000000000000     
  -1.8069524432311808E-002  0.18961097108262978        0.0000000000000000     
  -1.8290846452027755E-002  0.19783824795718219        0.0000000000000000     
  -2.3363898430502999E-002  0.16543498139793703        0.0000000000000000     
  -2.3722211879982476E-002  0.17344608662699759        0.0000000000000000     
  -2.4049295247340424E-002  0.18152654772243829        0.0000000000000000     
  -2.4345148532576865E-002  0.18967636468425905        0.0000000000000000     
  -2.4609771735691774E-002  0.19789553751245992        0.0000000000000000     
   2.7782620138791904E-004  0.19773188652834514        0.0000000000000000     
   2.5553491561999407E-004  0.20604377397982127        0.0000000000000000     
   2.3709639245422180E-004  0.21440675395513670        0.0000000000000000     
   2.2251063189060143E-004  0.22282082645429152        0.0000000000000000     
   2.1177763392913555E-004  0.23128599147728562        0.0000000000000000     
  -5.8470474834879061E-003  0.19775642246512484        0.0000000000000000     
  -5.9413184385234590E-003  0.20606388853550300        0.0000000000000000     
  -6.0186557852950811E-003  0.21442369347154178        0.0000000000000000     
  -6.0790595238027750E-003  0.22283583727324122        0.0000000000000000     
  -6.1225296540465346E-003  0.23130031994060124        0.0000000000000000     
  -1.2036605034626462E-002  0.19779187627473718        0.0000000000000000     
  -1.2190190749174492E-002  0.20609339016133760        0.0000000000000000     
  -1.2318195481422814E-002  0.21444953172343742        0.0000000000000000     
  -1.2420619231371418E-002  0.22286030096103651        0.0000000000000000     
  -1.2497461999020316E-002  0.23132569787413501        0.0000000000000000     
  -1.8290846452027755E-002  0.19783824795718219        0.0000000000000000     
  -1.8491082016333101E-002  0.20613227885732510        0.0000000000000000     
  -1.8661522695928964E-002  0.21448426871082352        0.0000000000000000     
  -1.8802168490815327E-002  0.22289421751767743        0.0000000000000000     
  -1.8913019400992208E-002  0.23136212527788683        0.0000000000000000     
  -2.4609771735691774E-002  0.19789553751245992        0.0000000000000000     
  -2.4843992239999294E-002  0.20618055462346543        0.0000000000000000     
  -2.5048637428813539E-002  0.21452790443370010        0.0000000000000000     
  -2.5223707302134513E-002  0.22293758694316387        0.0000000000000000     
  -2.5369201859962213E-002  0.23140960215185685        0.0000000000000000     
   2.1177763392913555E-004  0.23128599147728562        0.0000000000000000     
   2.0363599489784507E-004  0.23977084713308033        0.0000000000000000     
   1.9682431112475439E-004  0.24824399153063686        0.0000000000000000     
   1.9134258260986698E-004  0.25670542466995516        0.0000000000000000     
   1.8719080935317763E-004  0.26515514655103534        0.0000000000000000     
  -6.1225296540465346E-003  0.23130031994060124        0.0000000000000000     
  -6.1556072769332112E-003  0.23978567244463556        0.0000000000000000     
  -6.1848334933696601E-003  0.24826042575635779        0.0000000000000000     
  -6.2102083033558761E-003  0.25672457987576791        0.0000000000000000     
  -6.2317317068918653E-003  0.26517813480286601        0.0000000000000000     
  -1.2497461999020316E-002  0.23132569787413501        0.0000000000000000     
  -1.2557923898057358E-002  0.23981448979147788        0.0000000000000000     
  -1.2611205042170410E-002  0.24829544404181017        0.0000000000000000     
  -1.2657305431359471E-002  0.25676856062513204        0.0000000000000000     
  -1.2696225065624539E-002  0.26523383954144331        0.0000000000000000     
  -1.8913019400992208E-002  0.23136212527788683        0.0000000000000000     
  -1.9003313868474592E-002  0.23985729917360729        0.0000000000000000     
  -1.9082290335277498E-002  0.24834904638699415        0.0000000000000000     
  -1.9149948801400914E-002  0.25683736691804743        0.0000000000000000     
  -1.9206289266844850E-002  0.26532226076676713        0.0000000000000000     
  -2.5369201859962213E-002  0.23140960215185685        0.0000000000000000     
  -2.5491777188184923E-002  0.23991410059102378        0.0000000000000000     
  -2.5598089372690921E-002  0.24842123279190956        0.0000000000000000     
  -2.5688138413480211E-002  0.25693099875451419        0.0000000000000000     
  -2.5761924310552794E-002  0.26544339847883758        0.0000000000000000     
   1.8719080935317763E-004  0.26515514655103534        0.0000000000000000     
   1.8382260546230046E-004  0.27353310873452541        0.0000000000000000     
   1.8069158504484414E-004  0.28177926278107340        0.0000000000000000     
   1.7779774810080580E-004  0.28989360869067937        0.0000000000000000     
   1.7514109463019015E-004  0.29787614646334326        0.0000000000000000     
  -6.2317317068918653E-003  0.26517813480286601        0.0000000000000000     
  -6.2524925537171929E-003  0.27356148243479844        0.0000000000000000     
  -6.2755796935714406E-003  0.28181501466871184        0.0000000000000000     
  -6.3009931264546007E-003  0.28993873150460592        0.0000000000000000     
  -6.3287328523666747E-003  0.29793263294248096        0.0000000000000000     
  -1.2696225065624539E-002  0.26523383954144331        0.0000000000000000     
  -1.2733802143097245E-002  0.27363277912508494        0.0000000000000000     
  -1.2775874861909224E-002  0.28190687771039802        0.0000000000000000     
  -1.2822443222060468E-002  0.29005613529738244        0.0000000000000000     
  -1.2873507223550981E-002  0.29808055188603821        0.0000000000000000     
  -1.9206289266844850E-002  0.26532226076676713        0.0000000000000000     
  -1.9260106162677860E-002  0.27374699880538489        0.0000000000000000     
  -1.9320193919968510E-002  0.28205485190613216        0.0000000000000000     
  -1.9386552538716795E-002  0.29024582006900895        0.0000000000000000     
  -1.9459182018922723E-002  0.29831990329401525        0.0000000000000000     
  -2.5761924310552794E-002  0.26544339847883758        0.0000000000000000     
  -2.5831404612459030E-002  0.27390414147569808        0.0000000000000000     
  -2.5908536867749299E-002  0.28225893725591400        0.0000000000000000     
  -2.5993321076423589E-002  0.29050778581948533        0.0000000000000000     
  -2.6085757238481909E-002  0.29865068716641197        0.0000000000000000     
  -1.3952572491904985E-002   5.5814426351550359E-002   0.0000000000000000     
  -1.4861635293500857E-002   6.1379813236129316E-002   0.0000000000000000     
  -1.5698542560586774E-002   6.7175582249305033E-002   0.0000000000000000     
  -1.6463294293162737E-002   7.3201733391077495E-002   0.0000000000000000     
  -1.7155890491228742E-002   7.9458266661446703E-002   0.0000000000000000     
  -1.9816620424985092E-002   5.5486994758444139E-002   0.0000000000000000     
  -2.0144930168712626E-002   6.1147310517066289E-002   0.0000000000000000     
  -2.0590555322391940E-002   6.7029717377376147E-002   0.0000000000000000     
  -2.1153495886023048E-002   7.3134215339373726E-002   0.0000000000000000     
  -2.1833751859605937E-002   7.9460804403058999E-002   0.0000000000000000     
  -2.4354687642469508E-002   5.5554121931789852E-002   0.0000000000000000     
  -2.4760217681997546E-002   6.1221997760575242E-002   0.0000000000000000     
  -2.5278829275589797E-002   6.7119136146571320E-002   0.0000000000000000     
  -2.5910522423246252E-002   7.3245537089778059E-002   0.0000000000000000     
  -2.6655297124966920E-002   7.9601200590195514E-002   0.0000000000000000     
  -2.7566774144358232E-002   5.6015807871587497E-002   0.0000000000000000     
  -2.8707497833355623E-002   6.1603874966656202E-002   0.0000000000000000     
  -2.9763364420180332E-002   6.7443838556890540E-002   0.0000000000000000     
  -3.0734373904832354E-002   7.3535698642290551E-002   0.0000000000000000     
  -3.1620526287311684E-002   7.9879455222856222E-002   0.0000000000000000     
  -2.9452879930651266E-002   5.6872052577837076E-002   0.0000000000000000     
  -3.1986770622786861E-002   6.2292942135309143E-002   0.0000000000000000     
  -3.4044160756163552E-002   6.8003824608333832E-002   0.0000000000000000     
  -3.5625050330781345E-002   7.4004699996911158E-002   0.0000000000000000     
  -3.6729439346640247E-002   8.0295568301041134E-002   0.0000000000000000     
  -1.7155890491228742E-002   7.9458266661446703E-002   0.0000000000000000     
  -1.7814743890411933E-002   8.5902542450839697E-002   0.0000000000000000     
  -1.8478267226339457E-002   9.2491921149683506E-002   0.0000000000000000     
  -1.9146460499011302E-002   9.9226402757978102E-002   0.0000000000000000     
  -1.9819323708427476E-002  0.10610598727572354        0.0000000000000000     
  -2.1833751859605937E-002   7.9460804403058999E-002   0.0000000000000000     
  -2.2596610138001915E-002   8.5962047848067893E-002   0.0000000000000000     
  -2.3407357616072273E-002   9.2590508954036255E-002   0.0000000000000000     
  -2.4265994293817015E-002   9.9346187720964110E-002   0.0000000000000000     
  -2.5172520171236144E-002  0.10622908414885145        0.0000000000000000     
  -2.6655297124966920E-002   7.9601200590195514E-002   0.0000000000000000     
  -2.7496544631634930E-002   8.6130081423574020E-002   0.0000000000000000     
  -2.8417656194133421E-002   9.2776134365663968E-002   0.0000000000000000     
  -2.9418631812462404E-002   9.9539359416465356E-002   0.0000000000000000     
  -3.0499471486621854E-002  0.10641975657597819        0.0000000000000000     
  -3.1620526287311684E-002   7.9879455222856222E-002   0.0000000000000000     
  -3.2514547371310994E-002   8.6406643177358064E-002   0.0000000000000000     
  -3.3509162960522913E-002   9.3048797384566617E-002   0.0000000000000000     
  -3.4604373054947450E-002   9.9805917844481867E-002   0.0000000000000000     
  -3.5800177654584597E-002  0.10667800455710379        0.0000000000000000     
  -3.6729439346640247E-002   8.0295568301041134E-002   0.0000000000000000     
  -3.7650618357030090E-002   8.6791733109420038E-002   0.0000000000000000     
  -3.8681877915240727E-002   9.3408498010744204E-002   0.0000000000000000     
  -3.9823218021272158E-002  0.10014586300501359        0.0000000000000000     
  -4.1074638675124384E-002  0.10700382809222823        0.0000000000000000     
  -1.9819323708427476E-002  0.10610598727572354        0.0000000000000000     
  -2.0455319657286596E-002  0.11311010211368333        0.0000000000000000     
  -2.1012911148287284E-002  0.12021817468262112        0.0000000000000000     
  -2.1492098181429532E-002  0.12743020498253688        0.0000000000000000     
  -2.1892880756713341E-002  0.13474619301343058        0.0000000000000000     
  -2.5172520171236144E-002  0.10622908414885145        0.0000000000000000     
  -2.6032325625778910E-002  0.11322665117526377        0.0000000000000000     
  -2.6750801034894571E-002  0.12032634173776670        0.0000000000000000     
  -2.7327946398583127E-002  0.12752815583636018        0.0000000000000000     
  -2.7763761716844578E-002  0.13483209347104425        0.0000000000000000     
  -3.0499471486621854E-002  0.10641975657597819        0.0000000000000000     
  -3.1534658229879615E-002  0.11340921976618717        0.0000000000000000     
  -3.2398675055503506E-002  0.12049964290907704        0.0000000000000000     
  -3.3091521963493548E-002  0.12769102600464777        0.0000000000000000     
  -3.3613198953849718E-002  0.13498336905289934        0.0000000000000000     
  -3.5800177654584597E-002  0.10667800455710379        0.0000000000000000     
  -3.6962317469588703E-002  0.11365780788645349        0.0000000000000000     
  -3.7956533210114093E-002  0.12073807819655208        0.0000000000000000     
  -3.8782824876160797E-002  0.12791881548739956        0.0000000000000000     
  -3.9441192467728751E-002  0.13520001975899584        0.0000000000000000     
  -4.1074638675124384E-002  0.10700382809222823        0.0000000000000000     
  -4.2315303344906179E-002  0.11397241553606280        0.0000000000000000     
  -4.3424375498726332E-002  0.12104164760019188        0.0000000000000000     
  -4.4401855136584838E-002  0.12821152428461555        0.0000000000000000     
  -4.5247742258481702E-002  0.13548204558933377        0.0000000000000000     
  -2.1892880756713341E-002  0.13474619301343058        0.0000000000000000     
  -2.2256004621091143E-002  0.14219021745974925        0.0000000000000000     
  -2.2622215521515349E-002  0.14978635700593990        0.0000000000000000     
  -2.2991513457985970E-002  0.15753461165200250        0.0000000000000000     
  -2.3363898430502999E-002  0.16543498139793703        0.0000000000000000     
  -2.7763761716844578E-002  0.13483209347104425        0.0000000000000000     
  -2.8143799493794665E-002  0.14226580767728597        0.0000000000000000     
  -2.8553612233549130E-002  0.14985695149055250        0.0000000000000000     
  -2.8993199936107984E-002  0.15760552491084384        0.0000000000000000     
  -2.9462562601471207E-002  0.16551152793815993        0.0000000000000000     
  -3.3613198953849718E-002  0.13498336905289934        0.0000000000000000     
  -3.4066867144733372E-002  0.14240574318763888        0.0000000000000000     
  -3.4555687654305910E-002  0.14998721954267341        0.0000000000000000     
  -3.5079660482567297E-002  0.15772779811800292        0.0000000000000000     
  -3.5638785629517555E-002  0.16562747891362745        0.0000000000000000     
  -3.9441192467728751E-002  0.13520001975899584        0.0000000000000000     
  -4.0025207573907297E-002  0.14261002399080788        0.0000000000000000     
  -4.0628441783785683E-002  0.15017716116230251        0.0000000000000000     
  -4.1250895097363939E-002  0.15790143127347980        0.0000000000000000     
  -4.1892567514642036E-002  0.16578283432433960        0.0000000000000000     
  -4.5247742258481702E-002  0.13548204558933377        0.0000000000000000     
  -4.6018820781316416E-002  0.14287865008679304        0.0000000000000000     
  -4.6771874621988480E-002  0.15042677634943993        0.0000000000000000     
  -4.7506903780497899E-002  0.15812642437727437        0.0000000000000000     
  -4.8223908256844659E-002  0.16597759417029637        0.0000000000000000     
  -2.3363898430502999E-002  0.16543498139793703        0.0000000000000000     
  -2.3722211879982476E-002  0.17344608662699759        0.0000000000000000     
  -2.4049295247340424E-002  0.18152654772243829        0.0000000000000000     
  -2.4345148532576865E-002  0.18967636468425905        0.0000000000000000     
  -2.4609771735691774E-002  0.19789553751245992        0.0000000000000000     
  -2.9462562601471207E-002  0.16551152793815993        0.0000000000000000     
  -2.9921917401086379E-002  0.17352835057765259        0.0000000000000000     
  -3.0331481506401053E-002  0.18160938283447359        0.0000000000000000     
  -3.0691254917415235E-002  0.18975462470862300        0.0000000000000000     
  -3.1001237634128924E-002  0.19796407620010070        0.0000000000000000     
  -3.5638785629517555E-002  0.16562747891362745        0.0000000000000000     
  -3.6185956313384317E-002  0.17363794761583193        0.0000000000000000     
  -3.6674065752395235E-002  0.18171088991090137        0.0000000000000000     
  -3.7103113946550331E-002  0.18984630579883571        0.0000000000000000     
  -3.7473100895849591E-002  0.19804419527963502        0.0000000000000000     
  -4.1892567514642036E-002  0.16578283432433960        0.0000000000000000     
  -4.2514328616876290E-002  0.17377487774153566        0.0000000000000000     
  -4.3077047985322997E-002  0.18183106895172155        0.0000000000000000     
  -4.3580725619982157E-002  0.18995140795489729        0.0000000000000000     
  -4.4025361520853776E-002  0.19813589475106280        0.0000000000000000     
  -4.8223908256844659E-002  0.16597759417029637        0.0000000000000000     
  -4.8907034311562299E-002  0.17393914095476373        0.0000000000000000     
  -4.9540428205184305E-002  0.18196991995693412        0.0000000000000000     
  -5.0124089937710711E-002  0.19006993117680759        0.0000000000000000     
  -5.0658019509141478E-002  0.19823917461438409        0.0000000000000000     
  -2.4609771735691774E-002  0.19789553751245992        0.0000000000000000     
  -2.4843992239999294E-002  0.20618055462346543        0.0000000000000000     
  -2.5048637428813539E-002  0.21452790443370010        0.0000000000000000     
  -2.5223707302134513E-002  0.22293758694316387        0.0000000000000000     
  -2.5369201859962213E-002  0.23140960215185685        0.0000000000000000     
  -3.1001237634128924E-002  0.19796407620010070        0.0000000000000000     
  -3.1271631072982975E-002  0.20623910141161095        0.0000000000000000     
  -3.1512636650418258E-002  0.21458106444585784        0.0000000000000000     
  -3.1724254366434758E-002  0.22298996530284140        0.0000000000000000     
  -3.1906484221032497E-002  0.23146580398256156        0.0000000000000000     
  -3.7473100895849591E-002  0.19804419527963502        0.0000000000000000     
  -3.7796708168094065E-002  0.20630880317361400        0.0000000000000000     
  -3.8086617331084822E-002  0.21464437430108743        0.0000000000000000     
  -3.8342828384821878E-002  0.22305090866205532        0.0000000000000000     
  -3.8565341329305232E-002  0.23152840625651769        0.0000000000000000     
  -4.4025361520853776E-002  0.19813589475106280        0.0000000000000000     
  -4.4419223525332570E-002  0.20638965990947453        0.0000000000000000     
  -4.4770579470813261E-002  0.21471783399938885        0.0000000000000000     
  -4.5079429357295871E-002  0.22312041702080573        0.0000000000000000     
  -4.5345773184780391E-002  0.23159740897372516        0.0000000000000000     
  -5.0658019509141478E-002  0.19823917461438409        0.0000000000000000     
  -5.1139177144698476E-002  0.20648167161919265        0.0000000000000000     
  -5.1564523069603574E-002  0.21480144354076219        0.0000000000000000     
  -5.1934057283856749E-002  0.22319849037909262        0.0000000000000000     
  -5.2247779787458010E-002  0.23167281213418406        0.0000000000000000     
  -2.5369201859962213E-002  0.23140960215185685        0.0000000000000000     
  -2.5491777188184923E-002  0.23991410059102378        0.0000000000000000     
  -2.5598089372690921E-002  0.24842123279190956        0.0000000000000000     
  -2.5688138413480211E-002  0.25693099875451419        0.0000000000000000     
  -2.5761924310552794E-002  0.26544339847883758        0.0000000000000000     
  -3.1906484221032497E-002  0.23146580398256156        0.0000000000000000     
  -3.2063024736270200E-002  0.23998059632471652        0.0000000000000000     
  -3.2197574434206629E-002  0.24850635816900438        0.0000000000000000     
  -3.2310133314841789E-002  0.25704308951542515        0.0000000000000000     
  -3.2400701378175661E-002  0.26559079036397870        0.0000000000000000     
  -3.8565341329305232E-002  0.23152840625651769        0.0000000000000000     
  -3.8756767391812309E-002  0.24005248865567466        0.0000000000000000     
  -3.8919717799620591E-002  0.24859877743072650        0.0000000000000000     
  -3.9054192552730065E-002  0.25716727258167321        0.0000000000000000     
  -3.9160191651140756E-002  0.26575797410851476        0.0000000000000000     
  -4.5345773184780391E-002  0.23159740897372516        0.0000000000000000     
  -4.5573005154811219E-002  0.24012977758389825        0.0000000000000000     
  -4.5764519468932785E-002  0.24869849057707602        0.0000000000000000     
  -4.5920316127145061E-002  0.25730354795325844        0.0000000000000000     
  -4.6040395129448061E-002  0.26594494971244559        0.0000000000000000     
  -5.2247779787458010E-002  0.23167281213418406        0.0000000000000000     
  -5.2511738025266964E-002  0.24021246310938718        0.0000000000000000     
  -5.2731979442143209E-002  0.24880549760805279        0.0000000000000000     
  -5.2908504038086751E-002  0.25745191563018077        0.0000000000000000     
  -5.3041311813097590E-002  0.26615171717577124        0.0000000000000000     
  -2.5761924310552794E-002  0.26544339847883758        0.0000000000000000     
  -2.5831404612459030E-002  0.27390414147569808        0.0000000000000000     
  -2.5908536867749299E-002  0.28225893725591400        0.0000000000000000     
  -2.5993321076423589E-002  0.29050778581948533        0.0000000000000000     
  -2.6085757238481909E-002  0.29865068716641197        0.0000000000000000     
  -3.2400701378175661E-002  0.26559079036397870        0.0000000000000000     
  -3.2484866394061680E-002  0.27409768533028217        0.0000000000000000     
  -3.2578216132353253E-002  0.28251199902995217        0.0000000000000000     
  -3.2680750593050381E-002  0.29083373146298896        0.0000000000000000     
  -3.2792469776153070E-002  0.29906288262939240        0.0000000000000000     
  -3.9160191651140756E-002  0.26575797410851476        0.0000000000000000     
  -3.9257660409106721E-002  0.27432110856339431        0.0000000000000000     
  -3.9366544140882032E-002  0.28280690249845514        0.0000000000000000     
  -3.9486842846466717E-002  0.29121535591369718        0.0000000000000000     
  -3.9618556525860757E-002  0.29954646880912056        0.0000000000000000     
  -4.6040395129448061E-002  0.26594494971244559        0.0000000000000000     
  -4.6149786657594137E-002  0.27457441117503456        0.0000000000000000     
  -4.6273520893335647E-002  0.28314364766142269        0.0000000000000000     
  -4.6411597836672591E-002  0.29165265917161004        0.0000000000000000     
  -4.6564017487604956E-002  0.30010144570559638        0.0000000000000000     
  -5.3041311813097590E-002  0.26615171717577124        0.0000000000000000     
  -5.3161245139523965E-002  0.27485759316520297        0.0000000000000000     
  -5.3299146389714100E-002  0.28352223451885505        0.0000000000000000     
  -5.3455015563668010E-002  0.29214564123672737        0.0000000000000000     
  -5.3628852661385687E-002  0.30072781331881993        0.0000000000000000     
  -2.9452879930651266E-002   5.6872052577837076E-002   0.0000000000000000     
  -3.1986770622786861E-002   6.2292942135309143E-002   0.0000000000000000     
  -3.4044160756163552E-002   6.8003824608333832E-002   0.0000000000000000     
  -3.5625050330781345E-002   7.4004699996911158E-002   0.0000000000000000     
  -3.6729439346640247E-002   8.0295568301041134E-002   0.0000000000000000     
  -3.1275781895577219E-002   5.7843871856718146E-002   0.0000000000000000     
  -3.5183478731195116E-002   6.3105334966802082E-002   0.0000000000000000     
  -3.8242454913576522E-002   6.8686405454692664E-002   0.0000000000000000     
  -4.0452710442721418E-002   7.4587083320389921E-002   0.0000000000000000     
  -4.1814245318629817E-002   8.0807368563893867E-002   0.0000000000000000     
  -3.4298256933364697E-002   5.8652281514410272E-002   0.0000000000000000     
  -3.8883064839484262E-002   6.3857189161403025E-002   0.0000000000000000     
  -4.2479483522456278E-002   6.9378892249758559E-002   0.0000000000000000     
  -4.5087512982280725E-002   7.5217390779476881E-002   0.0000000000000000     
  -4.6707153218957610E-002   8.1372684750557991E-002   0.0000000000000000     
  -3.8520305044013707E-002   5.9297281550913433E-002   0.0000000000000000     
  -4.3085528947654307E-002   6.4548504719111971E-002   0.0000000000000000     
  -4.6755246582802827E-002   7.0081284993531487E-002   0.0000000000000000     
  -4.9529457949459267E-002   7.5895622374172009E-002   0.0000000000000000     
  -5.1408163047623634E-002   8.1991516861033523E-002   0.0000000000000000     
  -4.3941926227524235E-002   5.9778871966227644E-002   0.0000000000000000     
  -4.7790871055705231E-002   6.5179281639928921E-002   0.0000000000000000     
  -5.1069744094616176E-002   7.0793583686011477E-002   0.0000000000000000     
  -5.3778545344257057E-002   7.6621778104475333E-002   0.0000000000000000     
  -5.5917274804627895E-002   8.2663864895320460E-002   0.0000000000000000     
  -3.6729439346640247E-002   8.0295568301041134E-002   0.0000000000000000     
  -3.7650618357030090E-002   8.6791733109420038E-002   0.0000000000000000     
  -3.8681877915240727E-002   9.3408498010744204E-002   0.0000000000000000     
  -3.9823218021272158E-002  0.10014586300501359        0.0000000000000000     
  -4.1074638675124384E-002  0.10700382809222823        0.0000000000000000     
  -4.1814245318629817E-002   8.0807368563893867E-002   0.0000000000000000     
  -4.2804426242382398E-002   8.7253362405497276E-002   0.0000000000000000     
  -4.3900619915059884E-002   9.3831166065493035E-002   0.0000000000000000     
  -4.5102826336662225E-002  0.10054077954388112        0.0000000000000000     
  -4.6411045507189476E-002  0.10738220284066152        0.0000000000000000     
  -4.6707153218957610E-002   8.1372684750557991E-002   0.0000000000000000     
  -4.7875639680958107E-002   8.7759542251327080E-002   0.0000000000000000     
  -4.9130207816753348E-002   9.4292731370109420E-002   0.0000000000000000     
  -5.0470857626343360E-002  0.10097225210690493        0.0000000000000000     
  -5.1897589109728130E-002  0.10779810446171367        0.0000000000000000     
  -5.1408163047623634E-002   8.1991516861033523E-002   0.0000000000000000     
  -5.2864258672757181E-002   8.8310272646909466E-002   0.0000000000000000     
  -5.4370641620321153E-002   9.4793193924593303E-002   0.0000000000000000     
  -5.5927311890315537E-002  0.10144028069408505        0.0000000000000000     
  -5.7534269482740361E-002  0.10825153295538467        0.0000000000000000     
  -5.5917274804627895E-002   8.2663864895320460E-002   0.0000000000000000     
  -5.7770283217779647E-002   8.8905553592244432E-002   0.0000000000000000     
  -5.9621921325763272E-002   9.5332553728944738E-002   0.0000000000000000     
  -6.1472189128578776E-002  0.10194486530542143        0.0000000000000000     
  -6.3321086626226153E-002  0.10874248832167448        0.0000000000000000     
  -4.1074638675124384E-002  0.10700382809222823        0.0000000000000000     
  -4.2315303344906179E-002  0.11397241553606280        0.0000000000000000     
  -4.3424375498726332E-002  0.12104164760019188        0.0000000000000000     
  -4.4401855136584838E-002  0.12821152428461555        0.0000000000000000     
  -4.5247742258481702E-002  0.13548204558933377        0.0000000000000000     
  -4.6411045507189476E-002  0.10738220284066152        0.0000000000000000     
  -4.7726226048102234E-002  0.11433978580690557        0.0000000000000000     
  -4.8949316580861178E-002  0.12139787829368455        0.0000000000000000     
  -5.0080317105466281E-002  0.12855648030099845        0.0000000000000000     
  -5.1119227621917562E-002  0.13581559182884725        0.0000000000000000     
  -5.1897589109728130E-002  0.10779810446171367        0.0000000000000000     
  -5.3327695771447060E-002  0.11474666179087248        0.0000000000000000     
  -5.4678471116039594E-002  0.12179429745071824        0.0000000000000000     
  -5.5949915143505682E-002  0.12894101144125092        0.0000000000000000     
  -5.7142027853845354E-002  0.13618680376247047        0.0000000000000000     
  -5.7534269482740361E-002  0.10825153295538467        0.0000000000000000     
  -5.9119712514940678E-002  0.11519304348796348        0.0000000000000000     
  -6.0611839104261572E-002  0.12223090507129290        0.0000000000000000     
  -6.2010649250703057E-002  0.12936511770537290        0.0000000000000000     
  -6.3316142954265103E-002  0.13659568139020345        0.0000000000000000     
  -6.3321086626226153E-002  0.10874248832167448        0.0000000000000000     
  -6.5102276278583060E-002  0.11567893089817863        0.0000000000000000     
  -6.6749420545527141E-002  0.12270770115540863        0.0000000000000000     
  -6.8262519427058369E-002  0.12982879909336445        0.0000000000000000     
  -6.9641572923176770E-002  0.13704222471204613        0.0000000000000000     
  -4.5247742258481702E-002  0.13548204558933377        0.0000000000000000     
  -4.6018820781316416E-002  0.14287865008679304        0.0000000000000000     
  -4.6771874621988480E-002  0.15042677634943993        0.0000000000000000     
  -4.7506903780497899E-002  0.15812642437727437        0.0000000000000000     
  -4.8223908256844659E-002  0.16597759417029637        0.0000000000000000     
  -5.1119227621917562E-002  0.13581559182884725        0.0000000000000000     
  -5.2084496523568891E-002  0.14319717793240871        0.0000000000000000     
  -5.2994572203774154E-002  0.15072320366686046        0.0000000000000000     
  -5.3849454662533339E-002  0.15839366903220253        0.0000000000000000     
  -5.4649143899846465E-002  0.16620857402843495        0.0000000000000000     
  -5.7142027853845354E-002  0.13618680376247047        0.0000000000000000     
  -5.8259024557272908E-002  0.14355116398446915        0.0000000000000000     
  -5.9305120564002611E-002  0.15105358167733901        0.0000000000000000     
  -6.0280315874034471E-002  0.15869405684108007        0.0000000000000000     
  -6.1184610487368479E-002  0.16647258947569232        0.0000000000000000     
  -6.3316142954265103E-002  0.13659568139020345        0.0000000000000000     
  -6.4542404882428461E-002  0.14394060824297439        0.0000000000000000     
  -6.5703519702673838E-002  0.15141791038087557        0.0000000000000000     
  -6.6799487415001260E-002  0.15902758780390702        0.0000000000000000     
  -6.7830308019410715E-002  0.16676964051206866        0.0000000000000000     
  -6.9641572923176770E-002  0.13704222471204613        0.0000000000000000     
  -7.0934637499035544E-002  0.14436551070792442        0.0000000000000000     
  -7.2189769619787847E-002  0.15181618977747016        0.0000000000000000     
  -7.3406969285433735E-002  0.15939426192068329        0.0000000000000000     
  -7.4586236495973152E-002  0.16709972713756385        0.0000000000000000     
  -4.8223908256844659E-002  0.16597759417029637        0.0000000000000000     
  -4.8907034311562299E-002  0.17393914095476373        0.0000000000000000     
  -4.9540428205184305E-002  0.18196991995693412        0.0000000000000000     
  -5.0124089937710711E-002  0.19006993117680759        0.0000000000000000     
  -5.0658019509141478E-002  0.19823917461438409        0.0000000000000000     
  -5.4649143899846465E-002  0.16620857402843495        0.0000000000000000     
  -5.5400932276677139E-002  0.17413369504213616        0.0000000000000000     
  -5.6112112153989008E-002  0.18213480845988478        0.0000000000000000     
  -5.6782683531782056E-002  0.19021191428168074        0.0000000000000000     
  -5.7412646410056299E-002  0.19836501250752411        0.0000000000000000     
  -6.1184610487368479E-002  0.16647258947569232        0.0000000000000000     
  -6.2032881391455630E-002  0.17436149779027296        0.0000000000000000     
  -6.2840005573746915E-002  0.18233309999391911        0.0000000000000000     
  -6.3605983034242322E-002  0.19038739608663077        0.0000000000000000     
  -6.4330813772941836E-002  0.19852438606840794        0.0000000000000000     
  -6.7830308019410715E-002  0.16676964051206866        0.0000000000000000     
  -6.8802881655897777E-002  0.17462254919917419        0.0000000000000000     
  -6.9724108464458034E-002  0.18256479455903718        0.0000000000000000     
  -7.0593988445091488E-002  0.19059637659165768        0.0000000000000000     
  -7.1412521597798109E-002  0.19871729529703561        0.0000000000000000     
  -7.4586236495973152E-002  0.16709972713756385        0.0000000000000000     
  -7.5710933070003567E-002  0.17491684926883977        0.0000000000000000     
  -7.6764420826122351E-002  0.18282989215523898        0.0000000000000000     
  -7.7746699764329547E-002  0.19083885579676141        0.0000000000000000     
  -7.8657769884625126E-002  0.19894374019340716        0.0000000000000000     
  -5.0658019509141478E-002  0.19823917461438409        0.0000000000000000     
  -5.1139177144698476E-002  0.20648167161919265        0.0000000000000000     
  -5.1564523069603574E-002  0.21480144354076219        0.0000000000000000     
  -5.1934057283856749E-002  0.22319849037909262        0.0000000000000000     
  -5.2247779787458010E-002  0.23167281213418406        0.0000000000000000     
  -5.7412646410056299E-002  0.19836501250752411        0.0000000000000000     
  -5.7988004995455186E-002  0.20659555213635994        0.0000000000000000     
  -5.8494763494622189E-002  0.21490498216713355        0.0000000000000000     
  -5.8932921907557299E-002  0.22329330259984473        0.0000000000000000     
  -5.9302480234260539E-002  0.23176051343449358        0.0000000000000000     
  -6.4330813772941836E-002  0.19852438606840794        0.0000000000000000     
  -6.4997143046866074E-002  0.20674201529456820        0.0000000000000000     
  -6.5587616113035582E-002  0.21503822912042914        0.0000000000000000     
  -6.6102232971450375E-002  0.22341302754599074        0.0000000000000000     
  -6.6540993622110439E-002  0.23186641057125298        0.0000000000000000     
  -7.1412521597798109E-002  0.19871729529703561        0.0000000000000000     
  -7.2166591298931146E-002  0.20692106109381730        0.0000000000000000     
  -7.2843080924843762E-002  0.21520118440064895        0.0000000000000000     
  -7.3441990475535943E-002  0.22355766521753062        0.0000000000000000     
  -7.3963319951007717E-002  0.23199050354446224        0.0000000000000000     
  -7.8657769884625126E-002  0.19894374019340716        0.0000000000000000     
  -7.9496349751650403E-002  0.20713268953410732        0.0000000000000000     
  -8.0261157930046706E-002  0.21539384800779310        0.0000000000000000     
  -8.0952194419814036E-002  0.22372721561446446        0.0000000000000000     
  -8.1569459220952378E-002  0.23213279235412138        0.0000000000000000     
  -5.2247779787458010E-002  0.23167281213418406        0.0000000000000000     
  -5.2511738025266964E-002  0.24021246310938718        0.0000000000000000     
  -5.2731979442143209E-002  0.24880549760805279        0.0000000000000000     
  -5.2908504038086751E-002  0.25745191563018077        0.0000000000000000     
  -5.3041311813097590E-002  0.26615171717577124        0.0000000000000000     
  -5.9302480234260539E-002  0.23176051343449358        0.0000000000000000     
  -5.9611170767951645E-002  0.24030280570309540        0.0000000000000000     
  -5.9866725801850408E-002  0.24891637043766535        0.0000000000000000     
  -6.0069145335956822E-002  0.25760120763820354        0.0000000000000000     
  -6.0218429370270873E-002  0.26635731730470985        0.0000000000000000     
  -6.6540993622110439E-002  0.23186641057125298        0.0000000000000000     
  -6.6909508147637395E-002  0.24040306583597656        0.0000000000000000     
  -6.7213386630652877E-002  0.24902768097992214        0.0000000000000000     
  -6.7452629071156914E-002  0.25774025600308981        0.0000000000000000     
  -6.7627235469149435E-002  0.26654079090547944        0.0000000000000000     
  -7.3963319951007717E-002  0.23199050354446224        0.0000000000000000     
  -7.4406750164324229E-002  0.24051324350803080        0.0000000000000000     
  -7.4771961928550679E-002  0.24913942923482332        0.0000000000000000     
  -7.5058955243687012E-002  0.25786906072483978        0.0000000000000000     
  -7.5267730109733269E-002  0.26670213797808007        0.0000000000000000     
  -8.1569459220952378E-002  0.23213279235412138        0.0000000000000000     
  -8.2102896818012153E-002  0.24063333871925807        0.0000000000000000     
  -8.2542451695543737E-002  0.24925161520236869        0.0000000000000000     
  -8.2888123853547158E-002  0.25798762180345325        0.0000000000000000     
  -8.3139913292022388E-002  0.26684135852251167        0.0000000000000000     
  -5.3041311813097590E-002  0.26615171717577124        0.0000000000000000     
  -5.3161245139523965E-002  0.27485759316520297        0.0000000000000000     
  -5.3299146389714100E-002  0.28352223451885505        0.0000000000000000     
  -5.3455015563668010E-002  0.29214564123672737        0.0000000000000000     
  -5.3628852661385687E-002  0.30072781331881993        0.0000000000000000     
  -6.0218429370270873E-002  0.26635731730470985        0.0000000000000000     
  -6.0350551805877603E-002  0.27514248621013826        0.0000000000000000     
  -6.0501486543862060E-002  0.28391450112744265        0.0000000000000000     
  -6.0671233584224223E-002  0.29267336205662298        0.0000000000000000     
  -6.0859792926964099E-002  0.30141906899767940        0.0000000000000000     
  -6.7627235469149435E-002  0.26654079090547944        0.0000000000000000     
  -6.7776222607636522E-002  0.27540092198607891        0.0000000000000000     
  -6.7938607269624196E-002  0.28429228554387598        0.0000000000000000     
  -6.8114389455112487E-002  0.29321488157887077        0.0000000000000000     
  -6.8303569164101380E-002  0.30216871009106311        0.0000000000000000     
  -7.5267730109733269E-002  0.26670213797808007        0.0000000000000000     
  -7.5438257544800685E-002  0.27563290049302491        0.0000000000000000     
  -7.5610508567000551E-002  0.28465558776815508        0.0000000000000000     
  -7.5784483176332823E-002  0.29377019980347047        0.0000000000000000     
  -7.5960181372797503E-002  0.30297673659897106        0.0000000000000000     
  -8.3139913292022388E-002  0.26684135852251167        0.0000000000000000     
  -8.3336656617370136E-002  0.27583842173097650        0.0000000000000000     
  -8.3517190435991068E-002  0.28500440780027997        0.0000000000000000     
  -8.3681514747885183E-002  0.29433931673042224        0.0000000000000000     
  -8.3829629553052495E-002  0.30384314852140326        0.0000000000000000     
  -4.3941926227524235E-002   5.9778871966227644E-002   0.0000000000000000     
  -4.7790871055705231E-002   6.5179281639928921E-002   0.0000000000000000     
  -5.1069744094616176E-002   7.0793583686011477E-002   0.0000000000000000     
  -5.3778545344257057E-002   7.6621778104475333E-002   0.0000000000000000     
  -5.5917274804627895E-002   8.2663864895320460E-002   0.0000000000000000     
  -4.9756207050558603E-002   6.0297702937951739E-002   0.0000000000000000     
  -5.2795913646841608E-002   6.5825423025481930E-002   0.0000000000000000     
  -5.5615369705078910E-002   7.1512514521157353E-002   0.0000000000000000     
  -5.8214575225270536E-002   7.7358977424977951E-002   0.0000000000000000     
  -6.0593530207416452E-002   8.3364811736943767E-002   0.0000000000000000     
  -5.5156234079779098E-002   6.1054424643684560E-002   0.0000000000000000     
  -5.7897479204267993E-002   6.6562831977399067E-002   0.0000000000000000     
  -6.0584517061373667E-002   7.2234803692927882E-002   0.0000000000000000     
  -6.3217347651096142E-002   7.8070339790270976E-002   0.0000000000000000     
  -6.5795970973435411E-002   8.4069440269428392E-002   0.0000000000000000     
  -6.0142007315185750E-002   6.2049037083426101E-002   0.0000000000000000     
  -6.3095567727984372E-002   6.7391508495680333E-002   0.0000000000000000     
  -6.5977186163500415E-002   7.2960451201323107E-002   0.0000000000000000     
  -6.8786862621733877E-002   7.8755865200354408E-002   0.0000000000000000     
  -7.1524597102684745E-002   8.4777750492774293E-002   0.0000000000000000     
  -6.4713526756778536E-002   6.3281540257176361E-002   0.0000000000000000     
  -6.8390179217990787E-002   6.8311452580325699E-002   0.0000000000000000     
  -7.1793377011459200E-002   7.3689457046342999E-002   0.0000000000000000     
  -7.4923120137183746E-002   7.9415553655228260E-002   0.0000000000000000     
  -7.7779408595164481E-002   8.5489742406981525E-002   0.0000000000000000     
  -5.5917274804627895E-002   8.2663864895320460E-002   0.0000000000000000     
  -5.7770283217779647E-002   8.8905553592244432E-002   0.0000000000000000     
  -5.9621921325763272E-002   9.5332553728944738E-002   0.0000000000000000     
  -6.1472189128578776E-002  0.10194486530542143        0.0000000000000000     
  -6.3321086626226153E-002  0.10874248832167448        0.0000000000000000     
  -6.0593530207416452E-002   8.3364811736943767E-002   0.0000000000000000     
  -6.2838275765454449E-002   8.9548878389403896E-002   0.0000000000000000     
  -6.5034853013322277E-002   9.5930038314707450E-002   0.0000000000000000     
  -6.7183261951019937E-002  0.10250829151285445        0.0000000000000000     
  -6.9283502578547429E-002  0.10928363798384486        0.0000000000000000     
  -6.5795970973435411E-002   8.4069440269428392E-002   0.0000000000000000     
  -6.8312798765210583E-002   9.0243740340459858E-002   0.0000000000000000     
  -7.0760242763240763E-002   9.6604875213425187E-002   0.0000000000000000     
  -7.3138302967525909E-002  0.10315284488832441        0.0000000000000000     
  -7.5446979378066062E-002  0.10988764936515749        0.0000000000000000     
  -7.1524597102684745E-002   8.4777750492774293E-002   0.0000000000000000     
  -7.4193852217048023E-002   9.0990139445412302E-002   0.0000000000000000     
  -7.6798090575518660E-002   9.7357064425097964E-002   0.0000000000000000     
  -7.9337312178096669E-002  0.10387852543183133        0.0000000000000000     
  -8.1811517024782066E-002  0.11055452246561238        0.0000000000000000     
  -7.7779408595164481E-002   8.5489742406981525E-002   0.0000000000000000     
  -8.0481436120966768E-002   9.1788075704261216E-002   0.0000000000000000     
  -8.3148396450156023E-002   9.8186605949725766E-002   0.0000000000000000     
  -8.5780289582732233E-002  0.10468533314337521        0.0000000000000000     
  -8.8377115518695426E-002  0.11128425728520955        0.0000000000000000     
  -6.3321086626226153E-002  0.10874248832167448        0.0000000000000000     
  -6.5102276278583060E-002  0.11567893089817863        0.0000000000000000     
  -6.6749420545527141E-002  0.12270770115540863        0.0000000000000000     
  -6.8262519427058369E-002  0.12982879909336445        0.0000000000000000     
  -6.9641572923176770E-002  0.13704222471204613        0.0000000000000000     
  -6.9283502578547429E-002  0.10928363798384486        0.0000000000000000     
  -7.1269509949915946E-002  0.11620328184640384        0.0000000000000000     
  -7.3075219119136670E-002  0.12321442721925656        0.0000000000000000     
  -7.4700630086209641E-002  0.13031707410240301        0.0000000000000000     
  -7.6145742851134804E-002  0.13751122249584319        0.0000000000000000     
  -7.5446979378066062E-002  0.10988764936515749        0.0000000000000000     
  -7.7615536416481029E-002  0.11676505415752512        0.0000000000000000     
  -7.9573238504390589E-002  0.12374082477902794        0.0000000000000000     
  -8.1320085641794784E-002  0.13081496122966602        0.0000000000000000     
  -8.2856077828693558E-002  0.13798746350943927        0.0000000000000000     
  -8.1811517024782066E-002  0.11055452246561238        0.0000000000000000     
  -8.4140355678278322E-002  0.11736424783154242        0.0000000000000000     
  -8.6243478701288900E-002  0.12428689383472277        0.0000000000000000     
  -8.8120886093813841E-002  0.13132246047515345        0.0000000000000000     
  -8.9772577855853103E-002  0.13847094775283436        0.0000000000000000     
  -8.8377115518695426E-002  0.11128425728520955        0.0000000000000000     
  -9.0843967735307812E-002  0.11800086286845581        0.0000000000000000     
  -9.3085939709831575E-002  0.12485263438634105        0.0000000000000000     
  -9.5103031442266783E-002  0.13183957183886527        0.0000000000000000     
  -9.6895242932613368E-002  0.13896167522602848        0.0000000000000000     
  -6.9641572923176770E-002  0.13704222471204613        0.0000000000000000     
  -7.0934637499035544E-002  0.14436551070792442        0.0000000000000000     
  -7.2189769619787847E-002  0.15181618977747016        0.0000000000000000     
  -7.3406969285433735E-002  0.15939426192068329        0.0000000000000000     
  -7.4586236495973152E-002  0.16709972713756385        0.0000000000000000     
  -7.6145742851134804E-002  0.13751122249584319        0.0000000000000000     
  -7.7496974326775853E-002  0.14481311457726262        0.0000000000000000     
  -7.8840741425996452E-002  0.15223899252434681        0.0000000000000000     
  -8.0177044148796617E-002  0.15978885633709566        0.0000000000000000     
  -8.1505882495176291E-002  0.16746270601550933        0.0000000000000000     
  -8.2856077828693558E-002  0.13798746350943927        0.0000000000000000     
  -8.4290667285331064E-002  0.14527066304893227        0.0000000000000000     
  -8.5733306231951439E-002  0.15267689127872941        0.0000000000000000     
  -8.7183994668554629E-002  0.16020614819883083        0.0000000000000000     
  -8.8642732595140661E-002  0.16785843380923643        0.0000000000000000     
  -8.9772577855853103E-002  0.13847094775283436        0.0000000000000000     
  -9.1315716374701247E-002  0.14573815612293337        0.0000000000000000     
  -9.2867464037652794E-002  0.15312988604061814        0.0000000000000000     
  -9.4427820844707813E-002  0.16064613750588874        0.0000000000000000     
  -9.5996786795866235E-002  0.16828691051874514        0.0000000000000000     
  -9.6895242932613368E-002  0.13896167522602848        0.0000000000000000     
  -9.8572121594886319E-002  0.14621559379926596        0.0000000000000000     
 -0.10024321484310057       0.15359797681001294        0.0000000000000000     
 -0.10190852267725611       0.16110882425826947        0.0000000000000000     
 -0.10356804509735298       0.16874813614403553        0.0000000000000000     
  -7.4586236495973152E-002  0.16709972713756385        0.0000000000000000     
  -7.5710933070003567E-002  0.17491684926883977        0.0000000000000000     
  -7.6764420826122351E-002  0.18282989215523898        0.0000000000000000     
  -7.7746699764329547E-002  0.19083885579676141        0.0000000000000000     
  -7.8657769884625126E-002  0.19894374019340716        0.0000000000000000     
  -8.1505882495176291E-002  0.16746270601550933        0.0000000000000000     
  -8.2785141366899656E-002  0.17524849194823280        0.0000000000000000     
  -8.3972705665730757E-002  0.18313416452391124        0.0000000000000000     
  -8.5068575391669593E-002  0.19111972374254454        0.0000000000000000     
  -8.6072750544716206E-002  0.19920516960413284        0.0000000000000000     
  -8.8642732595140661E-002  0.16785843380923643        0.0000000000000000     
  -9.0053612279712772E-002  0.17562157118631638        0.0000000000000000     
  -9.1360725990274130E-002  0.18348338340644071        0.0000000000000000     
  -9.2564073726824792E-002  0.19144387046960962        0.0000000000000000     
  -9.3663655489364742E-002  0.19950303237582295        0.0000000000000000     
  -9.5996786795866235E-002  0.16828691051874514        0.0000000000000000     
  -9.7516345808442845E-002  0.17603608698309042        0.0000000000000000     
  -9.8928481799752485E-002  0.18387754880282750        0.0000000000000000     
 -0.10023319476979509       0.19181129597795657        0.0000000000000000     
 -0.10143048471857072       0.19983732850847749        0.0000000000000000     
 -0.10356804509735298       0.16874813614403553        0.0000000000000000     
 -0.10517334195308994       0.17649203933855495        0.0000000000000000     
 -0.10667597309416579       0.18431666071307157        0.0000000000000000     
 -0.10807593852058053       0.19222200026758540        0.0000000000000000     
 -0.10937323823233416       0.20020805800209646        0.0000000000000000     
  -7.8657769884625126E-002  0.19894374019340716        0.0000000000000000     
  -7.9496349751650403E-002  0.20713268953410732        0.0000000000000000     
  -8.0261157930046706E-002  0.21539384800779310        0.0000000000000000     
  -8.0952194419814036E-002  0.22372721561446446        0.0000000000000000     
  -8.1569459220952378E-002  0.23213279235412138        0.0000000000000000     
  -8.6072750544716206E-002  0.19920516960413284        0.0000000000000000     
  -8.6996604181584128E-002  0.20737526102543774        0.0000000000000000     
  -8.7851509358986973E-002  0.21561475692322110        0.0000000000000000     
  -8.8637466076924742E-002  0.22392365729748284        0.0000000000000000     
  -8.9354474335397421E-002  0.23230196214822302        0.0000000000000000     
  -9.3663655489364742E-002  0.19950303237582295        0.0000000000000000     
  -9.4677540365292606E-002  0.20764713597780818        0.0000000000000000     
  -9.5623797442007094E-002  0.21586244812829269        0.0000000000000000     
  -9.6502426719508178E-002  0.22414896882727656        0.0000000000000000     
  -9.7313428197795884E-002  0.23250669807475971        0.0000000000000000     
 -0.10143048471857072       0.19983732850847749        0.0000000000000000     
 -0.10253915830277588       0.20794831439121850        0.0000000000000000     
 -0.10357802217910711       0.21613692162300788        0.0000000000000000     
 -0.10454707634756440       0.22440315020384555        0.0000000000000000     
 -0.10544632080814773       0.23274700013373154        0.0000000000000000     
 -0.10937323823233416       0.20020805800209646        0.0000000000000000     
 -0.11058145799403390       0.20827879626566884        0.0000000000000000     
 -0.11171418357028695       0.21643817740736659        0.0000000000000000     
 -0.11277141496109334       0.22468620142718981        0.0000000000000000     
 -0.11375315216645301       0.23302286832513844        0.0000000000000000     
  -8.1569459220952378E-002  0.23213279235412138        0.0000000000000000     
  -8.2102896818012153E-002  0.24063333871925807        0.0000000000000000     
  -8.2542451695543737E-002  0.24925161520236869        0.0000000000000000     
  -8.2888123853547158E-002  0.25798762180345325        0.0000000000000000     
  -8.3139913292022388E-002  0.26684135852251167        0.0000000000000000     
  -8.9354474335397421E-002  0.23230196214822302        0.0000000000000000     
  -8.9986158532062294E-002  0.24077875158894918        0.0000000000000000     
  -9.0516143064576643E-002  0.24938310573316896        0.0000000000000000     
  -9.0944427932940400E-002  0.25811502458088237        0.0000000000000000     
  -9.1271013137153634E-002  0.26697450813208945        0.0000000000000000     
  -9.7313428197795884E-002  0.23250669807475971        0.0000000000000000     
  -9.8044745729835903E-002  0.24096488223639490        0.0000000000000000     
  -9.8684323168593879E-002  0.24955276767783469        0.0000000000000000     
  -9.9232160514069884E-002  0.25827035439907919        0.0000000000000000     
  -9.9688257766263874E-002  0.26711764240012831        0.0000000000000000     
 -0.10544632080814773       0.23274700013373154        0.0000000000000000     
 -0.10627865841133287       0.24119173066159522        0.0000000000000000     
 -0.10704699200759549       0.24976060103636591        0.0000000000000000     
 -0.10775132159693554       0.25845361125804361        0.0000000000000000     
 -0.10839164717935307       0.26727076132662836        0.0000000000000000     
 -0.11375315216645301       0.23302286832513844        0.0000000000000000     
 -0.11468789657655329       0.24145929686455012        0.0000000000000000     
 -0.11560414958158143       0.25000660580876255        0.0000000000000000     
 -0.11650191118153741       0.25866479515777563        0.0000000000000000     
 -0.11738118137642126       0.26743386491158949        0.0000000000000000     
  -8.3139913292022388E-002  0.26684135852251167        0.0000000000000000     
  -8.3336656617370136E-002  0.27583842173097650        0.0000000000000000     
  -8.3517190435991068E-002  0.28500440780027997        0.0000000000000000     
  -8.3681514747885183E-002  0.29433931673042224        0.0000000000000000     
  -8.3829629553052495E-002  0.30384314852140326        0.0000000000000000     
  -9.1271013137153634E-002  0.26697450813208945        0.0000000000000000     
  -9.1526907201944216E-002  0.27602287565643990        0.0000000000000000     
  -9.1743118652039893E-002  0.28532144642358342        0.0000000000000000     
  -9.1919647487440775E-002  0.29487022043352018        0.0000000000000000     
  -9.2056493708146822E-002  0.30466919768625000        0.0000000000000000     
  -9.9688257766263874E-002  0.26711764240012831        0.0000000000000000     
 -0.10006449667512218       0.27619165222592151        0.0000000000000000     
 -0.10037275899059113       0.28558940442139807        0.0000000000000000     
 -0.10061304471267073       0.29531089898655810        0.0000000000000000     
 -0.10078535384136095       0.30535613592140154        0.0000000000000000     
 -0.10839164717935307       0.26727076132662836        0.0000000000000000     
 -0.10894942503690412       0.27634475143942139        0.0000000000000000     
 -0.10940611145164481       0.28580828179372397        0.0000000000000000     
 -0.10976170642357504       0.29566135238953622        0.0000000000000000     
 -0.11001620995269486       0.30590396322685803        0.0000000000000000     
 -0.11738118137642126       0.26743386491158949        0.0000000000000000     
 -0.11818169228729006       0.27648217329693947        0.0000000000000000     
 -0.11884317603520085       0.28597807854056112        0.0000000000000000     
 -0.11936563262015371       0.29592158064245438        0.0000000000000000     
 -0.11974906204214858       0.30631267960261932        0.0000000000000000     
 </DataArray>
 <DataArray  type="Float64" Name="stress" NumberOfComponents="3" format="ascii">
   6767239402.8302155       -256179408.49553156        69595878.582549527     
   6510635039.6481380        191620588.71036959       -227168737.89520627     
   6182822613.2563086        402060375.21714044       -364960901.32618684     
   5783802123.6547222        375139951.02469039       -343780611.71038824     
   5313573570.8433905        110859316.13309264       -163627869.04781699     
   5547204228.5965080       -380532367.99982357        188394510.79607922     
   5553508079.9069223        22033684.826975584        95063427.310499743     
   5508192016.8070030        252533356.28597641        55435581.398325041     
   5411256039.2967443        310966646.37718558        69510973.059550002     
   5262700147.3761444        197333555.10059571        137289602.29418743     
   5263505609.6215849       -223984360.92647362        248033488.75090349     
   5231948488.3577309        43116991.401169062        380988778.52347052     
   5168359601.4829483        203445791.69238687        462378090.39608467     
   5072738948.9972486        257002039.94720531        492201424.36873758     
   4945086530.9006224        203785736.16560936        470458780.44141585     
   5916143545.9054432        213464612.72450805        248512812.44700569     
   5545956265.0005512        254870508.43296218        630607315.74372375     
   5163325367.2841549        254797681.43638945        855866625.66709971     
   4768250852.7562447        213246131.73478580        924290742.21715498     
   4360732721.4168282        130215859.32814813        835879665.39387214     
   7505118037.4480991        931814552.95312881        189832481.88440380     
   6495531409.8354092        657294235.92237425        843919038.97124231     
   5493089314.2106104        406589025.51795650        1235901187.2113779     
   4497791750.5737238        179698921.73990297        1365778926.6048160     
   3509638718.9247432       -23376075.411803722        1233552257.1515498     
   5313573570.8433905        110859316.13309264       -163627869.04781699     
   5156840703.6567354       -109829035.41113329       -83531697.020202175     
   5038047928.9061823       -204050412.16835165       -29314154.347304538     
   4957195246.5917454       -171804814.13850546       -975241.02912535868     
   4914282656.7134228       -13092241.321635246        1485042.9343392048     
   5262700147.3761444        197333555.10059571        137289602.29418743     
   5079297734.1116924        34215164.666798115        170236413.00265440     
   4921780283.9911909       -42620015.287165165        195261441.98052204     
   4790147797.0146246       -33171984.761342049        212364689.22776347     
   4684400273.1819954        62559256.244273663        221546154.74440813     
   4945086530.9006224        203785736.16560936        470458780.44141585     
   4786319850.4844046        113628890.52008748        442191912.32320917     
   4641383003.9199514        69571491.047121048        423960110.09850121     
   4510275991.2072744        71613537.746746540        415763373.76728821     
   4392998812.3463707        119755030.61893630        417601703.32956457     
   4360732721.4168282        130215859.32814813        835879665.39387214     
   4277907052.7748513        128412142.14868832        732334800.94145417     
   4196856088.6924796        132524106.83456397        656781850.00664032     
   4117579829.1697097        142551753.38577366        609220812.58942914     
   4040078274.2065415        158495081.80233121        589651688.68982363     
   3509638718.9247432       -23376075.411803722        1233552257.1515498     
   3554059340.9830384        78564919.552603006        1040665078.8573903     
   3588199538.3087668        146237832.07512128        893726661.70494092     
   3612059310.9019241        179642662.15573299        792737005.69420469     
   3625638658.7625189        178779409.79446149        737696110.82517731     
   4914282656.7134228       -13092241.321635246        1485042.9343392048     
   4521191982.3092089        74013570.701259613        2581716.2080447981     
   4112213961.3351130        108161560.82456112       -4043796.9264450758     
   3687348593.7911406        89351729.048268080       -18391496.469108000     
   3246595879.6772947        17584075.372395635       -40461382.419952296     
   4684400273.1819954        62559256.244273663        221546154.74440813     
   4267815443.5709324        88167166.488411903        191421186.04912969     
   3840594789.9184003        78322329.927645445        165137800.16725042     
   3402738312.2243719        33024746.561902046        142695997.09877133     
   2954246010.4888606       -47725583.608783722        124095776.84370232     
   4392998812.3463707        119755030.61893630        417601703.32956457     
   3985959168.1615539        93776841.274275541        362381868.94843978     
   3573535222.4636526        49850980.219317436        322567386.60229182     
   3155726975.2526503       -12022552.545969963        298158256.29112494     
   2732534426.5285597       -91843757.021549821        289154478.01492852     
   4040078274.2065415        158495081.80233121        589651688.68982363     
   3675623156.0810595        90842595.058786392        515463764.90597188     
   3311035258.9708738        22747511.699574232        468244962.37867975     
   2946314582.8759937       -45790168.275292635        447995281.10794407     
   2581461127.7964077       -114770444.86584449        454714721.09376210     
   3625638658.7625189        178779409.79446149        737696110.82517731     
   3336807407.3294497        79364427.841956139        650666873.92172146     
   3053094899.4400730       -2988075.6315711737        602170527.49641168     
   2774501135.0943894       -68278100.626128435        592207071.54923093     
   2501026114.2923975       -116505647.14171338        620776506.08019423     
   3246595879.6772947        17584075.372395635       -40461382.419952296     
   3243205828.7773571        46386399.940320849       -48312666.373209529     
   3235501704.1921053        60808478.890533090       -39918073.874080256     
   3223483505.9215522        60850312.223062634       -15277604.922574718     
   3207151233.9656825        46511899.937891603        25608740.481325015     
   2954246010.4888606       -47725583.608783722        124095776.84370232     
   2982625531.7787762       -5690385.4057883024        131303431.50082794     
   3008272073.6812210        27234881.505643249        143649602.08968663     
   3031185636.1961813        51050217.125458956        161134288.61025786     
   3051366219.3236656        65755621.453685641        183757491.06255963     
   2732534426.5285597       -91843757.021549821        289154478.01492852     
   2760948204.2350144       -46096279.915454984        313265681.29660028     
   2788210096.8518305       -4188419.7748249769        331408039.98931903     
   2814320104.3789983        33879823.400298119        343581554.09309947     
   2839278226.8165150        68108449.609946251        349786223.60794222     
   2581461127.7964077       -114770444.86584449        454714721.09376210     
   2578173846.1460800       -74831283.588658571        497574083.01410335     
   2575315773.7039394       -33461424.950849891        523357239.82483333     
   2572886910.4699888        9339131.0475960970        532064191.52595675     
   2570887256.4442234        53570384.406661153        523694938.11747789     
   2501026114.2923975       -116505647.14171338        620776506.08019423     
   2434302457.5119610       -91895396.425434351        684228636.65333307     
   2369589104.2375531       -60584134.022399426        719497201.59620547     
   2306886054.4691563       -22571859.932656884        726582200.90882337     
   2246193308.2067828        22141425.843831539        705483634.59115899     
   3207151233.9656825        46511899.937891603        25608740.481325015     
   2986259168.9138908       -21415183.087812185        26199358.235479996     
   2774810364.7044711       -57864729.972278237        20887786.782868117     
   2572804821.3374586       -62836740.715385437        9674026.1234586388     
   2380242538.8128281       -36331215.317218542       -7441923.7427228233     
   3051366219.3236656        65755621.453685641        183757491.06255963     
   2827400413.1292362        12507752.411509037        176805961.83625206     
   2609655922.6472268       -20002397.589244366        170004694.63389879     
   2398132747.8776522       -31774828.548577666        163353689.45547739     
   2192830888.8204780       -22809540.466551661        156852946.30099359     
   2839278226.8165150        68108449.609946251        349786223.60794222     
   2629531397.2815208        34727609.891952038        331533611.41621476     
   2422783938.3289814        11344672.115475774        319483712.47916400     
   2219035849.9589047       -2040363.7194653749        313636526.79677045     
   2018287132.1712725       -5427497.6129014492        313992054.36904013     
   2570887256.4442234        53570384.406661153        523694938.11747789     
   2392652121.3707213        45244389.353436470        490382306.97537160     
   2214194411.7497244        36176479.141885757        469324840.31865740     
   2035514127.5812070        26366653.771942139        460522538.14733207     
   1856611268.8651891        15814913.243665457        463975400.46138704     
   2246193308.2067828        22141425.843831539        705483634.59115899     
   2116762585.3968520        44058090.796013236        653352048.51371455     
   1983887342.9094584        54493023.489987969        619528078.15238154     
   1847567580.7445853        53446223.925694227        604011723.50716174     
   1707803298.9022448        40917692.103180885        606802984.57805181     
   2380242538.8128281       -36331215.317218542       -7441923.7427228233     
   2251717972.5197420        10683322.513082743       -14763864.841394769     
   2114605770.1509216        29072406.757602453       -17308338.087053720     
   1968905931.7063243        18836037.416210890       -15075343.479712484     
   1814618457.1859651       -20025785.511075020       -8064881.0193633810     
   2192830888.8204780       -22809540.466551661        156852946.30099359     
   2069905489.0123944        11784078.378347278        144557527.56683707     
   1941362329.3081977        27651830.902875066        134658058.04169700     
   1807201409.7078774        24793717.106987953        127154537.72554192     
   1667422730.2114735        3209736.9908004999        122046966.61842249     
   2018287132.1712725       -5427497.6129014492        313992054.36904013     
   1894156559.8653085        14703900.551633716        300188013.54231852     
   1767378103.8428884        26009019.661320329        286398403.28060645     
   1637951764.1040137        28487859.716167092        272623223.58390498     
   1505877540.6486974        22140420.716197193        258862474.45222396     
   1856611268.8651891        15814913.243665457        463975400.46138704     
   1724471185.0784991        19442789.033004761        452127593.08503348     
   1592653093.7550080        24143973.033006847        437912697.62969851     
   1461156994.8947294        29918465.243706286        421330714.09537464     
   1329982888.4976535        36766265.665103614        402381642.48207337     
   1707803298.9022448        40917692.103180885        606802984.57805181     
   1560849364.6519778        26000743.822468936        600376266.19500184     
   1417187299.0445716        22056691.017948091        589200941.08897340     
   1276817102.0800252        29085533.689635098        573277009.25995243     
   1139738773.7583449        47087271.837537348        552604470.70795310     
   1814618457.1859651       -20025785.511075020       -8064881.0193633810     
   1776765859.6055567       -20510193.616378427       -3372498.6623658775     
   1749773613.5338407        15206569.973970056       -38454866.535671152     
   1733641718.9708054        87124505.259920835       -113311984.63928050     
   1728370175.9165151        195243612.24167764       -227943852.97316957     
   1667422730.2114735        3209736.9908004999        122046966.61842249     
   1537721901.6426277       -14764380.777732730        138021399.32950294     
   1414025540.9277651       -12723605.699688375        127154183.74054100     
   1296333648.0668414        9332062.2248136401        89445319.851511046     
   1184646223.0598826        51402622.995887756        24894807.662425920     
   1505877540.6486974        22140420.716197193        258862474.45222396     
   1321280200.8921204       -2237890.7753073573        280453759.92021370     
   1137831445.3347535       -22787588.269442499        288136499.01838362     
   955531273.97660017       -39508671.766190588        281910691.74672800     
   774379686.81765127       -52401141.265595227        261776338.10523856     
   1329982888.4976535        36766265.665103614        402381642.48207337     
   1127440757.3540030        17069276.390835166        423924583.10976058     
   921191326.75480330       -14985377.735264122        444492079.29786134     
   711234596.70007861       -59397696.713111937        464084131.04637128     
   497570567.18981689       -116167680.54275233        482700738.35528249     
   1139738773.7583449        47087271.837537348        552604470.70795310     
   956203571.02827227        43157120.720660359        568433868.89814293     
   764105185.18791461        10683025.902832717        596220924.57897818     
   563443616.23729682       -50335012.615864724        635965637.75043762     
   354218864.17636997       -139896994.83558661        687668008.41254866     
   1728370175.9165151        195243612.24167764       -227943852.97316957     
   1459668375.0691803        188737671.64259303       -98977131.946372718     
   1156636352.2233555        67797657.715243280        59528078.653915152     
   819274107.37905145       -167576429.54038191        247571778.82767099     
   447581640.53625512       -517384590.12432653        465153968.57491791     
   1184646223.0598826        51402622.995887756        24894807.662425920     
   979199517.72138059        14871093.421445489        155884745.06381762     
   734468582.16890526       -152607870.19958463        312922940.73899019     
   450453416.40246105       -451034267.86717808        496009394.68798083     
   127154020.42203283       -880408099.58132935        705144106.91071904     
   774379686.81765127       -52401141.265595227        261776338.10523856     
   622215987.56029415       -121949886.64372146        389009815.62982607     
   425814049.87348592       -338959426.78667670        538801320.12851250     
   185173873.75720304       -703429761.69452786        711150851.60130417     
  -99704540.788509071       -1215360891.3672016        906058410.04818451     
   497570567.18981689       -116167680.54275233        482700738.35528249     
   388717784.58591765       -221725268.55285880        600398079.75167239     
   230672755.33708301       -491257012.04610384        737163216.82245910     
   23435479.443312824       -924762911.02246404        892996149.56767488     
  -232994043.09541062       -1522242965.4819684        1067896877.9872707     
   354218864.17636997       -139896994.83558661        687668008.41254866     
   278704908.79825407       -284455052.30596894        790049537.42933559     
   149044698.55970356       -609500625.97780550        908008630.82084072     
  -34761766.539267600       -1115033715.8510361        1041545288.5870687     
  -272714486.49865848       -1801054321.9256656        1190659510.7279956     
   7505118037.4480991        931814552.95312881        189832481.88440380     
   6495531409.8354092        657294235.92237425        843919038.97124231     
   5493089314.2106104        406589025.51795650        1235901187.2113779     
   4497791750.5737238        179698921.73990297        1365778926.6048160     
   3509638718.9247432       -23376075.411803722        1233552257.1515498     
   8858181396.3181419        1463085014.5164552        647094577.05053699     
   7299959514.9829054        990354671.39635611        918509187.56349742     
   5750677430.3853426        547423650.73518443        1075741863.9264381     
   4210335142.5254631        134291952.53294492        1118792606.1393600     
   2678932651.4032645       -249040423.21035850        1047661414.2022549     
   8879771300.8677864        1594913439.7836657        1090378876.7642016     
   7195549807.8005190        1050763763.1713734        981216016.24469352     
   5522063376.2206984        542397624.85059071        905793696.27184451     
   3859312006.1283360        69815024.821327448        864111916.84565246     
   2207295697.5234284       -366984036.91642559        856170677.96611536     
   7569887751.0970430        1327299828.7547598        1519685381.0254068     
   6182302288.2882471        838521511.24742603        1032039525.0148313     
   4807247151.7166824        391510947.86418986        726056684.24759221     
   3444722341.3823414       -13731861.394955158        601736858.72368944     
   2094727857.2852335       -377206916.53000104        659080048.44311833     
   4928530747.0059071        660244181.42973220        1935014089.8341451     
   4260216956.4460969        353627915.62451434        1070979713.8739084     
   3606228756.8732896        94763619.775972605        536530827.85368478     
   2966566148.2874856       -116348706.11588883        331667431.77347487     
   2341229130.6886830       -279709062.05107975        456389525.63327682     
   3509638718.9247432       -23376075.411803722        1233552257.1515498     
   3554059340.9830384        78564919.552603006        1040665078.8573903     
   3588199538.3087668        146237832.07512128        893726661.70494092     
   3612059310.9019241        179642662.15573299        792737005.69420469     
   3625638658.7625189        178779409.79446149        737696110.82517731     
   2678932651.4032645       -249040423.21035850        1047661414.2022549     
   2818213043.2891674       -128283637.81242037        958710687.50499523     
   2950455372.2212234       -30987062.260636330        892438147.89491010     
   3075659638.1994295        42849303.444977641        848843795.37199831     
   3193825841.2237873        93225459.304436445        827927629.93625629     
   2207295697.5234284       -366984036.91642559        856170677.96611536     
   2374948504.7954044       -247357667.41741693        874939158.27425790     
   2538805610.8922572       -140383635.16882741        893115251.61503887     
   2698867015.8139801       -46061940.170670748        910698957.98845232     
   2855132719.5605783        35607417.577068090        927690277.39451051     
   2094727857.2852335       -377206916.53000104        659080048.44311833     
   2224265725.5017533       -278657169.26237690        789350491.16517735     
   2353250254.3218665       -181951886.64944077        895757972.86533046     
   2481681443.7455702       -87091068.691203117        978302493.54359031     
   2609559293.7728696        5925284.6123515368        1036984053.1999458     
   2341229130.6886830       -279709062.05107975        456389525.63327682     
   2366164705.4082127       -222182143.34730065        701944686.17775309     
   2393789302.5100522       -155691816.70248699        900366311.64579093     
   2424102921.9942102       -80238082.116614580        1051654402.0373930     
   2457105563.8606753        4179060.4102860689        1155808957.3525572     
   3625638658.7625189        178779409.79446149        737696110.82517731     
   3336807407.3294497        79364427.841956139        650666873.92172146     
   3053094899.4400730       -2988075.6315711737        602170527.49641168     
   2774501135.0943894       -68278100.626128435        592207071.54923093     
   2501026114.2923975       -116505647.14171338        620776506.08019423     
   3193825841.2237873        93225459.304436445        827927629.93625629     
   2997165062.0260024        42077190.217791319        769208146.60493875     
   2802876633.5098944       -1163243.2632514238        731717663.85358524     
   2610960555.6754689       -36495841.138696909        715456181.68218553     
   2421416828.5227232       -63920603.408539295        720423700.09074473     
   2855132719.5605783        35607417.577068090        927690277.39451051     
   2701202727.1747041        17893955.729277730        894076422.62965465     
   2546898692.6084924       -1066313.3862892389        864387678.54657257     
   2392220615.8619471       -21273389.769642591        838624045.14526880     
   2237168496.9350705       -42727273.420770407        816785522.42574656     
   2609559293.7728696        5925284.6123515368        1036984053.1999458     
   2448920402.7755346        6814724.3764013052        1025271701.9958621     
   2285161076.7358532       -2697286.0007064342        1000180571.5753769     
   2118281315.6538260       -22610746.518969774        961710661.93848908     
   1948281119.5294518       -52925657.178378701        909861973.08519816     
   2457105563.8606753        4179060.4102860689        1155808957.3525572     
   2240318088.8285098        8839496.1591681242        1162793984.7035694     
   2017663785.8919854       -6056161.1064870358        1139096342.9399943     
   1789142655.0510983       -40507911.386679173        1084716032.0618396     
   1554754696.3058531       -94515754.681394458        999653052.06910491     
   2501026114.2923975       -116505647.14171338        620776506.08019423     
   2434302457.5119610       -91895396.425434351        684228636.65333307     
   2369589104.2375531       -60584134.022399426        719497201.59620547     
   2306886054.4691563       -22571859.932656884        726582200.90882337     
   2246193308.2067828        22141425.843831539        705483634.59115899     
   2421416828.5227232       -63920603.408539295        720423700.09074473     
   2295207335.4717836       -64897201.395606995        758162271.60773289     
   2171536191.1142769       -57412637.071243882        784230730.55537820     
   2050403395.4501982       -41466910.435445786        798629076.93368030     
   1931808948.4795454       -17060021.488232970        801357310.74262857     
   2237168496.9350705       -42727273.420770407        816785522.42574656     
   2098654462.0734081       -55136331.773244262        829426587.60522473     
   1963206821.0925779       -57324077.189595580        846910993.27628136     
   1830825573.9925857       -49290509.669837952        869238739.43890953     
   1701510720.7734263       -31035629.213955283        896409826.09311712     
   1948281119.5294518       -52925657.178378701        909861973.08519816     
   1844643837.3168321       -62612787.558335781        898021584.64581370     
   1744600994.1724586       -60318454.377478361        907537989.75891697     
   1648152590.0963225       -46042657.635828614        938411188.42452180     
   1555298625.0884356       -19785397.333352327        990641180.64262247     
   1554754696.3058531       -94515754.681394458        999653052.06910491     
   1533175461.2020581       -87326568.750886679        963947262.72949028     
   1515718710.3539064       -66395768.634902596        966111720.00328970     
   1502384443.7614083       -31723354.333404839        1006146423.8905102     
   1493172661.4245663        16690674.153606951        1084051374.3911433     
   2246193308.2067828        22141425.843831539        705483634.59115899     
   2116762585.3968520        44058090.796013236        653352048.51371455     
   1983887342.9094584        54493023.489987969        619528078.15238154     
   1847567580.7445853        53446223.925694227        604011723.50716174     
   1707803298.9022448        40917692.103180885        606802984.57805181     
   1931808948.4795454       -17060021.488232970        801357310.74262857     
   1842342248.1251850        15274203.390778542        770715081.84693825     
   1749802481.6797366        37364874.632839024        750102740.67938018     
   1654189649.1432147        49211992.237986147        739520287.23996043     
   1555503750.5156102        50815556.206196964        738967721.52867246     
   1701510720.7734263       -31035629.213955283        896409826.09311712     
   1628357391.4804156        4620960.1735931039        887690316.89663279     
   1552502449.6827066        31272174.545510232        880722967.44030726     
   1473945895.3803158        48918013.901799321        875507777.72414637     
   1392687728.5732379        57558478.242475212        872044747.74813950     
   1555298625.0884356       -19785397.333352327        990641180.64262247     
   1474808015.4625502        12098361.144482136        1004277753.6628022     
   1391987246.9183722        36214923.227986991        1011388758.4351667     
   1306836319.4558909        52564288.917158246        1011974194.9597172     
   1219355233.0751228        61146458.212042153        1006034063.2364585     
   1493172661.4245663        16690674.153606951        1084051374.3911433     
   1381694120.0715966        37706406.303444684        1120477392.1454451     
   1268256873.3867257        52193120.680268645        1142100113.6639605     
   1152860921.3699503        60150817.284080386        1148919538.9466825     
   1035506264.0212682        61579496.114873946        1140935667.9936128     
   1707803298.9022448        40917692.103180885        606802984.57805181     
   1560849364.6519778        26000743.822468936        600376266.19500184     
   1417187299.0445716        22056691.017948091        589200941.08897340     
   1276817102.0800252        29085533.689635098        573277009.25995243     
   1139738773.7583449        47087271.837537348        552604470.70795310     
   1555503750.5156102        50815556.206196964        738967721.52867246     
   1400482066.5922923        33855639.233889103        733814951.78913355     
   1247437133.1434531        23484890.509860039        727676281.79904711     
   1096368950.1691222        19703310.034187019        720551711.55843163     
   947277517.66927719        22510897.806804836        712441241.06727767     
   1392687728.5732379        57558478.242475212        872044747.74813950     
   1240348884.8981249        41780769.554928064        866631622.12234652     
   1088671673.5291429        28208501.887813568        863995302.71845329     
   937656094.46629035        16841675.241133213        864135789.53647196     
   787302147.70957029        7680289.6148972213        867053082.57640100     
   1219355233.0751228        61146458.212042153        1006034063.2364585     
   1080449819.5695007        49776134.785648286        998826277.19464910     
   940890920.20164311        36227525.151810825        998158003.84719038     
   800678534.97155309        20500629.310528040        1004029243.1940883     
   659812663.87922513        2595447.2617964447        1016439995.2353387     
   1035506264.0212682        61579496.114873946        1140935667.9936128     
   920784870.60641217        57841734.926032603        1130398917.0060344     
   804094873.16095018        47541960.301854968        1130164385.1852496     
   685436271.68488503        30680172.242324799        1140232072.5312729     
   564809066.17822957        7256370.7474939227        1160601979.0440848     
   1139738773.7583449        47087271.837537348        552604470.70795310     
   956203571.02827227        43157120.720660359        568433868.89814293     
   764105185.18791461        10683025.902832717        596220924.57897818     
   563443616.23729682       -50335012.615864724        635965637.75043762     
   354218864.17636997       -139896994.83558661        687668008.41254866     
   947277517.66927719        22510897.806804836        712441241.06727767     
   790996326.73416603        11917350.189271420        728461217.66158438     
   625324621.90064812       -29977910.422945499        755025868.10767782     
   450262403.16873604       -103174884.02980709        792135192.40555727     
   265809670.53842601       -207673570.63133952        839789190.55523753     
   787302147.70957029        7680289.6148972213        867053082.57640100     
   654237872.45840836       -10787783.336602986        882298418.32202137     
   510955752.52073228       -63315338.576498538        906675444.28058219     
   357455787.89653766       -149902376.10478744        940184160.45207357     
   193737978.58581373       -270548895.92149627        982824566.83650196     
   659812663.87922513        2595447.2617964447        1016439995.2353387     
   545928208.20101273       -24958279.856960416        1029945470.8794665     
   420998577.04815322       -89329258.557870507        1051169653.0976768     
   285023770.42066252       -190517488.84088421        1080112541.8899691     
   138003788.31852674       -328522970.70605385        1116774137.2563419     
   564809066.17822957        7256370.7474939227        1160601979.0440848     
   466067333.96195078       -30594139.371844381        1171402375.3339067     
   355453095.48292530       -108019670.36701053        1188508494.5589652     
   232966350.74112529       -225020222.23809454        1211920336.7192526     
   98607099.736569792       -381595794.98501897        1241637901.8147712     
   354218864.17636997       -139896994.83558661        687668008.41254866     
   278704908.79825407       -284455052.30596894        790049537.42933559     
   149044698.55970356       -609500625.97780550        908008630.82084072     
  -34761766.539267600       -1115033715.8510361        1041545288.5870687     
  -272714486.49865848       -1801054321.9256656        1190659510.7279956     
   265809670.53842601       -207673570.63133952        839789190.55523753     
   225557513.11188662       -349622461.13399094        888422484.99483895     
   141480236.75148892       -637655081.41617560        948000559.56837761     
   13577841.457242131       -1071771431.4778570        1018523414.2758645     
  -158149672.77085930       -1651971511.3190708        1099991049.1173053     
   193737978.58581373       -270548895.92149627        982824566.83650196     
   175511092.70864552       -413859577.37706846        989750951.94658124     
   123780223.82418972       -668850202.19027007        1002989332.9498274     
   38545371.932452798       -1035520770.3610845        1022539709.8462474     
  -80193462.966580808       -1513871281.8895323        1048402082.6358320     
   138003788.31852674       -328522970.70605385        1116774137.2563419     
   128565647.58852321       -477166401.03520036        1094034938.2845588     
   95944659.777802527       -703085988.30006492        1072974950.9651804     
   40140824.886349618       -1006281732.5007043        1053594175.2981968     
  -38845857.085812926       -1386753633.6370468        1035892611.2836007     
   98607099.736569792       -381595794.98501897        1241637901.8147712     
   84721177.751522332       -539542932.10839581        1201274444.0087931     
   57973544.612310916       -740362439.74563599        1157957413.6144423     
   18364200.318953753       -984054317.89670360        1111686810.6317096     
  -34106855.128556669       -1270618566.5616152        1062462635.0605980     
   4928530747.0059071        660244181.42973220        1935014089.8341451     
   4260216956.4460969        353627915.62451434        1070979713.8739084     
   3606228756.8732896        94763619.775972605        536530827.85368478     
   2966566148.2874856       -116348706.11588883        331667431.77347487     
   2341229130.6886830       -279709062.05107975        456389525.63327682     
   2281581767.2075768       -50755694.913772583        1640129041.5958550     
   2362253640.9919868       -59190086.952667832        1182783596.7269518     
   2447034404.9139490       -53928178.533054829        903184279.00597262     
   2535924058.9734726       -34969969.654910207        801331088.43292832     
   2628922603.1705508       -2315460.3182495832        877224025.00781500     
   982790402.16556191       -357308286.83038121        1379467648.7747650     
   1378621189.4596703       -197708830.35331708        1316891650.6728344     
   1768344166.0418870       -58468742.915892005        1280222416.9267497     
   2151959331.9122124        60411975.481900930        1269459947.5365157     
   2529466687.0706491        158933324.84005153        1284604242.5021255     
   1032156651.8798714       -259413594.32009250        1153029911.3708739     
   1309319601.8491526       -61928314.577425659        1473303875.7115633     
   1570158040.2571018        81141926.627452195        1667645241.6160157     
   1814671967.1037076        169797129.29453224        1736054009.0842359     
   2042861382.3889811        204037293.42382520        1678530178.1162186     
   2429680516.3504953        242928382.61708891        960815829.38417614     
   2154348878.1604342        348151460.37500870        1652020271.8431315     
   1852476027.5595868        364903830.09697247        2065452753.0737710     
   1524061964.5479572        293185491.78299761        2201113273.0760889     
   1169106689.1255391        132996445.43305993        2059001831.8500893     
   2341229130.6886830       -279709062.05107975        456389525.63327682     
   2366164705.4082127       -222182143.34730065        701944686.17775309     
   2393789302.5100522       -155691816.70248699        900366311.64579093     
   2424102921.9942102       -80238082.116614580        1051654402.0373930     
   2457105563.8606753        4179060.4102860689        1155808957.3525572     
   2628922603.1705508       -2315460.3182495832        877224025.00781500     
   2545948109.3279591       -9047651.1397886276        1004648669.0303820     
   2467703326.1744232       -14139.664478182793        1111028128.3566787     
   2394188253.7099457        24785074.107696772        1196362402.9866998     
   2325402891.9345264        65349990.176726699        1260651492.9204407     
   2529466687.0706491        158933324.84005153        1284604242.5021255     
   2413120268.6092563        110303467.67618704        1296279173.0273247     
   2303544249.1436667        84241607.164998651        1312997269.2364113     
   2200738628.6738772        80747743.306476474        1334758531.1293898     
   2104703407.1998906        99821876.100628018        1361562958.7062500     
   2042861382.3889811        204037293.42382520        1678530178.1162186     
   1967681183.2521069        135871213.10063267        1576836198.1685808     
   1901312071.4177837        97075423.785937607        1506273734.2849944     
   1843754046.8860009        87649925.479712486        1466842786.4654577     
   1795007109.6567662        107594718.18198276        1458543354.7099667     
   1169106689.1255391        132996445.43305993        2059001831.8500893     
   1209630853.2565053        67655585.133536041        1846319744.4541514     
   1261006792.9967682        38487310.198330224        1690857523.5024254     
   1323234508.3463125        45491620.627398133        1592615168.9949114     
   1396313999.3051524        88668516.420783997        1551592680.9316053     
   2457105563.8606753        4179060.4102860689        1155808957.3525572     
   2240318088.8285098        8839496.1591681242        1162793984.7035694     
   2017663785.8919854       -6056161.1064870358        1139096342.9399943     
   1789142655.0510983       -40507911.386679173        1084716032.0618396     
   1554754696.3058531       -94515754.681394458        999653052.06910491     
   2325402891.9345264        65349990.176726699        1260651492.9204407     
   2043348621.2358921        42035449.496792078        1239153188.1044064     
   1756631375.6249015        3177659.1090040207        1204588088.7584701     
   1465251155.1015532       -51223380.986643374        1156956194.8826370     
   1169207959.6658497       -121167670.79014289        1096257506.4769032     
   2104703407.1998906        99821876.100628018        1361562958.7062500     
   1807713411.0767393        63631680.064463794        1312985816.8805034     
   1507264293.0332355        15911077.627117932        1268957755.1095400     
   1203356053.0693815       -43339931.211395025        1229478773.3933675     
   895988691.18517315       -114121346.45108652        1194548871.7319732     
   1795007109.6567662        107594718.18198276        1458543354.7099667     
   1533412458.3510518        73628187.862167656        1384291871.0318501     
   1269562538.1169872        32144094.447855055        1332205341.9932020     
   1003457348.9545797       -16857562.060935915        1302283767.5940249     
   735096890.86381900       -73376781.664236903        1294527147.8343127     
   1396313999.3051524        88668516.420783997        1551592680.9316053     
   1220445763.0588288        72024972.889914274        1453071350.5584571     
   1043526110.8761601        51876709.571226895        1394330849.4094586     
   865555042.75714707        28223726.464727670        1375371177.4846134     
   686532558.70179021        1066023.5704104602        1396192334.7839189     
   1554754696.3058531       -94515754.681394458        999653052.06910491     
   1533175461.2020581       -87326568.750886679        963947262.72949028     
   1515718710.3539064       -66395768.634902596        966111720.00328970     
   1502384443.7614083       -31723354.333404839        1006146423.8905102     
   1493172661.4245663        16690674.153606951        1084051374.3911433     
   1169207959.6658497       -121167670.79014289        1096257506.4769032     
   1231783464.4373617       -86888354.594686925        1095069280.4581356     
   1296805238.1454952       -44454808.610495567        1114493654.5919652     
   1364273280.7902403        6132967.1623986959        1154530628.8783972     
   1434187592.3715978        64874972.724008322        1215180203.3174405     
   895988691.18517315       -114121346.45108652        1194548871.7319732     
   993411374.51538670       -67544168.385647655        1225922624.4951739     
   1091604111.4631789       -18400144.928279281        1260651330.9501631     
   1190566902.0285528        33310723.921030104        1298734991.0969410     
   1290299746.2115126        87588438.162288010        1340173604.9355025     
   735096890.86381900       -73376781.664236903        1294527147.8343127     
   818059191.43612218       -29294010.123800099        1356507294.8406126     
   900115330.30696499        11768222.411774039        1404584749.0778861     
   981265307.47636247        49809915.942528725        1438759510.5461314     
   1061509122.9443036        84831070.468427271        1459031579.2453511     
   686532558.70179021        1066023.5704104602        1396192334.7839189     
   705726915.19956625        27862120.190853298        1486823291.4944456     
   722338894.67685390        46050293.409668148        1546293908.9751322     
   736368497.13365316        55630543.226852596        1574604187.2259762     
   747815722.56997013        56602869.642429143        1571754126.2469800     
   1493172661.4245663        16690674.153606951        1084051374.3911433     
   1381694120.0715966        37706406.303444684        1120477392.1454451     
   1268256873.3867257        52193120.680268645        1142100113.6639605     
   1152860921.3699503        60150817.284080386        1148919538.9466825     
   1035506264.0212682        61579496.114873946        1140935667.9936128     
   1434187592.3715978        64874972.724008322        1215180203.3174405     
   1289797650.3013489        61894622.275772989        1225222570.8997128     
   1144655232.7575269        56406020.248954833        1230289330.1502051     
   998760339.74014115        48409166.643596768        1230380481.0689027     
   852112971.24918246        37904061.459662676        1225496023.6557977     
   1290299746.2115126        87588438.162288010        1340173604.9355025     
   1141077511.7211051        69035737.605089068        1325239590.5138254     
   992309031.61547184        51995551.663798511        1315157655.6643524     
   843994305.89460206        36467880.338387847        1309927800.3870754     
   696133334.55849922        22452723.628868818        1309550024.6820080     
   1061509122.9443036        84831070.468427271        1459031579.2453511     
   935533704.33087373        59129752.291418880        1420528450.9877691     
   811218269.96055245        38961714.924762398        1396705090.2063868     
   688562819.83333230        24326958.368449599        1387561496.9012032     
   567567353.94922245        15225482.622505248        1393097671.0722177     
   747815722.56997013        56602869.642429143        1571754126.2469800     
   673166228.13065374        32176666.334752083        1511089152.3215473     
   601382947.79278457        17304510.031905025        1474931633.7763193     
   532465881.55634803        11986400.733831942        1463281570.6112857     
   466415029.42134726        16222338.440542102        1476138962.8264387     
   1035506264.0212682        61579496.114873946        1140935667.9936128     
   920784870.60641217        57841734.926032603        1130398917.0060344     
   804094873.16095018        47541960.301854968        1130164385.1852496     
   685436271.68488503        30680172.242324799        1140232072.5312729     
   564809066.17822957        7256370.7474939227        1160601979.0440848     
   852112971.24918246        37904061.459662676        1225496023.6557977     
   762837868.23159623        39957614.921433389        1220871607.4995074     
   671247314.75594556        34293000.189658344        1224182584.4857116     
   577341310.82222283        20910217.264304549        1235428954.6144178     
   481119856.43043417       -190733.85459366441        1254610717.8856206     
   696133334.55849922        22452723.628868818        1309550024.6820080     
   625542161.86875868        28268883.720432669        1310433289.1916187     
   552288692.29348278        25210720.860211790        1316885120.8194270     
   476372925.83267367        13278235.048211783        1328905519.5654364     
   397794862.48632818       -7528573.7155777812        1346494485.4296458     
   567567353.94922245        15225482.622505248        1393097671.0722177     
   508897751.51789862        22775541.323022693        1399083962.0823581     
   447219005.77357364        20295122.313547596        1408271994.1863968     
   382531116.71624708        7784225.5940589905        1420661767.3843362     
   314834084.34591180       -14757148.835453331        1436253281.6761754     
   466415029.42134726        16222338.440542102        1476138962.8264387     
   412904637.17901337        23477587.729205132        1486823626.1717303     
   356038255.19620425        19546204.549620330        1498343204.5866194     
   295815883.47293437        4428188.9018357843        1510697698.0711114     
   232237522.00918323       -21876459.214222550        1523887106.6251922     
   564809066.17822957        7256370.7474939227        1160601979.0440848     
   466067333.96195078       -30594139.371844381        1171402375.3339067     
   355453095.48292530       -108019670.36701053        1188508494.5589652     
   232966350.74112529       -225020222.23809454        1211920336.7192526     
   98607099.736569792       -381595794.98501897        1241637901.8147712     
   481119856.43043417       -190733.85459366441        1254610717.8856206     
   398941734.86971915       -35753766.153453052        1252581873.8136907     
   306765823.52798551       -104642764.38903816        1256460666.2753172     
   204592122.40523601       -206857728.56134436        1266247095.2704983     
   92420631.501465306       -342398658.67038786        1281941160.7992220     
   397794862.48632818       -7528573.7155777812        1346494485.4296458     
   331042961.86208695       -41145345.109695241        1333823570.2246666     
   256167987.93857557       -101839027.50138684        1326662205.1515570     
   173169940.71578243       -189609620.89068347        1325010390.2103240     
   82048820.193717763       -304457125.27754635        1328868125.4009604     
   314834084.34591180       -14757148.835453331        1436253281.6761754     
   262371014.93906179       -46768876.240551993        1415127464.5668404     
   203659588.71468455       -99608459.704083145        1399113111.1876976     
   138699805.67276531       -173275899.22608167        1388210221.5387554     
   67491665.813318595       -267771194.80650866        1382418795.6200016     
   232237522.00918323       -21876459.214222550        1523887106.6251922     
   192925894.10064548       -52624359.546026066        1496493556.8402059     
   149240625.85631195       -97951060.997140616        1473813384.3837323     
   101181717.27619193       -157856563.56754759        1455846589.2557714     
   48749168.360277563       -232340867.25726348        1442593171.4563308     
   98607099.736569792       -381595794.98501897        1241637901.8147712     
   84721177.751522332       -539542932.10839581        1201274444.0087931     
   57973544.612310916       -740362439.74563599        1157957413.6144423     
   18364200.318953753       -984054317.89670360        1111686810.6317096     
  -34106855.128556669       -1270618566.5616152        1062462635.0605980     
   92420631.501465306       -342398658.67038786        1281941160.7992220     
   77245846.604450971       -481506186.96283406        1226162571.0333977     
   50531086.662886709       -659080298.73711348        1167998518.8088472     
   12276351.676778674       -875120993.99321079        1107449004.1255662     
  -37518358.353888094       -1129628272.7311704        1044514026.9835460     
   82048820.193717763       -304457125.27754635        1328868125.4009604     
   67208344.183729261       -424238093.19936073        1259216429.1364985     
   42149629.238797158       -578079857.57099128        1187747380.5429499     
   6872675.3589141667       -765982418.39245176        1114460979.6203091     
  -38622517.455908358       -987945775.66371930        1039357226.3686056     
   67491665.813318595       -267771194.80650866        1382418795.6200016     
   54608670.489345923       -367738650.81799585        1300436018.3181026     
   32829172.340033591       -497361116.24728423        1217203998.8167627     
   2153171.3653780520       -656638591.09438741        1132722737.1159942     
  -37419332.434617847       -845571075.35928142        1046992233.2157744     
   48749168.360277563       -232340867.25726348        1442593171.4563308     
   39446825.521310717       -312007859.81872654        1349821338.5781968     
   22569715.966608524       -416924074.76596576        1256368373.6302729     
  -1882160.3038328290       -547089512.09900630        1162234276.6125538     
  -33908803.290015042       -702504171.81784987        1067419047.5250397     
   2429680516.3504953        242928382.61708891        960815829.38417614     
   2154348878.1604342        348151460.37500870        1652020271.8431315     
   1852476027.5595868        364903830.09697247        2065452753.0737710     
   1524061964.5479572        293185491.78299761        2201113273.0760889     
   1169106689.1255391        132996445.43305993        2059001831.8500893     
   3909970710.3634763        994786910.37139165        1531422465.6648455     
   3003906963.0829010        792618139.89573002        1804823772.6688559     
   2085496518.8138440        549293712.79178715        1941755075.8085442     
   1154739377.5563025        264813629.05956393        1942216375.0839052     
   211635539.31027621       -60822111.300941259        1806207670.4949400     
   4059490903.4601722        1347414437.8508141        2048298115.8313093     
   2926414925.2719207        958969782.59641349        1920456555.3730650     
   1795186765.5174868        576684522.12140477        1797446948.4144878     
   665806424.19687307        200558656.42579633        1679269294.9555771     
  -461726098.68992513       -169407814.49042740        1565923594.9963331     
   2878241095.6405845        1300810965.0553479        2511442779.8835783     
   1921872764.7274923        847206388.47706282        1998918619.9557564     
   981546767.67052186        447076258.08584809        1632528370.8916023     
   57263104.469669886        100420573.88169575        1412272032.6911035     
  -850978224.87506294       -192760664.13539279        1338149605.3542645     
   366221286.90471309        854976491.98499835        2920856457.8216448     
  -9719518.5503804386        457327957.53768557        2040209966.4169359     
  -355423474.72705507        160468920.68510371        1446999343.2398825     
  -670890581.62530518       -35600618.572730839        1141224588.2904847     
  -956120839.24513876       -130880660.23584297        1122885701.5687356     
   1169106689.1255391        132996445.43305993        2059001831.8500893     
   1209630853.2565053        67655585.133536041        1846319744.4541514     
   1261006792.9967682        38487310.198330224        1690857523.5024254     
   1323234508.3463125        45491620.627398133        1592615168.9949114     
   1396313999.3051524        88668516.420783997        1551592680.9316053     
   211635539.31027621       -60822111.300941259        1806207670.4949400     
   397346875.47734702       -57468387.888054818        1693477914.4356267     
   589038916.18199754       -34178982.683236241        1619358135.7185473     
   786711661.42422593        9046104.3135071397        1583848334.3437085     
   990365111.20403504        72206873.102186233        1586948510.3110976     
  -461726098.68992513       -169407814.49042740        1565923594.9963331     
  -183998702.20668384       -113310840.88111407        1547463254.0233140     
   94838327.742427975       -53515089.052235812        1549003001.2905529     
   374784991.15740442        9979440.9961922765        1570542836.7980509     
   655841288.03824985        77172749.264184818        1612082760.5458071     
  -850978224.87506294       -192760664.13539279        1338149605.3542645     
  -534405879.79557937       -99871773.845622748        1408275763.2172072     
  -221594972.32194275       -19521008.908675693        1479792120.2184386     
   87454497.545852721        48291630.675466686        1552698676.3579500     
   392742529.80780029        103566144.90678409        1626995431.6357439     
  -956120839.24513876       -130880660.23584297        1122885701.5687356     
  -653874657.28935027       -17151186.781610668        1275915442.0173168     
  -360260984.01111901        67803257.747429416        1411725492.5022044     
  -75279819.410438478        123982673.35130259        1530315853.0233974     
   201068836.51268637        151387060.02998737        1631686523.5808966     
   1396313999.3051524        88668516.420783997        1551592680.9316053     
   1220445763.0588288        72024972.889914274        1453071350.5584571     
   1043526110.8761601        51876709.571226895        1394330849.4094586     
   865555042.75714707        28223726.464727670        1375371177.4846134     
   686532558.70179021        1066023.5704104602        1396192334.7839189     
   990365111.20403504        72206873.102186233        1586948510.3110976     
   899686933.76904476        57713842.476868004        1506154819.9685986     
   810047187.23633218        46682248.192474842        1450614842.6632302     
   721445871.60589600        39112090.249001771        1420328578.3949943     
   633882986.87774134        35003368.646467447        1415296027.1638849     
   655841288.03824985        77172749.264184818        1612082760.5458071     
   608847123.16596389        52378417.669834435        1551454864.8790188     
   564981236.03457713        38011678.545150518        1501553566.0623403     
   524243626.64408821        34072531.890125334        1462378864.0957680     
   486634294.99449968        40560977.704766586        1433930758.9793105     
   392742529.80780029        103566144.90678409        1626995431.6357439     
   347926331.24958563        56018698.468814149        1588971485.2897201     
   308328257.27089083        25865000.629242212        1547147019.6067886     
   273948307.87171775        13105051.388075233        1501522034.5869451     
   244786483.05206382        17738850.745307483        1452096530.2301884     
   201068836.51268637        151387060.02998737        1631686523.5808966     
   116924558.01990876        68634684.873797610        1618704681.2007051     
   40088250.945277020        10242214.444761502        1587395203.2965798     
  -29440084.711216886       -23790351.257148534        1537758089.8685203     
  -91660448.949567050       -33463012.231913451        1469793340.9165266     
   686532558.70179021        1066023.5704104602        1396192334.7839189     
   705726915.19956625        27862120.190853298        1486823291.4944456     
   722338894.67685390        46050293.409668148        1546293908.9751322     
   736368497.13365316        55630543.226852596        1574604187.2259762     
   747815722.56997013        56602869.642429143        1571754126.2469800     
   633882986.87774134        35003368.646467447        1415296027.1638849     
   584838607.52972388        40599890.971584529        1477354273.4195185     
   533535814.18950599        38668366.656030163        1522973733.0917652     
   479974606.85708582        29208795.699802026        1552154406.1806271     
   424154985.53246289        12221178.102900535        1564896292.6860986     
   486634294.99449968        40560977.704766586        1433930758.9793105     
   411412758.79056132        37576399.431532994        1467794251.6463854     
   334256771.62270385        28143651.278569266        1499940510.3765233     
   255166333.49092966        12262733.245881543        1530369535.1697278     
   174141444.39523631       -10066354.666533850        1559081326.0260055     
   244786483.05206382        17738850.745307483        1452096530.2301884     
   185449368.98207054        18791645.570679680        1458143226.1750312     
   124501766.97644150        14476147.277263615        1477194240.8294003     
   61943677.035182156        4792355.8650802784        1509249574.1932871     
  -2224900.8417127095       -10259728.665886668        1554309226.2666914     
  -91660448.949567050       -33463012.231913451        1469793340.9165266     
  -93051561.895748258       -15754370.610982025        1448401197.0054765     
  -95729199.749278903       -2334145.3478786163        1454734924.4503965     
  -99693362.510158375        6797663.5573946685        1488794523.2512939     
  -104944050.17838670        11641056.104836375        1550579993.4081633     
   747815722.56997013        56602869.642429143        1571754126.2469800     
   673166228.13065374        32176666.334752083        1511089152.3215473     
   601382947.79278457        17304510.031905025        1474931633.7763193     
   532465881.55634803        11986400.733831942        1463281570.6112857     
   466415029.42134726        16222338.440542102        1476138962.8264387     
   424154985.53246289        12221178.102900535        1564896292.6860986     
   408118806.95987350        6622933.3367281109        1528651005.3756034     
   393981266.55868620        7353482.4752250761        1508640515.2266684     
   381742364.32888788        14412825.518350452        1504864822.2392900     
   371402100.27049154        27800962.466156065        1517323926.4134617     
   174141444.39523631       -10066354.666533850        1559081326.0260055     
   193082415.35040376       -3927490.7929127514        1546126886.7453949     
   212954448.54693323        5314913.8852487206        1541134586.4077039     
   233757543.98481166        17660859.367907457        1544104425.0129313     
   255491701.66405356        33110345.655111991        1555036402.5610754     
  -2224900.8417127095       -10259728.665886668        1554309226.2666914     
   28057053.302250393        525393.94585964270        1563516796.4309201     
   58302493.757524736        11188804.261975709        1572413847.3194284     
   88511420.524120480        21730502.282494970        1581000378.9322155     
   118683833.60202661        32150488.007386226        1589276391.2692871     
  -104944050.17838670        11641056.104836375        1550579993.4081633     
  -86957279.184601828        19981587.552989069        1580820734.4321806     
  -69974597.809538752        24975153.605404537        1602478297.9618363     
  -53996006.053202733        26621754.262062468        1615552683.9971349     
  -39021503.915589519        24921389.522977043        1620043892.5380769     
   466415029.42134726        16222338.440542102        1476138962.8264387     
   412904637.17901337        23477587.729205132        1486823626.1717303     
   356038255.19620425        19546204.549620330        1498343204.5866194     
   295815883.47293437        4428188.9018357843        1510697698.0711114     
   232237522.00918323       -21876459.214222550        1523887106.6251922     
   371402100.27049154        27800962.466156065        1517323926.4134617     
   321513974.76445377        28560929.751527771        1518643222.3448770     
   269223599.28822982        21313397.136274375        1523412873.4661460     
   214530973.84183353        6058364.6204466969        1531632879.7772579     
   157436098.42524821       -17204167.796006918        1543303241.2782223     
   255491701.66405356        33110345.655111991        1555036402.5610754     
   216698528.95216855        29616836.754526041        1548103027.4772925     
   176456846.04039189        21294960.520968534        1547235447.7036011     
   134766652.92873144        8144716.9544636905        1552433663.2400208     
   91627949.617177069       -9833893.9450187981        1563697674.0865350     
   118683833.60202661        32150488.007386226        1589276391.2692871     
   98458299.742153913        26645308.738195501        1575203041.5689638     
   77737995.452691540        19490894.703704391        1569810927.2989950     
   56522920.733629853        10687245.903880946        1573100048.4593899     
   34813075.584964804        234362.33871699125        1585070405.0501308     
  -39021503.915589519        24921389.522977043        1620043892.5380769     
  -33206712.865575060        19646345.702580646        1599943264.6198988     
  -26932952.474872440        15901199.684479484        1591139312.2523282     
  -20200222.743474096        13685951.468697075        1593632035.4353590     
  -13008523.671384439        13000601.055218346        1607421434.1689985     
   232237522.00918323       -21876459.214222550        1523887106.6251922     
   192925894.10064548       -52624359.546026066        1496493556.8402059     
   149240625.85631195       -97951060.997140616        1473813384.3837323     
   101181717.27619193       -157856563.56754759        1455846589.2557714     
   48749168.360277563       -232340867.25726348        1442593171.4563308     
   157436098.42524821       -17204167.796006918        1543303241.2782223     
   131874356.66300091       -39556227.755666152        1514225392.7749667     
   103077853.24048463       -72690826.582894236        1489073500.8160191     
   71046588.157687485       -116607964.27771884        1467847565.4013562     
   35780561.414631166       -171307640.84008110        1450547586.5309823     
   91627949.617177069       -9833893.9450187981        1563697674.0865350     
   77566320.332020670       -24465045.633290295        1534264218.6531289     
   61408808.062109888       -46082473.937410429        1507969298.9797912     
   43155412.807445027       -74686178.857377827        1484812915.0665259     
   22806134.568025373       -110276160.39319319        1464795066.9133315     
   34813075.584964804        234362.33871699125        1585070405.0501308     
   30001785.107695363       -7350813.1789229531        1556610034.4746659     
   24233490.321187466       -18126003.060695082        1530500778.8750503     
   17508191.225441948       -32091207.306588523        1506742638.2512884     
   9825887.8204680458       -49246425.916580737        1485335612.6033738     
  -13008523.671384439        13000601.055218346        1607421434.1689985     
  -10819249.009975437        11786469.607430751        1581262840.2395852     
  -8448099.9822787475        11178586.047268784        1556667940.5017974     
  -5895076.5883065825        11176950.374691730        1533636734.9556413     
  -3160178.8280475531        11781562.589737564        1512169223.6011093     
   48749168.360277563       -232340867.25726348        1442593171.4563308     
   39446825.521310717       -312007859.81872654        1349821338.5781968     
   22569715.966608524       -416924074.76596576        1256368373.6302729     
  -1882160.3038328290       -547089512.09900630        1162234276.6125538     
  -33908803.290015042       -702504171.81784987        1067419047.5250397     
   35780561.414631166       -171307640.84008110        1450547586.5309823     
   30427947.000230029       -230435187.97838935        1349917794.7274275     
   19473680.438714847       -308234908.94041383        1248267515.6072154     
   2917761.7300980687       -404706803.72610337        1145596749.1703575     
  -19239809.125628382       -519850872.33550280        1041905495.4168420     
   22806134.568025373       -110276160.39319319        1464795066.9133315     
   20433662.158588231       -149155138.03425378        1358609283.1810832     
   14432652.170676976       -200129240.93689686        1251063656.8853316     
   4803104.6042909771       -263198469.10112131        1142158188.0260813     
  -8454980.5405730158       -338362822.52694190        1031892876.6032951     
   9825887.8204680458       -49246425.916580737        1485335612.6033738     
   9463970.9964024685       -68167709.986264750        1375895803.9391766     
   7446631.1624940373       -92607070.755427539        1264756797.4646151     
   3773868.3187431917       -122564508.22406168        1151918593.1796794     
  -1554317.5348511413       -158040022.39218104        1037381191.0843960     
  -3160178.8280475531        11781562.589737564        1512169223.6011093     
  -2481126.4863338871        12527096.165559091        1401777357.0017056     
  -1484382.5858366778        14331601.603992429        1289346937.3450668     
  -169947.12654768862        17195078.905067112        1174877964.6312146     
   1462179.8915296933        21117528.068764217        1058370438.8601234     
   366221286.90471309        854976491.98499835        2920856457.8216448     
  -9719518.5503804386        457327957.53768557        2040209966.4169359     
  -355423474.72705507        160468920.68510371        1446999343.2398825     
  -670890581.62530518       -35600618.572730839        1141224588.2904847     
  -956120839.24513876       -130880660.23584297        1122885701.5687356     
  -2369541230.5986252       -403891058.38384688        1903536178.3851666     
  -2056993814.9465141       -457242180.82439160        1471200903.4808698     
  -1724304154.2147143       -443452486.33263630        1201582835.3528969     
  -1371472248.4032247       -362521974.90858465        1094681974.0012519     
  -998498097.51204813       -214450646.55224174        1150498319.4259350     
  -3730210199.0052800       -1250230544.0236888        945085551.01639473     
  -3085513594.9640360       -1066185964.2728789        949284454.38064694     
  -2430769350.0418358       -848649248.25221276        991481903.06990182     
  -1765977464.2386818       -597620395.96170127        1071677897.0841601     
  -1091137937.5545695       -313099407.40132904        1189872436.4234161     
  -3715785618.3152509       -1684041964.9345250        45504575.715321705     
  -3095278858.6029482       -1369503392.8077836        474460619.11627209     
  -2474819062.2084227       -1055121365.0736351        816696546.39089894     
  -1854406229.1316729       -740895881.73207068        1072212357.5392048     
  -1234040359.3726981       -426826942.78309274        1241008052.5611806     
  -2326267488.5285382       -1705325321.1163561       -795206747.51805127     
  -2086289605.8632503       -1367194466.4291091        46729397.687743902     
  -1856453290.7144697       -1062868836.7968879        677226765.31588995     
  -1636758543.0822031       -792348432.21971416        1096285355.3663838     
  -1427205362.9664407       -555633252.69755054        1303905167.8392282     
  -956120839.24513876       -130880660.23584297        1122885701.5687356     
  -653874657.28935027       -17151186.781610668        1275915442.0173168     
  -360260984.01111901        67803257.747429416        1411725492.5022044     
  -75279819.410438478        123982673.35130259        1530315853.0233974     
   201068836.51268637        151387060.02998737        1631686523.5808966     
  -998498097.51204813       -214450646.55224174        1150498319.4259350     
  -742747296.15860426       -86049953.160854697        1272755043.6966367     
  -496921353.13999450        9267879.1144181490        1373080114.4052713     
  -261020268.45622015        71502850.273573130        1451473531.5518363     
  -35044042.107275337        100654960.31662861        1507935295.1363289     
  -1091137937.5545695       -313099407.40132904        1189872436.4234161     
  -895345269.94168496       -174066320.01424673        1279848403.2494159     
  -710769810.32091534       -72423925.934213340        1343180752.9149697     
  -537411558.69225979       -8172225.1612270772        1379869485.4200780     
  -375270515.05571604        18688782.304719478        1389914600.7647438     
  -1234040359.3726981       -426826942.78309274        1241008052.5611806     
  -1111668578.6385927       -281200287.34178853        1297195520.6756485     
  -1001806355.5538779       -177272157.39845413        1322027408.0312955     
  -904453690.11855865       -115042552.95310509        1315503714.6281228     
  -819610582.33263135       -94511474.005727023        1277624440.4661288     
  -1427205362.9664407       -555633252.69755054        1303905167.8392282     
  -1391717222.2493258       -407451855.14347464        1324796395.9753401     
  -1370030988.8388839       -305276815.27830946        1309620079.7542558     
  -1362146662.7351191       -249108133.10206527        1258376219.1759751     
  -1368064243.9380243       -238945808.61472350        1171064814.2404959     
   201068836.51268637        151387060.02998737        1631686523.5808966     
   116924558.01990876        68634684.873797610        1618704681.2007051     
   40088250.945277020        10242214.444761502        1587395203.2965798     
  -29440084.711216886       -23790351.257148534        1537758089.8685203     
  -91660448.949567050       -33463012.231913451        1469793340.9165266     
  -35044042.107275337        100654960.31662861        1507935295.1363289     
  -140221961.45062244        23200262.181996018        1475400157.2003539     
  -240262207.82396647       -37128859.385959432        1443790390.2059765     
  -335164781.22730881       -80332404.387241423        1413105994.1531935     
  -424929681.66064715       -106410372.82184601        1383346969.0420089     
  -375270515.05571604        18688782.304719478        1389914600.7647438     
  -446473485.34811926       -36965661.837901935        1335294152.4168189     
  -514709081.11865836       -82728857.574311152        1300852081.4760206     
  -579977302.36733699       -118600804.90451843        1286588387.9423504     
  -642278149.09415412       -144581503.82851827        1292503071.8158057     
  -819610582.33263135       -94511474.005727023        1277624440.4661288     
  -801830013.67257857       -111863087.18589029        1198386666.8500943     
  -783252368.93880093       -126557780.12029992        1158580277.1067159     
  -763877648.13130379       -138595552.80897874        1158205271.2359965     
  -743705851.25008309       -147976405.25191462        1197261649.2379284     
  -1368064243.9380243       -238945808.61472350        1171064814.2404959     
  -1206291546.4239981       -201492013.86195511        1064677700.5001862     
  -1045892071.2843921       -168615627.02392247        1016974977.0980616     
  -886865818.51920342       -140316648.10061204        1027956644.0341235     
  -729212788.12843490       -116595077.09203789        1097622701.3083711     
  -91660448.949567050       -33463012.231913451        1469793340.9165266     
  -93051561.895748258       -15754370.610982025        1448401197.0054765     
  -95729199.749278903       -2334145.3478786163        1454734924.4503965     
  -99693362.510158375        6797663.5573946685        1488794523.2512939     
  -104944050.17838670        11641056.104836375        1550579993.4081633     
  -424929681.66064715       -106410372.82184601        1383346969.0420089     
  -369898803.90705907       -81008383.562047213        1394959623.1089683     
  -314703693.03227460       -55058950.564927369        1420472549.2108140     
  -259344349.03628978       -28562073.830472626        1459885747.3475382     
  -203820771.91910896       -1517753.3586973697        1513199217.5191383     
  -642278149.09415412       -144581503.82851827        1292503071.8158057     
  -570326992.98678422       -123336680.63365501        1338813074.8940933     
  -496760845.72966760       -96708553.606302410        1385197750.6861620     
  -421579707.32280183       -64697122.746454224        1431657099.1920171     
  -344783577.76619518       -27302388.054133624        1478191120.4116583     
  -743705851.25008309       -147976405.25191462        1197261649.2379284     
  -694336129.13491523       -142739261.82577541        1279961552.3608418     
  -641900657.84145451       -127282954.47199208        1348910528.8764482     
  -586399437.36970079       -101607483.19056517        1404108578.7847397     
  -527832467.71964866       -65712847.981476724        1445555702.0857220     
  -729212788.12843490       -116595077.09203789        1097622701.3083711     
  -741926212.35145867       -139216127.13842952        1218405055.5092182     
  -750123129.36763704       -146782153.16200212        1311610883.7816617     
  -753803539.17697144       -139293155.16276133        1377240186.1257000     
  -752967441.77947259       -116749133.14074430        1415292962.5413265     
  -104944050.17838670        11641056.104836375        1550579993.4081633     
  -86957279.184601828        19981587.552989069        1580820734.4321806     
  -69974597.809538752        24975153.605404537        1602478297.9618363     
  -53996006.053202733        26621754.262062468        1615552683.9971349     
  -39021503.915589519        24921389.522977043        1620043892.5380769     
  -203820771.91910896       -1517753.3586973697        1513199217.5191383     
  -199554624.94185364        7611946.3072705045        1530267344.1382587     
  -197125716.64436939        10617517.040667564        1545182206.3426018     
  -196534047.02665347        7498958.8415050358        1557943804.1321719     
  -197779616.08871472       -1743728.2902476192        1568552137.5069647     
  -344783577.76619518       -27302388.054133624        1478191120.4116583     
  -335866874.57809466       -11872166.102141500        1481114625.3879952     
  -329620559.13081211       -5343236.6195455641        1488314779.0291424     
  -326044631.42434508       -7715599.6063344479        1499791581.3350940     
  -325139091.45869577       -18989255.062515721        1515545032.3058507     
  -527832467.71964866       -65712847.981476724        1445555702.0857220     
  -495894028.09332460       -38470749.675248489        1433362578.1813931     
  -467459125.26887226       -22907107.375254303        1431876016.0214546     
  -442527759.24627244       -19021921.081439763        1441096015.6058998     
  -421099930.02554011       -26815190.793846160        1461022576.9347398     
  -752967441.77947259       -116749133.14074430        1415292962.5413265     
  -679636085.48755121       -72183804.412067831        1387011202.5184503     
  -610641415.05854130       -42074095.226432383        1375865917.3195388     
  -545983430.49243987       -26420005.583823800        1381857106.9445972     
  -485662131.78924471       -25221535.484234676        1404984771.3936255     
  -39021503.915589519        24921389.522977043        1620043892.5380769     
  -33206712.865575060        19646345.702580646        1599943264.6198988     
  -26932952.474872440        15901199.684479484        1591139312.2523282     
  -20200222.743474096        13685951.468697075        1593632035.4353590     
  -13008523.671384439        13000601.055218346        1607421434.1689985     
  -197779616.08871472       -1743728.2902476192        1568552137.5069647     
  -165334625.77821365       -1968853.4777420089        1558724433.8298402     
  -131770818.23904800        1535412.0969774723        1556919457.4256644     
  -97088193.471232444        8769068.4338660464        1563137208.2944319     
  -61286751.474746644        19732115.532987669        1577377686.4361436     
  -325139091.45869577       -18989255.062515721        1515545032.3058507     
  -275418039.82388663       -16970702.997969985        1516760075.4057503     
  -223918323.07244176       -9023267.2113091424        1522723897.5009315     
  -170639941.20437467        4853052.2974267378        1533436498.5913959     
  -115582894.21967176        24658255.528281450        1548897878.6771469     
  -421099930.02554011       -26815190.793846160        1461022576.9347398     
  -363456955.00259328       -25359202.858103901        1474050189.3476202     
  -303375466.97504413       -15774838.240352109        1488552632.4781260     
  -240855465.94290304        1937903.0593714416        1504529906.3262537     
  -175896951.90615335        27779021.041124962        1521982010.8920026     
  -485662131.78924471       -25221535.484234676        1404984771.3936255     
  -429451371.31433916       -27134353.058156222        1430594775.6554565     
  -370142249.94685525       -18719300.990151018        1454405662.3572490     
  -307734767.68681818        23620.719700157642        1476417431.4990017     
  -242228924.53420430        29094412.071471006        1496630083.0807164     
  -13008523.671384439        13000601.055218346        1607421434.1689985     
  -10819249.009975437        11786469.607430751        1581262840.2395852     
  -8448099.9822787475        11178586.047268784        1556667940.5017974     
  -5895076.5883065825        11176950.374691730        1533636734.9556413     
  -3160178.8280475531        11781562.589737564        1512169223.6011093     
  -61286751.474746644        19732115.532987669        1577377686.4361436     
  -51914945.199680358        26322468.501735572        1550232340.7266424     
  -41317211.151461348        36999247.380991511        1525247290.2783575     
  -29493549.330104664        51762452.170705169        1502422535.0912805     
  -16443959.735597290        70612082.870924592        1481758075.1654258     
  -115582894.21967176        24658255.528281450        1548897878.6771469     
  -97323981.846411645        39564465.258934155        1521983843.4955652     
  -76795088.293137923        62037278.922966868        1497826704.6447880     
  -53996213.559862852        92076696.520337448        1476426462.1248093     
  -28927357.646571495        129682718.05109426        1457783115.9356341     
  -175896951.90615335        27779021.041124962        1521982010.8920026     
  -147046358.95017195        51512459.879026525        1496517348.5463531     
  -114881731.40731902        86292680.673163831        1474406183.6010883     
  -79403069.277581632        132119683.42358476        1455648516.0562165     
  -40610372.560974449        188993468.13023698        1440244345.9117298     
  -242228924.53420430        29094412.071471006        1496630083.0807164     
  -201082076.51096234        62166452.361999869        1473832855.8790050     
  -155577140.49398157        109765452.63165799        1454985727.1472654     
  -105714116.48326850        171891412.88042212        1440088696.8855076     
  -51493004.478809297        248544333.10834345        1429141765.0937178     
  -3160178.8280475531        11781562.589737564        1512169223.6011093     
  -2481126.4863338871        12527096.165559091        1401777357.0017056     
  -1484382.5858366778        14331601.603992429        1289346937.3450668     
  -169947.12654768862        17195078.905067112        1174877964.6312146     
   1462179.8915296933        21117528.068764217        1058370438.8601234     
  -16443959.735597290        70612082.870924592        1481758075.1654258     
  -14713181.023335185        91269620.630187035        1373263427.9210672     
  -10777417.782880731        119277106.81676322        1263021276.1304805     
  -4636670.0142274797        154634541.43066752        1151031619.7936697     
   3709062.2826349363        197341924.47193223        1037294458.9106331     
  -28927357.646571495        129682718.05109426        1457783115.9356341     
  -25313285.389480263        170501730.14605188        1353387529.8439631     
  -17606935.634771973        224961667.23306566        1247535487.7170746     
  -5808308.3824545741        293062529.31210685        1140226989.5549662     
   10082596.367482483        374804316.38322294        1031462035.3576306     
  -40610372.560974449        188993468.13023698        1440244345.9117298     
  -34281439.584752053        250223424.71320200        1342149662.7704082     
  -21972936.141501874        331385282.85292363        1242889572.1048560     
  -3684862.2312263846        432479042.54940122        1142464073.9150977     
   20582782.146078229        553504703.80263805        1040873168.2011093     
  -51493004.478809297        248544333.10834345        1429141765.0937178     
  -41617643.609163702        330434704.33159691        1339549826.7003839     
  -23875419.303072304        438547953.67634112        1249083529.2938259     
   1733668.4394396544        572884081.14248991        1157742872.8740711     
   35209619.618415862        733443086.73017585        1065527857.4410886     
  -2326267488.5285382       -1705325321.1163561       -795206747.51805127     
  -2086289605.8632503       -1367194466.4291091        46729397.687743902     
  -1856453290.7144697       -1062868836.7968879        677226765.31588995     
  -1636758543.0822031       -792348432.21971416        1096285355.3663838     
  -1427205362.9664407       -555633252.69755054        1303905167.8392282     
  -651318227.79578900       -445287711.30882013        257141636.30476320     
  -866404789.52763498       -411424293.39019811        607067162.00688958     
  -1081845677.1486976       -378741961.76897287        888597455.00470889     
  -1297640890.6589768       -347240716.44513679        1101732515.2982209     
  -1513790430.0584702       -316920557.41868341        1246472342.8874249     
  -568968359.78780556        336970080.68128598        1239262294.5182667     
  -830423523.42151701        189174814.57986021        1108595649.2818947     
  -1082445771.3171549        72822600.938679457        1052577316.2145631     
  -1325035103.4747157       -12086560.242255926        1071207295.3162657     
  -1558191519.8942032       -65552668.962935448        1164485586.5870049     
  -2079217884.5045819        641448054.85396528        2151155227.1224527     
  -1978345807.5448959        434602857.48106873        1551314859.5127656     
  -1858253573.2198386        291824851.32606232        1169166348.9454520     
  -1718941181.5294211        213114036.38893521        1004709695.4205204     
  -1560408632.4736350        198470412.66970533        1057944898.9379644     
  -5182066801.9461203        468146211.20921397        2992820434.1173296     
  -4310171641.8977690        324859835.31343222        1935224792.6994901     
  -3409269082.8567595        278264789.39317393        1238364553.1973746     
  -2479359124.8230910        328361073.44843698        902239715.61098158     
  -1520441767.7967651        475148687.47923660        926850279.94030857     
  -1427205362.9664407       -555633252.69755054        1303905167.8392282     
  -1391717222.2493258       -407451855.14347464        1324796395.9753401     
  -1370030988.8388839       -305276815.27830946        1309620079.7542558     
  -1362146662.7351191       -249108133.10206527        1258376219.1759751     
  -1368064243.9380243       -238945808.61472350        1171064814.2404959     
  -1513790430.0584702       -316920557.41868341        1246472342.8874249     
  -1588055276.9892299       -257979169.27182388        1273072175.9092636     
  -1671159761.9561830       -228503241.24560678        1271908026.4992905     
  -1763103884.9593310       -228492773.34004498        1242979894.6575046     
  -1863887645.9986742       -257947765.55513203        1186287780.3839123     
  -1558191519.8942032       -65552668.962935448        1164485586.5870049     
  -1718484891.8288741       -88733951.430091798        1202583338.6434586     
  -1882655632.5292611       -124839796.44964117        1221220670.1934888     
  -2050703741.9953642       -173870204.02157444        1220397581.2370923     
  -2222629220.2271862       -235825174.14589751        1200114071.7742753     
  -1560408632.4736350        198470412.66970533        1057944898.9379644     
  -1783006066.7682581        100283798.38170826        1113329884.1779296     
  -2004518600.5581164        5713519.1096014977        1157558010.8368540     
  -2224946233.8432188       -85240425.146651864        1190629278.9147387     
  -2444288966.6235538       -172578034.38702083        1212543688.4115872     
  -1520441767.7967651        475148687.47923660        926850279.94030857     
  -1781618801.8073792        309074080.16360557        1005311812.5126710     
  -2036748666.0427563        163156705.43209422        1080920048.4293845     
  -2285831360.5028887        37396563.284736514        1153674987.6904409     
  -2528866885.1877847       -68206346.278502703        1223576630.2958486     
  -1368064243.9380243       -238945808.61472350        1171064814.2404959     
  -1206291546.4239981       -201492013.86195511        1064677700.5001862     
  -1045892071.2843921       -168615627.02392247        1016974977.0980616     
  -886865818.51920342       -140316648.10061204        1027956644.0341235     
  -729212788.12843490       -116595077.09203789        1097622701.3083711     
  -1863887645.9986742       -257947765.55513203        1186287780.3839123     
  -1570333785.9241593       -183947189.37355906        1114308559.8728321     
  -1277728673.2667511       -113109104.58234465        1076581201.4326811     
  -986072308.02644336       -45433511.181467593        1073105705.0634542     
  -695364690.20325089        19079590.829034597        1103882070.7651584     
  -2222629220.2271862       -235825174.14589751        1200114071.7742753     
  -1867101421.2129166       -146219983.62173945        1163037965.2759569     
  -1512097894.6584458       -58362367.963571370        1135781192.5813110     
  -1157618640.5637586        27747672.828647554        1118343753.6903334     
  -803663658.92887211        112110138.75486875        1110725648.6030266     
  -2444288966.6235538       -172578034.38702083        1212543688.4115872     
  -2096594452.2902746       -88310396.606509447        1210865916.7095664     
  -1748999735.4594727       -4375417.1675857306        1194574950.5439551     
  -1401504816.1311517        79226903.929725945        1163670789.9147573     
  -1054109694.3053092        162496566.68545657        1118153434.8219662     
  -2528866885.1877847       -68206346.278502703        1223576630.2958486     
  -2258812879.1562285       -10218428.327848434        1257792414.1736503     
  -1988434195.6698384        48851747.805581570        1252962475.3206110     
  -1717730834.7286077        109004182.12181973        1209086813.7367229     
  -1446702796.3325510        170238874.62080294        1126165429.4219897     
  -729212788.12843490       -116595077.09203789        1097622701.3083711     
  -741926212.35145867       -139216127.13842952        1218405055.5092182     
  -750123129.36763704       -146782153.16200212        1311610883.7816617     
  -753803539.17697144       -139293155.16276133        1377240186.1257000     
  -752967441.77947259       -116749133.14074430        1415292962.5413265     
  -695364690.20325089        19079590.829034597        1103882070.7651584     
  -765038556.48809683       -22606868.172417641        1186706029.2428360     
  -832501114.33136129       -56922299.035262436        1257690498.7448394     
  -897752363.73304534       -83866701.759505540        1316835479.2711682     
  -960792304.69315207       -103440076.34515503        1364140970.8218203     
  -803663658.92887211        112110138.75486875        1110725648.6030266     
  -885335004.55345094        64847159.614987850        1152901812.7980611     
  -967100240.50171089        17271212.729503751        1198975524.9701493     
  -1048959366.7736567       -30617701.901600838        1248946785.1192956     
  -1130912383.3692813       -78819584.278300703        1302815593.2454996     
  -1054109694.3053092        162496566.68545657        1118153434.8219662     
  -1102815556.5475309        123145956.22376460        1116992406.1748877     
  -1153920507.8786938        75798382.132269442        1135465962.4575903     
  -1207424548.2988017        20453844.410962045        1173574103.6700830     
  -1263327677.8078594       -42887656.940181077        1231316829.8123655     
  -1446702796.3325510        170238874.62080294        1126165429.4219897     
  -1417480212.4703279        152289521.65392643        1078977809.3733189     
  -1392961916.4623084        118659209.17304575        1067161811.2071624     
  -1373147908.3084989        69347937.178124309        1090717434.9235289     
  -1358038188.0088940        4355705.6691951156        1149644680.5224147     
  -752967441.77947259       -116749133.14074430        1415292962.5413265     
  -679636085.48755121       -72183804.412067831        1387011202.5184503     
  -610641415.05854130       -42074095.226432383        1375865917.3195388     
  -545983430.49243987       -26420005.583823800        1381857106.9445972     
  -485662131.78924471       -25221535.484234676        1404984771.3936255     
  -960792304.69315207       -103440076.34515503        1364140970.8218203     
  -855940861.48172092       -72595709.163553804        1341825401.6905293     
  -753267544.39377117       -49011762.393558860        1329785954.1842124     
  -652772353.42930877       -32688236.035186917        1328022628.3028789     
  -554455288.58832920       -23625130.088424921        1336535424.0465178     
  -1130912383.3692813       -78819584.278300703        1302815593.2454996     
  -1014141862.3783109       -67576481.385755867        1288984534.7017887     
  -897390907.77140260       -56398599.773419082        1278569244.5840645     
  -780659519.54854822       -45285939.441261202        1271569722.8923287     
  -663947697.70975733       -34238500.389321655        1267985969.6265807     
  -1263327677.8078594       -42887656.940181077        1231316829.8123655     
  -1154239088.1773267       -57126121.078687370        1228488601.5522292     
  -1043011505.1914324       -64234607.365998805        1222215788.5190904     
  -929644928.85016489       -64213115.802065283        1212498390.7129509     
  -814139359.15353334       -57061646.386911035        1199336408.1338067     
  -1358038188.0088940        4355705.6691951156        1149644680.5224147     
  -1276232538.8787680       -41244628.242356479        1160337602.2418523     
  -1190129336.6538551       -72519785.171283185        1160725585.9892974     
  -1099728581.3341439       -89469765.117548078        1150808631.7647471     
  -1005030272.9196552       -92094568.081224203        1130586739.5681992     
  -485662131.78924471       -25221535.484234676        1404984771.3936255     
  -429451371.31433916       -27134353.058156222        1430594775.6554565     
  -370142249.94685525       -18719300.990151018        1454405662.3572490     
  -307734767.68681818        23620.719700157642        1476417431.4990017     
  -242228924.53420430        29094412.071471006        1496630083.0807164     
  -554455288.58832920       -23625130.088424921        1336535424.0465178     
  -498909311.20326817       -26554185.218366593        1352962086.5214782     
  -440631911.98478895       -20378500.903580248        1370911011.3079865     
  -379623090.93290055       -5098077.1440970451        1390382198.4060462     
  -315882848.04759061        19287086.060125068        1411375647.8156445     
  -663947697.70975733       -34238500.389321655        1267985969.6265807     
  -599576846.63858640       -35336896.042510331        1274801194.7456589     
  -532841512.79314601       -28553682.448136508        1286460062.0478716     
  -463741696.17344528       -13888859.606232971        1302962571.5332181     
  -392277396.77948087        8657572.4832213074        1324308723.2016971     
  -814139359.15353334       -57061646.386911035        1199336408.1338067     
  -731453977.62028313       -53482485.530545980        1196112100.3279934     
  -646771052.37192690       -43244845.623829931        1201052814.5769010     
  -560090583.40844846       -26348726.666706443        1214158550.8805373     
  -471412570.72986197       -2794128.6592197418        1235429309.2388790     
  -1005030272.9196552       -92094568.081224203        1130586739.5681992     
  -894540704.14837217       -80990953.682529300        1116894803.2684875     
  -782420530.72112310       -64451990.430622935        1114689268.8950806     
  -668669752.63791621       -42477678.325518042        1123970136.4479849     
  -553288369.89875257       -15068017.367226958        1144737405.9271901     
  -242228924.53420430        29094412.071471006        1496630083.0807164     
  -201082076.51096234        62166452.361999869        1473832855.8790050     
  -155577140.49398157        109765452.63165799        1454985727.1472654     
  -105714116.48326850        171891412.88042212        1440088696.8855076     
  -51493004.478809297        248544333.10834345        1429141765.0937178     
  -315882848.04759061        19287086.060125068        1411375647.8156445     
  -263286639.59089383        53866550.187598139        1394054393.6549263     
  -204496021.37300354        109094046.85238825        1381242374.3183770     
  -139510993.39390904        184969576.05452567        1372939589.8059680     
  -68331555.653620705        281493137.79397607        1369146040.1177311     
  -392277396.77948087        8657572.4832213074        1324308723.2016971     
  -326634295.44881153        45223720.179795563        1314605817.4773529     
  -252960462.58948487        108558972.97189988        1309971282.9313431     
  -171255898.20149922        198663330.85953081        1310405119.5636714     
  -81520602.284854680        315536793.84269184        1315907327.3743389     
  -471412570.72986197       -2794128.6592197418        1235429309.2388790     
  -391125044.08470911        36237962.338601515        1235487127.3462734     
  -300970464.14343107        108160230.99016245        1241172452.9861848     
  -200948830.90604037        212972677.29543746        1252485286.1586072     
  -91060144.372521788        350675301.25447273        1269425626.8635597     
  -553288369.89875257       -15068017.367226958        1144737405.9271901     
  -456758885.49858761        26909276.664013177        1156698323.2616880     
  -348526026.03484130        107897820.90719083        1174845884.4828866     
  -228589791.50751671        227897615.36229473        1199180089.5907838     
  -96950181.916616976        386908660.02931845        1229700938.5853832     
  -51493004.478809297        248544333.10834345        1429141765.0937178     
  -41617643.609163702        330434704.33159691        1339549826.7003839     
  -23875419.303072304        438547953.67634112        1249083529.2938259     
   1733668.4394396544        572884081.14248991        1157742872.8740711     
   35209619.618415862        733443086.73017585        1065527857.4410886     
  -68331555.653620705        281493137.79397607        1369146040.1177311     
  -55305101.927449971        383696873.61011195        1290444136.3664510     
  -33225100.194848567        516079102.78101903        1210352809.6888983     
  -2091550.4558210671        678639825.30668616        1128872060.0850744     
   38095547.289637417        871379041.18711376        1046001887.5549653     
  -81520602.284854680        315536793.84269184        1315907327.3743389     
  -66814666.882334471        437612410.89765429        1249479923.5967760     
  -41868498.903392673        593822136.54069424        1181148032.9798825     
  -6682098.3480371535        784165970.77176952        1110911655.5236425     
   38744534.783736467        1008643913.5909151        1038770791.2280779     
  -91060144.372521788        350675301.25447273        1269425626.8635597     
  -76146338.473822415        492181316.19421226        1216657188.3913596     
  -49805615.428712279        671777054.95532954        1161469199.1667757     
  -12037975.237202466        889462517.53776801        1103861659.1897905     
   37156582.100714982        1145237703.9415734        1043834568.4603970     
  -96950181.916616976        386908660.02931845        1229700938.5853832     
  -83300116.701908648        547403589.49979746        1191975930.7502091     
  -57036449.770805597        749943858.02493107        1151316308.2495790     
  -18159181.123315632        994529465.60469151        1107722071.0834827     
   33331689.240575671        1281160412.2391098        1061193219.2519444     
  -5182066801.9461203        468146211.20921397        2992820434.1173296     
  -4310171641.8977690        324859835.31343222        1935224792.6994901     
  -3409269082.8567595        278264789.39317393        1238364553.1973746     
  -2479359124.8230910        328361073.44843698        902239715.61098158     
  -1520441767.7967651        475148687.47923660        926850279.94030857     
  -8576751448.0882759       -864005655.31622148        1978316986.9468648     
  -6854398850.2904301       -554642510.03699756        1457073002.3177025     
  -5123563694.8735409       -217004172.69432163        1124834063.0012791     
  -3384245981.8376241        148909356.71179438        981600168.99759161     
  -1636445711.1826711        543098078.18136489        1027371320.3066417     
  -10256156969.278015       -1681573784.3559334        1051752629.2379987     
  -8174005095.4534788       -1066758566.4185448        1042914653.1282852     
  -6103895505.3835344       -492084294.32978582        1051351365.7283269     
  -4045828199.0681753        42449031.910347939        1077062767.0381176     
  -1999803176.5074077        536841412.30185258        1120048857.0576608     
  -10220283365.515329       -1984558175.9099164        213127360.99072719     
  -8268990377.3869219       -1211488333.8312087        692749745.13123798     
  -6350264514.3867311       -546975575.51320767        1017916461.3785185     
  -4464105776.5147505        8980099.0440900326        1188627509.7325611     
  -2610514163.7709823        456378689.84068596        1204882890.1933749     
  -8469130636.8002119       -1772958829.9781718       -537558817.79494584     
  -7139354696.0907612       -988831812.27499080        406578278.32656282     
  -5862670721.8831320       -381678016.24459004        1024529349.9518507     
  -4639078714.1773443        48502558.113032341        1316294397.0809219     
  -3468578672.9733915        301709910.79786611        1281873419.7137744     
  -1520441767.7967651        475148687.47923660        926850279.94030857     
  -1781618801.8073792        309074080.16360557        1005311812.5126710     
  -2036748666.0427563        163156705.43209422        1080920048.4293845     
  -2285831360.5028887        37396563.284736514        1153674987.6904409     
  -2528866885.1877847       -68206346.278502703        1223576630.2958486     
  -1636445711.1826711        543098078.18136489        1027371320.3066417     
  -1894714922.7512417        360682299.40538418        1033394280.9862777     
  -2144840530.7818244        205411865.75603867        1048278364.3832191     
  -2386822535.2744050        77286777.233357191        1072023570.4974617     
  -2620660936.2289944       -23692966.162680387        1104629899.3290131     
  -1999803176.5074077        536841412.30185258        1120048857.0576608     
  -2221694795.9969172        348125392.95662487        1056079085.2344508     
  -2433346378.1856833        193542831.28055298        1012684855.5015026     
  -2634757923.0736976        73093727.273648500        989866167.85881710     
  -2825929430.6609631       -13221919.064092278        987623022.30639076     
  -2610514163.7709823        456378689.84068596        1204882890.1933749     
  -2762558421.5444107        271403360.81732047        1073366225.2571963     
  -2902266208.2543397        127549602.00562429        974139521.78423929     
  -3029637523.9007626        24817413.405606389        907202779.77449632     
  -3144672368.4836831       -36793204.982724667        872555999.22797668     
  -3468578672.9733915        301709910.79786611        1281873419.7137744     
  -3517305799.3937182        130516202.98746657        1085255701.0545106     
  -3551600020.9877901        7432177.9312567711        932642363.23141932     
  -3571461337.7556086       -67542164.370773792        824033406.24450779     
  -3576889749.6971602       -94406823.918590784        759428830.09377146     
  -2528866885.1877847       -68206346.278502703        1223576630.2958486     
  -2258812879.1562285       -10218428.327848434        1257792414.1736503     
  -1988434195.6698384        48851747.805581570        1252962475.3206110     
  -1717730834.7286077        109004182.12181973        1209086813.7367229     
  -1446702796.3325510        170238874.62080294        1126165429.4219897     
  -2620660936.2289944       -23692966.162680387        1104629899.3290131     
  -2432700339.9336729        13466302.637215495        1108904502.0857074     
  -2245235448.4812026        48973221.960939527        1093882662.1955473     
  -2058266261.8715942        82827791.808459759        1059564379.6585367     
  -1871792780.1048386        115030012.17979968        1005949654.4746753     
  -2825929430.6609631       -13221919.064092278        987623022.30639076     
  -2663635729.5761776        20036654.942754626        960999331.26133215     
  -2502658115.6319366        48908271.814456344        934828477.65341842     
  -2342996588.8282433        73392931.551007628        909110461.48264527     
  -2184651149.1650906        93490634.152406931        883845282.74901712     
  -3144672368.4836831       -36793204.982724667        872555999.22797668     
  -2951619048.0837374        9492628.5887739658        814076901.70053065     
  -2760702197.1220202        48656897.366185427        775799921.69421959     
  -2571921815.5985451        80699601.349452972        757725059.20904720     
  -2385277903.5132966        105620740.53863156        759852314.24501133     
  -3576889749.6971602       -94406823.918590784        759428830.09377146     
  -3296650295.4563556       -18165776.424717426        668137213.40329611     
  -3019367692.9514651        48219098.616099834        616796994.31795645     
  -2745041942.1825061        104747801.20381820        605408172.83774841     
  -2473673043.1494684        151420331.33845973        633970748.96266961     
  -1446702796.3325510        170238874.62080294        1126165429.4219897     
  -1417480212.4703279        152289521.65392643        1078977809.3733189     
  -1392961916.4623084        118659209.17304575        1067161811.2071624     
  -1373147908.3084989        69347937.178124309        1090717434.9235289     
  -1358038188.0088940        4355705.6691951156        1149644680.5224147     
  -1871792780.1048386        115030012.17979968        1005949654.4746753     
  -1765545929.7270479        115949562.85092795        984889130.60555506     
  -1663560306.5614667        102665022.81468236        983352058.25712025     
  -1565835910.6081042        75176392.071051776        1001338437.4293712     
  -1472372741.8669515        33483670.620046258        1038848268.1223178     
  -2184651149.1650906        93490634.152406931        883845282.74901712     
  -2046660519.0198190        99694942.437114358        889428759.14177191     
  -1912488055.4447718        93172028.821074843        898687516.69338274     
  -1782133758.4399440        73921893.304305553        911621555.40384626     
  -1655597628.0053387        41944535.886788487        928230875.27316582     
  -2385277903.5132966        105620740.53863156        759852314.24501133     
  -2260823980.3486428        103525660.41248488        792596694.98197198     
  -2139745163.1122282        90180227.192215204        813168186.51595128     
  -2022041451.8040290        65584440.877880931        821566788.84695077     
  -1907712846.4240649        29738301.469437242        817792501.97497594     
  -2473673043.1494684        151420331.33845973        633970748.96266961     
  -2408036313.7135220        127441716.77703559        694392938.12615120     
  -2345331629.5638237        93689617.928128839        726794067.72482264     
  -2285558990.7003531        50164034.791791439        731174137.75868571     
  -2228718397.1231270       -3135032.6320278645        707533148.22773218     
  -1358038188.0088940        4355705.6691951156        1149644680.5224147     
  -1276232538.8787680       -41244628.242356479        1160337602.2418523     
  -1190129336.6538551       -72519785.171283185        1160725585.9892974     
  -1099728581.3341439       -89469765.117548078        1150808631.7647471     
  -1005030272.9196552       -92094568.081224203        1130586739.5681992     
  -1472372741.8669515        33483670.620046258        1038848268.1223178     
  -1409682148.7364526       -17442082.532034934        1033989175.9593220     
  -1342731158.5154254       -54166512.049014747        1025960075.4395001     
  -1271519771.2038686       -76689617.930895030        1014760966.5628504     
  -1196047986.8017747       -85011400.177659452        1000391849.3293675     
  -1655597628.0053387        41944535.886788487        928230875.27316582     
  -1591636577.6882908       -8190982.5499845743        907776420.55611241     
  -1523452286.2849646       -44249030.699163616        891286887.09739149     
  -1451044753.7953689       -66229608.560767949        878762274.89701188     
  -1374413980.2194891       -74132716.134779871        870202583.95496416     
  -1907712846.4240649        29738301.469437242        817792501.97497594     
  -1822095825.7342725       -13491328.296148062        781699336.03221846     
  -1732292719.9624619       -42767341.121683359        756706020.96296954     
  -1638303529.1086357       -58089737.007164240        742812556.76721692     
  -1540128253.1727879       -59458515.952578902        740018943.44496584     
  -2228718397.1231270       -3135032.6320278645        707533148.22773218     
  -2101059892.8744068       -33343119.770590663        655757922.38764787     
  -1969252459.5479224       -49721443.316600442        622217477.03622818     
  -1833296097.1436820       -52270003.270098090        606911812.17348075     
  -1693190805.6616814       -40988799.631049752        609840927.79939282     
  -1005030272.9196552       -92094568.081224203        1130586739.5681992     
  -894540704.14837217       -80990953.682529300        1116894803.2684875     
  -782420530.72112310       -64451990.430622935        1114689268.8950806     
  -668669752.63791621       -42477678.325518042        1123970136.4479849     
  -553288369.89875257       -15068017.367226958        1144737405.9271901     
  -1196047986.8017747       -85011400.177659452        1000391849.3293675     
  -1059179585.3572586       -67823947.246679246        990278310.44005656     
  -921896690.85049355       -49254850.774866432        987565816.63485122     
  -784199303.28150284       -29304110.762293756        992254367.91376162     
  -646087422.65026999       -7971727.2089321613        1004343964.2767873     
  -1374413980.2194891       -74132716.134779871        870202583.95496416     
  -1222839194.2222815       -54363159.107641876        862248645.61669648     
  -1072066026.7565626       -37265663.852125287        857610395.52035153     
  -922094477.82232571       -22840230.368226826        856287833.66592455     
  -772924547.41957808       -11086858.655954570        858280960.05342174     
  -1540128253.1727879       -59458515.952578902        740018943.44496584     
  -1385519530.7434511       -40608589.265465915        732805808.79840767     
  -1232928538.4393206       -28484429.662374675        724823005.55157351     
  -1082355276.2604046       -23086037.143330097        716070533.70447195     
  -933799744.20669734       -24413411.708326995        706548393.25708616     
  -1693190805.6616814       -40988799.631049752        609840927.79939282     
  -1547220594.9207644       -26560237.720129848        601949799.98519170     
  -1404484225.8987832       -22911148.205662072        589203646.72853196     
  -1264981698.5957303       -30041531.087624192        571602468.02939439     
  -1128713013.0116169       -47951386.366046131        549146263.88779831     
  -553288369.89875257       -15068017.367226958        1144737405.9271901     
  -456758885.49858761        26909276.664013177        1156698323.2616880     
  -348526026.03484130        107897820.90719083        1174845884.4828866     
  -228589791.50751671        227897615.36229473        1199180089.5907838     
  -96950181.916616976        386908660.02931845        1229700938.5853832     
  -646087422.65026999       -7971727.2089321613        1004343964.2767873     
  -534925450.14124840        22500982.483427405        1018370540.6035569     
  -412820630.97424835        89449847.702373415        1040121137.2055749     
  -279772965.14928454        192874868.44786826        1069595754.0828320     
  -135782452.66634369        332776044.71995586        1106794391.2353287     
  -772924547.41957808       -11086858.655954570        858280960.05342174     
  -642737582.83444631        9199017.8876871169        873485912.23259497     
  -502368299.99694681        63425955.272562772        897952261.07555461     
  -351816698.90707749        151593953.49866116        931680006.58229315     
  -191082779.56484723        273703012.56596357        974669148.75280833     
  -933799744.20669734       -24413411.708326995        706548393.25708616     
  -780195283.57819390       -12996617.123204678        722044438.14879251     
  -617169033.10293496        29826143.617768139        748339256.09282136     
  -444720992.78090757        104054870.51463613        785432847.08916450     
  -262851162.61213073        209689563.56733555        833325211.13783002     
  -1128713013.0116169       -47951386.366046131        549146263.88779831     
  -947298552.37249374       -44085922.549288929        564046118.35215807     
  -757222830.29220605       -11349587.261993051        591282122.25737536     
  -558485846.77077091        50257619.495799005        630854275.60345221     
  -351087601.80819303        140735697.72406727        682762578.39039028     
  -96950181.916616976        386908660.02931845        1229700938.5853832     
  -83300116.701908648        547403589.49979746        1191975930.7502091     
  -57036449.770805597        749943858.02493107        1151316308.2495790     
  -18159181.123315632        994529465.60469151        1107722071.0834827     
   33331689.240575671        1281160412.2391098        1061193219.2519444     
  -135782452.66634369        332776044.71995586        1106794391.2353287     
  -126655149.70911774        483599123.12807316        1086353115.5520921     
  -94593200.007399291        710871024.01784194        1067599372.2737266     
  -39596603.561177552        1014591747.3892707        1050533161.4002249     
   38334639.629532814        1394761293.2423422        1035154482.9315867     
  -191082779.56484723        273703012.56596357        974669148.75280833     
  -173272104.37847093        418816080.25771564        983552824.42096901     
  -122205737.41949922        674781453.85811508        998746179.56431222     
  -37883678.687933326        1041599133.3671752        1020249214.1828444     
   79694071.816234231        1519269118.7848847        1048061928.2765574     
  -262851162.61213073        209689563.56733555        833325211.13783002     
  -223150980.70996687        353054460.88871038        883575057.35683441     
  -139874062.00710958        641675147.54574120        944756730.12134540     
  -13020406.503556907        1075551623.5384092        1016870229.4313593     
   157409985.80069482        1654683888.8667684        1099915555.2868783     
  -351087601.80819303        140735697.72406727        682762578.39039028     
  -276291778.70360792        286314265.02108145        786419814.35968792     
  -147598173.77024567        611552105.08067477        905631023.94480884     
   34993212.991933644        1116449217.9030087        1040396207.1457599     
   271482381.58290607        1801005603.4879637        1190715363.9625459     
  -8469130636.8002119       -1772958829.9781718       -537558817.79494584     
  -7139354696.0907612       -988831812.27499080        406578278.32656282     
  -5862670721.8831320       -381678016.24459004        1024529349.9518507     
  -4639078714.1773443        48502558.113032341        1316294397.0809219     
  -3468578672.9733915        301709910.79786611        1281873419.7137744     
  -6242107703.6040010       -648101740.72256422       -117503662.27926946     
  -5743223792.4704351       -394758813.76978660        409182806.63735735     
  -5260267860.7690687       -194509151.59098530        745396221.31883729     
  -4793239908.4998894       -47352754.186146498        891136581.76517248     
  -4342139935.6628933        46710378.444729328        846403887.97636604     
  -5286643276.7141953        95287796.641127110        172596930.82618469     
  -5230900051.5534554       -65827964.075584888        325190757.45250773     
  -5153920818.7552671       -156157032.66745663        423024500.10476178     
  -5055705578.3196182       -175699409.13448048        466098158.78294665     
  -4936254330.2465153       -124455093.47664332        454411733.48706359     
  -5602737356.1307878        457209782.11289477        332742961.52140421     
  -5602383473.3398094       -2039263.1923873425        154602130.77201104     
  -5543629595.8417253       -266621659.47401071        57414186.309627004     
  -5426475723.6365452       -336537406.73196936        41179128.134245306     
  -5250921856.7242613       -211786504.96625972        105896956.24587327     
  -7190389941.8537855        437664215.69274092        362934429.80638987     
  -6857674057.8294897       -203392711.12017417       -102583073.40413031     
  -6429394192.0284424       -525903032.01062703       -351434720.06656945     
  -5905550344.4506588       -529866746.97861934       -383620510.18093407     
  -5286142515.0961313       -215283856.02410722       -199140443.74721354     
  -3468578672.9733915        301709910.79786611        1281873419.7137744     
  -3517305799.3937182        130516202.98746657        1085255701.0545106     
  -3551600020.9877901        7432177.9312567711        932642363.23141932     
  -3571461337.7556086       -67542164.370773792        824033406.24450779     
  -3576889749.6971602       -94406823.918590784        759428830.09377146     
  -4342139935.6628933        46710378.444729328        846403887.97636604     
  -4261837483.7181778        6108033.1713657379        746847149.66132343     
  -4181052912.7609801       -32887248.727047443        672403084.05159390     
  -4099786222.7912965       -70275467.250515461        623071691.14717412     
  -4018037413.8091335       -106056622.39904642        598852970.94806373     
  -4936254330.2465153       -124455093.47664332        454411733.48706359     
  -4780898608.8820915       -50658968.896567345        435640058.73351246     
  -4639011554.3189526       -21758400.320796251        423089348.55440557     
  -4510593166.5571022       -37753387.749318361        416759602.94974464     
  -4395643445.5965443       -98643931.182127476        416650821.91952747     
  -5250921856.7242613       -211786504.96625972        105896956.24587327     
  -5074489174.8854485       -39784803.216333866        151634428.27106881     
  -4925475945.6616993        40818723.150038004        184701156.73985657     
  -4803882169.0530100        30024074.132877588        205097141.65221393     
  -4709707845.0593948       -72168750.267851591        212822383.00815353     
  -5286142515.0961313       -215283856.02410722       -199140443.74721354     
  -5142609181.7282619        38730530.212059259       -105169741.72598772     
  -5040446086.7892313        154844121.68541813       -42761491.392065637     
  -4979653230.2790318        133056918.39600158       -11915692.745413013     
  -4960230612.1976700       -26631079.656186581       -12632345.786053237     
  -3576889749.6971602       -94406823.918590784        759428830.09377146     
  -3296650295.4563556       -18165776.424717426        668137213.40329611     
  -3019367692.9514651        48219098.616099834        616796994.31795645     
  -2745041942.1825061        104747801.20381820        605408172.83774841     
  -2473673043.1494684        151420331.33845973        633970748.96266961     
  -4018037413.8091335       -106056622.39904642        598852970.94806373     
  -3656312505.7954841       -54215422.766021490        523395359.08199984     
  -3292676623.3401885        3995691.6724903584        476298202.01933950     
  -2927129766.4432383        68576720.916511893        457561499.76008344     
  -2559671935.1046410        139527664.96602082        467185252.30423421     
  -4395643445.5965443       -98643931.182127476        416650821.91952747     
  -3985550063.2435622       -81137673.240033388        362706345.41837043     
  -3568677880.2713504       -41035413.233837843        325531380.91889483     
  -3145026896.6799254        21662848.836415648        305125928.42109048     
  -2714597112.4692731        106957112.97074425        301489987.92497116     
  -4709707845.0593948       -72168750.267851591        212822383.00815353     
  -4284362967.8005776       -98932527.846715212        186070172.41240969     
  -3847371463.7449636       -86874216.102904320        164496531.01661745     
  -3398733332.8925576       -35993815.036455631        148101458.82077798     
  -2938448575.2433553        53708675.352632403        136884955.82488579     
  -4960230612.1976700       -26631079.656186581       -12632345.786053237     
  -4552751219.4665356       -107599986.58606291       -6513159.9358836384     
  -4128757373.7610250       -133520716.93472242       -6806347.6874884283     
  -3688249075.0811448       -104393270.70211792       -13511909.040869527     
  -3231226323.4268970       -20217647.888310552       -26629843.996021170     
  -2473673043.1494684        151420331.33845973        633970748.96266961     
  -2408036313.7135220        127441716.77703559        694392938.12615120     
  -2345331629.5638237        93689617.928128839        726794067.72482264     
  -2285558990.7003531        50164034.791791439        731174137.75868571     
  -2228718397.1231270       -3135032.6320278645        707533148.22773218     
  -2559671935.1046410        139527664.96602082        467185252.30423421     
  -2556609623.7988296        101963360.22786188        506488704.81527627     
  -2554928567.8870916        59794870.842785358        528814208.37027198     
  -2554628767.3694315        13022196.810781956        534161762.96922749     
  -2555710222.2458329       -38354661.868096471        522531368.61213869     
  -2714597112.4692731        106957112.97074425        301489987.92497116     
  -2742557474.6971092        65272641.434808493        321483958.65776616     
  -2770348302.4268646        24153284.892476320        335543091.04327911     
  -2797969595.6585188       -16400956.656183839        343667385.08152103     
  -2825421354.3920856       -56390083.211225510        345856840.77248257     
  -2938448575.2433553        53708675.352632403        136884955.82488579     
  -2965879866.4083681        17369560.397858858        139378699.65362385     
  -2991590833.1831322       -13235139.922760725        146980715.74385110     
  -3015581475.5676408       -38105425.609196424        159691004.09556833     
  -3037851793.5618973       -57241296.661450744        177509564.70877323     
  -3231226323.4268970       -20217647.888310552       -26629843.996021170     
  -3226576798.9326191       -41745882.883008480       -39827072.197146520     
  -3218656160.1559052       -52370403.602964520       -36872917.528025113     
  -3207464407.0967851       -52091210.048199534       -17767379.988631316     
  -3193001539.7552357       -40908302.218694091        17489540.421011806     
  -2228718397.1231270       -3135032.6320278645        707533148.22773218     
  -2101059892.8744068       -33343119.770590663        655757922.38764787     
  -1969252459.5479224       -49721443.316600442        622217477.03622818     
  -1833296097.1436820       -52270003.270098090        606911812.17348075     
  -1693190805.6616814       -40988799.631049752        609840927.79939282     
  -2555710222.2458329       -38354661.868096471        522531368.61213869     
  -2379330034.6143146       -37265969.606781602        490626202.59422684     
  -2202078223.5527844       -33271865.912110925        470742140.36675632     
  -2023954789.0612555       -26372350.784110785        462879181.92972708     
  -1844959731.1397290       -16567424.222770095        467037327.28313911     
  -2825421354.3920856       -56390083.211225510        345856840.77248257     
  -2618072845.3726935       -29330620.148520589        329998211.32103562     
  -2413130018.5710602       -10290097.811678052        319947008.96179861     
  -2210592873.9871659        731483.79936206341        315703233.69478089     
  -2010461411.6210287        3734124.6845573187        317266885.51997769     
  -3037851793.5618973       -57241296.661450744        177509564.70877323     
  -2817288325.1495490       -9537071.3957992792        173873948.56807074     
  -2602407844.6027436        19223860.984735250        169832082.82135895     
  -2393210351.9214191        29041500.480332017        165383967.46863210     
  -2189695847.1055961        19915847.090902686        160529602.50989744     
  -3193001539.7552357       -40908302.218694091        17489540.421011806     
  -2976976473.9448857        22114676.651371121        22253414.335342389     
  -2769911701.6478209        55270010.477160573        20397361.945430242     
  -2571807222.8639894        58557699.258831024        11921383.251286255     
  -2382663037.5934372        31977742.996245980       -3174521.7470863657     
  -1693190805.6616814       -40988799.631049752        609840927.79939282     
  -1547220594.9207644       -26560237.720129848        601949799.98519170     
  -1404484225.8987832       -22911148.205662072        589203646.72853196     
  -1264981698.5957303       -30041531.087624192        571602468.02939439     
  -1128713013.0116169       -47951386.366046131        549146263.88779831     
  -1844959731.1397290       -16567424.222770095        467037327.28313911     
  -1713678995.5099947       -20235112.700180411        453561860.47238582     
  -1582714928.3770273       -24958362.833466053        437817880.64665449     
  -1452067529.7408161       -30737174.622613072        419805387.80593193     
  -1321736799.6013589       -37571548.067606509        399524381.95022941     
  -2010461411.6210287        3734124.6845573187        317266885.51997769     
  -1886480115.5953979       -15812803.529087901        301610448.47187907     
  -1759898314.8443546       -26691382.658021688        286272010.83628231     
  -1630716009.3678851       -28901612.702190220        271251572.61318588     
  -1498933199.1659794       -22443493.661597192        256549133.80258390     
  -2189695847.1055961        19915847.090902686        160529602.50989744     
  -2065623955.1769888       -13293310.206892371        146095563.98366344     
  -1936034385.3007579       -28110207.679300189        134566037.29741406     
  -1800927137.4769318       -24534845.326370835        125941022.45115197     
  -1660302211.7054956       -2567223.1480864286        120220519.44486761     
  -2382663037.5934372        31977742.996245980       -3174521.7470863657     
  -2251110514.2547112       -12676632.733449817       -12982792.992244789     
  -2111123139.7462368       -29214837.897294521       -17300039.969946805     
  -1962700914.0679562       -17636872.495119572       -16126262.680170471     
  -1805843837.2198942        22057263.472972870       -9461461.1229265202     
  -1128713013.0116169       -47951386.366046131        549146263.88779831     
  -947298552.37249374       -44085922.549288929        564046118.35215807     
  -757222830.29220605       -11349587.261993051        591282122.25737536     
  -558485846.77077091        50257619.495799005        630854275.60345221     
  -351087601.80819303        140735697.72406727        682762578.39039028     
  -1321736799.6013589       -37571548.067606509        399524381.95022941     
  -1120568623.1611392       -17888810.497018218        420662648.53743899     
  -915611771.32832897        14422845.048840225        441009791.58759367     
  -706866244.10293853        59363418.569997519        460565811.10070109     
  -494332041.48495311        116932910.06646299        479330707.07676381     
  -1498933199.1659794       -22443493.661597192        256549133.80258390     
  -1315517801.1472692        1804569.3960036635        278241128.78931856     
  -1133186313.7845302        22439596.933677554        286014727.26108676     
  -951938737.07777536        39461588.951415479        279869929.21790087     
  -771775071.02699459        52870545.449251026        259806734.65974823     
  -1660302211.7054956       -2567223.1480864286        120220519.44486761     
  -1532146086.3308702        14994217.129805863        136781559.10779160     
  -1409946457.6608229        12700668.392453730        126296929.27785042     
  -1293703325.6952822       -9447869.3599377871        88766629.955032542     
  -1183416690.4343162       -51451396.127560019        24190661.139351014     
  -1805843837.2198942        22057263.472972870       -9461461.1229265202     
  -1770453478.7119842        21680132.704301000       -3716060.5071366699     
  -1745892202.9571698       -14793940.574723125       -38143602.362123743     
  -1732160009.9554968       -87364956.364190638       -112744086.68787652     
  -1729256899.7068961       -196032914.66392195       -227517513.48442096     
  -351087601.80819303        140735697.72406727        682762578.39039028     
  -276291778.70360792        286314265.02108145        786419814.35968792     
  -147598173.77024567        611552105.08067477        905631023.94480884     
   34993212.991933644        1116449217.9030087        1040396207.1457599     
   271482381.58290607        1801005603.4879637        1190715363.9625459     
  -494332041.48495311        116932910.06646299        479330707.07676381     
  -386253749.17213964        223225150.39555255        597820886.30471826     
  -229177634.27990237        492843465.98939079        735425066.76192832     
  -23103696.808253407        925787856.84794569        892143248.44838297     
   231968063.24282002        1522058322.9712462        1067975431.3640920     
  -771775071.02699459        52870545.449251026        259806734.65974823     
  -620242802.03901434        122927911.05054411        387413238.02208978     
  -424612669.72099590        339978154.41863662        537693770.22710681     
  -184884674.07294226        704021275.55352235        710648331.27480197     
   98941184.905167162        1215057274.4552584        906276921.16516960     
  -1183416690.4343162       -51451396.127560019        24190661.139351014     
  -978258937.30423951       -14577453.013967872        155196869.51180810     
  -733903280.09351540        152956170.36846751        312437134.34036553     
  -450349718.80212295        451149474.01979643        495911455.62501562     
  -127598253.43006170        880002457.94000447        705619833.36575973     
  -1729256899.7068961       -196032914.66392195       -227517513.48442096     
  -1460302154.9678187       -189290941.79802597       -98828219.226138473     
  -1157049465.3974555       -68222486.161134362        59655159.101685159     
  -819498830.99581885        167172452.24665761        247932621.49900958     
  -447650251.76287174        516893873.42546278        466004167.96587390     
 </DataArray>
 <DataArray  type="Float64" Name="VM" NumberOfComponents="1" format="ascii">
   6899950374.5220299     
   6429022651.7540588     
   6025169658.2765970     
   5637190529.8656750     
   5266651401.7010555     
   5756183446.7670746     
   5544969287.1807547     
   5387222798.8116913     
   5264044771.9299669     
   5172329392.8698759     
   5396125005.1576242     
   5252143898.4356451     
   5132565698.0655069     
   5022132312.2405529     
   4914434424.9913807     
   5828268195.5831366     
   5531915214.1341238     
   5254214538.5977602     
   4932323913.3763466     
   4534445271.9261303     
   7092940576.4981613     
   6363260696.1220779     
   5717365674.1431122     
   5005020502.9837990     
   4118871868.7293725     
   5266651401.7010555     
   5214630565.3788118     
   5143360498.7415047     
   5045292307.5147133     
   4920842511.9464178     
   5172329392.8698759     
   5070856776.7012568     
   4954784059.1396313     
   4820872461.6231680     
   4669230673.1339321     
   4914434424.9913807     
   4792129597.9542580     
   4665146832.6521339     
   4532471593.3587351     
   4394299679.4967155     
   4534445271.9261303     
   4401884369.6628504     
   4285914868.3699613     
   4183451496.4441681     
   4092687131.7066650     
   4118871868.7293725     
   3950599610.0166063     
   3842925050.8227229     
   3783604086.2722273     
   3763192112.7571955     
   4920842511.9464178     
   4484645513.6258154     
   4059220142.2708793     
   3643633784.0932364     
   3238597997.4974260     
   4669230673.1339321     
   4237412786.8641005     
   3812782432.1080146     
   3395354256.5911145     
   2986141259.6000838     
   4394299679.4967155     
   3989590929.2557540     
   3592581805.5303068     
   3203652948.5684562     
   2824354232.7864904     
   4092687131.7066650     
   3739206265.4302521     
   3397927921.0313950     
   3069181962.1855621     
   2755664290.8957210     
   3763192112.7571955     
   3485091206.5211515     
   3227746629.5557928     
   2990666106.7617025     
   2777801156.9685469     
   3238597997.4974260     
   3221350251.7498260     
   3206275622.8560262     
   3193602810.5106053     
   3184458999.5556006     
   2986141259.6000838     
   2994124497.3236060     
   3005065440.0759850     
   3018914138.8540711     
   3035756177.7443142     
   2824354232.7864904     
   2836659206.8804727     
   2848737465.6611323     
   2860129660.8993568     
   2870507268.5538645     
   2755664290.8957210     
   2754677488.2804327     
   2746134217.0705714     
   2728567876.5831561     
   2701365731.8971987     
   2777801156.9685469     
   2749996525.3677807     
   2704664698.8859878     
   2637815109.1575193     
   2547403025.4426985     
   3184458999.5556006     
   2997367668.4642425     
   2804423904.9106121     
   2604845587.4571514     
   2398649151.4292693     
   3035756177.7443142     
   2837739621.6215243     
   2636210973.0531201     
   2430700281.1225414     
   2221002833.6961355     
   2870507268.5538645     
   2674708889.2271466     
   2479664201.3873010     
   2285553657.1147962     
   2092902215.7834220     
   2701365731.8971987     
   2517935973.2694988     
   2341935372.7066140     
   2174071363.1776133     
   2015865294.5357513     
   2547403025.4426985     
   2381170119.5023298     
   2232065316.7513547     
   2100501711.5047212     
   1988219450.1587737     
   2398649151.4292693     
   2246540907.0289745     
   2100434437.1130602     
   1959729771.2588763     
   1824767235.6141541     
   2221002833.6961355     
   2079169619.2848923     
   1941743668.0325942     
   1808394108.7448452     
   1679179341.6437829     
   2092902215.7834220     
   1957174575.4301476     
   1823295421.8667452     
   1691155245.8946087     
   1560719688.2852507     
   2015865294.5357513     
   1885181275.6477945     
   1753275913.0754690     
   1620098149.9419515     
   1485611219.8010235     
   1988219450.1587737     
   1864858846.2317410     
   1737561832.7883236     
   1606209999.2323856     
   1470941738.2251372     
   1824767235.6141541     
   1787118776.3926656     
   1743492820.1107304     
   1703109048.0935807     
   1686358650.1711020     
   1679179341.6437829     
   1563540810.2879510     
   1437402582.1941059     
   1300950400.2681234     
   1160600807.6074655     
   1560719688.2852507     
   1408796008.1424038     
   1253066651.4067550     
   1091225749.5684843     
   921177893.73130548     
   1485611219.8010235     
   1338396645.2932625     
   1206375583.1861079     
   1094417962.5955555     
   1008896935.4989966     
   1470941738.2251372     
   1358039764.9919009     
   1281501493.6803942     
   1249688017.4280286     
   1270141014.5716176     
   1686358650.1711020     
   1385694295.7731597     
   1128989687.5577993     
   1010177365.3692706     
   1161332263.4467080     
   1160600807.6074655     
   1008658137.6511563     
   984165253.81440556     
   1160855751.9652021     
   1547552464.6113064     
   921177893.73130548     
   965344285.29307175     
   1145192286.0623562     
   1475319019.1442430     
   1956704274.8994491     
   1008896935.4989966     
   1169566470.3022625     
   1427617527.6294110     
   1808240662.8872066     
   2331962168.0080857     
   1270141014.5716176     
   1452723283.0644982     
   1719879993.8490813     
   2111918035.9846909     
   2660828154.6492796     
   7092940576.4981613     
   6363260696.1220779     
   5717365674.1431122     
   5005020502.9837990     
   4118871868.7293725     
   8300838338.8608742     
   7040713008.7651005     
   5804616128.7373180     
   4575438000.9402933     
   3346437975.0459509     
   8414178446.5768909     
   6943167370.8766346     
   5500328327.9748306     
   4107285423.4080243     
   2831246819.8355989     
   7479688874.2650661     
   6077442158.8702431     
   4791898479.4360437     
   3605532521.6134076     
   2573611318.8957391     
   5718841013.5407887     
   4495437934.0473442     
   3679092644.5937014     
   3080457388.5120001     
   2615210929.0253587     
   4118871868.7293725     
   3950599610.0166063     
   3842925050.8227229     
   3783604086.2722273     
   3763192112.7571955     
   3346437975.0459509     
   3328316483.9642320     
   3344683929.6512251     
   3389887279.3278399     
   3459459652.9776859     
   2831246819.8355989     
   2930116641.1062522     
   3035558072.8372626     
   3146178268.7310843     
   3260861018.7840662     
   2573611318.8957391     
   2741174569.4294858     
   2899347962.8890319     
   3041987382.9759092     
   3165498414.9354186     
   2615210929.0253587     
   2766224663.8806868     
   2925600631.8960195     
   3065150802.0863504     
   3167775222.7082644     
   3763192112.7571955     
   3485091206.5211515     
   3227746629.5557928     
   2990666106.7617025     
   2777801156.9685469     
   3459459652.9776859     
   3260935468.9946232     
   3076623379.9342990     
   2906779801.6180496     
   2753026452.6032505     
   3260861018.7840662     
   3105897473.1047635     
   2954811001.7518773     
   2807834315.0782332     
   2665286547.9273472     
   3165498414.9354186     
   3022269850.7536397     
   2868660956.3056622     
   2703735396.0491157     
   2526907385.4657774     
   3167775222.7082644     
   3009247338.6665101     
   2824153778.1132283     
   2608634388.6740985     
   2360309911.9749336     
   2777801156.9685469     
   2749996525.3677807     
   2704664698.8859878     
   2637815109.1575193     
   2547403025.4426985     
   2753026452.6032505     
   2673120083.8188033     
   2586231384.7922344     
   2490847785.4462037     
   2385718797.0029116     
   2665286547.9273472     
   2566505029.7320004     
   2474223268.6558762     
   2389837258.2273240     
   2315072596.6953998     
   2526907385.4657774     
   2437510582.5191488     
   2371366312.6659455     
   2331578625.6701198     
   2322547593.2204347     
   2360309911.9749336     
   2297764751.3905363     
   2280913080.8518162     
   2311453642.4172263     
   2393830249.6293454     
   2547403025.4426985     
   2381170119.5023298     
   2232065316.7513547     
   2100501711.5047212     
   1988219450.1587737     
   2385718797.0029116     
   2268991662.0520873     
   2164667658.8134379     
   2073169074.8844416     
   1995332110.3869481     
   2315072596.6953998     
   2237862120.2262564     
   2165573945.5657897     
   2098177441.3424339     
   2035710497.0102644     
   2322547593.2204347     
   2276638687.2604833     
   2226488483.4719887     
   2171213154.4940891     
   2110052233.7494104     
   2393830249.6293454     
   2371668284.8926020     
   2336275528.1829367     
   2285477897.3175402     
   2217544114.2640014     
   1988219450.1587737     
   1864858846.2317410     
   1737561832.7883236     
   1606209999.2323856     
   1470941738.2251372     
   1995332110.3869481     
   1878971835.3297205     
   1765189318.4631126     
   1654809748.9057658     
   1548946394.9818430     
   2035710497.0102644     
   1934305912.5774839     
   1842486250.8914955     
   1761784005.5912924     
   1693871333.4086354     
   2110052233.7494104     
   2027074408.2044721     
   1959964338.8981411     
   1910318335.2233870     
   1879653630.4681697     
   2217544114.2640014     
   2152053852.6097922     
   2107703766.9268858     
   2085694702.0886233     
   2087092315.5076184     
   1470941738.2251372     
   1358039764.9919009     
   1281501493.6803942     
   1249688017.4280286     
   1270141014.5716176     
   1548946394.9818430     
   1486054463.6147604     
   1456319905.7571013     
   1463650077.2978265     
   1511529817.7673621     
   1693871333.4086354     
   1664497775.1164238     
   1662413015.2840230     
   1689872066.5528519     
   1749565401.2260830     
   1879653630.4681697     
   1869398024.0174789     
   1880877435.6223133     
   1916185477.8970597     
   1978348610.1576810     
   2087092315.5076184     
   2085417048.2030582     
   2100968444.1695082     
   2136254261.2415321     
   2194985376.5236826     
   1270141014.5716176     
   1452723283.0644982     
   1719879993.8490813     
   2111918035.9846909     
   2660828154.6492796     
   1511529817.7673621     
   1618596789.0259955     
   1792470762.6506906     
   2067752533.0585945     
   2474409700.0456538     
   1749565401.2260830     
   1792635400.9506192     
   1887706378.2657824     
   2061665811.7700155     
   2339716959.3088603     
   1978348610.1576810     
   1973905125.8698359     
   2006194997.2078838     
   2093988836.7574172     
   2256090759.2312546     
   2194985376.5236826     
   2161752954.3611979     
   2148724045.6198292     
   2166636612.3188715     
   2226831508.7999387     
   5718841013.5407887     
   4495437934.0473442     
   3679092644.5937014     
   3080457388.5120001     
   2615210929.0253587     
   3659790238.3027167     
   3149682339.4188452     
   2927469087.9781804     
   2906408343.4567347     
   3037415439.3065228     
   2674602460.8128333     
   2723024349.3826327     
   2854953739.4341378     
   3056003948.5881548     
   3312411380.1972079     
   2321385828.2179766     
   2882899551.2640862     
   3269204274.8654313     
   3472087252.6558976     
   3500069229.8870077     
   2853353189.9304881     
   3492835775.6764798     
   3960698406.3196645     
   4061599274.9808865     
   3734632124.0192142     
   2615210929.0253587     
   2766224663.8806868     
   2925600631.8960195     
   3065150802.0863504     
   3167775222.7082644     
   3037415439.3065228     
   3087543575.4412460     
   3129336208.3209496     
   3157096856.0760942     
   3166627659.6240849     
   3312411380.1972079     
   3257324029.8564281     
   3207996878.6586852     
   3164933971.0619116     
   3129090357.9231701     
   3500069229.8870077     
   3328981253.1274981     
   3201003318.2629766     
   3114544889.8113303     
   3069615613.6732545     
   3734632124.0192142     
   3407731737.1619649     
   3181207968.6465478     
   3049933146.6294656     
   3009329716.4394317     
   3167775222.7082644     
   3009247338.6665101     
   2824153778.1132283     
   2608634388.6740985     
   2360309911.9749336     
   3166627659.6240849     
   2949177743.0186639     
   2726404097.4132357     
   2498055806.2375140     
   2264672299.4847546     
   3129090357.9231701     
   2885939048.5352840     
   2660616087.4938593     
   2457020893.5484352     
   2280112250.1225500     
   3069615613.6732545     
   2827130072.9777193     
   2626085787.3593736     
   2472236984.4175053     
   2372149287.9977326     
   3009329716.4394317     
   2782269205.8338733     
   2621064438.1504731     
   2529919079.6500144     
   2513693564.8170328     
   2360309911.9749336     
   2297764751.3905363     
   2280913080.8518162     
   2311453642.4172263     
   2393830249.6293454     
   2264672299.4847546     
   2286787684.6958671     
   2338293737.4791689     
   2419035980.2590365     
   2529436441.3572860     
   2280112250.1225500     
   2359488580.7317119     
   2445352553.3205185     
   2537526007.4430242     
   2635853885.2028198     
   2372149287.9977326     
   2492865687.6826406     
   2591973821.9232879     
   2669564136.0456195     
   2725851870.7194977     
   2513693564.8170328     
   2666663501.2383070     
   2768339709.8343611     
   2818244804.9608173     
   2816262918.1304502     
   2393830249.6293454     
   2371668284.8926020     
   2336275528.1829367     
   2285477897.3175402     
   2217544114.2640014     
   2529436441.3572860     
   2468013052.9108362     
   2406176905.8834476     
   2343720310.2152586     
   2280516652.6912179     
   2635853885.2028198     
   2548887720.1500688     
   2474813947.3213553     
   2414665636.8959255     
   2369438637.3877988     
   2725851870.7194977     
   2622423498.1300917     
   2545651580.4007826     
   2496786062.4723668     
   2477072141.2881513     
   2816262918.1304502     
   2698647650.6267438     
   2622560624.9718103     
   2588601959.3716211     
   2597537009.2063189     
   2217544114.2640014     
   2152053852.6097922     
   2107703766.9268858     
   2085694702.0886233     
   2087092315.5076184     
   2280516652.6912179     
   2241566302.4785466     
   2219143727.5695305     
   2213716784.0132647     
   2225693662.3839769     
   2369438637.3877988     
   2350771142.3468761     
   2343991051.2484183     
   2349202359.1225629     
   2366523707.4379697     
   2477072141.2881513     
   2473906429.8962173     
   2478110246.8455477     
   2489628991.0020266     
   2508476588.4746857     
   2597537009.2063189     
   2606392318.4573941     
   2618259569.4286308     
   2633028545.6165695     
   2650695969.3617187     
   2087092315.5076184     
   2085417048.2030582     
   2100968444.1695082     
   2136254261.2415321     
   2194985376.5236826     
   2225693662.3839769     
   2209429917.6331100     
   2207540808.2544866     
   2221961889.1828575     
   2255558142.4782100     
   2366523707.4379697     
   2337126271.3844109     
   2319952358.1462517     
   2316404957.2573752     
   2328535587.4617915     
   2508476588.4746857     
   2468006057.0642595     
   2438080758.4958806     
   2419644264.0294757     
   2414036876.5134974     
   2650695969.3617187     
   2601657399.1288333     
   2561808565.9098039     
   2531718093.9236474     
   2512152534.9918299     
   2194985376.5236826     
   2161752954.3611979     
   2148724045.6198292     
   2166636612.3188715     
   2226831508.7999387     
   2255558142.4782100     
   2187563355.3723755     
   2136095946.9122646     
   2110938333.1201971     
   2123232093.0883460     
   2328535587.4617915     
   2229323957.4487066     
   2143023631.3678896     
   2078006369.7529809     
   2044544431.7877467     
   2414036876.5134974     
   2287290330.1120067     
   2170145274.5192757     
   2069245062.4350288     
   1993320885.8587224     
   2512152534.9918299     
   2361623512.4344063     
   2217911045.3127985     
   2085820296.1456532     
   1972052512.3959672     
   2853353189.9304881     
   3492835775.6764798     
   3960698406.3196645     
   4061599274.9808865     
   3734632124.0192142     
   4407226857.7156763     
   4128306669.8372869     
   3849247655.1072130     
   3523403454.8939099     
   3138235092.8370066     
   5041006935.4160490     
   4212083097.1549568     
   3494631702.5183172     
   2968134906.3400679     
   2742265505.8634109     
   5015413034.2423859     
   3843196280.6989069     
   2952953035.0041232     
   2447682545.5813351     
   2443198433.1992106     
   5113335465.5504770     
   3563854438.4632659     
   2547652221.2182827     
   2081984183.3242106     
   2142142846.8053856     
   3734632124.0192142     
   3407731737.1619649     
   3181207968.6465478     
   3049933146.6294656     
   3009329716.4394317     
   3138235092.8370066     
   2964392750.5423136     
   2869709064.2961712     
   2852649125.4762197     
   2910282192.7159691     
   2742265505.8634109     
   2685102118.9266019     
   2686105796.2674088     
   2745293725.7763414     
   2860402564.9535341     
   2443198433.1992106     
   2488355647.4502325     
   2571869709.2388072     
   2690423124.5529189     
   2840007080.1017900     
   2142142846.8053856     
   2302284115.7878594     
   2477441972.1274700     
   2656307959.8958211     
   2831979913.8843336     
   3009329716.4394317     
   2782269205.8338733     
   2621064438.1504731     
   2529919079.6500144     
   2513693564.8170328     
   2910282192.7159691     
   2750699929.3958025     
   2633133327.2867551     
   2558475416.5395951     
   2527851532.5309095     
   2860402564.9535341     
   2750015356.7536902     
   2657661027.0898700     
   2583367150.8868828     
   2527289463.4031253     
   2840007080.1017900     
   2771135433.2667975     
   2696062332.8764930     
   2614447278.5190530     
   2526191967.6744857     
   2831979913.8843336     
   2805525178.4408207     
   2749685795.2690992     
   2663612610.4057741     
   2547024061.7969398     
   2513693564.8170328     
   2666663501.2383070     
   2768339709.8343611     
   2818244804.9608173     
   2816262918.1304502     
   2527851532.5309095     
   2620623420.4622517     
   2687726125.2177281     
   2728508603.3617105     
   2742548879.4026856     
   2527289463.4031253     
   2572639292.4840579     
   2617742739.9327512     
   2662371863.2489643     
   2706359785.2434139     
   2526191967.6744857     
   2531759210.4515529     
   2561291943.2044182     
   2614778377.0834746     
   2692158780.2190256     
   2547024061.7969398     
   2510187026.3056579     
   2521449421.1266651     
   2580734402.0810847     
   2687985374.8307586     
   2816262918.1304502     
   2698647650.6267438     
   2622560624.9718103     
   2588601959.3716211     
   2597537009.2063189     
   2742548879.4026856     
   2678474112.0451212     
   2642038377.9034429     
   2633303510.0065217     
   2652395666.3269901     
   2706359785.2434139     
   2685066037.0763803     
   2677598448.4564080     
   2683952600.5960813     
   2704131565.9421525     
   2692158780.2190256     
   2708233197.3886003     
   2724027892.0477633     
   2739538224.4492135     
   2754759899.9924617     
   2687985374.8307586     
   2739832286.8314075     
   2776882769.4522829     
   2799123644.8547621     
   2806553556.3698430     
   2597537009.2063189     
   2606392318.4573941     
   2618259569.4286308     
   2633028545.6165695     
   2650695969.3617187     
   2652395666.3269901     
   2648364766.2193027     
   2651331342.3539219     
   2661288855.2169256     
   2678272829.4837656     
   2704131565.9421525     
   2689105136.5771351     
   2685078293.8640199     
   2692077559.6545072     
   2710137393.9324594     
   2754759899.9924617     
   2729757209.7122016     
   2719894657.9291449     
   2725185547.9634757     
   2745641712.4564772     
   2806553556.3698430     
   2771569303.7063217     
   2756189295.2626185     
   2760409572.2613611     
   2784226707.1882339     
   2650695969.3617187     
   2601657399.1288333     
   2561808565.9098039     
   2531718093.9236474     
   2512152534.9918299     
   2678272829.4837656     
   2627319473.0676246     
   2583683704.8969126     
   2547677188.8918447     
   2519726362.5881653     
   2710137393.9324594     
   2659024786.2688503     
   2613549067.0553055     
   2573843761.0102835     
   2540092456.6715021     
   2745641712.4564772     
   2696345504.0782628     
   2651160684.0724015     
   2610118459.9772325     
   2573260829.1032510     
   2784226707.1882339     
   2738897589.8219085     
   2696281884.3641400     
   2656379202.8892155     
   2619189436.8699417     
   2512152534.9918299     
   2361623512.4344063     
   2217911045.3127985     
   2085820296.1456532     
   1972052512.3959672     
   2519726362.5881653     
   2351142714.3134809     
   2185384593.8408017     
   2025377170.6693563     
   1875450466.5026724     
   2540092456.6715021     
   2358637345.6910429     
   2176839275.4147420     
   1996030223.5073645     
   1818270816.3631983     
   2573260829.1032510     
   2384250265.9230828     
   2192749507.5287042     
   1999061824.7097905     
   1803666440.0741475     
   2619189436.8699417     
   2427989588.3724742     
   2233265646.1557269     
   2035021699.4427319     
   1833265165.7345645     
   5113335465.5504770     
   3563854438.4632659     
   2547652221.2182827     
   2081984183.3242106     
   2142142846.8053856     
   3961207778.2290397     
   3161177932.9821997     
   2595502242.3686385     
   2260565273.3372235     
   2190844156.2454672     
   3673347507.6240177     
   3173458412.1401148     
   2741365296.7854676     
   2421966749.5089040     
   2279115583.0552006     
   3223621129.4488401     
   2809383294.2765303     
   2574442806.7327280     
   2462264252.8711815     
   2408032004.2203226     
   2499934667.3548732     
   1837392808.8156292     
   1994705720.1877625     
   2369691170.1807480     
   2579369450.3976231     
   2142142846.8053856     
   2302284115.7878594     
   2477441972.1274700     
   2656307959.8958211     
   2831979913.8843336     
   2190844156.2454672     
   2314061575.2634559     
   2430569713.7802105     
   2532238963.7833695     
   2614668894.0561600     
   2279115583.0552006     
   2364345276.3481007     
   2423090137.2454290     
   2448796747.5473876     
   2437986540.4207063     
   2408032004.2203226     
   2459761728.9433427     
   2469963242.7690425     
   2432872926.1145391     
   2345251362.5990257     
   2579369450.3976231     
   2607890440.4311886     
   2587905409.2270489     
   2515692490.6625075     
   2390811589.2825980     
   2831979913.8843336     
   2805525178.4408207     
   2749685795.2690992     
   2663612610.4057741     
   2547024061.7969398     
   2614668894.0561600     
   2560052833.1478214     
   2510732142.5295591     
   2466266365.4120836     
   2426441424.4372072     
   2437986540.4207063     
   2352282352.4888964     
   2303440171.0135603     
   2290760373.1648722     
   2313494340.4600711     
   2345251362.5990257     
   2207745762.1350884     
   2134783183.2699978     
   2126303387.2447278     
   2182945455.4500117     
   2390811589.2825980     
   2157149978.8975306     
   2012133698.1383886     
   1962616184.8063927     
   2018576197.3248041     
   2547024061.7969398     
   2510187026.3056579     
   2521449421.1266651     
   2580734402.0810847     
   2687985374.8307586     
   2426441424.4372072     
   2439499872.8153496     
   2477492570.4333816     
   2540564318.5952415     
   2628792779.3345380     
   2313494340.4600711     
   2376426713.7975121     
   2442212375.0464306     
   2510690407.4868879     
   2581734821.0549183     
   2182945455.4500117     
   2306138082.8395486     
   2409401012.1957808     
   2491820321.1433663     
   2552867756.2998705     
   2018576197.3248041     
   2218125374.8593235     
   2373835367.7113972     
   2484551121.6806884     
   2549871475.5483451     
   2687985374.8307586     
   2739832286.8314075     
   2776882769.4522829     
   2799123644.8547621     
   2806553556.3698430     
   2628792779.3345380     
   2658298971.6660113     
   2683994861.7461367     
   2705868133.7521715     
   2723938759.8567162     
   2581734821.0549183     
   2586515346.7664328     
   2598491806.2150731     
   2617627430.4527988     
   2643961441.9096088     
   2552867756.2998705     
   2528220384.4307957     
   2521733810.0524769     
   2533386686.1689363     
   2563301238.9294004     
   2549871475.5483451     
   2487861977.6396470     
   2455194910.7050653     
   2452133403.7578244     
   2479153345.5919948     
   2806553556.3698430     
   2771569303.7063217     
   2756189295.2626185     
   2760409572.2613611     
   2784226707.1882339     
   2723938759.8567162     
   2704788249.9498463     
   2699919039.3917232     
   2709344603.9123387     
   2733078088.2642922     
   2643961441.9096088     
   2640672725.4056144     
   2646557115.1889830     
   2661625847.4560709     
   2685902348.0487814     
   2563301238.9294004     
   2577207587.8369832     
   2595162160.5477548     
   2617119138.0174909     
   2643082552.8659792     
   2479153345.5919948     
   2512631310.9382277     
   2544860386.2156835     
   2575681124.0563564     
   2605047727.3146811     
   2784226707.1882339     
   2738897589.8219085     
   2696281884.3641400     
   2656379202.8892155     
   2619189436.8699417     
   2733078088.2642922     
   2685966398.5421176     
   2642677175.0376544     
   2603247260.8635712     
   2567730241.3338857     
   2685902348.0487814     
   2638975622.3271351     
   2597107001.8995495     
   2560443476.4855175     
   2529189715.5152664     
   2643082552.8659792     
   2598180788.2381258     
   2559722343.1918926     
   2528040540.3047752     
   2503588256.1435528     
   2605047727.3146811     
   2563854342.5531998     
   2530667914.8177361     
   2506084564.7706656     
   2490895956.0154290     
   2619189436.8699417     
   2427989588.3724742     
   2233265646.1557269     
   2035021699.4427319     
   1833265165.7345645     
   2567730241.3338857     
   2380640001.1746058     
   2191186188.3535924     
   1999817916.3984468     
   1807253447.1591332     
   2529189715.5152664     
   2351382780.2308211     
   2173456468.5869436     
   1996991322.7671785     
   1824429424.4619167     
   2503588256.1435528     
   2340184212.9234958     
   2179886232.9519691     
   2025911598.9361043     
   1882989457.7932093     
   2490895956.0154290     
   2346881388.2440557     
   2209975983.8193922     
   2085260574.6174557     
   1979748234.4074526     
   2499934667.3548732     
   1837392808.8156292     
   1994705720.1877625     
   2369691170.1807480     
   2579369450.3976231     
   728586329.87262678     
   1291920604.2741389     
   1809118984.4224980     
   2235016297.3684688     
   2563850366.8685069     
   2288298985.6355772     
   2137624498.2712440     
   2139994279.2728703     
   2276467483.2718029     
   2529465239.1959324     
   4466622809.1793737     
   3490309427.4062891     
   2860315107.3764749     
   2528800424.6659384     
   2478245907.4495645     
   7507986721.2906342     
   5596302363.1515360     
   4153295897.8998823     
   3084035862.5295162     
   2416009039.5335283     
   2579369450.3976231     
   2607890440.4311886     
   2587905409.2270489     
   2515692490.6625075     
   2390811589.2825980     
   2563850366.8685069     
   2653474312.7942924     
   2704879543.0878115     
   2718985990.3711696     
   2698455974.5889425     
   2529465239.1959324     
   2673424048.2579913     
   2792684485.4808640     
   2889147136.4642868     
   2965191999.8979335     
   2478245907.4495645     
   2662045151.4342041     
   2837146800.0390196     
   3003463092.8476815     
   3161216179.5576525     
   2416009039.5335283     
   2617689831.7955618     
   2830625177.3396101     
   3050377629.1473970     
   3273950880.6375065     
   2390811589.2825980     
   2157149978.8975306     
   2012133698.1383886     
   1962616184.8063927     
   2018576197.3248041     
   2698455974.5889425     
   2436386049.2975740     
   2231130371.7465162     
   2093864760.6953077     
   2037849414.3101017     
   2965191999.8979335     
   2700446701.4728265     
   2464060337.6468072     
   2263857400.0765491     
   2109425799.5016515     
   3161216179.5576525     
   2935463292.3382111     
   2707839462.1626558     
   2478692934.0425124     
   2249364999.1630850     
   3273950880.6375065     
   3134546824.2261434     
   2960260195.2045250     
   2745067166.1179028     
   2484544432.0000892     
   2018576197.3248041     
   2218125374.8593235     
   2373835367.7113972     
   2484551121.6806884     
   2549871475.5483451     
   2037849414.3101017     
   2189363728.8336787     
   2322556037.6473994     
   2437184531.1570435     
   2533195420.3390365     
   2109425799.5016515     
   2198404524.7883682     
   2294539407.4594598     
   2397653162.5305252     
   2507593011.5994329     
   2249364999.1630850     
   2260573038.1706519     
   2300563430.2367258     
   2369560592.9897108     
   2468213608.0011148     
   2484544432.0000892     
   2396015228.2532883     
   2352915991.2645330     
   2356812011.5747471     
   2411483066.7573233     
   2549871475.5483451     
   2487861977.6396470     
   2455194910.7050653     
   2452133403.7578244     
   2479153345.5919948     
   2533195420.3390365     
   2465208609.3001442     
   2416172019.5843229     
   2386791694.5691028     
   2377784799.9109936     
   2507593011.5994329     
   2439049313.0070710     
   2379516251.7512407     
   2329548428.8968425     
   2289679345.2809181     
   2468213608.0011148     
   2407726478.8410263     
   2346579628.1709676     
   2284540361.4187398     
   2221451384.7967792     
   2411483066.7573233     
   2370017495.6240420     
   2318881344.8074155     
   2256567493.8811660     
   2181900217.0411658     
   2479153345.5919948     
   2512631310.9382277     
   2544860386.2156835     
   2575681124.0563564     
   2605047727.3146811     
   2377784799.9109936     
   2393300381.8983374     
   2413251613.5120220     
   2437558677.5891261     
   2466209659.1319342     
   2289679345.2809181     
   2283617342.0524516     
   2287894070.3009391     
   2302594798.5541544     
   2327817317.2794003     
   2221451384.7967792     
   2188793683.8619242     
   2172509375.5274839     
   2173057984.3524485     
   2190839374.7607946     
   2181900217.0411658     
   2115815423.4063785     
   2072077190.6411161     
   2051937293.2599394     
   2056523593.8915498     
   2605047727.3146811     
   2563854342.5531998     
   2530667914.8177361     
   2506084564.7706656     
   2490895956.0154290     
   2466209659.1319342     
   2432399383.3676324     
   2408219450.5880928     
   2394654819.0535316     
   2393078579.9142942     
   2327817317.2794003     
   2303925374.6258016     
   2291573577.3877692     
   2292226581.5139427     
   2307979226.3048916     
   2190839374.7607946     
   2178933429.4918203     
   2180908541.1664462     
   2198793437.4483118     
   2235513794.8080287     
   2056523593.8915498     
   2058032281.8120031     
   2076416645.6127944     
   2114328343.9576926     
   2175569283.8950500     
   2490895956.0154290     
   2346881388.2440557     
   2209975983.8193922     
   2085260574.6174557     
   1979748234.4074526     
   2393078579.9142942     
   2273156516.1838942     
   2163203665.6944757     
   2070031927.4430809     
   2002477687.5107446     
   2307979226.3048916     
   2215582990.4912553     
   2136485939.5641899     
   2079080304.7086675     
   2053513699.5722477     
   2235513794.8080287     
   2174001531.7750258     
   2129379107.2481575     
   2111285745.3695574     
   2130532494.5398381     
   2175569283.8950500     
   2148163923.1193867     
   2141268504.1594522     
   2165322843.0905757     
   2231181953.2317734     
   7507986721.2906342     
   5596302363.1515360     
   4153295897.8998823     
   3084035862.5295162     
   2416009039.5335283     
   8867808281.7481155     
   7061009568.8883247     
   5383485493.0058241     
   3856145410.8395133     
   2651063201.4966626     
   9699923312.1841202     
   7905419413.4866762     
   6149152402.0465136     
   4474646560.2805786     
   3020681534.8397536     
   9393944119.9029541     
   7827249012.1177340     
   6345081864.1295452     
   4920052358.3379364     
   3545374039.3510227     
   7792370965.1812162     
   6736799720.6516266     
   5952135309.0319433     
   5190982933.7768040     
   4254194381.4785604     
   2416009039.5335283     
   2617689831.7955618     
   2830625177.3396101     
   3050377629.1473970     
   3273950880.6375065     
   2651063201.4966626     
   2758104007.2088742     
   2894783795.0280108     
   3055334431.6972151     
   3235267456.0090327     
   3020681534.8397536     
   3029266665.7915750     
   3083209694.6163278     
   3174804147.3517876     
   3297709122.7965097     
   3545374039.3510227     
   3451304335.6590381     
   3414153536.0950170     
   3423968143.5473652     
   3472560638.1093979     
   4254194381.4785604     
   4047329956.0806212     
   3905096593.2647009     
   3815202087.1971111     
   3767700435.6832724     
   3273950880.6375065     
   3134546824.2261434     
   2960260195.2045250     
   2745067166.1179028     
   2484544432.0000892     
   3235267456.0090327     
   3104831613.5438294     
   2956886004.8224578     
   2789593540.5006490     
   2601529662.2682128     
   3297709122.7965097     
   3149489841.4627414     
   3001633420.9999189     
   2854194180.4057612     
   2707255624.2573156     
   3472560638.1093979     
   3275412545.6214352     
   3092534215.4650278     
   2924258728.7192125     
   2772141384.3400421     
   3767700435.6832724     
   3485336276.6813211     
   3225804261.2430921     
   2988866280.2257042     
   2778904022.1973438     
   2484544432.0000892     
   2396015228.2532883     
   2352915991.2645330     
   2356812011.5747471     
   2411483066.7573233     
   2601529662.2682128     
   2499065987.2442451     
   2418616602.2622724     
   2362888800.1829505     
   2335791142.9859948     
   2707255624.2573156     
   2603084827.0963869     
   2503477529.2334819     
   2409640110.4017911     
   2323153847.1441741     
   2772141384.3400421     
   2690859433.4922686     
   2600640697.9947157     
   2500096673.2021275     
   2388166355.0911283     
   2778904022.1973438     
   2751056018.8366919     
   2704400168.6267867     
   2635298095.1435962     
   2542049937.4963589     
   2411483066.7573233     
   2370017495.6240420     
   2318881344.8074155     
   2256567493.8811660     
   2181900217.0411658     
   2335791142.9859948     
   2273833996.2121668     
   2211540671.2938595     
   2148104028.7644897     
   2082890195.7301903     
   2323153847.1441741     
   2234392783.1403480     
   2153748013.0357499     
   2080981624.1057167     
   2016030262.3082578     
   2388166355.0911283     
   2264684145.0818405     
   2155549481.2017536     
   2060959905.8120203     
   1981625777.2350121     
   2542049937.4963589     
   2373934266.9397244     
   2223505602.1979179     
   2091149488.5154552     
   1978608399.6232600     
   2181900217.0411658     
   2115815423.4063785     
   2072077190.6411161     
   2051937293.2599394     
   2056523593.8915498     
   2082890195.7301903     
   1999144101.3392963     
   1932037885.6392136     
   1883229462.0846140     
   1854309162.2468758     
   2016030262.3082578     
   1913695855.3854051     
   1821331879.3567717     
   1740518777.2936594     
   1672992704.2280633     
   1981625777.2350121     
   1864420149.6112692     
   1749831433.4614778     
   1638691442.2090313     
   1532126833.9748495     
   1978608399.6232600     
   1854867422.1827216     
   1726964193.9580352     
   1594762474.0758333     
   1458373719.1950033     
   2056523593.8915498     
   2058032281.8120031     
   2076416645.6127944     
   2114328343.9576926     
   2175569283.8950500     
   1854309162.2468758     
   1846597832.0989783     
   1860350728.0527654     
   1897772386.8292818     
   1961974360.5210981     
   1672992704.2280633     
   1645612862.5670052     
   1645361583.2035589     
   1674566184.0181012     
   1735991287.0581639     
   1532126833.9748495     
   1470638706.5411837     
   1442300216.0128655     
   1451066447.3677917     
   1500490024.9187396     
   1458373719.1950033     
   1346105365.9233022     
   1270340389.6441061     
   1239528857.9468060     
   1261338104.8358667     
   2175569283.8950500     
   2148163923.1193867     
   2141268504.1594522     
   2165322843.0905757     
   2231181953.2317734     
   1961974360.5210981     
   1962561905.5678921     
   2000208566.6919749     
   2093322350.1616905     
   2260087464.8510823     
   1735991287.0581639     
   1783291268.9999285     
   1882872330.1057286     
   2061200842.1680861     
   2342809099.0568886     
   1500490024.9187396     
   1611006799.3916047     
   1788508119.8879645     
   2067138151.1033587     
   2476234155.8382549     
   1261338104.8358667     
   1446647039.2384019     
   1716551143.0185068     
   2110897448.8034301     
   2661163619.6888142     
   7792370965.1812162     
   6736799720.6516266     
   5952135309.0319433     
   5190982933.7768040     
   4254194381.4785604     
   5948095906.5219917     
   5601388894.5207376     
   5324652863.6731167     
   5013261534.6401949     
   4605255986.8841515     
   5343294731.7618275     
   5228724151.8096228     
   5130235182.3534632     
   5035323939.4319229     
   4938342227.8803835     
   5873115581.0014133     
   5607761180.9933844     
   5416156723.1025724     
   5266760987.4952278     
   5151563061.5620174     
   7445495151.9058218     
   6760608775.8877945     
   6213128428.0459356     
   5698124514.0622282     
   5193322581.2995777     
   4254194381.4785604     
   4047329956.0806212     
   3905096593.2647009     
   3815202087.1971111     
   3767700435.6832724     
   4605255986.8841515     
   4456755488.6136351     
   4324483717.8187275     
   4205915633.7686706     
   4099464334.7128968     
   4938342227.8803835     
   4815257960.6844940     
   4685827349.4846315     
   4549467173.1571169     
   4406654297.6100340     
   5151563061.5620174     
   5061532837.2797918     
   4956346905.7727251     
   4832040145.3303308     
   4688554434.4875011     
   5193322581.2995777     
   5165296434.2786951     
   5120160401.6377459     
   5047539371.0266256     
   4947017219.7517366     
   3767700435.6832724     
   3485336276.6813211     
   3225804261.2430921     
   2988866280.2257042     
   2778904022.1973438     
   4099464334.7128968     
   3741010562.6102533     
   3396390991.0002317     
   3066204816.3026538     
   2753782782.4193263     
   4406654297.6100340     
   3995307503.6781049     
   3592856187.8609600     
   3199859246.7003307     
   2818423569.2186122     
   4688554434.4875011     
   4248006256.2918262     
   3815331473.8882823     
   3390597671.5334406     
   2975129796.3483095     
   4947017219.7517366     
   4499930301.3580236     
   4063659627.4478054     
   3637251507.0793238     
   3221495298.1825552     
   2778904022.1973438     
   2751056018.8366919     
   2704400168.6267867     
   2635298095.1435962     
   2542049937.4963589     
   2753782782.4193263     
   2752620974.2134018     
   2742797921.5095077     
   2723150925.3663468     
   2693365833.3621907     
   2818423569.2186122     
   2831069020.2501116     
   2842550546.1769800     
   2852601494.4697986     
   2861068120.2980471     
   2975129796.3483095     
   2984382746.7030287     
   2995831562.5627251     
   3009448004.8721571     
   3025303033.8548265     
   3221495298.1825552     
   3206649785.6838164     
   3193431798.3100319     
   3181887451.5261846     
   3172889803.0295777     
   2542049937.4963589     
   2373934266.9397244     
   2223505602.1979179     
   2091149488.5154552     
   1978608399.6232600     
   2693365833.3621907     
   2509197947.0281224     
   2332762901.8989172     
   2164828735.6216812     
   2006976894.1769538     
   2861068120.2980471     
   2665534180.4660158     
   2470945020.5031176     
   2277574147.5881128     
   2086013224.9895978     
   3025303033.8548265     
   2828609593.5684042     
   2628583892.9312506     
   2424841682.8662963     
   2217224267.2560973     
   3172889803.0295777     
   2988343772.1944728     
   2798179196.3485031     
   2601662327.7746677     
   2398818072.6743131     
   1978608399.6232600     
   1854867422.1827216     
   1726964193.9580352     
   1594762474.0758333     
   1458373719.1950033     
   2006976894.1769538     
   1876055371.1598103     
   1743892479.7074597     
   1610441592.3896694     
   1475669097.8209956     
   2086013224.9895978     
   1949905977.1550674     
   1815718971.0151248     
   1683351398.4996941     
   1552776713.6261492     
   2217224267.2560973     
   2074500373.0386367     
   1936213069.7264116     
   1802037310.3191035     
   1672036655.8317208     
   2398818072.6743131     
   2244911669.0675364     
   2096882488.7831330     
   1954141806.6842585     
   1817046784.8531950     
   1458373719.1950033     
   1346105365.9233022     
   1270340389.6441061     
   1239528857.9468060     
   1261338104.8358667     
   1475669097.8209956     
   1329217664.8800654     
   1198009837.0987878     
   1086972169.9761851     
   1002554206.5571094     
   1552776713.6261492     
   1401862568.8774781     
   1247179327.1305871     
   1086412041.1439629     
   917461084.69397116     
   1672036655.8317208     
   1557818144.7894490     
   1433133045.4262874     
   1298142272.9884081     
   1159305582.1040282     
   1817046784.8531950     
   1781404120.9449885     
   1739797293.5740032     
   1701415451.6911018     
   1686730480.9570789     
   1261338104.8358667     
   1446647039.2384019     
   1716551143.0185068     
   2110897448.8034301     
   2661163619.6888142     
   1002554206.5571094     
   1165080432.4487321     
   1425102051.1155281     
   1807419371.8954096     
   2332191322.6749578     
   917461084.69397116     
   962457587.52244854     
   1143496335.0125484     
   1474806494.2361689     
   1957025269.4650345     
   1159305582.1040282     
   1007571700.5636588     
   983420326.44959521     
   1160736951.8355124     
   1548118362.6013629     
   1686730480.9570789     
   1386070894.6418009     
   1129228584.4221530     
   1010412958.3465507     
   1162083194.3309541     
 </DataArray>
 <DataArray  type="Float64" Name="strain" NumberOfComponents="3" format="ascii">
  0.11406822042298126       -3.8105853822409941E-002   3.0158214052438126E-003
  0.10755248105058379       -2.9359498719734534E-002  -9.8439786421256059E-003
  0.10103674167818610       -2.4213106812662533E-002  -1.5814972390801429E-002
   9.4521002305788582E-002  -2.2666678101195437E-002  -1.4897159840783492E-002
   8.8005262933391060E-002  -2.4720212585332080E-002  -7.0905409920720697E-003
   9.4356065649940923E-002  -3.4078227276312933E-002   8.1637621344967659E-003
   9.2448299574313830E-002  -2.7400312319085018E-002   4.1194151834549886E-003
   9.0540533498686848E-002  -2.3332070812602079E-002   2.4022085272607518E-003
   8.8632767423059811E-002  -2.1873502756863963E-002   3.0121421659138337E-003
   8.6725001347432773E-002  -2.3024608151870796E-002   5.9492160994147891E-003
   8.8845015298325447E-002  -3.0050600730215815E-002   1.0748117845872485E-002
   8.6983556515623006E-002  -2.5441125918435836E-002   1.6509513736017056E-002
   8.5122097732920537E-002  -2.2451034812541626E-002   2.0036383917163669E-002
   8.3260638950218124E-002  -2.1080327412532823E-002   2.1328728389311963E-002
   8.1399180167515656E-002  -2.1329003718409623E-002   2.0386547152461354E-002
   9.7535069368134858E-002  -2.6022974184118752E-002   1.0768888539370247E-002
   9.1158251874511056E-002  -2.3481939517786724E-002   2.7326317015561361E-002
   8.4781434380887311E-002  -2.1569998812480951E-002   3.7087553778907656E-002
   7.8404616887263481E-002  -2.0287152068201461E-002   4.0052598829410049E-002
   7.2027799393639722E-002  -1.9633399284948339E-002   3.6221452167067791E-002
  0.12042622785936935       -2.1995347638021689E-002   8.2260742149908306E-003
  0.10497238565097827       -2.1522753117137472E-002   3.6569825022087166E-002
   8.9518543442587056E-002  -2.0688962812420442E-002   5.3555718112493045E-002
   7.4064701234195882E-002  -1.9493976723870238E-002   5.9183753486208690E-002
   5.8610859025804735E-002  -1.7937794851487110E-002   5.3453931143233824E-002
   8.8005262933391060E-002  -2.4720212585332080E-002  -7.0905409920720697E-003
   8.6496490238001267E-002  -2.7614687441802566E-002  -3.6197068708754276E-003
   8.4987717542611474E-002  -2.8591079847336776E-002  -1.2702800217165300E-003
   8.3478944847221626E-002  -2.7649389801933821E-002  -4.2260444595432212E-005
   8.1970172151831888E-002  -2.4789617305594369E-002   6.4351860488032209E-005
   8.6725001347432773E-002  -2.3024608151870796E-002   5.9492160994147891E-003
   8.4483886411860887E-002  -2.4826235926111828E-002   7.3769112301150241E-003
   8.2242771476289001E-002  -2.5319235008075369E-002   8.4613291524892886E-003
   8.0001656540717114E-002  -2.4503605397762154E-002   9.2024698665364169E-003
   7.7760541605145228E-002  -2.2379347095172086E-002   9.6003333722576856E-003
   8.1399180167515656E-002  -2.1329003718409623E-002   2.0386547152461354E-002
   7.9203853055472964E-002  -2.2037784410420563E-002   1.9161649534005731E-002
   7.7008525943430245E-002  -2.2047390168814407E-002   1.8371604770935052E-002
   7.4813198831387512E-002  -2.1357820993590598E-002   1.8016412863249155E-002
   7.2617871719344834E-002  -1.9969076884749581E-002   1.8096073810947799E-002
   7.2027799393639722E-002  -1.9633399284948339E-002   3.6221452167067791E-002
   7.0656390168837416E-002  -1.9249332894729451E-002   3.1734508040796347E-002
   6.9284980944035179E-002  -1.8775545329553001E-002   2.8460546833621078E-002
   6.7913571719232957E-002  -1.8212036589418987E-002   2.6399568545541929E-002
   6.6542162494430707E-002  -1.7558806674327188E-002   2.5551573176559025E-002
   5.8610859025804735E-002  -1.7937794851487110E-002   5.3453931143233824E-002
   5.8841497751954297E-002  -1.6460881379038478E-002   4.5095486750486913E-002
   5.9072136478103845E-002  -1.5503700490291816E-002   3.8728155340547438E-002
   5.9302775204253401E-002  -1.5066252185247403E-002   3.4351936913415537E-002
   5.9533413930403012E-002  -1.5148536463904905E-002   3.1966831469091017E-002
   8.1970172151831888E-002  -2.4789617305594369E-002   6.4351860488032209E-005
   7.4983131851647178E-002  -2.1372400399858382E-002   1.1187436901527459E-004
   6.7996091551462412E-002  -1.8758377126266212E-002  -1.7523120014595328E-004
   6.1009051251277674E-002  -1.6947547484817901E-002  -7.9696484699467995E-004
   5.4022010951092936E-002  -1.5939911475513213E-002  -1.7533265715312663E-003
   7.7760541605145228E-002  -2.2379347095172086E-002   9.6003333722576856E-003
   7.0689421560406807E-002  -1.9869624443047795E-002   8.2949180621289531E-003
   6.3618301515668441E-002  -1.7897601784131245E-002   7.1559713405808523E-003
   5.6547181470930019E-002  -1.6463279118423491E-002   6.1834932076134247E-003
   4.9476061426191598E-002  -1.5566656445924032E-002   5.3774836632271006E-003
   7.2617871719344834E-002  -1.9969076884749581E-002   1.8096073810947799E-002
   6.5963768596321193E-002  -1.8366848486236514E-002   1.5703214321099057E-002
   5.9309665473297621E-002  -1.7036826441996306E-002   1.3977920086099313E-002
   5.2655562350274028E-002  -1.5979010752029420E-002   1.2920191105948747E-002
   4.6001459227250407E-002  -1.5193401416335295E-002   1.2530027380646902E-002
   6.6542162494430707E-002  -1.7558806674327188E-002   2.5551573176559025E-002
   6.0806172959390392E-002  -1.6864072529425525E-002   2.2336763145925448E-002
   5.5070183424350022E-002  -1.6176051099861463E-002   2.0290615036409457E-002
   4.9334193889309694E-002  -1.5494742385634846E-002   1.9413128848010910E-002
   4.3598204354269351E-002  -1.4820146386746114E-002   1.9704304580729692E-002
   5.9533413930403012E-002  -1.5148536463904905E-002   3.1966831469091017E-002
   5.5216634649614377E-002  -1.5361296572614647E-002   2.8195564536607931E-002
   5.0899855368825742E-002  -1.5315275757726551E-002   2.6094056191511172E-002
   4.6583076088037134E-002  -1.5010474019240754E-002   2.5662306433800006E-002
   4.2266296807248527E-002  -1.4446891357157210E-002   2.6900315263475083E-002
   5.4022010951092936E-002  -1.5939911475513213E-002  -1.7533265715312663E-003
   5.3821498479921015E-002  -1.5442922478214771E-002  -2.0935488761724130E-003
   5.3620986008749094E-002  -1.5164033872784977E-002  -1.7297832012101444E-003
   5.3420473537577229E-002  -1.5103245659223385E-002  -6.6202954664490443E-004
   5.3219961066405252E-002  -1.5260557837530220E-002   1.1097120875240840E-003
   4.9476061426191598E-002  -1.5566656445924032E-002   5.3774836632271006E-003
   4.9738877456675212E-002  -1.5007967415657020E-002   5.6898153650358774E-003
   5.0001693487158799E-002  -1.4587445676645383E-002   6.2248160905530869E-003
   5.0264509517642400E-002  -1.4305091228889927E-002   6.9824858397778411E-003
   5.0527325548126001E-002  -1.4160904072390235E-002   7.9628246127109170E-003
   4.6001459227250407E-002  -1.5193401416335295E-002   1.2530027380646902E-002
   4.6246284803494186E-002  -1.4573012353099324E-002   1.3574846189519346E-002
   4.6491110379737965E-002  -1.4010857480506234E-002   1.4361015066203825E-002
   4.6735935955981814E-002  -1.3506936798556690E-002   1.4888534010700977E-002
   4.6980761532225523E-002  -1.3061250307250138E-002   1.5157403023010829E-002
   4.3598204354269351E-002  -1.4820146386746114E-002   1.9704304580729692E-002
   4.3343720520377965E-002  -1.4138057290541378E-002   2.1561543597277813E-002
   4.3089236686486572E-002  -1.3434269284367195E-002   2.2678813725742777E-002
   4.2834752852595165E-002  -1.2708782368223343E-002   2.3056114966124794E-002
   4.2580269018703751E-002  -1.1961596542110098E-002   2.2693447318424043E-002
   4.2266296807248527E-002  -1.4446891357157210E-002   2.6900315263475083E-002
   4.1031184607326521E-002  -1.3703102227983710E-002   2.9649907588311097E-002
   3.9796072407404542E-002  -1.2857681088227754E-002   3.1178212069168904E-002
   3.8560960207482550E-002  -1.1910627937890061E-002   3.1485228706049015E-002
   3.7325848007560558E-002  -1.0861942776970057E-002   3.0570957498950224E-002
   5.3219961066405252E-002  -1.5260557837530220E-002   1.1097120875240840E-003
   4.9878062064003914E-002  -1.5288215562699659E-002   1.1353055235374665E-003
   4.6536163061602576E-002  -1.4838463989726991E-002   9.0513742725761848E-004
   4.3194264059201237E-002  -1.3911303118610385E-002   4.1920779868320768E-004
   3.9852365056799899E-002  -1.2506732949351118E-002  -3.2248336218465568E-004
   5.0527325548126001E-002  -1.4160904072390235E-002   7.9628246127109170E-003
   4.7060801456763057E-002  -1.3928539525454364E-002   7.6615916795709227E-003
   4.3594277365400003E-002  -1.3381652906390207E-002   7.3668701008022808E-003
   4.0127753274037087E-002  -1.2520244215197887E-002   7.0786598764040198E-003
   3.6661229182674060E-002  -1.1344313451878252E-002   6.7969610063763897E-003
   4.6980761532225523E-002  -1.3061250307250138E-002   1.5157403023010829E-002
   4.3651885238565585E-002  -1.2568863488208404E-002   1.4366456494702640E-002
   4.0323008944905647E-002  -1.1924841823053645E-002   1.3844294207430441E-002
   3.6994132651245737E-002  -1.1129185311785611E-002   1.3590916161193387E-002
   3.3665256357585716E-002  -1.0181893954404719E-002   1.3606322355991740E-002
   4.2580269018703751E-002  -1.1961596542110098E-002   2.2693447318424043E-002
   3.9651313409411505E-002  -1.1209187450962999E-002   2.1249899968932770E-002
   3.6722357800119315E-002  -1.0468030739717193E-002   2.0337409747141821E-002
   3.3793402190827077E-002  -9.7381264083736679E-003   1.9955976653051058E-002
   3.0864446581534824E-002  -9.0194744569315199E-003   2.0105600686660105E-002
   3.7325848007560558E-002  -1.0861942776970057E-002   3.0570957498950224E-002
   3.5059085969300796E-002  -9.8495114137173712E-003   2.8311922102260967E-002
   3.2792323931041034E-002  -9.0112196563808256E-003   2.6846216719936533E-002
   3.0525561892781286E-002  -8.3470675049613571E-003   2.6173841351977006E-002
   2.8258799854521510E-002  -7.8570549594582095E-003   2.6294795998382248E-002
   3.9852365056799899E-002  -1.2506732949351118E-002  -3.2248336218465568E-004
   3.7475216262763622E-002  -1.1080534487380667E-002  -6.3976747646043997E-004
   3.5098067468727345E-002  -1.0088488738127899E-002  -7.5002798377232782E-004
   3.2720918674691013E-002  -9.5305957015947712E-003  -6.5326488412087436E-004
   3.0343769880654792E-002  -9.4068553777810759E-003  -3.4947817750574650E-004
   3.6661229182674060E-002  -1.1344313451878252E-002   6.7969610063763897E-003
   3.4439504424981504E-002  -1.0153126138756186E-002   6.2641595278962736E-003
   3.2217779667288921E-002  -9.2459477981597371E-003   5.8351825151402026E-003
   2.9996054909596351E-002  -8.6227784300895866E-003   5.5100299681068166E-003
   2.7774330151903892E-002  -8.2836180345440269E-003   5.2887018867983082E-003
   3.3665256357585716E-002  -1.0181893954404719E-002   1.3606322355991740E-002
   3.1495756494996974E-002  -9.2257177901326481E-003   1.3008147253500468E-002
   2.9326256632408204E-002  -8.4034068581924359E-003   1.2410597475492946E-002
   2.7156756769819393E-002  -7.7149611585839509E-003   1.1813673021969215E-002
   2.4987256907230637E-002  -7.1603806913068668E-003   1.1217373892929705E-002
   3.0864446581534824E-002  -9.0194744569315199E-003   2.0105600686660105E-002
   2.8643972472809962E-002  -8.2983094415090830E-003   1.9592195700351450E-002
   2.6423498364085099E-002  -7.5608659182249266E-003   1.8976216897286936E-002
   2.4203024255360289E-002  -6.8071438870785407E-003   1.8257664277466234E-002
   2.1982550146635374E-002  -6.0371433480698733E-003   1.7436537840889846E-002
   2.8258799854521510E-002  -7.8570549594582095E-003   2.6294795998382248E-002
   2.5884152358420620E-002  -7.3709010928854068E-003   2.6016304868450080E-002
   2.3509504862319786E-002  -6.7183249782570564E-003   2.5532040780522181E-002
   2.1134857366218909E-002  -5.8993266155728738E-003   2.4842003734597939E-002
   1.8760209870118061E-002  -4.9139060048327687E-003   2.3946193730677967E-002
   3.0343769880654792E-002  -9.4068553777810759E-003  -3.4947817750574650E-004
   2.9715315294841171E-002  -9.2256658583007578E-003  -1.4614160870252135E-004
   2.9086860709027496E-002  -8.4954252347697046E-003  -1.6663775498790834E-003
   2.8458406123213820E-002  -7.2161335071886795E-003  -4.9101860010354881E-003
   2.7829951537400199E-002  -5.3877906755546157E-003  -9.8775669621706808E-003
   2.7774330151903892E-002  -8.2836180345440269E-003   5.2887018867983082E-003
   2.5702520264599127E-002  -7.9346825211753513E-003   5.9809273042784605E-003
   2.3630710377294528E-002  -7.2821877996336326E-003   5.5100146287567764E-003
   2.1558900489989957E-002  -6.3261338699206471E-003   3.8759638602321456E-003
   1.9487090602685275E-002  -5.0665207320346184E-003   1.0787749987051232E-003
   2.4987256907230637E-002  -7.1603806913068668E-003   1.1217373892929705E-002
   2.2032526135411873E-002  -6.6436991840490567E-003   1.2152996263209259E-002
   1.9077795363593109E-002  -6.0689503644978104E-003   1.2485914957463290E-002
   1.6123064591774289E-002  -5.4361342326528436E-003   1.2216129975691548E-002
   1.3168333819955497E-002  -4.7452507885148432E-003   1.1343641317893671E-002
   2.1982550146635374E-002  -6.0371433480698733E-003   1.7436537840889846E-002
   1.8705332907279208E-002  -5.3527158469227620E-003   1.8370065268089625E-002
   1.5428115667923042E-002  -4.8557129293617524E-003   1.9261323436240659E-002
   1.2150898428566870E-002  -4.5461345953855918E-003   2.0110312345342756E-002
   8.8736811892107109E-003  -4.4239808449949569E-003   2.0917031995395574E-002
   1.8760209870118061E-002  -4.9139060048327687E-003   2.3946193730677967E-002
   1.5720940580201237E-002  -4.0617325097970225E-003   2.4632134318919530E-002
   1.2681671290284413E-002  -3.6424754942256943E-003   2.5836240065089056E-002
   9.6424020003676031E-003  -3.6561349581175628E-003   2.7558510969185629E-002
   6.6031327104507653E-003  -4.1027109014749596E-003   2.9798947031210443E-002
   2.7829951537400199E-002  -5.3877906755546157E-003  -9.8775669621706808E-003
   2.3384117892940037E-002  -4.1527140146360164E-003  -4.2890090510094847E-003
   1.8938284248479709E-002  -4.6532207991960561E-003   2.5795500750029898E-003
   1.4492450604019436E-002  -6.8893110292349569E-003   1.0728110415865744E-002
   1.0046616959559218E-002  -1.0860984704753385E-002   2.0156671971579776E-002
   1.9487090602685275E-002  -5.0665207320346184E-003   1.0787749987051232E-003
   1.6245636494915783E-002  -4.6481460315828116E-003   6.7550056194320973E-003
   1.3004182387146346E-002  -6.2158074141709374E-003   1.3559994098689576E-002
   9.7627282793769088E-003  -9.7695048797986073E-003   2.1493740436479170E-002
   6.5212741716071942E-003  -1.5309238428465655E-002   3.0556244632797824E-002
   1.3168333819955497E-002  -4.7452507885148432E-003   1.1343641317893671E-002
   1.0980015892556844E-002  -5.1435780485301619E-003   1.6857092010625796E-002
   8.7916979651581489E-003  -7.7783940291453746E-003   2.3348057205568873E-002
   6.6033800377593571E-003  -1.2649698730361481E-002   3.0816536902723179E-002
   4.4150621103608567E-003  -1.9757492152177480E-002   3.9262531102087994E-002
   8.8736811892107109E-003  -4.4239808449949569E-003   2.0917031995395574E-002
   7.5872560858629215E-003  -5.6390100654772346E-003   2.6017250122572472E-002
   6.3008309825152362E-003  -9.3409806441204779E-003   3.1943739395639895E-002
   5.0144058791675335E-003  -1.5529892580924298E-002   3.8696499814599244E-002
   3.7279807758196642E-003  -2.4205745875889084E-002   4.6275531379448398E-002
   6.6031327104507653E-003  -4.1027109014749596E-003   2.9798947031210443E-002
   6.0673570748340788E-003  -6.1344420824240853E-003   3.4235479955271209E-002
   5.5315814392174201E-003  -1.0903567259095276E-002   3.9347040668903099E-002
   4.9958058036007197E-003  -1.8410086431487595E-002   4.5133629172106310E-002
   4.4600301679840193E-003  -2.8653999599601132E-002   5.1595245464879813E-002
  0.12042622785936935       -2.1995347638021689E-002   8.2260742149908306E-003
  0.10497238565097827       -2.1522753117137472E-002   3.6569825022087166E-002
   8.9518543442587056E-002  -2.0688962812420442E-002   5.3555718112493045E-002
   7.4064701234195882E-002  -1.9493976723870238E-002   5.9183753486208690E-002
   5.8610859025804735E-002  -1.7937794851487110E-002   5.3453931143233824E-002
  0.14032093153272010       -1.9906156739649794E-002   2.8040765005523272E-002
  0.11671421855939998       -1.9993886384975262E-002   3.9802064794418224E-002
   9.3107505586079789E-002  -1.9629659639673641E-002   4.6615480770145656E-002
   6.9500792612759654E-002  -1.8813476503744896E-002   4.8481012932705597E-002
   4.5894079639439533E-002  -1.7545336977188963E-002   4.5398661282097713E-002
  0.14002162114887812       -1.7816965841277843E-002   4.7249751326448736E-002
  0.11467201131415179       -1.8465019652813039E-002   4.2519360703936721E-002
   8.9322401479425356E-002  -1.8570356466926979E-002   3.9251060171779928E-002
   6.3972791644698962E-002  -1.8132976283619553E-002   3.7444849729978275E-002
   3.8623181809972602E-002  -1.7152879102890900E-002   3.7100729378531663E-002
  0.11952829670784360       -1.5727774942905892E-002   6.5853033177767625E-002
   9.8845763915233670E-002  -1.6936152920650809E-002   4.4721712750642691E-002
   7.8163231122623758E-002  -1.7511053294180248E-002   3.1462456317395665E-002
   5.7480698330013805E-002  -1.7452476063494295E-002   2.6075263878026542E-002
   3.6798165537403893E-002  -1.6760421228592851E-002   2.8560135432535126E-002
   7.8840958209616452E-002  -1.3638584044533997E-002   8.3850610559479621E-002
   6.9235476362645709E-002  -1.5407286188488578E-002   4.6409120934536030E-002
   5.9629994515674967E-002  -1.6451750121433573E-002   2.3249669206993007E-002
   5.0024512668704210E-002  -1.6771975843368911E-002   1.4372255376850579E-002
   4.0419030821733454E-002  -1.6367963354294746E-002   1.9776879444108664E-002
   5.8610859025804735E-002  -1.7937794851487110E-002   5.3453931143233824E-002
   5.8841497751954297E-002  -1.6460881379038478E-002   4.5095486750486913E-002
   5.9072136478103845E-002  -1.5503700490291816E-002   3.8728155340547438E-002
   5.9302775204253401E-002  -1.5066252185247403E-002   3.4351936913415537E-002
   5.9533413930403012E-002  -1.5148536463904905E-002   3.1966831469091017E-002
   4.5894079639439533E-002  -1.7545336977188963E-002   4.5398661282097713E-002
   4.7611635577214886E-002  -1.6229125846652842E-002   4.1544129791883128E-002
   4.9329191514990239E-002  -1.5268727898783391E-002   3.8672319742112771E-002
   5.1046747452765599E-002  -1.4664143133580852E-002   3.6783231132786594E-002
   5.2764303390540945E-002  -1.4415371551044998E-002   3.5876863963904437E-002
   3.8623181809972602E-002  -1.7152879102890900E-002   3.7100729378531663E-002
   4.0819263417010490E-002  -1.5997370314267303E-002   3.7914030191884510E-002
   4.3015345024048426E-002  -1.5033755307275076E-002   3.8701660903318350E-002
   4.5211426631086356E-002  -1.4262034081914413E-002   3.9463621512832933E-002
   4.7407508238124299E-002  -1.3682206638185090E-002   4.0199912020428788E-002
   3.6798165537403893E-002  -1.6760421228592851E-002   2.8560135432535126E-002
   3.8464381271341108E-002  -1.5765614781881716E-002   3.4205187950491017E-002
   4.0130597005278316E-002  -1.4798782715766678E-002   3.8816178824164320E-002
   4.1796812739215518E-002  -1.3859925030247904E-002   4.2393108053555582E-002
   4.3463028473152733E-002  -1.2949041725325156E-002   4.4935975638664319E-002
   4.0419030821733454E-002  -1.6367963354294746E-002   1.9776879444108664E-002
   4.0546989140206713E-002  -1.5533859249496074E-002   3.0417603067702637E-002
   4.0674947458679972E-002  -1.4563810124258378E-002   3.9015873504650939E-002
   4.0802905777153245E-002  -1.3457815978581294E-002   4.5571690754953695E-002
   4.0930864095626490E-002  -1.2215876812465276E-002   5.0085054818610808E-002
   5.9533413930403012E-002  -1.5148536463904905E-002   3.1966831469091017E-002
   5.5216634649614377E-002  -1.5361296572614647E-002   2.8195564536607931E-002
   5.0899855368825742E-002  -1.5315275757726551E-002   2.6094056191511172E-002
   4.6583076088037134E-002  -1.5010474019240754E-002   2.5662306433800006E-002
   4.2266296807248527E-002  -1.4446891357157210E-002   2.6900315263475083E-002
   5.2764303390540945E-002  -1.4415371551044998E-002   3.5876863963904437E-002
   4.9742365082677750E-002  -1.4284538806500158E-002   3.3332353019547345E-002
   4.6720426774814500E-002  -1.4033770555270331E-002   3.1707765433655360E-002
   4.3698488466951305E-002  -1.3663066797355627E-002   3.1003101206228040E-002
   4.0676550159088082E-002  -1.3172427532755937E-002   3.1218360337265605E-002
   4.7407508238124299E-002  -1.3682206638185090E-002   4.0199912020428788E-002
   4.4930575674265345E-002  -1.3207781040385558E-002   3.8743311647285034E-002
   4.2453643110406322E-002  -1.2752265352813950E-002   3.7456799403684814E-002
   3.9976710546547334E-002  -1.2315659575470447E-002   3.6340375289628316E-002
   3.7499777982688359E-002  -1.1897963708354858E-002   3.5394039305115685E-002
   4.3463028473152733E-002  -1.2949041725325156E-002   4.4935975638664319E-002
   4.0781266424376905E-002  -1.2131023274270986E-002   4.4428440419820692E-002
   3.8099504375601084E-002  -1.1470760150357705E-002   4.3341158101599664E-002
   3.5417742326825284E-002  -1.0968252353585294E-002   4.1674128684001194E-002
   3.2735980278049429E-002  -1.0623499883953572E-002   3.9427352167025254E-002
   4.0930864095626490E-002  -1.2215876812465276E-002   5.0085054818610808E-002
   3.7294437333012659E-002  -1.1054265508156413E-002   5.0387739337154680E-002
   3.3658010570398855E-002  -1.0189254947901377E-002   4.9360841527399751E-002
   3.0021583807785038E-002  -9.6208451317001467E-003   4.7004361389346383E-002
   2.6385157045171193E-002  -9.3490360595525068E-003   4.3318298922994547E-002
   4.2266296807248527E-002  -1.4446891357157210E-002   2.6900315263475083E-002
   4.1031184607326521E-002  -1.3703102227983710E-002   2.9649907588311097E-002
   3.9796072407404542E-002  -1.2857681088227754E-002   3.1178212069168904E-002
   3.8560960207482550E-002  -1.1910627937890061E-002   3.1485228706049015E-002
   3.7325848007560558E-002  -1.0861942776970057E-002   3.0570957498950224E-002
   4.0676550159088082E-002  -1.3172427532755937E-002   3.1218360337265605E-002
   3.8577941598174431E-002  -1.2557656700619035E-002   3.2853698436335094E-002
   3.6479333037260836E-002  -1.1814558240092116E-002   3.3983331657399724E-002
   3.4380724476347199E-002  -1.0943132151175088E-002   3.4607260000459480E-002
   3.2282115915433590E-002  -9.9433784338682774E-003   3.4725483465513907E-002
   3.7499777982688359E-002  -1.1897963708354858E-002   3.5394039305115685E-002
   3.5253256026756358E-002  -1.1412211173254444E-002   3.5941818796226405E-002
   3.3006734070824280E-002  -1.0771435391956151E-002   3.6699476375305524E-002
   3.0760212114892282E-002  -9.9756363644602272E-003   3.7667012042352746E-002
   2.8513690158960214E-002  -9.0248140907663865E-003   3.8844425797368409E-002
   3.2735980278049429E-002  -1.0623499883953572E-002   3.9427352167025254E-002
   3.1057127893072210E-002  -1.0266765645889755E-002   3.8914268667985259E-002
   2.9378275508095034E-002  -9.7283125438202660E-003   3.9326646222886404E-002
   2.7699423123117854E-002  -9.0081405777454222E-003   4.0664484831729276E-002
   2.6020570738140691E-002  -8.1062497476647177E-003   4.2927784494513642E-002
   2.6385157045171193E-002  -9.3490360595525068E-003   4.3318298922994547E-002
   2.5989557197122065E-002  -9.1213201185250670E-003   4.1771048051611248E-002
   2.5593957349072952E-002  -8.6851896956845753E-003   4.1864841200142555E-002
   2.5198357501023831E-002  -8.0406447910304560E-003   4.3599678368588773E-002
   2.4802757652974738E-002  -7.1876854045627159E-003   4.6975559556949542E-002
   3.7325848007560558E-002  -1.0861942776970057E-002   3.0570957498950224E-002
   3.5059085969300796E-002  -9.8495114137173712E-003   2.8311922102260967E-002
   3.2792323931041034E-002  -9.0112196563808256E-003   2.6846216719936533E-002
   3.0525561892781286E-002  -8.3470675049613571E-003   2.6173841351977006E-002
   2.8258799854521510E-002  -7.8570549594582095E-003   2.6294795998382248E-002
   3.2282115915433590E-002  -9.9433784338682774E-003   3.4725483465513907E-002
   3.0629333118465857E-002  -8.9571411841129489E-003   3.3397653546700656E-002
   2.8976550321498082E-002  -8.1262644978513654E-003   3.2504452096106473E-002
   2.7323767524530314E-002  -7.4507483750829717E-003   3.2045879113731621E-002
   2.5670984727562518E-002  -6.9305928158081009E-003   3.2021934599575808E-002
   2.8513690158960214E-002  -9.0248140907663865E-003   3.8844425797368409E-002
   2.7116185057138961E-002  -8.0647709545088597E-003   3.8466580398854089E-002
   2.5718679955317562E-002  -7.2413093393216971E-003   3.8164661922413315E-002
   2.4321174853496264E-002  -6.5544292452049228E-003   3.7938670368046344E-002
   2.2923669751674924E-002  -6.0041306721582699E-003   3.7788605735752712E-002
   2.6020570738140691E-002  -8.1062497476647177E-003   4.2927784494513642E-002
   2.4519641785320092E-002  -7.1724007249047150E-003   4.3518702658721431E-002
   2.3018712832499601E-002  -6.3563541807920773E-003   4.3826846198857225E-002
   2.1517783879679057E-002  -5.6581101153268167E-003   4.3852215114921080E-002
   2.0016854926858504E-002  -5.0776685285082446E-003   4.3594809406913203E-002
   2.4802757652974738E-002  -7.1876854045627159E-003   4.6975559556949542E-002
   2.2839703303009384E-002  -6.2800304953005703E-003   4.8554020326302627E-002
   2.0876648953044086E-002  -5.4713990222624853E-003   4.9491004925438287E-002
   1.8913594603078773E-002  -4.7617909854484122E-003   4.9786513354356243E-002
   1.6950540253113433E-002  -4.1512063848584413E-003   4.9440545613056552E-002
   2.8258799854521510E-002  -7.8570549594582095E-003   2.6294795998382248E-002
   2.5884152358420620E-002  -7.3709010928854068E-003   2.6016304868450080E-002
   2.3509504862319786E-002  -6.7183249782570564E-003   2.5532040780522181E-002
   2.1134857366218909E-002  -5.8993266155728738E-003   2.4842003734597939E-002
   1.8760209870118061E-002  -4.9139060048327687E-003   2.3946193730677967E-002
   2.5670984727562518E-002  -6.9305928158081009E-003   3.2021934599575808E-002
   2.3172089580368760E-002  -6.4381496790633097E-003   3.1798647910862454E-002
   2.0673194433174918E-002  -5.8457708238862649E-003   3.1532638877958707E-002
   1.8174299285981105E-002  -5.1534562502758285E-003   3.1223907500865372E-002
   1.5675404138787263E-002  -4.3612059582329721E-003   3.0872453779582032E-002
   2.2923669751674924E-002  -6.0041306721582699E-003   3.7788605735752712E-002
   2.0463577567194108E-002  -5.5053982652418232E-003   3.7554036958635018E-002
   1.8003485382713312E-002  -4.9732166695154872E-003   3.7439796451132976E-002
   1.5543393198232506E-002  -4.4075858849792308E-003   3.7445884213247120E-002
   1.3083301013751686E-002  -3.8085059116328979E-003   3.7572300244977375E-002
   2.0016854926858504E-002  -5.0776685285082446E-003   4.3594809406913203E-002
   1.7758616318896768E-002  -4.5726468514200314E-003   4.3282472011768131E-002
   1.5500377710934999E-002  -4.1006625151447026E-003   4.3253513500044916E-002
   1.3242139102973245E-002  -3.6617155196822983E-003   4.3507933871743829E-002
   1.0983900495011436E-002  -3.2558058650328514E-003   4.4045733126864675E-002
   1.6950540253113433E-002  -4.1512063848584413E-003   4.9440545613056552E-002
   1.5057205835476706E-002  -3.6398954375981840E-003   4.8983953070261488E-002
   1.3163871417839895E-002  -3.2281083607738348E-003   4.8973790024694153E-002
   1.1270537000203126E-002  -2.9158451543856781E-003   4.9410056476355158E-002
   9.3772025825663574E-003  -2.7031058184329160E-003   5.0292752425243670E-002
   1.8760209870118061E-002  -4.9139060048327687E-003   2.3946193730677967E-002
   1.5720940580201237E-002  -4.0617325097970225E-003   2.4632134318919530E-002
   1.2681671290284413E-002  -3.6424754942256943E-003   2.5836240065089056E-002
   9.6424020003676031E-003  -3.6561349581175628E-003   2.7558510969185629E-002
   6.6031327104507653E-003  -4.1027109014749596E-003   2.9798947031210443E-002
   1.5675404138787263E-002  -4.3612059582329721E-003   3.0872453779582032E-002
   1.3123685361289744E-002  -3.7563591305163069E-003   3.1566652765335323E-002
   1.0571966583792197E-002  -3.6262549498856655E-003   3.2717787617999372E-002
   8.0202478062946364E-003  -3.9708934163404652E-003   3.4325858337574150E-002
   5.4685290287971311E-003  -4.7902745298811222E-003   3.6390864924060295E-002
   1.3083301013751686E-002  -3.8085059116328979E-003   3.7572300244977375E-002
   1.0957903457656487E-002  -3.4509857512354247E-003   3.8232931460620928E-002
   8.8325059015613647E-003  -3.6100344055453037E-003   3.9289269252158560E-002
   6.7071083454662318E-003  -4.2856518745624794E-003   4.0741313619589853E-002
   4.5817107893710435E-003  -5.4778381582873403E-003   4.2589064562915085E-002
   1.0983900495011436E-002  -3.2558058650328514E-003   4.4045733126864675E-002
   9.2235948693016809E-003  -3.1456123719544038E-003   4.4630970404776885E-002
   7.4632892435919067E-003  -3.5938138612052750E-003   4.5550684967565994E-002
   5.7029836178821300E-003  -4.6004103327847157E-003   4.6804876815231995E-002
   3.9426779921723810E-003  -6.1654017866935307E-003   4.8393545947774820E-002
   9.3772025825663574E-003  -2.7031058184329160E-003   5.0292752425243670E-002
   7.9207595962250688E-003  -2.8402389926738270E-003   5.0760769597802624E-002
   6.4643166098838079E-003  -3.5775933168648022E-003   5.1502034764221827E-002
   5.0078736235425608E-003  -4.9151687910072017E-003   5.2516547924500945E-002
   3.5514306372012583E-003  -6.8529654150998320E-003   5.3804309078640089E-002
   6.6031327104507653E-003  -4.1027109014749596E-003   2.9798947031210443E-002
   6.0673570748340788E-003  -6.1344420824240853E-003   3.4235479955271209E-002
   5.5315814392174201E-003  -1.0903567259095276E-002   3.9347040668903099E-002
   4.9958058036007197E-003  -1.8410086431487595E-002   4.5133629172106310E-002
   4.4600301679840193E-003  -2.8653999599601132E-002   5.1595245464879813E-002
   5.4685290287971311E-003  -4.7902745298811222E-003   3.6390864924060295E-002
   5.5074041908680649E-003  -6.9548285844592828E-003   3.8498307683109689E-002
   5.5462793529390264E-003  -1.1334985874027037E-002   4.1080024247963032E-002
   5.5851545150099879E-003  -1.7930746398583830E-002   4.4136014618620795E-002
   5.6240296770810327E-003  -2.6742110158130217E-002   4.7666278795083228E-002
   4.5817107893710435E-003  -5.4778381582873403E-003   4.2589064562915085E-002
   4.9944827653627677E-003  -7.7752150864943692E-003   4.2889207917685190E-002
   5.4072547413545127E-003  -1.1766404488958784E-002   4.3462871094492525E-002
   5.8200267173463029E-003  -1.7451406365680339E-002   4.4310054093337388E-002
   6.2327986933379820E-003  -2.4830220716659301E-002   4.5430756914219383E-002
   3.9426779921723810E-003  -6.1654017866935307E-003   4.8393545947774820E-002
   4.5285927983180554E-003  -8.5956015885292891E-003   4.7408180658997545E-002
   5.1145076044637004E-003  -1.2197823103890094E-002   4.6495581208491149E-002
   5.7004224106093496E-003  -1.6972066332776821E-002   4.5655747596255195E-002
   6.2863372167550197E-003  -2.2918331275188386E-002   4.4888679822289362E-002
   3.5514306372012583E-003  -6.8529654150998320E-003   5.3804309078640089E-002
   4.1097342897340183E-003  -9.4159880905642090E-003   5.2055225907047697E-002
   4.6680379422666951E-003  -1.2629241718822154E-002   5.0178154589959167E-002
   5.2263415947994135E-003  -1.6492726299873160E-002   4.8173095127374083E-002
   5.7846452473321319E-003  -2.1006441833717471E-002   4.6040047519292582E-002
   7.8840958209616452E-002  -1.3638584044533997E-002   8.3850610559479621E-002
   6.9235476362645709E-002  -1.5407286188488578E-002   4.6409120934536030E-002
   5.9629994515674967E-002  -1.6451750121433573E-002   2.3249669206993007E-002
   5.0024512668704210E-002  -1.6771975843368911E-002   1.4372255376850579E-002
   4.0419030821733454E-002  -1.6367963354294746E-002   1.9776879444108664E-002
   3.8280141261361811E-002  -1.2253837084600760E-002   7.1072258469153715E-002
   3.9666844451296451E-002  -1.2797769654171065E-002   5.1253955858167916E-002
   4.1053547641231092E-002  -1.3133975000120660E-002   3.9137985423592148E-002
   4.2440250831165767E-002  -1.3262453122449201E-002   3.4724347165426897E-002
   4.3826954021100428E-002  -1.3183204021156913E-002   3.8013041083671983E-002
   1.8166381470244602E-002  -1.0869090124667496E-002   5.9776931446906489E-002
   2.3965563976094423E-002  -1.0188253119853635E-002   5.7065304862489494E-002
   2.9764746481944243E-002  -9.8161998788076354E-003   5.5476304733492493E-002
   3.5563928987794036E-002  -9.7529304015293791E-003   5.5009931059915682E-002
   4.1363111493643898E-002  -9.9984446880190536E-003   5.5666183841758768E-002
   1.8499678836264986E-002  -9.4843431647342324E-003   4.9964629492737875E-002
   2.2131634937039672E-002  -7.5787365855361916E-003   6.3843167947501084E-002
   2.5763591037814434E-002  -6.4984247574946391E-003   7.2264627136694015E-002
   2.9395547138589134E-002  -6.2434076806096687E-003   7.5229007060316891E-002
   3.3027503239363890E-002  -6.8136853548811521E-003   7.2736307718369475E-002
   3.9280033359422817E-002  -8.0995962048009962E-003   4.1635352606647635E-002
   3.4165057334132193E-002  -4.9692200512186924E-003   7.1587545113202367E-002
   2.9050081308841583E-002  -3.1806496361817260E-003   8.9502952633196742E-002
   2.3935105283550966E-002  -2.7338849596898265E-003   9.5381575166630511E-002
   1.8820129258260349E-002  -3.6289260217433617E-003   8.9223412713503869E-002
   4.0419030821733454E-002  -1.6367963354294746E-002   1.9776879444108664E-002
   4.0546989140206713E-002  -1.5533859249496074E-002   3.0417603067702637E-002
   4.0674947458679972E-002  -1.4563810124258378E-002   3.9015873504650939E-002
   4.0802905777153245E-002  -1.3457815978581294E-002   4.5571690754953695E-002
   4.0930864095626490E-002  -1.2215876812465276E-002   5.0085054818610808E-002
   4.3826954021100428E-002  -1.3183204021156913E-002   3.8013041083671983E-002
   4.2477706744498259E-002  -1.2880534732302940E-002   4.3534775657983221E-002
   4.1128459467896117E-002  -1.2338752291946753E-002   4.8144552228789411E-002
   3.9779212191293947E-002  -1.1557856700088118E-002   5.1842370796090331E-002
   3.8429964914691805E-002  -1.0537847956727187E-002   5.4628231359885759E-002
   4.1363111493643898E-002  -9.9984446880190536E-003   5.5666183841758768E-002
   3.9667153805106672E-002  -1.0227210215109833E-002   5.6172097497850737E-002
   3.7971196116569454E-002  -1.0113694459635024E-002   5.6896548333577830E-002
   3.6275238428032236E-002  -9.6578974215947768E-003   5.7839536348940221E-002
   3.4579280739495039E-002  -8.8598191009889860E-003   5.9001061543937500E-002
   3.3027503239363890E-002  -6.8136853548811521E-003   7.2736307718369475E-002
   3.2115330322031954E-002  -7.5738856979166574E-003   6.8329568587305170E-002
   3.1203157404700040E-002  -7.8886366273232915E-003   6.5271861819016425E-002
   3.0290984487368118E-002  -7.7579381431014628E-003   6.3563187413503169E-002
   2.9378811570036190E-002  -7.1817902452507854E-003   6.3203545370765224E-002
   1.8820129258260349E-002  -3.6289260217433617E-003   8.9223412713503869E-002
   1.9822236295274076E-002  -4.9205611807235927E-003   8.0007188926346562E-002
   2.0824343332287817E-002  -5.6635787950116701E-003   7.3270492685105104E-002
   2.1826450369301552E-002  -5.8579788646082598E-003   6.9013323989779496E-002
   2.2828557406315286E-002  -5.5037613895126958E-003   6.7235682840369571E-002
   4.0930864095626490E-002  -1.2215876812465276E-002   5.0085054818610808E-002
   3.7294437333012659E-002  -1.1054265508156413E-002   5.0387739337154680E-002
   3.3658010570398855E-002  -1.0189254947901377E-002   4.9360841527399751E-002
   3.0021583807785038E-002  -9.6208451317001467E-003   4.7004361389346383E-002
   2.6385157045171193E-002  -9.3490360595525068E-003   4.3318298922994547E-002
   3.8429964914691805E-002  -1.0537847956727187E-002   5.4628231359885759E-002
   3.3845633106447573E-002  -9.5161522812329258E-003   5.3696638151190940E-002
   2.9261301298203340E-002  -8.7301958929744405E-003   5.2198817179533702E-002
   2.4676969489959101E-002  -8.1799787919518210E-003   5.0134768444914268E-002
   2.0092637681714876E-002  -7.8655009781649632E-003   4.7504491947332472E-002
   3.4579280739495039E-002  -8.8598191009889860E-003   5.9001061543937500E-002
   2.9810398450956670E-002  -7.9780390543092994E-003   5.6896052064821817E-002
   2.5041516162418336E-002  -7.2711368380475455E-003   5.4988169388080071E-002
   2.0272633873880001E-002  -6.7391124522034919E-003   5.3277413513712589E-002
   1.5503751585341653E-002  -6.3819658967773085E-003   5.1763784441718835E-002
   2.9378811570036190E-002  -7.1817902452507854E-003   6.3203545370765224E-002
   2.5188733366540025E-002  -6.4399258273857979E-003   5.9985981078046834E-002
   2.0998655163043844E-002  -5.8120777831206852E-003   5.7728898153038749E-002
   1.6808576959547676E-002  -5.2982461124551645E-003   5.6432296595741081E-002
   1.2618498756051500E-002  -4.8984308153897094E-003   5.6096176406153546E-002
   2.2828557406315286E-002  -5.5037613895126958E-003   6.7235682840369571E-002
   1.9980637853197578E-002  -4.9018126004622409E-003   6.2966425190866482E-002
   1.7132718300079869E-002  -4.3530187281936861E-003   6.0421003474409873E-002
   1.4284798746962146E-002  -3.8573797727069412E-003   5.9599417690999912E-002
   1.1436879193844451E-002  -3.4148957340021102E-003   6.0501667840636486E-002
   2.6385157045171193E-002  -9.3490360595525068E-003   4.3318298922994547E-002
   2.5989557197122065E-002  -9.1213201185250670E-003   4.1771048051611248E-002
   2.5593957349072952E-002  -8.6851896956845753E-003   4.1864841200142555E-002
   2.5198357501023831E-002  -8.0406447910304560E-003   4.3599678368588773E-002
   2.4802757652974738E-002  -7.1876854045627159E-003   4.6975559556949542E-002
   2.0092637681714876E-002  -7.8655009781649632E-003   4.7504491947332472E-002
   2.0964166180262797E-002  -7.6070565654315914E-003   4.7453002153185875E-002
   2.1835694678810733E-002  -7.2249396675690691E-003   4.8294725032318492E-002
   2.2707223177358675E-002  -6.7191502845778892E-003   5.0029660584730545E-002
   2.3578751675906590E-002  -6.0896884164578502E-003   5.2657808810422424E-002
   1.5503751585341653E-002  -6.3819658967773085E-003   5.1763784441718835E-002
   1.6894577083851350E-002  -6.0927930123377272E-003   5.3123313728124205E-002
   1.8285402582361044E-002  -5.7646896394538821E-003   5.4628224341173731E-002
   1.9676228080870731E-002  -5.3976557781255964E-003   5.6278516280867448E-002
   2.1067053579380435E-002  -4.9916914283527625E-003   5.8074189547205113E-002
   1.2618498756051500E-002  -4.8984308153897094E-003   5.6096176406153546E-002
   1.3780789907887704E-002  -4.5785294592439463E-003   5.8781982776426552E-002
   1.4943081059723879E-002  -4.3044396113385910E-003   6.0865339126708398E-002
   1.6105372211560064E-002  -4.0761612716730001E-003   6.2346245456999030E-002
   1.7267663363396257E-002  -3.8936944402477303E-003   6.3224701767298552E-002
   1.1436879193844451E-002  -3.4148957340021102E-003   6.0501667840636486E-002
   1.1622804652371838E-002  -3.0642659061502764E-003   6.4429009298092643E-002
   1.1808730110899224E-002  -2.8441895832231334E-003   6.7006069388922396E-002
   1.1994655569426624E-002  -2.7546667652207230E-003   6.8232848113125633E-002
   1.2180581027954024E-002  -2.7956974521426980E-003   6.8109345470702465E-002
   2.4802757652974738E-002  -7.1876854045627159E-003   4.6975559556949542E-002
   2.2839703303009384E-002  -6.2800304953005703E-003   4.8554020326302627E-002
   2.0876648953044086E-002  -5.4713990222624853E-003   4.9491004925438287E-002
   1.8913594603078773E-002  -4.7617909854484122E-003   4.9786513354356243E-002
   1.6950540253113433E-002  -4.1512063848584413E-003   4.9440545613056552E-002
   2.3578751675906590E-002  -6.0896884164578502E-003   5.2657808810422424E-002
   2.1187154393643617E-002  -5.4174112135771946E-003   5.3092978072320884E-002
   1.8795557111380673E-002  -4.7831758263050528E-003   5.3312537639842228E-002
   1.6403959829117701E-002  -4.1869822546407587E-003   5.3316487512985788E-002
   1.4012362546854729E-002  -3.6288304985848674E-003   5.3104827691751233E-002
   2.1067053579380435E-002  -4.9916914283527625E-003   5.8074189547205113E-002
   1.8672779840659640E-002  -4.5547919318540409E-003   5.7427048922265772E-002
   1.6278506101938872E-002  -4.0949526303473843E-003   5.6990165078788610E-002
   1.3884232363218094E-002  -3.6121735238332127E-003   5.6763538016773273E-002
   1.1489958624497310E-002  -3.1064546123113490E-003   5.6747167736220350E-002
   1.7267663363396257E-002  -3.8936944402477303E-003   6.3224701767298552E-002
   1.5296579644057468E-002  -3.6921726501307206E-003   6.1556232876136666E-002
   1.3325495924718730E-002  -3.4067294343900559E-003   6.0523887242276767E-002
   1.1354412205379957E-002  -3.0373647930258350E-003   6.0127664865718806E-002
   9.3833284860411828E-003  -2.5840787260376918E-003   6.0367565746462772E-002
   1.2180581027954024E-002  -2.7956974521426980E-003   6.8109345470702465E-002
   1.1058553803837134E-002  -2.8295533684074003E-003   6.5480529933933718E-002
   9.9365265797202174E-003  -2.7185062384321723E-003   6.3913704130307170E-002
   8.8144993556033072E-003  -2.4625560622178744E-003   6.3408868059822376E-002
   7.6924721314864108E-003  -2.0617028397643677E-003   6.3966021722479005E-002
   1.6950540253113433E-002  -4.1512063848584413E-003   4.9440545613056552E-002
   1.5057205835476706E-002  -3.6398954375981840E-003   4.8983953070261488E-002
   1.3163871417839895E-002  -3.2281083607738348E-003   4.8973790024694153E-002
   1.1270537000203126E-002  -2.9158451543856781E-003   4.9410056476355158E-002
   9.3772025825663574E-003  -2.7031058184329160E-003   5.0292752425243670E-002
   1.4012362546854729E-002  -3.6288304985848674E-003   5.3104827691751233E-002
   1.2514176395919438E-002  -3.1482290924674250E-003   5.2904436324978654E-002
   1.1015990244984133E-002  -2.7846865706187551E-003   5.3047911994380831E-002
   9.5178040940488567E-003  -2.5382029330393713E-003   5.3535254699958110E-002
   8.0196179431135384E-003  -2.4087781797287322E-003   5.4366464441710227E-002
   1.1489958624497310E-002  -3.1064546123113490E-003   5.6747167736220350E-002
   1.0284358279210482E-002  -2.6565627473365827E-003   5.6785442531636809E-002
   9.0787579339236535E-003  -2.3412647804638836E-003   5.7065021902175175E-002
   7.8731575886368359E-003  -2.1605607116931720E-003   5.7585905847835579E-002
   6.6675572433500252E-003  -2.1144505410246039E-003   5.8348094368617986E-002
   9.3833284860411828E-003  -2.5840787260376918E-003   6.0367565746462772E-002
   8.3677514853498641E-003  -2.1648964022057821E-003   6.0626971690235523E-002
   7.3521744846584899E-003  -1.8978429903087415E-003   6.1025119748077200E-002
   6.3365974839671565E-003  -1.7829184903469190E-003   6.1562009919987899E-002
   5.3210204832757971E-003  -1.8201229023204479E-003   6.2237642205967600E-002
   7.6924721314864108E-003  -2.0617028397643677E-003   6.3966021722479005E-002
   6.7643560143375303E-003  -1.6732300570749814E-003   6.4429023800774976E-002
   5.8362398971886359E-003  -1.4544212001540158E-003   6.4928205532086836E-002
   4.9081237800397276E-003  -1.4052762690007423E-003   6.5463566916414834E-002
   3.9800076628908332E-003  -1.5257952636162919E-003   6.6035107953758332E-002
   9.3772025825663574E-003  -2.7031058184329160E-003   5.0292752425243670E-002
   7.9207595962250688E-003  -2.8402389926738270E-003   5.0760769597802624E-002
   6.4643166098838079E-003  -3.5775933168648022E-003   5.1502034764221827E-002
   5.0078736235425608E-003  -4.9151687910072017E-003   5.2516547924500945E-002
   3.5514306372012583E-003  -6.8529654150998320E-003   5.3804309078640089E-002
   8.0196179431135384E-003  -2.4087781797287322E-003   5.4366464441710227E-002
   6.8277977452625843E-003  -2.5906047769061469E-003   5.4278547865259930E-002
   5.6359775474116164E-003  -3.2778751907905634E-003   5.4446628871930414E-002
   4.4441573495606554E-003  -4.4705894213819194E-003   5.4870707461721596E-002
   3.2523371517096944E-003  -6.1687474686804578E-003   5.5550783634632950E-002
   6.6675572433500252E-003  -2.1144505410246039E-003   5.8348094368617986E-002
   5.7231094232499252E-003  -2.3409705611386888E-003   5.7799021376402221E-002
   4.7786616031498599E-003  -2.9781570647159916E-003   5.7488695556567465E-002
   3.8342137830497912E-003  -4.0260100517569702E-003   5.7417116909114038E-002
   2.8897659629496947E-003  -5.4845295222610280E-003   5.7584285434041621E-002
   5.3210204832757971E-003  -1.8201229023204479E-003   6.2237642205967600E-002
   4.6066946301871227E-003  -2.0913363453711753E-003   6.1322190131229755E-002
   3.8923687770984917E-003  -2.6784389386414753E-003   6.0628234818133564E-002
   3.1780429240098303E-003  -3.5814306821318545E-003   6.0155776266679402E-002
   2.4637170709211863E-003  -4.8003115758417370E-003   5.9904814476866734E-002
   3.9800076628908332E-003  -1.5257952636162919E-003   6.6035107953758332E-002
   3.4785533660742218E-003  -1.8417021296036618E-003   6.4848054129742261E-002
   2.9770990692575688E-003  -2.3787208125672366E-003   6.3865246656628405E-002
   2.4756447724409367E-003  -3.1368513125067526E-003   6.3086685534416764E-002
   1.9741904756242767E-003  -4.1160936294224459E-003   6.2512370763107672E-002
   3.5514306372012583E-003  -6.8529654150998320E-003   5.3804309078640089E-002
   4.1097342897340183E-003  -9.4159880905642090E-003   5.2055225907047697E-002
   4.6680379422666951E-003  -1.2629241718822154E-002   5.0178154589959167E-002
   5.2263415947994135E-003  -1.6492726299873160E-002   4.8173095127374083E-002
   5.7846452473321319E-003  -2.1006441833717471E-002   4.6040047519292582E-002
   3.2523371517096944E-003  -6.1687474686804578E-003   5.5550783634632950E-002
   3.6949617115550198E-003  -8.4113323490694891E-003   5.3133711411447238E-002
   4.1375862714003453E-003  -1.1237327078932990E-002   5.0613269148383377E-002
   4.5802108312456985E-003  -1.4646731658270740E-002   4.7989456845441203E-002
   5.0228353910910517E-003  -1.8639546087083403E-002   4.5262274502620325E-002
   2.8897659629496947E-003  -5.4845295222610280E-003   5.7584285434041621E-002
   3.2413295357256247E-003  -7.4066766075746582E-003   5.4566045262581603E-002
   3.5928931085015756E-003  -9.8454124390438408E-003   5.1469053156861164E-002
   3.9444566812774952E-003  -1.2800737016668767E-002   4.8293309116880061E-002
   4.2960202540534564E-003  -1.6272650340449113E-002   4.5038813142639578E-002
   2.4637170709211863E-003  -4.8003115758417370E-003   5.9904814476866734E-002
   2.7488377622457445E-003  -6.4020208660799938E-003   5.6352227460451113E-002
   3.0339584535703148E-003  -8.4534977991549062E-003   5.2745506615393054E-002
   3.3190791448949051E-003  -1.0954742375066681E-002   4.9084651941693085E-002
   3.6041998362194433E-003  -1.3905754593814934E-002   4.5369663439350227E-002
   1.9741904756242767E-003  -4.1160936294224459E-003   6.2512370763107672E-002
   2.2174863911154780E-003  -5.3973651245853294E-003   5.8492258005055198E-002
   2.4607823066066375E-003  -7.0615831592658052E-003   5.4442629523978492E-002
   2.7040782220978180E-003  -9.1087477334642758E-003   5.0363485319877332E-002
   2.9473741375889984E-003  -1.1538858847180755E-002   4.6254825392751719E-002
   3.9280033359422817E-002  -8.0995962048009962E-003   4.1635352606647635E-002
   3.4165057334132193E-002  -4.9692200512186924E-003   7.1587545113202367E-002
   2.9050081308841583E-002  -3.1806496361817260E-003   8.9502952633196742E-002
   2.3935105283550966E-002  -2.7338849596898265E-003   9.5381575166630511E-002
   1.8820129258260349E-002  -3.6289260217433617E-003   8.9223412713503869E-002
   6.0192243954200975E-002  -2.9700717122941866E-003   6.6361640178809966E-002
   4.6102025351903039E-002  -1.8092324838190066E-003   7.8209030148983755E-002
   3.2011806749605132E-002  -1.2725873808727695E-003   8.4142719951703582E-002
   1.7921588147307224E-002  -1.3601364034554475E-003   8.4162709586969225E-002
   3.8313695450093097E-003  -2.0718795515670685E-003   7.8268999054780741E-002
   6.0921109535082139E-002   2.1594527802127061E-003   8.8759585019356740E-002
   4.3978733174883274E-002   1.3507550835806237E-003   8.3219784066166147E-002
   2.7036356814684425E-002   6.3547487443597894E-004   7.7889367764627807E-002
   1.0093980454485568E-002   1.3612152778907233E-005   7.2768336114741677E-002
  -6.8483959057132823E-003  -5.1483308139083084E-004   6.7856689116507773E-002
   4.1466630102066332E-002   7.2889772727195434E-003  0.10882918712828840     
   2.7795180803072889E-002   4.5107426509802540E-003   8.6619806864749446E-002
   1.4123731504079456E-002   2.5435371297448592E-003   7.0742896071969430E-002
   4.5228220508601938E-004   1.3873607090132464E-003   6.1198454749947818E-002
  -1.3219167093907419E-002   1.0422133887854346E-003   5.7986482898684799E-002
   1.8288056551535592E-003   1.2418501765226408E-002  0.12657044650560462     
  -2.4486317635281016E-003   7.6707302183799952E-003   8.8409098544733888E-002
  -6.7260691822097693E-003   4.4515993850536700E-003   6.2703304873728244E-002
  -1.1003506600891434E-002   2.7611092652476792E-003   4.9453065492587669E-002
  -1.5280944019573098E-002   2.5992598589616445E-003   4.8658380401311874E-002
   1.8820129258260349E-002  -3.6289260217433617E-003   8.9223412713503869E-002
   1.9822236295274076E-002  -4.9205611807235927E-003   8.0007188926346562E-002
   2.0824343332287817E-002  -5.6635787950116701E-003   7.3270492685105104E-002
   2.1826450369301552E-002  -5.8579788646082598E-003   6.9013323989779496E-002
   2.2828557406315286E-002  -5.5037613895126958E-003   6.7235682840369571E-002
   3.8313695450093097E-003  -2.0718795515670685E-003   7.8268999054780741E-002
   6.9097898640627237E-003  -2.9445408421876484E-003   7.3384042958877155E-002
   9.9882101831161411E-003  -3.5148442922972589E-003   7.0172185881137050E-002
   1.3066630502169564E-002  -3.7827899018960109E-003   6.8633427821560705E-002
   1.6145050821222987E-002  -3.7483776709837380E-003   6.8767768780147565E-002
  -6.8483959057132823E-003  -5.1483308139083084E-004   6.7856689116507773E-002
  -2.5000908323724938E-003  -9.6852050365181519E-004   6.7056741007676945E-002
   1.8482142409683121E-003  -1.3661097895827368E-003   6.7123463389257287E-002
   6.1965193143091127E-003  -1.7076009391838176E-003   6.8056856261248869E-002
   1.0544824387649906E-002  -1.9929939524548357E-003   6.9856919623651648E-002
  -1.3219167093907419E-002   1.0422133887854346E-003   5.7986482898684799E-002
  -8.4074057940315434E-003   1.0074998348841846E-003   6.1025283072745642E-002
  -3.5956444941556672E-003   7.8262471313178539E-004   6.4124325209465677E-002
   1.2161168057202121E-003   3.6758802352851450E-004   6.7283609308844500E-002
   6.0278781055960844E-003  -2.3761023392593339E-004   7.0503135370882236E-002
  -1.5280944019573098E-002   2.5992598589616445E-003   4.8658380401311874E-002
  -1.0812155020914451E-002   2.9835201734199068E-003   5.5289669154083732E-002
  -6.3433660222557975E-003   2.9313592158460855E-003   6.1174771341762191E-002
  -1.8745770235971543E-003   2.4427769862405690E-003   6.6313686964347224E-002
   2.5942119750615028E-003   1.5177734846030244E-003   7.0706416021838858E-002
   2.2828557406315286E-002  -5.5037613895126958E-003   6.7235682840369571E-002
   1.9980637853197578E-002  -4.9018126004622409E-003   6.2966425190866482E-002
   1.7132718300079869E-002  -4.3530187281936861E-003   6.0421003474409873E-002
   1.4284798746962146E-002  -3.8573797727069412E-003   5.9599417690999912E-002
   1.1436879193844451E-002  -3.4148957340021102E-003   6.0501667840636486E-002
   1.6145050821222987E-002  -3.7483776709837380E-003   6.8767768780147565E-002
   1.4706213017099741E-002  -3.5365372942307571E-003   6.5266708865305945E-002
   1.3267375212976495E-002  -3.2721984663070802E-003   6.2859976515406646E-002
   1.1828537408853257E-002  -2.9553611872127836E-003   6.1547571730449752E-002
   1.0389699604730018E-002  -2.5860254569475827E-003   6.1329494510435012E-002
   1.0544824387649906E-002  -1.9929939524548357E-003   6.9856919623651648E-002
   9.8855599644168922E-003  -2.1712619879992456E-003   6.7229710811424148E-002
   9.2262955411838675E-003  -2.1913782044203772E-003   6.5067321196034741E-002
   8.5670311179508428E-003  -2.0533426017183519E-003   6.3369750777483275E-002
   7.9077666947178285E-003  -1.7571551798930551E-003   6.2136999555770123E-002
   6.0278781055960844E-003  -2.3761023392593339E-004   7.0503135370882236E-002
   5.5186786951490234E-003  -8.0598668176769250E-004   6.8855431029221204E-002
   5.0094792847019693E-003  -1.1105579425337506E-003   6.7043037516294174E-002
   4.5002798742549205E-003  -1.1513240162240018E-003   6.5065954832100953E-002
   3.9910804638078595E-003  -9.2828490283852760E-004   6.2924182976641499E-002
   2.5942119750615028E-003   1.5177734846030244E-003   7.0706416021838858E-002
   1.6055692092961579E-003   5.5928862446374961E-004   7.0143869518697222E-002
   6.1692644353080958E-004  -2.9737680647026754E-005   6.8787125476185124E-002
  -3.7171632223453877E-004  -2.4930543072972447E-004   6.6636183894302550E-002
  -1.3603590879998836E-003  -9.9414625784055577E-005   6.3691044773049488E-002
   1.1436879193844451E-002  -3.4148957340021102E-003   6.0501667840636486E-002
   1.1622804652371838E-002  -3.0642659061502764E-003   6.4429009298092643E-002
   1.1808730110899224E-002  -2.8441895832231334E-003   6.7006069388922396E-002
   1.1994655569426624E-002  -2.7546667652207230E-003   6.8232848113125633E-002
   1.2180581027954024E-002  -2.7956974521426980E-003   6.8109345470702465E-002
   1.0389699604730018E-002  -2.5860254569475827E-003   6.1329494510435012E-002
   9.5443106706374764E-003  -2.2475281881222109E-003   6.4018685181512464E-002
   8.6989217365449484E-003  -2.0232062933470268E-003   6.5995528433976491E-002
   7.8535328024524204E-003  -1.9130597726220618E-003   6.7260024267827179E-002
   7.0081438683598785E-003  -1.9170886259473052E-003   6.7812172683064276E-002
   7.9077666947178285E-003  -1.7571551798930551E-003   6.2136999555770123E-002
   6.6689973160183567E-003  -1.4307904700939233E-003   6.3604417571343372E-002
   5.4302279373188850E-003  -1.2022230034706982E-003   6.4997422116316012E-002
   4.1914585586194202E-003  -1.0714527800232895E-003   6.6316013190688208E-002
   2.9526891799199415E-003  -1.0384797997517459E-003   6.7560190794460240E-002
   3.9910804638078595E-003  -9.2828490283852760E-004   6.2924182976641499E-002
   2.9968645885144439E-003  -6.1405275206569132E-004   6.3186206467584688E-002
   2.0026487132210405E-003  -3.8123971359448061E-004   6.4011750435940679E-002
   1.0084328379276345E-003  -2.2984578742457282E-004   6.5400814881709110E-002
   1.4216962634221522E-005  -1.5987097355621427E-004   6.7353399804889968E-002
  -1.3603590879998836E-003  -9.9414625784055577E-005   6.3691044773049488E-002
  -1.4720875118742274E-003   2.0268496596237418E-004   6.2764051870237314E-002
  -1.5838159357485886E-003   4.3974357628175087E-004   6.3038513392850520E-002
  -1.6955443596229462E-003   6.1176120517403634E-004   6.4514429340889398E-002
  -1.8072727834972935E-003   7.1873785263920631E-004   6.7191799714353739E-002
   1.2180581027954024E-002  -2.7956974521426980E-003   6.8109345470702465E-002
   1.1058553803837134E-002  -2.8295533684074003E-003   6.5480529933933718E-002
   9.9365265797202174E-003  -2.7185062384321723E-003   6.3913704130307170E-002
   8.8144993556033072E-003  -2.4625560622178744E-003   6.3408868059822376E-002
   7.6924721314864108E-003  -2.0617028397643677E-003   6.3966021722479005E-002
   7.0081438683598785E-003  -1.9170886259473052E-003   6.7812172683064276E-002
   6.7688654493142514E-003  -1.9302118125205658E-003   6.6241543566276151E-002
   6.5295870302686451E-003  -1.8473482915396799E-003   6.5374422326488962E-002
   6.2903086112230458E-003  -1.6684980630052651E-003   6.5210808963702571E-002
   6.0510301921774118E-003  -1.3936611269165233E-003   6.5750703477916672E-002
   2.9526891799199415E-003  -1.0384797997517459E-003   6.7560190794460240E-002
   3.2376777098046261E-003  -1.0308702566338979E-003   6.6998831758967120E-002
   3.5226662396893108E-003  -9.7619034464718757E-004   6.6782498744333840E-002
   3.8076547695739902E-003  -8.7444006379226724E-004   6.6911191750560359E-002
   4.0926432994586662E-003  -7.2561941406840136E-004   6.7384910777646606E-002
   1.4216962634221522E-005  -1.5987097355621427E-004   6.7353399804889968E-002
   4.6499058530820835E-004  -1.3152870074692458E-004   6.7752394512006542E-002
   9.1576420798220037E-004  -1.0503239775469519E-004   6.8137933383841900E-002
   1.3665378306561998E-003  -8.0382064579019585E-005   6.8510016420396003E-002
   1.8173114533301792E-003  -5.7577701220362654E-005   6.8868643621669112E-002
  -1.8072727834972935E-003   7.1873785263920631E-004   6.7191799714353739E-002
  -1.5491959241749759E-003   7.6781285513949360E-004   6.8502231825394500E-002
  -1.2911190648526687E-003   7.6612554913776942E-004   6.9440726245012907E-002
  -1.0330422055303580E-003   7.1367593463372153E-004   7.0007282973209184E-002
  -7.7496534620804386E-004   6.1046401162756503E-004   7.0201902009983330E-002
   7.6924721314864108E-003  -2.0617028397643677E-003   6.3966021722479005E-002
   6.7643560143375303E-003  -1.6732300570749814E-003   6.4429023800774976E-002
   5.8362398971886359E-003  -1.4544212001540158E-003   6.4928205532086836E-002
   4.9081237800397276E-003  -1.4052762690007423E-003   6.5463566916414834E-002
   3.9800076628908332E-003  -1.5257952636162919E-003   6.6035107953758332E-002
   6.0510301921774118E-003  -1.3936611269165233E-003   6.5750703477916672E-002
   5.2157615973165913E-003  -1.1315543779634729E-003   6.5807872968278003E-002
   4.3804930024557917E-003  -9.9089471083657621E-004   6.6014557850199662E-002
   3.5452244075949921E-003  -9.7168212553505606E-004   6.6370758123681178E-002
   2.7099558127341716E-003  -1.0739166220596896E-003   6.6876473788722968E-002
   4.0926432994586662E-003  -7.2561941406840136E-004   6.7384910777646606E-002
   3.4635579654301793E-003  -5.8987869885207544E-004   6.7084464524016008E-002
   2.8344726314016890E-003  -5.2736822151915053E-004   6.7046869400489387E-002
   2.2053872973732055E-003  -5.3808798206926231E-004   6.7272125407067562E-002
   1.5763019633447117E-003  -6.2203798050286530E-004   6.7760232543749854E-002
   1.8173114533301792E-003  -5.7577701220362654E-005   6.8868643621669112E-002
   1.5077451186782543E-003  -4.8203019740844510E-005   6.8258798467988435E-002
   1.1981787840263372E-003  -6.3841732201717905E-005   6.8025140182956453E-002
   8.8861244937442612E-004  -1.0449383860346682E-004   6.8167668766573569E-002
   5.7904611472249512E-004  -1.7015933894620749E-004   6.8686384218839006E-002
  -7.7496534620804386E-004   6.1046401162756503E-004   7.0201902009983330E-002
  -6.5167694293915418E-004   4.9347265937088602E-004   6.9330874800195619E-002
  -5.2838853967027144E-004   3.9968475711568696E-004   6.8949370197600890E-002
  -4.0510013640138696E-004   3.2910030486232172E-004   6.9057388202198894E-002
  -2.8181173313249902E-004   2.8171930261056133E-004   6.9654928813989936E-002
   3.9800076628908332E-003  -1.5257952636162919E-003   6.6035107953758332E-002
   3.4785533660742218E-003  -1.8417021296036618E-003   6.4848054129742261E-002
   2.9770990692575688E-003  -2.3787208125672366E-003   6.3865246656628405E-002
   2.4756447724409367E-003  -3.1368513125067526E-003   6.3086685534416764E-002
   1.9741904756242767E-003  -4.1160936294224459E-003   6.2512370763107672E-002
   2.7099558127341716E-003  -1.0739166220596896E-003   6.6876473788722968E-002
   2.3956870831616794E-003  -1.3186422459094405E-003   6.5616433686915221E-002
   2.0814183535892150E-003  -1.7269030425839937E-003   6.4526518368694163E-002
   1.7671496240167194E-003  -2.2986990120837519E-003   6.3606727834058768E-002
   1.4528808944442584E-003  -3.0340301544078407E-003   6.2857062083009230E-002
   1.5763019633447117E-003  -6.2203798050286530E-004   6.7760232543749854E-002
   1.4150972337001293E-003  -7.9558236221494161E-004   6.6484782808302251E-002
   1.2538925040555503E-003  -1.0750852726007232E-003   6.5345336289124284E-002
   1.0926877744109730E-003  -1.4605467116601892E-003   6.4341892986216120E-002
   9.3148304476638882E-004  -1.9519666793933466E-003   6.3474452899577705E-002
   5.7904611472249512E-004  -1.7015933894620749E-004   6.8686384218839006E-002
   5.3678381768953749E-004  -2.7252247852052602E-004   6.7453101493902184E-002
   4.9452152065659980E-004  -4.2326750261752200E-004   6.6321700417918850E-002
   4.5225922362364173E-004  -6.2239441123701847E-004   6.5292180990889168E-002
   4.0999692659070448E-004  -8.6990320437868585E-004   6.4364543212812861E-002
  -2.8181173313249902E-004   2.8171930261056133E-004   6.9654928813989936E-002
  -2.3925316487007769E-004   2.5053740517372303E-004   6.8521389743715355E-002
  -1.9669459660765637E-004   2.2855026736587347E-004   6.7455610755077888E-002
  -1.5413602834523504E-004   2.1575788918639510E-004   6.6457591848077785E-002
  -1.1157746008281372E-004   2.1216027063586385E-004   6.5527333022714740E-002
   1.9741904756242767E-003  -4.1160936294224459E-003   6.2512370763107672E-002
   2.2174863911154780E-003  -5.3973651245853294E-003   5.8492258005055198E-002
   2.4607823066066375E-003  -7.0615831592658052E-003   5.4442629523978492E-002
   2.7040782220978180E-003  -9.1087477334642758E-003   5.0363485319877332E-002
   2.9473741375889984E-003  -1.1538858847180755E-002   4.6254825392751719E-002
   1.4528808944442584E-003  -3.0340301544078407E-003   6.2857062083009230E-002
   1.6593083898957806E-003  -3.9927262013076392E-003   5.8496437771521859E-002
   1.8657358853473166E-003  -5.2346168845338048E-003   5.4091592342979333E-002
   2.0721633807988180E-003  -6.7597022040855465E-003   4.9642525797382153E-002
   2.2785908762503748E-003  -8.5679821599635719E-003   4.5149238134729819E-002
   9.3148304476638882E-004  -1.9519666793933466E-003   6.3474452899577705E-002
   1.0863367261477394E-003  -2.5880872780305042E-003   5.8873068937846940E-002
   1.2411904075291004E-003  -3.4076506098016657E-003   5.4212758465031041E-002
   1.3960440889104562E-003  -4.4106566747068102E-003   4.9493521481130190E-002
   1.5508977702918259E-003  -5.5971054727461667E-003   4.4715357986142790E-002
   4.0999692659070448E-004  -8.6990320437868585E-004   6.4364543212812861E-002
   4.9857139987136492E-004  -1.1834483547530916E-003   5.9622151504030982E-002
   5.8714587315203837E-004  -1.5806843350695959E-003   5.4806127890133317E-002
   6.7572034643269491E-004  -2.0616111453280773E-003   4.9916472371119444E-002
   7.6429481971338614E-004  -2.6262287855287614E-003   4.4953184946990493E-002
  -1.1157746008281372E-004   2.1216027063586385E-004   6.5527333022714740E-002
  -1.0398758893336024E-004   2.2119056852432095E-004   6.0743685470073916E-002
  -9.6397717783906767E-005   2.4628193966239054E-004   5.5871700618286224E-002
  -8.8807846634463700E-005   2.8743438405052363E-004   5.0911378467352636E-002
  -8.1217975484992877E-005   3.4464790168842185E-004   4.5862719017272013E-002
   1.8288056551535592E-003   1.2418501765226408E-002  0.12657044650560462     
  -2.4486317635281016E-003   7.6707302183799952E-003   8.8409098544733888E-002
  -6.7260691822097693E-003   4.4515993850536700E-003   6.2703304873728244E-002
  -1.1003506600891434E-002   2.7611092652476792E-003   4.9453065492587669E-002
  -1.5280944019573098E-002   2.5992598589616445E-003   4.8658380401311874E-002
  -3.7472898551391180E-002   5.1161885132623430E-003   8.2486567730023885E-002
  -3.1997019344986610E-002   2.6642660609927094E-003   6.3752039150837686E-002
  -2.6521140138582058E-002   1.2306459988629670E-003   5.2068589531958864E-002
  -2.1045260932177491E-002   8.1532832687304657E-004   4.7436218873387587E-002
  -1.5569381725772928E-002   1.4183130450228787E-003   4.9854927175123853E-002
  -5.5919017263302888E-002  -2.1861247387017502E-003   4.0953707210710441E-002
  -4.6094296761369544E-002  -2.3421980963944655E-003   4.1135659689828033E-002
  -3.6269576259436200E-002  -1.9903073873277013E-003   4.2964215799695747E-002
  -2.6444855757502855E-002  -1.1304526115016120E-003   4.6439375540313604E-002
  -1.6620135255569511E-002   2.3736623108402966E-004   5.1561138911681362E-002
  -5.3509550480581557E-002  -9.4884379906658295E-003   1.9718649476639406E-003
  -4.4740464012676881E-002  -7.3486622537816543E-003   2.0559960161705124E-002
  -3.5971377544772205E-002  -5.2112607735184703E-003   3.5390183676938955E-002
  -2.7202291076867530E-002  -3.0762335498761466E-003   4.6462535493365542E-002
  -1.8433204608962837E-002  -9.4358058285472224E-004   5.3777015610984497E-002
  -3.0244498203227194E-002  -1.6790751242629909E-002  -3.4458959059115557E-002
  -2.7935521098908626E-002  -1.2355126411168899E-002   2.0249405664689024E-003
  -2.5626543994590058E-002  -8.4322141597091144E-003   2.9346493163688564E-002
  -2.3317566890271483E-002  -5.0220144882508859E-003   4.7505698732543303E-002
  -2.1008589785952922E-002  -2.1245273967936407E-003   5.6502557273033216E-002
  -1.5280944019573098E-002   2.5992598589616445E-003   4.8658380401311874E-002
  -1.0812155020914451E-002   2.9835201734199068E-003   5.5289669154083732E-002
  -6.3433660222557975E-003   2.9313592158460855E-003   6.1174771341762191E-002
  -1.8745770235971543E-003   2.4427769862405690E-003   6.6313686964347224E-002
   2.5942119750615028E-003   1.5177734846030244E-003   7.0706416021838858E-002
  -1.5569381725772928E-002   1.4183130450228787E-003   4.9854927175123853E-002
  -1.1948871836839131E-002   2.2795705947787764E-003   5.5152718560187594E-002
  -8.3283619479053335E-003   2.6390714176069419E-003   5.9500138290895094E-002
  -4.7078520589715345E-003   2.4968155135073195E-003   6.2897186367246241E-002
  -1.0873421700377320E-003   1.8528028824801868E-003   6.5343862789240925E-002
  -1.6620135255569511E-002   2.3736623108402966E-004   5.1561138911681362E-002
  -1.4052089565623515E-002   1.5756210161376460E-003   5.5460097474141351E-002
  -1.1484043875677521E-002   2.3467836193676872E-003   5.8204499292982020E-002
  -8.9159981857315270E-003   2.5508540407741809E-003   5.9794344368203384E-002
  -6.3479524957855311E-003   2.1878322803572381E-003   6.0229632699805566E-002
  -1.8433204608962837E-002  -9.4358058285472224E-004   5.3777015610984497E-002
  -1.7121808207267601E-002   8.7167143749648790E-004   5.6211805895944766E-002
  -1.5810411805572362E-002   2.0544958211284881E-003   5.7287854348022804E-002
  -1.4499015403877120E-002   2.6048925680410423E-003   5.7005160967218658E-002
  -1.3187619002181886E-002   2.5228616782343727E-003   5.5363725753532253E-002
  -2.1008589785952922E-002  -2.1245273967936407E-003   5.6502557273033216E-002
  -2.1158027761771392E-002   1.6772185885538526E-004   5.7407843825598076E-002
  -2.1307465737589851E-002   1.7622080228892611E-003   5.6750203456017750E-002
  -2.1456903713408325E-002   2.6589310953078413E-003   5.4529636164292253E-002
  -2.1606341689226788E-002   2.8578910761113963E-003   5.0746141950421486E-002
   2.5942119750615028E-003   1.5177734846030244E-003   7.0706416021838858E-002
   1.6055692092961579E-003   5.5928862446374961E-004   7.0143869518697222E-002
   6.1692644353080958E-004  -2.9737680647026754E-005   6.8787125476185124E-002
  -3.7171632223453877E-004  -2.4930543072972447E-004   6.6636183894302550E-002
  -1.3603590879998836E-003  -9.9414625784055577E-005   6.3691044773049488E-002
  -1.0873421700377320E-003   1.8528028824801868E-003   6.5343862789240925E-002
  -2.4530340017536872E-003   1.0877808436197123E-003   6.3934006812015332E-002
  -3.8187258334696442E-003   5.8249671602050856E-004   6.2564250242258979E-002
  -5.1844176651856064E-003   3.3695049968252011E-004   6.1234593079971714E-002
  -6.5501094969015565E-003   3.5114219460580243E-004   5.9945035325153717E-002
  -6.3479524957855311E-003   2.1878322803572381E-003   6.0229632699805566E-002
  -7.2563964466124779E-003   1.6162730627755639E-003   5.7862746604728815E-002
  -8.1648403974394178E-003   1.1947311126881063E-003   5.6370256863960889E-002
  -9.0732843482663576E-003   9.2320643009471091E-004   5.5752163477501851E-002
  -9.9817282990933114E-003   8.0169901499546614E-004   5.6008466445351582E-002
  -1.3187619002181886E-002   2.5228616782343727E-003   5.5363725753532253E-002
  -1.2804518125280192E-002   2.1447652819313878E-003   5.1930088896837423E-002
  -1.2421417248378516E-002   1.8069655093556729E-003   5.0205145341291023E-002
  -1.2038316371476836E-002   1.5094623605068731E-003   5.0188895086893177E-002
  -1.1655215494575145E-002   1.2522558353851715E-003   5.1881338133643568E-002
  -2.1606341689226788E-002   2.8578910761113963E-003   5.0746141950421486E-002
  -1.9097399037756861E-002   2.6732575010874060E-003   4.6136033688341405E-002
  -1.6588456386286924E-002   2.4191999060232533E-003   4.4068915674249337E-002
  -1.4079513734816996E-002   2.0957182909191498E-003   4.4544787908145353E-002
  -1.1570571083347060E-002   1.7028126557748768E-003   4.7563650390029411E-002
  -1.3603590879998836E-003  -9.9414625784055577E-005   6.3691044773049488E-002
  -1.4720875118742274E-003   2.0268496596237418E-004   6.2764051870237314E-002
  -1.5838159357485886E-003   4.3974357628175087E-004   6.3038513392850520E-002
  -1.6955443596229462E-003   6.1176120517403634E-004   6.4514429340889398E-002
  -1.8072727834972935E-003   7.1873785263920631E-004   6.7191799714353739E-002
  -6.5501094969015565E-003   3.5114219460580243E-004   5.9945035325153717E-002
  -5.7599381473074154E-003   4.9935429350117522E-004   6.0448250334721954E-002
  -4.9697667977132726E-003   6.5586928907925002E-004   6.1553810465801939E-002
  -4.1795954481191333E-003   8.2068718134023846E-004   6.3261715718393327E-002
  -3.3894240985249957E-003   9.9380797028392198E-004   6.5571966092495992E-002
  -9.9817282990933114E-003   8.0169901499546614E-004   5.6008466445351582E-002
  -8.8887664799447950E-003   7.9602362103967095E-004   5.8015233245410705E-002
  -7.7958046607962813E-003   8.7199500187663120E-004   6.0025235863067024E-002
  -6.7028428416477598E-003   1.0296131575064389E-003   6.2038474298320739E-002
  -5.6098810224992513E-003   1.2688780879287487E-003   6.4054948551171859E-002
  -1.1655215494575145E-002   1.2522558353851715E-003   5.1881338133643568E-002
  -1.0858572509786377E-002   1.0926929485783193E-003   5.5465000602303138E-002
  -1.0061929524997616E-002   1.0881207146740714E-003   5.8452789584646087E-002
  -9.2652865402088544E-003   1.2385391336724181E-003   6.0844705080672051E-002
  -8.4686435554200933E-003   1.5439482055736309E-003   6.2640747090381282E-002
  -1.1570571083347060E-002   1.7028126557748768E-003   4.7563650390029411E-002
  -1.1669356236832164E-002   1.3893622761168012E-003   5.2797552405399462E-002
  -1.1768141390317274E-002   1.3042464274714838E-003   5.6836471630538676E-002
  -1.1866926543802383E-002   1.4474651098388344E-003   5.9680408065446999E-002
  -1.1965711697287489E-002   1.8190183232182910E-003   6.1329361710124153E-002
  -1.8072727834972935E-003   7.1873785263920631E-004   6.7191799714353739E-002
  -1.5491959241749759E-003   7.6781285513949360E-004   6.8502231825394500E-002
  -1.2911190648526687E-003   7.6612554913776942E-004   6.9440726245012907E-002
  -1.0330422055303580E-003   7.1367593463372153E-004   7.0007282973209184E-002
  -7.7496534620804386E-004   6.1046401162756503E-004   7.0201902009983330E-002
  -3.3894240985249957E-003   9.9380797028392198E-004   6.5571966092495992E-002
  -3.3639701472339134E-003   1.1246388964971099E-003   6.6311584912657873E-002
  -3.3385161959428276E-003   1.1625872005663063E-003   6.6957895608179413E-002
  -3.3130622446517497E-003   1.1076528824916845E-003   6.7510898179060780E-002
  -3.2876082933606735E-003   9.5983594227277980E-004   6.7970592625301807E-002
  -5.6098810224992513E-003   1.2688780879287487E-003   6.4054948551171859E-002
  -5.5384204124575365E-003   1.4814649378547817E-003   6.4181633766813129E-002
  -5.4669598024158078E-003   1.5590488519949680E-003   6.4493640424596169E-002
  -5.3954991923740791E-003   1.5016298303494845E-003   6.4990968524520742E-002
  -5.3240385823323504E-003   1.3092078729182166E-003   6.5673618066586864E-002
  -8.4686435554200933E-003   1.5439482055736309E-003   6.2640747090381282E-002
  -8.0725467198458339E-003   1.8382909792124813E-003   6.2112378387860372E-002
  -7.6764498842715988E-003   1.9555105034234563E-003   6.2047960694263035E-002
  -7.2803530486973411E-003   1.8956067782073659E-003   6.2447494009588989E-002
  -6.8842562131231043E-003   1.6585798035635979E-003   6.3310978333838724E-002
  -1.1965711697287489E-002   1.8190183232182910E-003   6.1329361710124153E-002
  -1.0966349069398848E-002   2.1951170205699588E-003   6.0103818775799511E-002
  -9.9669864415101936E-003   2.3519721548521666E-003   5.9620856417180013E-002
  -8.9676238136215461E-003   2.2895837260651364E-003   5.9880474634265879E-002
  -7.9682611857329055E-003   2.0079517342089792E-003   6.0882673427057110E-002
  -7.7496534620804386E-004   6.1046401162756503E-004   7.0201902009983330E-002
  -6.5167694293915418E-004   4.9347265937088602E-004   6.9330874800195619E-002
  -5.2838853967027144E-004   3.9968475711568696E-004   6.8949370197600890E-002
  -4.0510013640138696E-004   3.2910030486232172E-004   6.9057388202198894E-002
  -2.8181173313249902E-004   2.8171930261056133E-004   6.9654928813989936E-002
  -3.2876082933606735E-003   9.5983594227277980E-004   6.7970592625301807E-002
  -2.7457328289148507E-003   7.9385890426203476E-004   6.7544725465959743E-002
  -2.2038573644690210E-003   6.8444429281153130E-004   6.7466509821778792E-002
  -1.6619819000232043E-003   6.3159210792059634E-004   6.7735945692758717E-002
  -1.1201064355773824E-003   6.3530234959019438E-004   6.8353033078899561E-002
  -5.3240385823323504E-003   1.3092078729182166E-003   6.5673618066586864E-002
  -4.5054471487415938E-003   1.0942451491532668E-003   6.5726269934249182E-002
  -3.6868557151508172E-003   9.6920382850705644E-004   6.5984702225040368E-002
  -2.8682642815600445E-003   9.3408391097898544E-004   6.6448914938960491E-002
  -2.0496728479692701E-003   9.8888539656971641E-004   6.7118908076009703E-002
  -6.8842562131231043E-003   1.6585798035635979E-003   6.3310978333838724E-002
  -5.9308199024193688E-003   1.3946313940445682E-003   6.3875508205063547E-002
  -4.9773835917156419E-003   1.2539633642026857E-003   6.4503947407385465E-002
  -4.0239472810119081E-003   1.2365757140373728E-003   6.5196295940804325E-002
  -3.0705109703081804E-003   1.3424684435495160E-003   6.5952553805320113E-002
  -7.9682611857329055E-003   2.0079517342089792E-003   6.0882673427057110E-002
  -7.0218510899482042E-003   1.6950176389357585E-003   6.1992440278403116E-002
  -6.0754409941634994E-003   1.5387228998984259E-003   6.3024245368814125E-002
  -5.1290308983788033E-003   1.5390675170957602E-003   6.3978088698290081E-002
  -4.1826208025940934E-003   1.6960514905288715E-003   6.4853970266831040E-002
  -2.8181173313249902E-004   2.8171930261056133E-004   6.9654928813989936E-002
  -2.3925316487007769E-004   2.5053740517372303E-004   6.8521389743715355E-002
  -1.9669459660765637E-004   2.2855026736587347E-004   6.7455610755077888E-002
  -1.5413602834523504E-004   2.1575788918639510E-004   6.6457591848077785E-002
  -1.1157746008281372E-004   2.1216027063586385E-004   6.5527333022714740E-002
  -1.1201064355773824E-003   6.3530234959019438E-004   6.8353033078899561E-002
  -9.9686142917001716E-004   6.9828253436066134E-004   6.7176734764821167E-002
  -8.7361642276264674E-004   8.2324017877383193E-004   6.6094049245395498E-002
  -7.5037141635527025E-004   1.0101752828289429E-003   6.5104976520622151E-002
  -6.2712640994791111E-004   1.2590878465267297E-003   6.4209516590501781E-002
  -2.0496728479692701E-003   9.8888539656971641E-004   6.7118908076009703E-002
  -1.8198886904015315E-003   1.1460276635476274E-003   6.5952633218141155E-002
  -1.5901045328337998E-003   1.4179300901818043E-003   6.4905823867940818E-002
  -1.3603203752660682E-003   1.8045926764716051E-003   6.3978480025408402E-002
  -1.1305362176983295E-003   2.3060154224177620E-003   6.3170601690544143E-002
  -3.0705109703081804E-003   1.3424684435495160E-003   6.5952553805320113E-002
  -2.7083349485646654E-003   1.5937727927346351E-003   6.4849085103675305E-002
  -2.3461589268211364E-003   2.0126200015893256E-003   6.3890934622713821E-002
  -1.9839829050776179E-003   2.5990100701143212E-003   6.3078102362436050E-002
  -1.6218068833340924E-003   3.3529429983088221E-003   6.2410588322841624E-002
  -4.1826208025940934E-003   1.6960514905288715E-003   6.4853970266831040E-002
  -3.6622002036593715E-003   2.0415179219214763E-003   6.3866090421423549E-002
  -3.1417796047246496E-003   2.6073099129975408E-003   6.3049381509714841E-002
  -2.6213590057899191E-003   3.3934274637567111E-003   6.2403843531705333E-002
  -2.1009384068552059E-003   4.3998705741997712E-003   6.1929476487394441E-002
  -1.1157746008281372E-004   2.1216027063586385E-004   6.5527333022714740E-002
  -1.0398758893336024E-004   2.2119056852432095E-004   6.0743685470073916E-002
  -9.6397717783906767E-005   2.4628193966239054E-004   5.5871700618286224E-002
  -8.8807846634463700E-005   2.8743438405052363E-004   5.0911378467352636E-002
  -8.1217975484992877E-005   3.4464790168842185E-004   4.5862719017272013E-002
  -6.2712640994791111E-004   1.2590878465267297E-003   6.4209516590501781E-002
  -7.0156778687318830E-004   1.5947262489531266E-003   5.9508081876579577E-002
  -7.7600916379849498E-004   2.0418388691937905E-003   5.4730921965654156E-002
  -8.5045054072379559E-004   2.6004257072489295E-003   4.9878036857725683E-002
  -9.2489191764907885E-004   3.2704867631190293E-003   4.4949426552794103E-002
  -1.1305362176983295E-003   2.3060154224177620E-003   6.3170601690544143E-002
  -1.2743967405549304E-003   2.9682619293815993E-003   5.8646792959905075E-002
  -1.4182572634115279E-003   3.8373957987249546E-003   5.4059871134406565E-002
  -1.5621177862681105E-003   4.9134170304473875E-003   4.9409836214048534E-002
  -1.7059783091247400E-003   6.1963256245496368E-003   4.4696688198830659E-002
  -1.6218068833340924E-003   3.3529429983088221E-003   6.2410588322841624E-002
  -1.8224744499785444E-003   4.3417976098104605E-003   5.8159818720051021E-002
  -2.0231420166229828E-003   5.6329527282562367E-003   5.3858548124543756E-002
  -2.2238095832674458E-003   7.2264083536461524E-003   4.9506776536320900E-002
  -2.4244771499118871E-003   9.1221644859802442E-003   4.5104503955381403E-002
  -2.1009384068552059E-003   4.3998705741997712E-003   6.1929476487394441E-002
  -2.3458009151440459E-003   5.7153332902390996E-003   5.8047159157016637E-002
  -2.5906634234329103E-003   7.4285096577877130E-003   5.4126952936065786E-002
  -2.8355259317217885E-003   9.5393996768442998E-003   5.0168857824543084E-002
  -3.0803884400106146E-003   1.2048003347410852E-002   4.6172873822447169E-002
  -3.0244498203227194E-002  -1.6790751242629909E-002  -3.4458959059115557E-002
  -2.7935521098908626E-002  -1.2355126411168899E-002   2.0249405664689024E-003
  -2.5626543994590058E-002  -8.4322141597091144E-003   2.9346493163688564E-002
  -2.3317566890271483E-002  -5.0220144882508859E-003   4.7505698732543303E-002
  -2.1008589785952922E-002  -2.1245273967936407E-003   5.6502557273033216E-002
  -8.6288652400523837E-003  -4.1648707161680565E-003   1.1142804239873072E-002
  -1.2382958358509591E-002  -2.5250476088651275E-003   2.6306243686965214E-002
  -1.6137051476966764E-002  -9.0313764373939343E-004   3.8505889716870717E-002
  -1.9891144595423928E-002   7.0085917920927054E-004   4.7741742329589568E-002
  -2.3645237713881089E-002   2.2869428599809616E-003   5.4013801525121752E-002
  -1.1167656399869857E-002   8.4610098102937958E-003   5.3701366095791556E-002
  -1.4786266129924584E-002   7.3050311934385881E-003   4.8039144802215439E-002
  -1.8404875859979311E-002   6.6259388722304316E-003   4.5611683702631071E-002
  -2.2023485590033986E-002   6.4237328466693142E-003   4.6418982797038183E-002
  -2.5642095320088709E-002   6.6984131167554251E-003   5.0461042085436877E-002
  -3.7860871682679521E-002   2.1086890336755662E-002   9.3216726508639616E-002
  -3.5145444413153606E-002   1.7135109995742290E-002   6.7223643912219841E-002
  -3.2430017143627622E-002   1.4155015388200232E-002   5.0663875120969586E-002
  -2.9714589874101693E-002   1.2146606514129358E-002   4.3537420134889218E-002
  -2.6999162604575775E-002   1.1109883373529930E-002   4.5844278953978461E-002
  -8.8708511088481407E-002   3.3712770863217500E-002  0.12968888547841761     
  -7.3460493208196642E-002   2.6965188798046047E-002   8.3859741016977907E-002
  -5.8212475327911864E-002   2.1684091904170033E-002   5.3662463971886232E-002
  -4.2964457447627037E-002   1.7869480181589403E-002   3.9097054343142534E-002
  -2.7716439567342266E-002   1.5521353630304435E-002   4.0163512130746704E-002
  -2.1008589785952922E-002  -2.1245273967936407E-003   5.6502557273033216E-002
  -2.1158027761771392E-002   1.6772185885538526E-004   5.7407843825598076E-002
  -2.1307465737589851E-002   1.7622080228892611E-003   5.6750203456017750E-002
  -2.1456903713408325E-002   2.6589310953078413E-003   5.4529636164292253E-002
  -2.1606341689226788E-002   2.8578910761113963E-003   5.0746141950421486E-002
  -2.3645237713881089E-002   2.2869428599809616E-003   5.4013801525121752E-002
  -2.5177692103461380E-002   3.6406235637490847E-003   5.5166460956068086E-002
  -2.6710146493041681E-002   4.5474114556874681E-003   5.5116014481635917E-002
  -2.8242600882621958E-002   5.0073065357959055E-003   5.3862462101825201E-002
  -2.9775055272202242E-002   5.0203088040745025E-003   5.1405803816636203E-002
  -2.5642095320088709E-002   6.6984131167554251E-003   5.0461042085436877E-002
  -2.8197745106664108E-002   7.1135252686428396E-003   5.2111944674549875E-002
  -3.0753394893239482E-002   7.3326148884856196E-003   5.2919562375051188E-002
  -3.3309044679814867E-002   7.3556819762839142E-003   5.2883895186940665E-002
  -3.5864694466390276E-002   7.1827265320376366E-003   5.2004943110218596E-002
  -2.6999162604575775E-002   1.1109883373529930E-002   4.5844278953978461E-002
  -3.0218186771379510E-002   1.0586426973536428E-002   4.8244294981043614E-002
  -3.3437210938183276E-002   1.0117818321283938E-002   5.0160847136263675E-002
  -3.6656235104987049E-002   9.7040574167718951E-003   5.1593935419638678E-002
  -3.9875259271790794E-002   9.3451442600007567E-003   5.2543559831168776E-002
  -2.7716439567342266E-002   1.5521353630304435E-002   4.0163512130746704E-002
  -3.1239017097607680E-002   1.4059328678430322E-002   4.3563511875549077E-002
  -3.4761594627873080E-002   1.2903021754082020E-002   4.6839868765273324E-002
  -3.8284172158138494E-002   1.2052432857260053E-002   4.9992582799919111E-002
  -4.1806749688403894E-002   1.1507561987963877E-002   5.3021653979486771E-002
  -2.1606341689226788E-002   2.8578910761113963E-003   5.0746141950421486E-002
  -1.9097399037756861E-002   2.6732575010874060E-003   4.6136033688341405E-002
  -1.6588456386286924E-002   2.4191999060232533E-003   4.4068915674249337E-002
  -1.4079513734816996E-002   2.0957182909191498E-003   4.4544787908145353E-002
  -1.1570571083347060E-002   1.7028126557748768E-003   4.7563650390029411E-002
  -2.9775055272202242E-002   5.0203088040745025E-003   5.1405803816636203E-002
  -2.5252493818534859E-002   4.7858824400614786E-003   4.8286704261156055E-002
  -2.0729932364867462E-002   4.5034916232946781E-003   4.6651852062082846E-002
  -1.6207370911200052E-002   4.1731363537744239E-003   4.6501247219416349E-002
  -1.1684809457532686E-002   3.7948166315001641E-003   4.7834889733156860E-002
  -3.5864694466390276E-002   7.1827265320376366E-003   5.2004943110218596E-002
  -3.0387257102106581E-002   6.8985073790355927E-003   5.0398311828624795E-002
  -2.4909819737822910E-002   6.5877833405660405E-003   4.9217185011856811E-002
  -1.9432382373539215E-002   6.2505544166295852E-003   4.8461562659914442E-002
  -1.3954945009255546E-002   5.8868206072255069E-003   4.8131444772797821E-002
  -3.9875259271790794E-002   9.3451442600007567E-003   5.2543559831168776E-002
  -3.4501688888472028E-002   9.0111323180095473E-003   5.2470856390747875E-002
  -2.9128118505153282E-002   8.6720750578376006E-003   5.1764914523571390E-002
  -2.3754548121834491E-002   8.3279724794845245E-003   5.0425734229639481E-002
  -1.8380977738515769E-002   7.9788245829508220E-003   4.8453315508951871E-002
  -4.1806749688403894E-002   1.1507561987963877E-002   5.3021653979486771E-002
  -3.7595789177631234E-002   1.1123757256983668E-002   5.4504337947524850E-002
  -3.3384828666858546E-002   1.0756366775108883E-002   5.4295040597226479E-002
  -2.9173868156085893E-002   1.0405390542340034E-002   5.2393761928591326E-002
  -2.4962907645313198E-002   1.0070828558676137E-002   4.8800501941619556E-002
  -1.1570571083347060E-002   1.7028126557748768E-003   4.7563650390029411E-002
  -1.1669356236832164E-002   1.3893622761168012E-003   5.2797552405399462E-002
  -1.1768141390317274E-002   1.3042464274714838E-003   5.6836471630538676E-002
  -1.1866926543802383E-002   1.4474651098388344E-003   5.9680408065446999E-002
  -1.1965711697287489E-002   1.8190183232182910E-003   6.1329361710124153E-002
  -1.1684809457532686E-002   3.7948166315001641E-003   4.7834889733156860E-002
  -1.2637608267272858E-002   3.4484116462335235E-003   5.1423927933856223E-002
  -1.3590407077013042E-002   3.2138005877357656E-003   5.4499921612276375E-002
  -1.4543205886753226E-002   3.0909834560068003E-003   5.7062870768417290E-002
  -1.5496004696493426E-002   3.0799602510465096E-003   5.9112775402278883E-002
  -1.3954945009255546E-002   5.8868206072255069E-003   4.8131444772797821E-002
  -1.5079819207299120E-002   5.5074610163503845E-003   4.9959078554582648E-002
  -1.6204693405342700E-002   5.1233547480002833E-003   5.1955606082039807E-002
  -1.7329567603386276E-002   4.7345018021749362E-003   5.4121027355169472E-002
  -1.8454441801429852E-002   4.3409021788747282E-003   5.6455342373971651E-002
  -1.8380977738515769E-002   7.9788245829508220E-003   4.8453315508951871E-002
  -1.8995989056911005E-002   7.5665103864670652E-003   4.8403004267578466E-002
  -1.9611000375306248E-002   7.0329089082646276E-003   4.9203525039828916E-002
  -2.0226011693701505E-002   6.3780201483433756E-003   5.0854877825703602E-002
  -2.0841023012096754E-002   5.6018441067029467E-003   5.3357062625202512E-002
  -2.4962907645313198E-002   1.0070828558676137E-002   4.8800501941619556E-002
  -2.4386117816108430E-002   9.6255597565837459E-003   4.6755705072843823E-002
  -2.3809327986903703E-002   8.9424630685289719E-003   4.6243678485643702E-002
  -2.3232538157698934E-002   8.0215384945112322E-003   4.7264422180019583E-002
  -2.2655748328494207E-002   6.8627860345310543E-003   4.9817936155971299E-002
  -1.1965711697287489E-002   1.8190183232182910E-003   6.1329361710124153E-002
  -1.0966349069398848E-002   2.1951170205699588E-003   6.0103818775799511E-002
  -9.9669864415101936E-003   2.3519721548521666E-003   5.9620856417180013E-002
  -8.9676238136215461E-003   2.2895837260651364E-003   5.9880474634265879E-002
  -7.9682611857329055E-003   2.0079517342089792E-003   6.0882673427057110E-002
  -1.5496004696493426E-002   3.0799602510465096E-003   5.9112775402278883E-002
  -1.3902702478877579E-002   3.0697758213493742E-003   5.8145767406589610E-002
  -1.2309400261261726E-002   2.9494750154095417E-003   5.7624058014649204E-002
  -1.0716098043645879E-002   2.7190578332267623E-003   5.7547647226458082E-002
  -9.1227958260300286E-003   2.3785242748012303E-003   5.7916535042015771E-002
  -1.8454441801429852E-002   4.3409021788747282E-003   5.6455342373971651E-002
  -1.6564481966043067E-002   3.9444346221289561E-003   5.5855996503744176E-002
  -1.4674522130656282E-002   3.5469778759666948E-003   5.5404667265309460E-002
  -1.2784562295269499E-002   3.1485319403883882E-003   5.5101354658667584E-002
  -1.0894602459882682E-002   2.7490968153934259E-003   5.4946058683818494E-002
  -2.0841023012096754E-002   5.6018441067029467E-003   5.3357062625202512E-002
  -1.8951687530895340E-002   4.8190934229085103E-003   5.3234506067263265E-002
  -1.7062352049693877E-002   4.1444807365238479E-003   5.2962684169160584E-002
  -1.5173016568492423E-002   3.5780060475497366E-003   5.2541596930894538E-002
  -1.3283681087290999E-002   3.1196693559858157E-003   5.1971244352464960E-002
  -2.2655748328494207E-002   6.8627860345310543E-003   4.9817936155971299E-002
  -2.1064319173434348E-002   5.6937522236878979E-003   5.0281296097146932E-002
  -1.9472890018374503E-002   4.7419835970812230E-003   5.0298108726202884E-002
  -1.7881460863314658E-002   4.0074801547115846E-003   4.9868374043139041E-002
  -1.6290031708254799E-002   3.4902418965778725E-003   4.8992092047955293E-002
  -7.9682611857329055E-003   2.0079517342089792E-003   6.0882673427057110E-002
  -7.0218510899482042E-003   1.6950176389357585E-003   6.1992440278403116E-002
  -6.0754409941634994E-003   1.5387228998984259E-003   6.3024245368814125E-002
  -5.1290308983788033E-003   1.5390675170957602E-003   6.3978088698290081E-002
  -4.1826208025940934E-003   1.6960514905288715E-003   6.4853970266831040E-002
  -9.1227958260300286E-003   2.3785242748012303E-003   5.7916535042015771E-002
  -8.1823842606293037E-003   2.0519768023768981E-003   5.8628357082597393E-002
  -7.2419726952285806E-003   1.8635178781976069E-003   5.9406143823346080E-002
  -6.3015611298278566E-003   1.8131475022628851E-003   6.0249895264261999E-002
  -5.3611495644271361E-003   1.9008656745733710E-003   6.1159611405344594E-002
  -1.0894602459882682E-002   2.7490968153934259E-003   5.4946058683818494E-002
  -9.8162629637638891E-003   2.4089359658177600E-003   5.5241385105645219E-002
  -8.7379234676450840E-003   2.1883128564967880E-003   5.5746602688741098E-002
  -7.6595839715262563E-003   2.0872274874300101E-003   5.6461711433106118E-002
  -6.5812444754074547E-003   2.1056798586177594E-003   5.7386711338740209E-002
  -1.3283681087290999E-002   3.1196693559858157E-003   5.1971244352464960E-002
  -1.1923487199351990E-002   2.7658951292589828E-003   5.1831524347546384E-002
  -1.0563293311412966E-002   2.5131078347958025E-003   5.2045621964999039E-002
  -9.2030994234739427E-003   2.3613074725971350E-003   5.2613537204823285E-002
  -7.8429055355349348E-003   2.3104940426623144E-003   5.3535270067018088E-002
  -1.6290031708254799E-002   3.4902418965778725E-003   4.8992092047955293E-002
  -1.4504056967393555E-002   3.1228542926997060E-003   4.8398774808301126E-002
  -1.2718082226532271E-002   2.8379028130952333E-003   4.8303201652120153E-002
  -1.0932107485671014E-002   2.6353874577642808E-003   4.8705372579412681E-002
  -9.1461327448097429E-003   2.5153082267066473E-003   4.9605287590178238E-002
  -4.1826208025940934E-003   1.6960514905288715E-003   6.4853970266831040E-002
  -3.6622002036593715E-003   2.0415179219214763E-003   6.3866090421423549E-002
  -3.1417796047246496E-003   2.6073099129975408E-003   6.3049381509714841E-002
  -2.6213590057899191E-003   3.3934274637567111E-003   6.2403843531705333E-002
  -2.1009384068552059E-003   4.3998705741997712E-003   6.1929476487394441E-002
  -5.3611495644271361E-003   1.9008656745733710E-003   6.1159611405344594E-002
  -4.6574434107862217E-003   2.2142090344144383E-003   6.0409023725046807E-002
  -3.9537372571453334E-003   2.8407142210714886E-003   5.9853836220463003E-002
  -3.2500311035044459E-003   3.7803812345449730E-003   5.9494048891591947E-002
  -2.5463249498635585E-003   5.0332100748343711E-003   5.9329661738435013E-002
  -6.5812444754074547E-003   2.1056798586177594E-003   5.7386711338740209E-002
  -5.6700235250458364E-003   2.3869001469073170E-003   5.6966252090685288E-002
  -4.7588025746842467E-003   3.0741185291457557E-003   5.6765422260358203E-002
  -3.8475816243226410E-003   4.1673350053330095E-003   5.6784221847759088E-002
  -2.9363606739610370E-003   5.6665495754691375E-003   5.7022650852888018E-002
  -7.8429055355349348E-003   2.3104940426623144E-003   5.3535270067018088E-002
  -6.6999405464381592E-003   2.5595912594002374E-003   5.3537775518338514E-002
  -5.5569755573413307E-003   3.3075228372198631E-003   5.3784139629401345E-002
  -4.4140105682445273E-003   4.5542887761208257E-003   5.4274362400206319E-002
  -3.2710455791477265E-003   6.2998890761038207E-003   5.5008443830754254E-002
  -9.1461327448097429E-003   2.5153082267066473E-003   4.9605287590178238E-002
  -7.7471944749631927E-003   2.7322823718931577E-003   5.0123594008006478E-002
  -6.3482562051166425E-003   3.5409271452940538E-003   5.0909988327591749E-002
  -4.9493179352700853E-003   4.9412425469091623E-003   5.1964470548933966E-002
  -3.5503796654235420E-003   6.9332285767383928E-003   5.3287040672033270E-002
  -2.1009384068552059E-003   4.3998705741997712E-003   6.1929476487394441E-002
  -2.3458009151440459E-003   5.7153332902390996E-003   5.8047159157016637E-002
  -2.5906634234329103E-003   7.4285096577877130E-003   5.4126952936065786E-002
  -2.8355259317217885E-003   9.5393996768442998E-003   5.0168857824543084E-002
  -3.0803884400106146E-003   1.2048003347410852E-002   4.6172873822447169E-002
  -2.5463249498635585E-003   5.0332100748343711E-003   5.9329661738435013E-002
  -2.8402360668413930E-003   6.6714734031391165E-003   5.5919245909212878E-002
  -3.1341471838192379E-003   8.7674438806578936E-003   5.2448621753185598E-002
  -3.4280583007971158E-003   1.1321121507390543E-002   4.8917789270353229E-002
  -3.7219694177749452E-003   1.4332506283337043E-002   4.5326748460715161E-002
  -2.9363606739610370E-003   5.6665495754691375E-003   5.7022650852888018E-002
  -3.3016398358605131E-003   7.6276135160392444E-003   5.4144130022526965E-002
  -3.6669189977600151E-003   1.0106378103528532E-002   5.1183081429128238E-002
  -4.0321981596594669E-003   1.3102843337936345E-002   4.8139505072691179E-002
  -4.3974773215589673E-003   1.6617009219263235E-002   4.5013400953216709E-002
  -3.2710455791477265E-003   6.2998890761038207E-003   5.5008443830754254E-002
  -3.7300122222014348E-003   8.5837536289393168E-003   5.2721811496958919E-002
  -4.1889788652551855E-003   1.1445312326399053E-002   5.0330331963893610E-002
  -4.6479455083088816E-003   1.4884565168482146E-002   4.7834005231557591E-002
  -5.1069121513626177E-003   1.8901512155189315E-002   4.5232831299950538E-002
  -3.5503796654235420E-003   6.9332285767383928E-003   5.3287040672033270E-002
  -4.1253532258641312E-003   9.5398937418395002E-003   5.1652290332509065E-002
  -4.7003267863047482E-003   1.2784246549269546E-002   4.9890373357481754E-002
  -5.2753003467453860E-003   1.6666286999028106E-002   4.8001289746950920E-002
  -5.8502739071859544E-003   2.1186015091115618E-002   4.5985039500917591E-002
  -8.8708511088481407E-002   3.3712770863217500E-002  0.12968888547841761     
  -7.3460493208196642E-002   2.6965188798046047E-002   8.3859741016977907E-002
  -5.8212475327911864E-002   2.1684091904170033E-002   5.3662463971886232E-002
  -4.2964457447627037E-002   1.7869480181589403E-002   3.9097054343142534E-002
  -2.7716439567342266E-002   1.5521353630304435E-002   4.0163512130746704E-002
 -0.13862582919155683        2.8483662985171021E-002   8.5727069434364145E-002
 -0.11146676828798885        2.5027952417502192E-002   6.3139830100433780E-002
  -8.4307707384420741E-002   2.2001082262795679E-002   4.8742809396722098E-002
  -5.7148646480852709E-002   1.9403052521051359E-002   4.2536007323228972E-002
  -2.9989585577284678E-002   1.7233863192269439E-002   4.4519423879954473E-002
 -0.16252808056618723        2.3254555107124514E-002   4.5575947266979944E-002
 -0.13089962542546524        2.3090716036958309E-002   4.5192968302225689E-002
  -9.9271170284743318E-002   2.2318072621421242E-002   4.5558559181560834E-002
  -6.7642715144021329E-002   2.0936624860513342E-002   4.6672719904985102E-002
  -3.6014260003299388E-002   1.8946372754234581E-002   4.8535450472498631E-002
 -0.16041526521237257        1.8025447229078034E-002   9.2355189762648449E-003
 -0.13175906462062600        2.1153479656414467E-002   3.0019155622353647E-002
 -0.10310286402887948        2.2635062980046861E-002   4.4109713326402469E-002
  -7.4446663437132965E-002   2.2470197199975256E-002   5.1507192088410987E-002
  -4.5790462845386473E-002   2.0658882316199681E-002   5.2211591908379582E-002
 -0.13228738313011268        1.2796339351031527E-002  -2.3294215437780985E-002
 -0.11404508587347106        1.9216243275870626E-002   1.7618392060817722E-002
  -9.5802788616829254E-002   2.2952053338672493E-002   4.4396271831246864E-002
  -7.7560491360187570E-002   2.4003769539437263E-002   5.7039423873506620E-002
  -5.9318194103545857E-002   2.2371391878164726E-002   5.5547848187596893E-002
  -2.7716439567342266E-002   1.5521353630304435E-002   4.0163512130746704E-002
  -3.1239017097607680E-002   1.4059328678430322E-002   4.3563511875549077E-002
  -3.4761594627873080E-002   1.2903021754082020E-002   4.6839868765273324E-002
  -3.8284172158138494E-002   1.2052432857260053E-002   4.9992582799919111E-002
  -4.1806749688403894E-002   1.1507561987963877E-002   5.3021653979486771E-002
  -2.9989585577284678E-002   1.7233863192269439E-002   4.4519423879954473E-002
  -3.3381993542880947E-002   1.5484946270512612E-002   4.4780418842738701E-002
  -3.6774401508477265E-002   1.4147733749843100E-002   4.5425395789939496E-002
  -4.0166809474073542E-002   1.3222225630261313E-002   4.6454354721556672E-002
  -4.3559217439669840E-002   1.2708421911766965E-002   4.7867295637590568E-002
  -3.6014260003299388E-002   1.8946372754234581E-002   4.8535450472498631E-002
  -3.8768873564731743E-002   1.6910563862594999E-002   4.5763427026826203E-002
  -4.1523487126164153E-002   1.5392445745604298E-002   4.3883010405065113E-002
  -4.4278100687596536E-002   1.4392018403262629E-002   4.2894200607215410E-002
  -4.7032714249028919E-002   1.3909281835569942E-002   4.2796997633276934E-002
  -4.5790462845386473E-002   2.0658882316199681E-002   5.2211591908379582E-002
  -4.7399657163160115E-002   1.8336181454677393E-002   4.6512536427811842E-002
  -4.9008851480933785E-002   1.6637157741365437E-002   4.2212712610650370E-002
  -5.0618045798707406E-002   1.5561811176263918E-002   3.9312120456894840E-002
  -5.2227240116481090E-002   1.5110141759373003E-002   3.7810759966545655E-002
  -5.9318194103545857E-002   2.2371391878164726E-002   5.5547848187596893E-002
  -5.9274344338165974E-002   1.9761799046759704E-002   4.7027747045695456E-002
  -5.9230494572786119E-002   1.7881869737126563E-002   4.0414502406694836E-002
  -5.9186644807406277E-002   1.6731603949265147E-002   3.5708114270595337E-002
  -5.9142795042026380E-002   1.6311001683175952E-002   3.2908582637396766E-002
  -4.1806749688403894E-002   1.1507561987963877E-002   5.3021653979486771E-002
  -3.7595789177631234E-002   1.1123757256983668E-002   5.4504337947524850E-002
  -3.3384828666858546E-002   1.0756366775108883E-002   5.4295040597226479E-002
  -2.9173868156085893E-002   1.0405390542340034E-002   5.2393761928591326E-002
  -2.4962907645313198E-002   1.0070828558676137E-002   4.8800501941619556E-002
  -4.3559217439669840E-002   1.2708421911766965E-002   4.7867295637590568E-002
  -4.0612337178747293E-002   1.2387940076955289E-002   4.8052528423713992E-002
  -3.7665456917824740E-002   1.2042397608421671E-002   4.7401582028473721E-002
  -3.4718576656902200E-002   1.1671794506165633E-002   4.5914456451869923E-002
  -3.1771696395979640E-002   1.1276130770187520E-002   4.3591151693902597E-002
  -4.7032714249028919E-002   1.3909281835569942E-002   4.2796997633276934E-002
  -4.4494112100983405E-002   1.3652122896926799E-002   4.1643304354657726E-002
  -4.1955509952937897E-002   1.3328428441733958E-002   4.0509234031648134E-002
  -3.9416907804892425E-002   1.2938198469991342E-002   3.9394786664247963E-002
  -3.6878305656846883E-002   1.2481432981698903E-002   3.8299962252457409E-002
  -5.2227240116481090E-002   1.5110141759373003E-002   3.7810759966545655E-002
  -4.9241113944339499E-002   1.4916305716898254E-002   3.5276665740356331E-002
  -4.6254987772197928E-002   1.4614459275046524E-002   3.3617996606749516E-002
  -4.3268861600056351E-002   1.4204602433816941E-002   3.2834752565725378E-002
  -4.0282735427914766E-002   1.3686735193210342E-002   3.2926933617283827E-002
  -5.9142795042026380E-002   1.6311001683175952E-002   3.2908582637396766E-002
  -5.4853342708815672E-002   1.6180488536869819E-002   2.8952612580809500E-002
  -5.0563890375604922E-002   1.5900490108358992E-002   2.6727869753778111E-002
  -4.6274438042394193E-002   1.5471006397642834E-002   2.6234354156302431E-002
  -4.1984985709183437E-002   1.4892037404721670E-002   2.7472065788382349E-002
  -2.4962907645313198E-002   1.0070828558676137E-002   4.8800501941619556E-002
  -2.4386117816108430E-002   9.6255597565837459E-003   4.6755705072843823E-002
  -2.3809327986903703E-002   8.9424630685289719E-003   4.6243678485643702E-002
  -2.3232538157698934E-002   8.0215384945112322E-003   4.7264422180019583E-002
  -2.2655748328494207E-002   6.8627860345310543E-003   4.9817936155971299E-002
  -3.1771696395979640E-002   1.1276130770187520E-002   4.3591151693902597E-002
  -3.0005513309705439E-002   1.0760222362817373E-002   4.2678528992907389E-002
  -2.8239330223431190E-002   1.0028885246385372E-002   4.2611922524475210E-002
  -2.6473147137156993E-002   9.0821194208913839E-003   4.3391332288606088E-002
  -2.4706964050882754E-002   7.9199248863355276E-003   4.5016758285300440E-002
  -3.6878305656846883E-002   1.2481432981698903E-002   3.8299962252457409E-002
  -3.4609483362515889E-002   1.1894884969051001E-002   3.8541912896143449E-002
  -3.2340661068184902E-002   1.1115307424241772E-002   3.8943125723379921E-002
  -3.0071838773853929E-002   1.0142700347271480E-002   3.9503600734166672E-002
  -2.7803016479522921E-002   8.9770637381398344E-003   4.0223337928503855E-002
  -4.0282735427914766E-002   1.3686735193210342E-002   3.2926933617283827E-002
  -3.8198027974539805E-002   1.3029547575284628E-002   3.4345856782552121E-002
  -3.6113320521164879E-002   1.2201729602098060E-002   3.5237288082357890E-002
  -3.4028613067789884E-002   1.1203281273651493E-002   3.5601227516701202E-002
  -3.1943905614414937E-002   1.0034202589944280E-002   3.5437675085582293E-002
  -4.1984985709183437E-002   1.4892037404721670E-002   2.7472065788382349E-002
  -4.0771147145777203E-002   1.4164210181518200E-002   3.0090360652133219E-002
  -3.9557308582371040E-002   1.3288151779954599E-002   3.1494409601408979E-002
  -3.8343470018964841E-002   1.2263862200031624E-002   3.1684212636209713E-002
  -3.7129631455558643E-002   1.1091341441748503E-002   3.0659769756535060E-002
  -2.2655748328494207E-002   6.8627860345310543E-003   4.9817936155971299E-002
  -2.1064319173434348E-002   5.6937522236878979E-003   5.0281296097146932E-002
  -1.9472890018374503E-002   4.7419835970812230E-003   5.0298108726202884E-002
  -1.7881460863314658E-002   4.0074801547115846E-003   4.9868374043139041E-002
  -1.6290031708254799E-002   3.4902418965778725E-003   4.8992092047955293E-002
  -2.4706964050882754E-002   7.9199248863355276E-003   4.5016758285300440E-002
  -2.3407492066280698E-002   6.7577093681483458E-003   4.4806197624903954E-002
  -2.2108020081678684E-002   5.8108805917602147E-003   4.4458269935711670E-002
  -2.0808548097076669E-002   5.0794385571710926E-003   4.3972975217723517E-002
  -1.9509076112474613E-002   4.5633832643812156E-003   4.3350313470939261E-002
  -2.7803016479522921E-002   8.9770637381398344E-003   4.0223337928503855E-002
  -2.6486321382054923E-002   7.8216665126083773E-003   3.9336978224098207E-002
  -2.5169626284586924E-002   6.8797775864387622E-003   3.8622431774220298E-002
  -2.3852931187118974E-002   6.1513969596307116E-003   3.8079698578870516E-002
  -2.2536236089650920E-002   5.6365246321844475E-003   3.7708778638048446E-002
  -3.1943905614414937E-002   1.0034202589944280E-002   3.5437675085582293E-002
  -3.0300807120757133E-002   8.8856236570688946E-003   3.3873637894729469E-002
  -2.8657708627099283E-002   7.9486745811175874E-003   3.2790594241728678E-002
  -2.7014610133441440E-002   7.2233553620904417E-003   3.2188544126579399E-002
  -2.5371511639783569E-002   6.7096659999876240E-003   3.2067487549281855E-002
  -3.7129631455558643E-002   1.1091341441748503E-002   3.0659769756535060E-002
  -3.4850949282387161E-002   9.9495808015288567E-003   2.8416176636798074E-002
  -3.2572267109215708E-002   9.0175715757962738E-003   2.6962757338236554E-002
  -3.0293584936044213E-002   8.2953137645501093E-003   2.6299511860850833E-002
  -2.8014902762872773E-002   7.7828073677909115E-003   2.6426440204640356E-002
  -1.6290031708254799E-002   3.4902418965778725E-003   4.8992092047955293E-002
  -1.4504056967393555E-002   3.1228542926997060E-003   4.8398774808301126E-002
  -1.2718082226532271E-002   2.8379028130952333E-003   4.8303201652120153E-002
  -1.0932107485671014E-002   2.6353874577642808E-003   4.8705372579412681E-002
  -9.1461327448097429E-003   2.5153082267066473E-003   4.9605287590178238E-002
  -1.9509076112474613E-002   4.5633832643812156E-003   4.3350313470939261E-002
  -1.7313873353054246E-002   4.1654988060083054E-003   4.2912060119069118E-002
  -1.5118670593633893E-002   3.7885692746713606E-003   4.2794518720843555E-002
  -1.2923467834213578E-002   3.4325946703692850E-003   4.2997689276263004E-002
  -1.0728265074793172E-002   3.0975749931024810E-003   4.3521571785327451E-002
  -2.2536236089650920E-002   5.6365246321844475E-003   3.7708778638048446E-002
  -2.0108837441499817E-002   5.2081433193173765E-003   3.7364107976723515E-002
  -1.7681438793348749E-002   4.7392357362473908E-003   3.7163117139215232E-002
  -1.5254040145197628E-002   4.2298018829745147E-003   3.7105806125523395E-002
  -1.2826641497046529E-002   3.6798417594986477E-003   3.7192174935648276E-002
  -2.5371511639783569E-002   6.7096659999876240E-003   3.2067487549281855E-002
  -2.2888949232730188E-002   6.2507878326261562E-003   3.1754918381264333E-002
  -2.0406386825676803E-002   5.6899021978236916E-003   3.1408996907234851E-002
  -1.7923824418623426E-002   5.0270090955798537E-003   3.1029723127193785E-002
  -1.5441262011569987E-002   4.2621085258947033E-003   3.0617097041140399E-002
  -2.8014902762872773E-002   7.7828073677909115E-003   2.6426440204640356E-002
  -2.5654208726745426E-002   7.2934323459349915E-003   2.6084491332691639E-002
  -2.3293514690618078E-002   6.6405686593995483E-003   2.5532158024903051E-002
  -2.0932820654490716E-002   5.8242163081849152E-003   2.4769440281273758E-002
  -1.8572126618363383E-002   4.8443752922906480E-003   2.3796338101804593E-002
  -9.1461327448097429E-003   2.5153082267066473E-003   4.9605287590178238E-002
  -7.7471944749631927E-003   2.7322823718931577E-003   5.0123594008006478E-002
  -6.3482562051166425E-003   3.5409271452940538E-003   5.0909988327591749E-002
  -4.9493179352700853E-003   4.9412425469091623E-003   5.1964470548933966E-002
  -3.5503796654235420E-003   6.9332285767383928E-003   5.3287040672033270E-002
  -1.0728265074793172E-002   3.0975749931024810E-003   4.3521571785327451E-002
  -9.0279290814379437E-003   3.0496436254300319E-003   4.4129390092820797E-002
  -7.3275930880826734E-003   3.5549339499107990E-003   4.5071915945574914E-002
  -5.6272570947274170E-003   4.6134459665442273E-003   4.6349149343589385E-002
  -3.9269211013721744E-003   6.2251796753309829E-003   4.7961090286864239E-002
  -1.2826641497046529E-002   3.6798417594986477E-003   3.7192174935648276E-002
  -1.0758288136679207E-002   3.3670048789670171E-003   3.7851056196745780E-002
  -8.6899347763119278E-003   3.5689407545274471E-003   3.8911264646607366E-002
  -6.6215814159445979E-003   4.2856493861797400E-003   4.0372800285232706E-002
  -4.5532280555772714E-003   5.5171307739236286E-003   4.2235663112621696E-002
  -1.5441262011569987E-002   4.2621085258947033E-003   3.0617097041140399E-002
  -1.2938271640687208E-002   3.6843661325042243E-003   3.1288592319781011E-002
  -1.0435281269804423E-002   3.5829475591441437E-003   3.2428034430688923E-002
  -7.9322908989216401E-003   3.9578528058151399E-003   3.4035423373863796E-002
  -5.4293005280388572E-003   4.8090818725162465E-003   3.6110759149305970E-002
  -1.8572126618363383E-002   4.8443752922906480E-003   2.3796338101804593E-002
  -1.5567879593461786E-002   4.0017273860409874E-003   2.4441998461926850E-002
  -1.2563632568560135E-002   3.5969543637611456E-003   2.5622225297819601E-002
  -9.5593855436585107E-003   3.6300562254505050E-003   2.7337018609482927E-002
  -6.5551385187568867E-003   4.1010329711087534E-003   2.9586378396916913E-002
  -3.5503796654235420E-003   6.9332285767383928E-003   5.3287040672033270E-002
  -4.1253532258641312E-003   9.5398937418395002E-003   5.1652290332509065E-002
  -4.7003267863047482E-003   1.2784246549269546E-002   4.9890373357481754E-002
  -5.2753003467453860E-003   1.6666286999028106E-002   4.8001289746950920E-002
  -5.8502739071859544E-003   2.1186015091115618E-002   4.5985039500917591E-002
  -3.9269211013721744E-003   6.2251796753309829E-003   4.7961090286864239E-002
  -4.5289147774589950E-003   8.6932611340134747E-003   4.7075301673923986E-002
  -5.1309084535458641E-003   1.2320816400334361E-002   4.6262639465194821E-002
  -5.7329021296326464E-003   1.7107845474293733E-002   4.5523103660676412E-002
  -6.3348958057194982E-003   2.3054348355891374E-002   4.4856694260368757E-002
  -4.5532280555772714E-003   5.5171307739236286E-003   4.2235663112621696E-002
  -4.9819488075964272E-003   7.8466285261876156E-003   4.2620622391575325E-002
  -5.4106695596155621E-003   1.1857386251399413E-002   4.3279001114453527E-002
  -5.8393903116347647E-003   1.7549403949559252E-002   4.4210799281256589E-002
  -6.2681110636538528E-003   2.4922681620666909E-002   4.5416016891984157E-002
  -5.4293005280388572E-003   4.8090818725162465E-003   3.6110759149305970E-002
  -5.4844553162763324E-003   6.9999959183616733E-003   3.8288252485462825E-002
  -5.5396101045138658E-003   1.1393956102464568E-002   4.0939458305258303E-002
  -5.5947648927513281E-003   1.7990962424824605E-002   4.4064376608692238E-002
  -5.6499196809889282E-003   2.6791014885442666E-002   4.7663007395764734E-002
  -6.5551385187568867E-003   4.1010329711087534E-003   2.9586378396916913E-002
  -6.0364343034988721E-003   6.1533633105360641E-003   3.4078191955586479E-002
  -5.5177300882408020E-003   1.0930525953529141E-002   3.9244011037608384E-002
  -4.9990258729828152E-003   1.8432520900090475E-002   4.5083835642982933E-002
  -4.4803216577247174E-003   2.8659348150218200E-002   5.1597665771710322E-002
 -0.13228738313011268        1.2796339351031527E-002  -2.3294215437780985E-002
 -0.11404508587347106        1.9216243275870626E-002   1.7618392060817722E-002
  -9.5802788616829254E-002   2.2952053338672493E-002   4.4396271831246864E-002
  -7.7560491360187570E-002   2.4003769539437263E-002   5.7039423873506620E-002
  -5.9318194103545857E-002   2.2371391878164726E-002   5.5547848187596893E-002
 -0.10079461968978720        2.0408842839310604E-002  -5.0918253654350099E-003
  -9.3746602472324983E-002   2.2136805399522397E-002   1.7731254954285486E-002
  -8.6698585254862889E-002   2.3059520110662257E-002   3.2300502923816282E-002
  -7.9650568037400754E-002   2.3176986972730337E-002   3.8615918543157476E-002
  -7.2602550819938536E-002   2.2489205985726624E-002   3.6677501812309193E-002
  -8.8587160261775558E-002   2.8021346327589763E-002   7.4792003358013365E-003
  -8.6852527705512994E-002   2.5057367523174195E-002   1.4091599489608669E-002
  -8.5117895149250500E-002   2.3166986882652056E-002   1.8331061671206343E-002
  -8.3383262592987895E-002   2.2350204406023415E-002   2.0197586880594354E-002
  -8.1648630036725373E-002   2.2607020093288521E-002   1.9691175117772755E-002
  -9.5665004846077609E-002   3.5633849815868854E-002   1.4418861665927516E-002
  -9.3362861573034889E-002   2.7977929646825925E-002   6.6994256667871448E-003
  -9.1060718299992044E-002   2.3274453654641782E-002   2.4879480734171702E-003
  -8.8758575026949241E-002   2.1523421839316572E-002   1.7844288858172965E-003
  -8.6456431753906382E-002   2.2724834200850308E-002   4.5888681039878421E-003
 -0.12202815344269347        4.3246353304147944E-002   1.5727158624943560E-002
 -0.11327760407489063        3.0898491770477876E-002  -4.4452665141789804E-003
 -0.10452705470708756        2.3381920426631758E-002  -1.5228837869551343E-002
  -9.5776505339284557E-002   2.0696639272609639E-002  -1.6623555441173811E-002
  -8.7025955971481661E-002   2.2842648308412206E-002  -8.6294192290459204E-003
  -5.9318194103545857E-002   2.2371391878164726E-002   5.5547848187596893E-002
  -5.9274344338165974E-002   1.9761799046759704E-002   4.7027747045695456E-002
  -5.9230494572786119E-002   1.7881869737126563E-002   4.0414502406694836E-002
  -5.9186644807406277E-002   1.6731603949265147E-002   3.5708114270595337E-002
  -5.9142795042026380E-002   1.6311001683175952E-002   3.2908582637396766E-002
  -7.2602550819938536E-002   2.2489205985726624E-002   3.6677501812309193E-002
  -7.1061164894493128E-002   2.1410987971446985E-002   3.2363376485324016E-002
  -6.9519778969047763E-002   2.0357143751687443E-002   2.9137466975569071E-002
  -6.7978393043602370E-002   1.9327673326447897E-002   2.6999773283044211E-002
  -6.6437007118157004E-002   1.8322576695728232E-002   2.5950295407749430E-002
  -8.1648630036725373E-002   2.2607020093288521E-002   1.9691175117772755E-002
  -7.9428348636885360E-002   2.3060176896134335E-002   1.8877735878452206E-002
  -7.7208067237045236E-002   2.2832417766248163E-002   1.8333871770690909E-002
  -7.4987785837205112E-002   2.1923742703630206E-002   1.8059582794488934E-002
  -7.2767504437365099E-002   2.0334151708280596E-002   1.8054868949846190E-002
  -8.6456431753906382E-002   2.2724834200850308E-002   4.5888681039878421E-003
  -8.4375895565342474E-002   2.4709365820821678E-002   6.5708252250796483E-003
  -8.2295359376778510E-002   2.5307691780809129E-002   8.0037167920604512E-003
  -8.0214823188214560E-002   2.4519812080813011E-002   8.8875428049292708E-003
  -7.8134286999650651E-002   2.2345726720832779E-002   9.2223032636866535E-003
  -8.7025955971481661E-002   2.2842648308412206E-002  -8.6294192290459204E-003
  -8.5903805679864664E-002   2.6358554745508966E-002  -4.5573554747928013E-003
  -8.4781655388247612E-002   2.7782965795369791E-002  -1.8529979603228441E-003
  -8.3659505096630532E-002   2.7115881457995185E-002  -5.1634668563456387E-004
  -8.2537354805013563E-002   2.4357301733385239E-002  -5.4740165072897362E-004
  -5.9142795042026380E-002   1.6311001683175952E-002   3.2908582637396766E-002
  -5.4853342708815672E-002   1.6180488536869819E-002   2.8952612580809500E-002
  -5.0563890375604922E-002   1.5900490108358992E-002   2.6727869753778111E-002
  -4.6274438042394193E-002   1.5471006397642834E-002   2.6234354156302431E-002
  -4.1984985709183437E-002   1.4892037404721670E-002   2.7472065788382349E-002
  -6.6437007118157004E-002   1.8322576695728232E-002   2.5950295407749430E-002
  -6.0667464649427960E-002   1.7377972149543730E-002   2.2680465560219992E-002
  -5.4897922180698930E-002   1.6529977977909116E-002   2.0639588754171379E-002
  -4.9128379711969865E-002   1.5778594180824723E-002   1.9827664989603616E-002
  -4.3358837243240786E-002   1.5123820758290218E-002   2.0244694266516816E-002
  -7.2767504437365099E-002   2.0334151708280596E-002   1.8054868949846190E-002
  -6.6020146021192536E-002   1.8575455762217252E-002   1.5717274968129386E-002
  -5.9272787605019986E-002   1.7159465847459456E-002   1.4106359839818776E-002
  -5.2525429188847499E-002   1.6086181964006553E-002   1.3222123564913920E-002
  -4.5778070772674935E-002   1.5355604111858767E-002   1.3064566143415418E-002
  -7.8134286999650651E-002   2.2345726720832779E-002   9.2223032636866535E-003
  -7.0911386824109385E-002   1.9772939374890969E-002   8.0630408045377529E-003
  -6.3688486648568202E-002   1.7788953717009743E-002   7.1281830107200895E-003
  -5.6465586473027018E-002   1.6393769747188525E-002   6.4177298822337128E-003
  -4.9242686297485752E-002   1.5587387465427316E-002   5.9316814190783843E-003
  -8.2537354805013563E-002   2.4357301733385239E-002  -5.4740165072897362E-004
  -7.5341187058178605E-002   2.0970422987564963E-002  -2.8223693055495769E-004
  -6.8145019311343480E-002   1.8418441586559753E-002  -2.9494173312449856E-004
  -6.0948851564508494E-002   1.6701357530370428E-002  -5.8551605843767951E-004
  -5.3752683817673397E-002   1.5819170818995976E-002  -1.1539599064942507E-003
  -4.1984985709183437E-002   1.4892037404721670E-002   2.7472065788382349E-002
  -4.0771147145777203E-002   1.4164210181518200E-002   3.0090360652133219E-002
  -3.9557308582371040E-002   1.3288151779954599E-002   3.1494409601408979E-002
  -3.8343470018964841E-002   1.2263862200031624E-002   3.1684212636209713E-002
  -3.7129631455558643E-002   1.1091341441748503E-002   3.0659769756535060E-002
  -4.3358837243240786E-002   1.5123820758290218E-002   2.0244694266516816E-002
  -4.3119977197786472E-002   1.4482437456125180E-002   2.1947843875328638E-002
  -4.2881117152332122E-002   1.3771224020148548E-002   2.2915282362711786E-002
  -4.2642257106877773E-002   1.2990180450360191E-002   2.3147009728666526E-002
  -4.2403397061423403E-002   1.2139306746760892E-002   2.2643025973192676E-002
  -4.5778070772674935E-002   1.5355604111858767E-002   1.3064566143415418E-002
  -4.6035654452125867E-002   1.4800664730732355E-002   1.3930971541836534E-002
  -4.6293238131576792E-002   1.4254296260342261E-002   1.4540200611875428E-002
  -4.6550821811027730E-002   1.3716498700689531E-002   1.4892253353532579E-002
  -4.6808405490478627E-002   1.3187272051773336E-002   1.4987129766807578E-002
  -4.9242686297485752E-002   1.5587387465427316E-002   5.9316814190783843E-003
  -4.9518178908795431E-002   1.5118892005339488E-002   6.0397436516570341E-003
  -4.9793671520105061E-002   1.4737368500536314E-002   6.3691643489002144E-003
  -5.0069164131414698E-002   1.4442816951018263E-002   6.9199435108079615E-003
  -5.0344656742724370E-002   1.4235237356785307E-002   7.6920811373801731E-003
  -5.3752683817673397E-002   1.5819170818995976E-002  -1.1539599064942507E-003
  -5.3567550567795275E-002   1.5437119279946288E-002  -1.7258397952096827E-003
  -5.3382417317916930E-002   1.5220440740730118E-002  -1.5978264262144215E-003
  -5.3197284068038753E-002   1.5169135201347266E-002  -7.6991979950735701E-004
  -5.3012150818160464E-002   1.5283202661797946E-002   7.5788008491051162E-004
  -3.7129631455558643E-002   1.1091341441748503E-002   3.0659769756535060E-002
  -3.4850949282387161E-002   9.9495808015288567E-003   2.8416176636798074E-002
  -3.2572267109215708E-002   9.0175715757962738E-003   2.6962757338236554E-002
  -3.0293584936044213E-002   8.2953137645501093E-003   2.6299511860850833E-002
  -2.8014902762872773E-002   7.7828073677909115E-003   2.6426440204640356E-002
  -4.2403397061423403E-002   1.2139306746760892E-002   2.2643025973192676E-002
  -3.9469170728871336E-002   1.1275550679625213E-002   2.1260468779083164E-002
  -3.6534944396319186E-002   1.0455860019228741E-002   2.0398826082559440E-002
  -3.3600718063767035E-002   9.6802347655710955E-003   2.0058097883621506E-002
  -3.0666491731214968E-002   8.9486749186524772E-003   2.0238284182269362E-002
  -4.6808405490478627E-002   1.3187272051773336E-002   1.4987129766807578E-002
  -4.3487894322135623E-002   1.2601520557721457E-002   1.4299922490578210E-002
  -4.0167383153792612E-002   1.1894148462660667E-002   1.3864370388344607E-002
  -3.6846871985449572E-002   1.1065155766591863E-002   1.3680473460107173E-002
  -3.3526360817106596E-002   1.0114542469514431E-002   1.3748231705865699E-002
  -5.0344656742724370E-002   1.4235237356785307E-002   7.6920811373801731E-003
  -4.6907120062180153E-002   1.3927490435817758E-002   7.5345377712830661E-003
  -4.3469583381636076E-002   1.3332436906092641E-002   7.3593902555922214E-003
  -4.0032046701091978E-002   1.2450076767612629E-002   7.1666385903073910E-003
  -3.6594510020547782E-002   1.1280410020376358E-002   6.9562827754288889E-003
  -5.3012150818160464E-002   1.5283202661797946E-002   7.5788008491051162E-004
  -4.9726847949004949E-002   1.5253460313913947E-002   9.6431462119817013E-004
  -4.6441545079849489E-002   1.4770725349525116E-002   8.8388568430197711E-004
  -4.3156242210693974E-002   1.3834997768633797E-002   5.1659327422240442E-004
  -3.9870939341538514E-002   1.2446277571237951E-002  -1.3756260904040918E-004
  -2.8014902762872773E-002   7.7828073677909115E-003   2.6426440204640356E-002
  -2.5654208726745426E-002   7.2934323459349915E-003   2.6084491332691639E-002
  -2.3293514690618078E-002   6.6405686593995483E-003   2.5532158024903051E-002
  -2.0932820654490716E-002   5.8242163081849152E-003   2.4769440281273758E-002
  -1.8572126618363383E-002   4.8443752922906480E-003   2.3796338101804593E-002
  -3.0666491731214968E-002   8.9486749186524772E-003   2.0238284182269362E-002
  -2.8460141028332345E-002   8.2311430992136336E-003   1.9654347287136720E-002
  -2.6253790325449791E-002   7.4976019279940354E-003   1.8972108161355028E-002
  -2.4047439622567203E-002   6.7480514049938628E-003   1.8191566804923717E-002
  -2.1841088919684615E-002   5.9824915302133519E-003   1.7312723217843273E-002
  -3.3526360817106596E-002   1.0114542469514431E-002   1.3748231705865699E-002
  -3.1362271242277862E-002   9.1688538524921925E-003   1.3069786100448094E-002
  -2.9198181667449134E-002   8.3546351965880783E-003   1.2405120469572234E-002
  -2.7034092092620466E-002   7.6718865018029214E-003   1.1754234813238056E-002
  -2.4870002517791673E-002   7.1206077681366109E-003   1.1117129131445302E-002
  -3.6594510020547782E-002   1.1280410020376358E-002   6.9562827754288889E-003
  -3.4360599368582018E-002   1.0106564605770071E-002   6.3308077726254158E-003
  -3.2126688716616135E-002   9.2116684651821212E-003   5.8311949495546099E-003
  -2.9892778064650346E-002   8.5957215986118135E-003   5.4574443062165856E-003
  -2.7658867412684494E-002   8.2587240060593703E-003   5.2095558426109301E-003
  -3.9870939341538514E-002   1.2446277571237951E-002  -1.3756260904040918E-004
  -3.7455125407244605E-002   1.1044275359049394E-002  -5.6258769633060757E-004
  -3.5039311472950807E-002   1.0068701733776275E-002  -7.4966839869769486E-004
  -3.2623497538657009E-002   9.5195566954211219E-003  -6.9880471614072043E-004
  -3.0207683604363100E-002   9.3968402439823517E-003  -4.0999664866014918E-004
  -1.8572126618363383E-002   4.8443752922906480E-003   2.3796338101804593E-002
  -1.5567879593461786E-002   4.0017273860409874E-003   2.4441998461926850E-002
  -1.2563632568560135E-002   3.5969543637611456E-003   2.5622225297819601E-002
  -9.5593855436585107E-003   3.6300562254505050E-003   2.7337018609482927E-002
  -6.5551385187568867E-003   4.1010329711087534E-003   2.9586378396916913E-002
  -2.1841088919684615E-002   5.9824915302133519E-003   1.7312723217843273E-002
  -1.8586699666867226E-002   5.3046962741887249E-003   1.8228714769955690E-002
  -1.5332310414049685E-002   4.8184396074556490E-003   1.9110424302129059E-002
  -1.2077921161232297E-002   4.5237215300146516E-003   1.9957851814363714E-002
  -8.8235319084148667E-003   4.4205420418658159E-003   2.0770997306659766E-002
  -2.4870002517791673E-002   7.1206077681366109E-003   1.1117129131445302E-002
  -2.1934319532767838E-002   6.6076651623364069E-003   1.2057115580870470E-002
  -1.8998636547743891E-002   6.0399248511506104E-003   1.2393971514647092E-002
  -1.6062953562720000E-002   5.4173868345791347E-003   1.2127696932775704E-002
  -1.3127270577696165E-002   4.7400511126224898E-003   1.1258291835255757E-002
  -2.7658867412684494E-002   8.2587240060593703E-003   5.2095558426109301E-003
  -2.5610739191163533E-002   7.9106340504844497E-003   5.9272008946709698E-003
  -2.3562610969642649E-002   7.2614100948450097E-003   5.4728669353735181E-003
  -2.1514482748121684E-002   6.3110521391441157E-003   3.8465539647180771E-003
  -1.9466354526600803E-002   5.0595601833789139E-003   1.0482619827052106E-003
  -3.0207683604363100E-002   9.3968402439823517E-003  -4.0999664866014918E-004
  -2.9615958642054574E-002   9.2136029386316043E-003  -1.6102928864258903E-004
  -2.9024233679745881E-002   8.4828953385404637E-003  -1.6528894356920287E-003
  -2.8432508717437327E-002   7.2047174437076394E-003  -4.8855770898079826E-003
  -2.7840783755128662E-002   5.3790692541357821E-003  -9.8590922509915746E-003
  -6.5551385187568867E-003   4.1010329711087534E-003   2.9586378396916913E-002
  -6.0364343034988721E-003   6.1533633105360641E-003   3.4078191955586479E-002
  -5.5177300882408020E-003   1.0930525953529141E-002   3.9244011037608384E-002
  -4.9990258729828152E-003   1.8432520900090475E-002   4.5083835642982933E-002
  -4.4803216577247174E-003   2.8659348150218200E-002   5.1597665771710322E-002
  -8.8235319084148667E-003   4.4205420418658159E-003   2.0770997306659766E-002
  -7.5536882381800896E-003   5.6516879191199076E-003   2.5905571739871125E-002
  -6.2838445679453264E-003   9.3599459378893579E-003   3.1868419559683558E-002
  -5.0140008977106187E-003   1.5545316098173695E-002   3.8659540766096595E-002
  -3.7441572274758972E-003   2.4207798399973335E-002   4.6278935359110651E-002
  -1.3127270577696165E-002   4.7400511126224898E-003   1.1258291835255757E-002
  -1.0952019589236292E-002   5.1500125277041398E-003   1.6787906980957223E-002
  -8.7767686007764467E-003   7.7893659222489225E-003   2.3300063376507960E-002
  -6.6015176123166500E-003   1.2658111296256751E-002   3.0794761021908083E-002
  -4.4262666238568393E-003   1.9756248649728470E-002   3.9271999917157352E-002
  -1.9466354526600803E-002   5.0595601833789139E-003   1.0482619827052106E-003
  -1.6231428356667486E-002   4.6483371362883996E-003   6.7251976788450171E-003
  -1.2996502186734260E-002   6.2187859066087023E-003   1.3538942488082507E-002
  -9.7615760168010320E-003   9.7709064943405557E-003   2.1489496410417343E-002
  -6.5266498468677173E-003   1.5304698899483715E-002   3.0576859445849591E-002
  -2.7840783755128662E-002   5.3790692541357821E-003  -9.8590922509915746E-003
  -2.3391914540473513E-002   4.1466617448719933E-003  -4.2825561664660006E-003
  -1.8943045325818586E-002   4.6482058909683710E-003   2.5850568944063568E-003
  -1.4494176111163604E-002   6.8837016924233885E-003   1.0743746931623749E-002
  -1.0045306896508510E-002   1.0853149149238739E-002   2.0193513945187869E-002
 </DataArray>
 </PointData>
 </Piece>
 </UnstructuredGrid>
 </VTKFile>
