 <VTKFile type="UnstructuredGrid"  version="0.1"   >
 <UnstructuredGrid>
 <Piece  NumberOfPoints="          1600 "  NumberOfCells="         1024 ">
 <Points>
 <DataArray  type="Float64" NumberOfComponents="3"  format="ascii" >
   0.0000000000000000        0.0000000000000000        0.0000000000000000     
   3.1250000000000000E-002   0.0000000000000000        0.0000000000000000     
   6.2500000000000000E-002   0.0000000000000000        0.0000000000000000     
   9.3750000000000000E-002   0.0000000000000000        0.0000000000000000     
  0.12500000000000000        0.0000000000000000        0.0000000000000000     
   0.0000000000000000        3.1250000000000000E-002   0.0000000000000000     
   3.1250000000000000E-002   3.1250000000000000E-002   0.0000000000000000     
   6.2500000000000000E-002   3.1250000000000000E-002   0.0000000000000000     
   9.3750000000000000E-002   3.1250000000000000E-002   0.0000000000000000     
  0.12500000000000000        3.1250000000000000E-002   0.0000000000000000     
   0.0000000000000000        6.2500000000000000E-002   0.0000000000000000     
   3.1250000000000000E-002   6.2500000000000000E-002   0.0000000000000000     
   6.2500000000000000E-002   6.2500000000000000E-002   0.0000000000000000     
   9.3750000000000000E-002   6.2500000000000000E-002   0.0000000000000000     
  0.12500000000000000        6.2500000000000000E-002   0.0000000000000000     
   0.0000000000000000        9.3750000000000000E-002   0.0000000000000000     
   3.1250000000000000E-002   9.3750000000000000E-002   0.0000000000000000     
   6.2500000000000000E-002   9.3750000000000000E-002   0.0000000000000000     
   9.3750000000000000E-002   9.3750000000000000E-002   0.0000000000000000     
  0.12500000000000000        9.3750000000000000E-002   0.0000000000000000     
   0.0000000000000000       0.12500000000000000        0.0000000000000000     
   3.1250000000000000E-002  0.12500000000000000        0.0000000000000000     
   6.2500000000000000E-002  0.12500000000000000        0.0000000000000000     
   9.3750000000000000E-002  0.12500000000000000        0.0000000000000000     
  0.12500000000000000       0.12500000000000000        0.0000000000000000     
  0.12500000000000000        0.0000000000000000        0.0000000000000000     
  0.15625000000000000        0.0000000000000000        0.0000000000000000     
  0.18750000000000000        0.0000000000000000        0.0000000000000000     
  0.21875000000000000        0.0000000000000000        0.0000000000000000     
  0.25000000000000000        0.0000000000000000        0.0000000000000000     
  0.12500000000000000        3.1250000000000000E-002   0.0000000000000000     
  0.15625000000000000        3.1250000000000000E-002   0.0000000000000000     
  0.18750000000000000        3.1250000000000000E-002   0.0000000000000000     
  0.21875000000000000        3.1250000000000000E-002   0.0000000000000000     
  0.25000000000000000        3.1250000000000000E-002   0.0000000000000000     
  0.12500000000000000        6.2500000000000000E-002   0.0000000000000000     
  0.15625000000000000        6.2500000000000000E-002   0.0000000000000000     
  0.18750000000000000        6.2500000000000000E-002   0.0000000000000000     
  0.21875000000000000        6.2500000000000000E-002   0.0000000000000000     
  0.25000000000000000        6.2500000000000000E-002   0.0000000000000000     
  0.12500000000000000        9.3750000000000000E-002   0.0000000000000000     
  0.15625000000000000        9.3750000000000000E-002   0.0000000000000000     
  0.18750000000000000        9.3750000000000000E-002   0.0000000000000000     
  0.21875000000000000        9.3750000000000000E-002   0.0000000000000000     
  0.25000000000000000        9.3750000000000000E-002   0.0000000000000000     
  0.12500000000000000       0.12500000000000000        0.0000000000000000     
  0.15625000000000000       0.12500000000000000        0.0000000000000000     
  0.18750000000000000       0.12500000000000000        0.0000000000000000     
  0.21875000000000000       0.12500000000000000        0.0000000000000000     
  0.25000000000000000       0.12500000000000000        0.0000000000000000     
  0.25000000000000000        0.0000000000000000        0.0000000000000000     
  0.28125000000000000        0.0000000000000000        0.0000000000000000     
  0.31250000000000000        0.0000000000000000        0.0000000000000000     
  0.34375000000000000        0.0000000000000000        0.0000000000000000     
  0.37500000000000000        0.0000000000000000        0.0000000000000000     
  0.25000000000000000        3.1250000000000000E-002   0.0000000000000000     
  0.28125000000000000        3.1250000000000000E-002   0.0000000000000000     
  0.31250000000000000        3.1250000000000000E-002   0.0000000000000000     
  0.34375000000000000        3.1250000000000000E-002   0.0000000000000000     
  0.37500000000000000        3.1250000000000000E-002   0.0000000000000000     
  0.25000000000000000        6.2500000000000000E-002   0.0000000000000000     
  0.28125000000000000        6.2500000000000000E-002   0.0000000000000000     
  0.31250000000000000        6.2500000000000000E-002   0.0000000000000000     
  0.34375000000000000        6.2500000000000000E-002   0.0000000000000000     
  0.37500000000000000        6.2500000000000000E-002   0.0000000000000000     
  0.25000000000000000        9.3750000000000000E-002   0.0000000000000000     
  0.28125000000000000        9.3750000000000000E-002   0.0000000000000000     
  0.31250000000000000        9.3750000000000000E-002   0.0000000000000000     
  0.34375000000000000        9.3750000000000000E-002   0.0000000000000000     
  0.37500000000000000        9.3750000000000000E-002   0.0000000000000000     
  0.25000000000000000       0.12500000000000000        0.0000000000000000     
  0.28125000000000000       0.12500000000000000        0.0000000000000000     
  0.31250000000000000       0.12500000000000000        0.0000000000000000     
  0.34375000000000000       0.12500000000000000        0.0000000000000000     
  0.37500000000000000       0.12500000000000000        0.0000000000000000     
  0.37500000000000000        0.0000000000000000        0.0000000000000000     
  0.40625000000000000        0.0000000000000000        0.0000000000000000     
  0.43750000000000000        0.0000000000000000        0.0000000000000000     
  0.46875000000000000        0.0000000000000000        0.0000000000000000     
  0.50000000000000000        0.0000000000000000        0.0000000000000000     
  0.37500000000000000        3.1250000000000000E-002   0.0000000000000000     
  0.40625000000000000        3.1250000000000000E-002   0.0000000000000000     
  0.43750000000000000        3.1250000000000000E-002   0.0000000000000000     
  0.46875000000000000        3.1250000000000000E-002   0.0000000000000000     
  0.50000000000000000        3.1250000000000000E-002   0.0000000000000000     
  0.37500000000000000        6.2500000000000000E-002   0.0000000000000000     
  0.40625000000000000        6.2500000000000000E-002   0.0000000000000000     
  0.43750000000000000        6.2500000000000000E-002   0.0000000000000000     
  0.46875000000000000        6.2500000000000000E-002   0.0000000000000000     
  0.50000000000000000        6.2500000000000000E-002   0.0000000000000000     
  0.37500000000000000        9.3750000000000000E-002   0.0000000000000000     
  0.40625000000000000        9.3750000000000000E-002   0.0000000000000000     
  0.43750000000000000        9.3750000000000000E-002   0.0000000000000000     
  0.46875000000000000        9.3750000000000000E-002   0.0000000000000000     
  0.50000000000000000        9.3750000000000000E-002   0.0000000000000000     
  0.37500000000000000       0.12500000000000000        0.0000000000000000     
  0.40625000000000000       0.12500000000000000        0.0000000000000000     
  0.43750000000000000       0.12500000000000000        0.0000000000000000     
  0.46875000000000000       0.12500000000000000        0.0000000000000000     
  0.50000000000000000       0.12500000000000000        0.0000000000000000     
  0.50000000000000000        0.0000000000000000        0.0000000000000000     
  0.53125000000000000        0.0000000000000000        0.0000000000000000     
  0.56250000000000000        0.0000000000000000        0.0000000000000000     
  0.59375000000000000        0.0000000000000000        0.0000000000000000     
  0.62500000000000000        0.0000000000000000        0.0000000000000000     
  0.50000000000000000        3.1250000000000000E-002   0.0000000000000000     
  0.53125000000000000        3.1250000000000000E-002   0.0000000000000000     
  0.56250000000000000        3.1250000000000000E-002   0.0000000000000000     
  0.59375000000000000        3.1250000000000000E-002   0.0000000000000000     
  0.62500000000000000        3.1250000000000000E-002   0.0000000000000000     
  0.50000000000000000        6.2500000000000000E-002   0.0000000000000000     
  0.53125000000000000        6.2500000000000000E-002   0.0000000000000000     
  0.56250000000000000        6.2500000000000000E-002   0.0000000000000000     
  0.59375000000000000        6.2500000000000000E-002   0.0000000000000000     
  0.62500000000000000        6.2500000000000000E-002   0.0000000000000000     
  0.50000000000000000        9.3750000000000000E-002   0.0000000000000000     
  0.53125000000000000        9.3750000000000000E-002   0.0000000000000000     
  0.56250000000000000        9.3750000000000000E-002   0.0000000000000000     
  0.59375000000000000        9.3750000000000000E-002   0.0000000000000000     
  0.62500000000000000        9.3750000000000000E-002   0.0000000000000000     
  0.50000000000000000       0.12500000000000000        0.0000000000000000     
  0.53125000000000000       0.12500000000000000        0.0000000000000000     
  0.56250000000000000       0.12500000000000000        0.0000000000000000     
  0.59375000000000000       0.12500000000000000        0.0000000000000000     
  0.62500000000000000       0.12500000000000000        0.0000000000000000     
  0.62500000000000000        0.0000000000000000        0.0000000000000000     
  0.65625000000000000        0.0000000000000000        0.0000000000000000     
  0.68750000000000000        0.0000000000000000        0.0000000000000000     
  0.71875000000000000        0.0000000000000000        0.0000000000000000     
  0.75000000000000000        0.0000000000000000        0.0000000000000000     
  0.62500000000000000        3.1250000000000000E-002   0.0000000000000000     
  0.65625000000000000        3.1250000000000000E-002   0.0000000000000000     
  0.68750000000000000        3.1250000000000000E-002   0.0000000000000000     
  0.71875000000000000        3.1250000000000000E-002   0.0000000000000000     
  0.75000000000000000        3.1250000000000000E-002   0.0000000000000000     
  0.62500000000000000        6.2500000000000000E-002   0.0000000000000000     
  0.65625000000000000        6.2500000000000000E-002   0.0000000000000000     
  0.68750000000000000        6.2500000000000000E-002   0.0000000000000000     
  0.71875000000000000        6.2500000000000000E-002   0.0000000000000000     
  0.75000000000000000        6.2500000000000000E-002   0.0000000000000000     
  0.62500000000000000        9.3750000000000000E-002   0.0000000000000000     
  0.65625000000000000        9.3750000000000000E-002   0.0000000000000000     
  0.68750000000000000        9.3750000000000000E-002   0.0000000000000000     
  0.71875000000000000        9.3750000000000000E-002   0.0000000000000000     
  0.75000000000000000        9.3750000000000000E-002   0.0000000000000000     
  0.62500000000000000       0.12500000000000000        0.0000000000000000     
  0.65625000000000000       0.12500000000000000        0.0000000000000000     
  0.68750000000000000       0.12500000000000000        0.0000000000000000     
  0.71875000000000000       0.12500000000000000        0.0000000000000000     
  0.75000000000000000       0.12500000000000000        0.0000000000000000     
  0.75000000000000000        0.0000000000000000        0.0000000000000000     
  0.78125000000000000        0.0000000000000000        0.0000000000000000     
  0.81250000000000000        0.0000000000000000        0.0000000000000000     
  0.84375000000000000        0.0000000000000000        0.0000000000000000     
  0.87500000000000000        0.0000000000000000        0.0000000000000000     
  0.75000000000000000        3.1250000000000000E-002   0.0000000000000000     
  0.78125000000000000        3.1250000000000000E-002   0.0000000000000000     
  0.81250000000000000        3.1250000000000000E-002   0.0000000000000000     
  0.84375000000000000        3.1250000000000000E-002   0.0000000000000000     
  0.87500000000000000        3.1250000000000000E-002   0.0000000000000000     
  0.75000000000000000        6.2500000000000000E-002   0.0000000000000000     
  0.78125000000000000        6.2500000000000000E-002   0.0000000000000000     
  0.81250000000000000        6.2500000000000000E-002   0.0000000000000000     
  0.84375000000000000        6.2500000000000000E-002   0.0000000000000000     
  0.87500000000000000        6.2500000000000000E-002   0.0000000000000000     
  0.75000000000000000        9.3750000000000000E-002   0.0000000000000000     
  0.78125000000000000        9.3750000000000000E-002   0.0000000000000000     
  0.81250000000000000        9.3750000000000000E-002   0.0000000000000000     
  0.84375000000000000        9.3750000000000000E-002   0.0000000000000000     
  0.87500000000000000        9.3750000000000000E-002   0.0000000000000000     
  0.75000000000000000       0.12500000000000000        0.0000000000000000     
  0.78125000000000000       0.12500000000000000        0.0000000000000000     
  0.81250000000000000       0.12500000000000000        0.0000000000000000     
  0.84375000000000000       0.12500000000000000        0.0000000000000000     
  0.87500000000000000       0.12500000000000000        0.0000000000000000     
  0.87500000000000000        0.0000000000000000        0.0000000000000000     
  0.90625000000000000        0.0000000000000000        0.0000000000000000     
  0.93750000000000000        0.0000000000000000        0.0000000000000000     
  0.96875000000000000        0.0000000000000000        0.0000000000000000     
   1.0000000000000000        0.0000000000000000        0.0000000000000000     
  0.87500000000000000        3.1250000000000000E-002   0.0000000000000000     
  0.90625000000000000        3.1250000000000000E-002   0.0000000000000000     
  0.93750000000000000        3.1250000000000000E-002   0.0000000000000000     
  0.96875000000000000        3.1250000000000000E-002   0.0000000000000000     
   1.0000000000000000        3.1250000000000000E-002   0.0000000000000000     
  0.87500000000000000        6.2500000000000000E-002   0.0000000000000000     
  0.90625000000000000        6.2500000000000000E-002   0.0000000000000000     
  0.93750000000000000        6.2500000000000000E-002   0.0000000000000000     
  0.96875000000000000        6.2500000000000000E-002   0.0000000000000000     
   1.0000000000000000        6.2500000000000000E-002   0.0000000000000000     
  0.87500000000000000        9.3750000000000000E-002   0.0000000000000000     
  0.90625000000000000        9.3750000000000000E-002   0.0000000000000000     
  0.93750000000000000        9.3750000000000000E-002   0.0000000000000000     
  0.96875000000000000        9.3750000000000000E-002   0.0000000000000000     
   1.0000000000000000        9.3750000000000000E-002   0.0000000000000000     
  0.87500000000000000       0.12500000000000000        0.0000000000000000     
  0.90625000000000000       0.12500000000000000        0.0000000000000000     
  0.93750000000000000       0.12500000000000000        0.0000000000000000     
  0.96875000000000000       0.12500000000000000        0.0000000000000000     
   1.0000000000000000       0.12500000000000000        0.0000000000000000     
   0.0000000000000000       0.12500000000000000        0.0000000000000000     
   3.1250000000000000E-002  0.12500000000000000        0.0000000000000000     
   6.2500000000000000E-002  0.12500000000000000        0.0000000000000000     
   9.3750000000000000E-002  0.12500000000000000        0.0000000000000000     
  0.12500000000000000       0.12500000000000000        0.0000000000000000     
   0.0000000000000000       0.15625000000000000        0.0000000000000000     
   3.1250000000000000E-002  0.15625000000000000        0.0000000000000000     
   6.2500000000000000E-002  0.15625000000000000        0.0000000000000000     
   9.3750000000000000E-002  0.15625000000000000        0.0000000000000000     
  0.12500000000000000       0.15625000000000000        0.0000000000000000     
   0.0000000000000000       0.18750000000000000        0.0000000000000000     
   3.1250000000000000E-002  0.18750000000000000        0.0000000000000000     
   6.2500000000000000E-002  0.18750000000000000        0.0000000000000000     
   9.3750000000000000E-002  0.18750000000000000        0.0000000000000000     
  0.12500000000000000       0.18750000000000000        0.0000000000000000     
   0.0000000000000000       0.21875000000000000        0.0000000000000000     
   3.1250000000000000E-002  0.21875000000000000        0.0000000000000000     
   6.2500000000000000E-002  0.21875000000000000        0.0000000000000000     
   9.3750000000000000E-002  0.21875000000000000        0.0000000000000000     
  0.12500000000000000       0.21875000000000000        0.0000000000000000     
   0.0000000000000000       0.25000000000000000        0.0000000000000000     
   3.1250000000000000E-002  0.25000000000000000        0.0000000000000000     
   6.2500000000000000E-002  0.25000000000000000        0.0000000000000000     
   9.3750000000000000E-002  0.25000000000000000        0.0000000000000000     
  0.12500000000000000       0.25000000000000000        0.0000000000000000     
  0.12500000000000000       0.12500000000000000        0.0000000000000000     
  0.15625000000000000       0.12500000000000000        0.0000000000000000     
  0.18750000000000000       0.12500000000000000        0.0000000000000000     
  0.21875000000000000       0.12500000000000000        0.0000000000000000     
  0.25000000000000000       0.12500000000000000        0.0000000000000000     
  0.12500000000000000       0.15625000000000000        0.0000000000000000     
  0.15625000000000000       0.15625000000000000        0.0000000000000000     
  0.18750000000000000       0.15625000000000000        0.0000000000000000     
  0.21875000000000000       0.15625000000000000        0.0000000000000000     
  0.25000000000000000       0.15625000000000000        0.0000000000000000     
  0.12500000000000000       0.18750000000000000        0.0000000000000000     
  0.15625000000000000       0.18750000000000000        0.0000000000000000     
  0.18750000000000000       0.18750000000000000        0.0000000000000000     
  0.21875000000000000       0.18750000000000000        0.0000000000000000     
  0.25000000000000000       0.18750000000000000        0.0000000000000000     
  0.12500000000000000       0.21875000000000000        0.0000000000000000     
  0.15625000000000000       0.21875000000000000        0.0000000000000000     
  0.18750000000000000       0.21875000000000000        0.0000000000000000     
  0.21875000000000000       0.21875000000000000        0.0000000000000000     
  0.25000000000000000       0.21875000000000000        0.0000000000000000     
  0.12500000000000000       0.25000000000000000        0.0000000000000000     
  0.15625000000000000       0.25000000000000000        0.0000000000000000     
  0.18750000000000000       0.25000000000000000        0.0000000000000000     
  0.21875000000000000       0.25000000000000000        0.0000000000000000     
  0.25000000000000000       0.25000000000000000        0.0000000000000000     
  0.25000000000000000       0.12500000000000000        0.0000000000000000     
  0.28125000000000000       0.12500000000000000        0.0000000000000000     
  0.31250000000000000       0.12500000000000000        0.0000000000000000     
  0.34375000000000000       0.12500000000000000        0.0000000000000000     
  0.37500000000000000       0.12500000000000000        0.0000000000000000     
  0.25000000000000000       0.15625000000000000        0.0000000000000000     
  0.28125000000000000       0.15625000000000000        0.0000000000000000     
  0.31250000000000000       0.15625000000000000        0.0000000000000000     
  0.34375000000000000       0.15625000000000000        0.0000000000000000     
  0.37500000000000000       0.15625000000000000        0.0000000000000000     
  0.25000000000000000       0.18750000000000000        0.0000000000000000     
  0.28125000000000000       0.18750000000000000        0.0000000000000000     
  0.31250000000000000       0.18750000000000000        0.0000000000000000     
  0.34375000000000000       0.18750000000000000        0.0000000000000000     
  0.37500000000000000       0.18750000000000000        0.0000000000000000     
  0.25000000000000000       0.21875000000000000        0.0000000000000000     
  0.28125000000000000       0.21875000000000000        0.0000000000000000     
  0.31250000000000000       0.21875000000000000        0.0000000000000000     
  0.34375000000000000       0.21875000000000000        0.0000000000000000     
  0.37500000000000000       0.21875000000000000        0.0000000000000000     
  0.25000000000000000       0.25000000000000000        0.0000000000000000     
  0.28125000000000000       0.25000000000000000        0.0000000000000000     
  0.31250000000000000       0.25000000000000000        0.0000000000000000     
  0.34375000000000000       0.25000000000000000        0.0000000000000000     
  0.37500000000000000       0.25000000000000000        0.0000000000000000     
  0.37500000000000000       0.12500000000000000        0.0000000000000000     
  0.40625000000000000       0.12500000000000000        0.0000000000000000     
  0.43750000000000000       0.12500000000000000        0.0000000000000000     
  0.46875000000000000       0.12500000000000000        0.0000000000000000     
  0.50000000000000000       0.12500000000000000        0.0000000000000000     
  0.37500000000000000       0.15625000000000000        0.0000000000000000     
  0.40625000000000000       0.15625000000000000        0.0000000000000000     
  0.43750000000000000       0.15625000000000000        0.0000000000000000     
  0.46875000000000000       0.15625000000000000        0.0000000000000000     
  0.50000000000000000       0.15625000000000000        0.0000000000000000     
  0.37500000000000000       0.18750000000000000        0.0000000000000000     
  0.40625000000000000       0.18750000000000000        0.0000000000000000     
  0.43750000000000000       0.18750000000000000        0.0000000000000000     
  0.46875000000000000       0.18750000000000000        0.0000000000000000     
  0.50000000000000000       0.18750000000000000        0.0000000000000000     
  0.37500000000000000       0.21875000000000000        0.0000000000000000     
  0.40625000000000000       0.21875000000000000        0.0000000000000000     
  0.43750000000000000       0.21875000000000000        0.0000000000000000     
  0.46875000000000000       0.21875000000000000        0.0000000000000000     
  0.50000000000000000       0.21875000000000000        0.0000000000000000     
  0.37500000000000000       0.25000000000000000        0.0000000000000000     
  0.40625000000000000       0.25000000000000000        0.0000000000000000     
  0.43750000000000000       0.25000000000000000        0.0000000000000000     
  0.46875000000000000       0.25000000000000000        0.0000000000000000     
  0.50000000000000000       0.25000000000000000        0.0000000000000000     
  0.50000000000000000       0.12500000000000000        0.0000000000000000     
  0.53125000000000000       0.12500000000000000        0.0000000000000000     
  0.56250000000000000       0.12500000000000000        0.0000000000000000     
  0.59375000000000000       0.12500000000000000        0.0000000000000000     
  0.62500000000000000       0.12500000000000000        0.0000000000000000     
  0.50000000000000000       0.15625000000000000        0.0000000000000000     
  0.53125000000000000       0.15625000000000000        0.0000000000000000     
  0.56250000000000000       0.15625000000000000        0.0000000000000000     
  0.59375000000000000       0.15625000000000000        0.0000000000000000     
  0.62500000000000000       0.15625000000000000        0.0000000000000000     
  0.50000000000000000       0.18750000000000000        0.0000000000000000     
  0.53125000000000000       0.18750000000000000        0.0000000000000000     
  0.56250000000000000       0.18750000000000000        0.0000000000000000     
  0.59375000000000000       0.18750000000000000        0.0000000000000000     
  0.62500000000000000       0.18750000000000000        0.0000000000000000     
  0.50000000000000000       0.21875000000000000        0.0000000000000000     
  0.53125000000000000       0.21875000000000000        0.0000000000000000     
  0.56250000000000000       0.21875000000000000        0.0000000000000000     
  0.59375000000000000       0.21875000000000000        0.0000000000000000     
  0.62500000000000000       0.21875000000000000        0.0000000000000000     
  0.50000000000000000       0.25000000000000000        0.0000000000000000     
  0.53125000000000000       0.25000000000000000        0.0000000000000000     
  0.56250000000000000       0.25000000000000000        0.0000000000000000     
  0.59375000000000000       0.25000000000000000        0.0000000000000000     
  0.62500000000000000       0.25000000000000000        0.0000000000000000     
  0.62500000000000000       0.12500000000000000        0.0000000000000000     
  0.65625000000000000       0.12500000000000000        0.0000000000000000     
  0.68750000000000000       0.12500000000000000        0.0000000000000000     
  0.71875000000000000       0.12500000000000000        0.0000000000000000     
  0.75000000000000000       0.12500000000000000        0.0000000000000000     
  0.62500000000000000       0.15625000000000000        0.0000000000000000     
  0.65625000000000000       0.15625000000000000        0.0000000000000000     
  0.68750000000000000       0.15625000000000000        0.0000000000000000     
  0.71875000000000000       0.15625000000000000        0.0000000000000000     
  0.75000000000000000       0.15625000000000000        0.0000000000000000     
  0.62500000000000000       0.18750000000000000        0.0000000000000000     
  0.65625000000000000       0.18750000000000000        0.0000000000000000     
  0.68750000000000000       0.18750000000000000        0.0000000000000000     
  0.71875000000000000       0.18750000000000000        0.0000000000000000     
  0.75000000000000000       0.18750000000000000        0.0000000000000000     
  0.62500000000000000       0.21875000000000000        0.0000000000000000     
  0.65625000000000000       0.21875000000000000        0.0000000000000000     
  0.68750000000000000       0.21875000000000000        0.0000000000000000     
  0.71875000000000000       0.21875000000000000        0.0000000000000000     
  0.75000000000000000       0.21875000000000000        0.0000000000000000     
  0.62500000000000000       0.25000000000000000        0.0000000000000000     
  0.65625000000000000       0.25000000000000000        0.0000000000000000     
  0.68750000000000000       0.25000000000000000        0.0000000000000000     
  0.71875000000000000       0.25000000000000000        0.0000000000000000     
  0.75000000000000000       0.25000000000000000        0.0000000000000000     
  0.75000000000000000       0.12500000000000000        0.0000000000000000     
  0.78125000000000000       0.12500000000000000        0.0000000000000000     
  0.81250000000000000       0.12500000000000000        0.0000000000000000     
  0.84375000000000000       0.12500000000000000        0.0000000000000000     
  0.87500000000000000       0.12500000000000000        0.0000000000000000     
  0.75000000000000000       0.15625000000000000        0.0000000000000000     
  0.78125000000000000       0.15625000000000000        0.0000000000000000     
  0.81250000000000000       0.15625000000000000        0.0000000000000000     
  0.84375000000000000       0.15625000000000000        0.0000000000000000     
  0.87500000000000000       0.15625000000000000        0.0000000000000000     
  0.75000000000000000       0.18750000000000000        0.0000000000000000     
  0.78125000000000000       0.18750000000000000        0.0000000000000000     
  0.81250000000000000       0.18750000000000000        0.0000000000000000     
  0.84375000000000000       0.18750000000000000        0.0000000000000000     
  0.87500000000000000       0.18750000000000000        0.0000000000000000     
  0.75000000000000000       0.21875000000000000        0.0000000000000000     
  0.78125000000000000       0.21875000000000000        0.0000000000000000     
  0.81250000000000000       0.21875000000000000        0.0000000000000000     
  0.84375000000000000       0.21875000000000000        0.0000000000000000     
  0.87500000000000000       0.21875000000000000        0.0000000000000000     
  0.75000000000000000       0.25000000000000000        0.0000000000000000     
  0.78125000000000000       0.25000000000000000        0.0000000000000000     
  0.81250000000000000       0.25000000000000000        0.0000000000000000     
  0.84375000000000000       0.25000000000000000        0.0000000000000000     
  0.87500000000000000       0.25000000000000000        0.0000000000000000     
  0.87500000000000000       0.12500000000000000        0.0000000000000000     
  0.90625000000000000       0.12500000000000000        0.0000000000000000     
  0.93750000000000000       0.12500000000000000        0.0000000000000000     
  0.96875000000000000       0.12500000000000000        0.0000000000000000     
   1.0000000000000000       0.12500000000000000        0.0000000000000000     
  0.87500000000000000       0.15625000000000000        0.0000000000000000     
  0.90625000000000000       0.15625000000000000        0.0000000000000000     
  0.93750000000000000       0.15625000000000000        0.0000000000000000     
  0.96875000000000000       0.15625000000000000        0.0000000000000000     
   1.0000000000000000       0.15625000000000000        0.0000000000000000     
  0.87500000000000000       0.18750000000000000        0.0000000000000000     
  0.90625000000000000       0.18750000000000000        0.0000000000000000     
  0.93750000000000000       0.18750000000000000        0.0000000000000000     
  0.96875000000000000       0.18750000000000000        0.0000000000000000     
   1.0000000000000000       0.18750000000000000        0.0000000000000000     
  0.87500000000000000       0.21875000000000000        0.0000000000000000     
  0.90625000000000000       0.21875000000000000        0.0000000000000000     
  0.93750000000000000       0.21875000000000000        0.0000000000000000     
  0.96875000000000000       0.21875000000000000        0.0000000000000000     
   1.0000000000000000       0.21875000000000000        0.0000000000000000     
  0.87500000000000000       0.25000000000000000        0.0000000000000000     
  0.90625000000000000       0.25000000000000000        0.0000000000000000     
  0.93750000000000000       0.25000000000000000        0.0000000000000000     
  0.96875000000000000       0.25000000000000000        0.0000000000000000     
   1.0000000000000000       0.25000000000000000        0.0000000000000000     
   0.0000000000000000       0.25000000000000000        0.0000000000000000     
   3.1250000000000000E-002  0.25000000000000000        0.0000000000000000     
   6.2500000000000000E-002  0.25000000000000000        0.0000000000000000     
   9.3750000000000000E-002  0.25000000000000000        0.0000000000000000     
  0.12500000000000000       0.25000000000000000        0.0000000000000000     
   0.0000000000000000       0.28125000000000000        0.0000000000000000     
   3.1250000000000000E-002  0.28125000000000000        0.0000000000000000     
   6.2500000000000000E-002  0.28125000000000000        0.0000000000000000     
   9.3750000000000000E-002  0.28125000000000000        0.0000000000000000     
  0.12500000000000000       0.28125000000000000        0.0000000000000000     
   0.0000000000000000       0.31250000000000000        0.0000000000000000     
   3.1250000000000000E-002  0.31250000000000000        0.0000000000000000     
   6.2500000000000000E-002  0.31250000000000000        0.0000000000000000     
   9.3750000000000000E-002  0.31250000000000000        0.0000000000000000     
  0.12500000000000000       0.31250000000000000        0.0000000000000000     
   0.0000000000000000       0.34375000000000000        0.0000000000000000     
   3.1250000000000000E-002  0.34375000000000000        0.0000000000000000     
   6.2500000000000000E-002  0.34375000000000000        0.0000000000000000     
   9.3750000000000000E-002  0.34375000000000000        0.0000000000000000     
  0.12500000000000000       0.34375000000000000        0.0000000000000000     
   0.0000000000000000       0.37500000000000000        0.0000000000000000     
   3.1250000000000000E-002  0.37500000000000000        0.0000000000000000     
   6.2500000000000000E-002  0.37500000000000000        0.0000000000000000     
   9.3750000000000000E-002  0.37500000000000000        0.0000000000000000     
  0.12500000000000000       0.37500000000000000        0.0000000000000000     
  0.12500000000000000       0.25000000000000000        0.0000000000000000     
  0.15625000000000000       0.25000000000000000        0.0000000000000000     
  0.18750000000000000       0.25000000000000000        0.0000000000000000     
  0.21875000000000000       0.25000000000000000        0.0000000000000000     
  0.25000000000000000       0.25000000000000000        0.0000000000000000     
  0.12500000000000000       0.28125000000000000        0.0000000000000000     
  0.15625000000000000       0.28125000000000000        0.0000000000000000     
  0.18750000000000000       0.28125000000000000        0.0000000000000000     
  0.21875000000000000       0.28125000000000000        0.0000000000000000     
  0.25000000000000000       0.28125000000000000        0.0000000000000000     
  0.12500000000000000       0.31250000000000000        0.0000000000000000     
  0.15625000000000000       0.31250000000000000        0.0000000000000000     
  0.18750000000000000       0.31250000000000000        0.0000000000000000     
  0.21875000000000000       0.31250000000000000        0.0000000000000000     
  0.25000000000000000       0.31250000000000000        0.0000000000000000     
  0.12500000000000000       0.34375000000000000        0.0000000000000000     
  0.15625000000000000       0.34375000000000000        0.0000000000000000     
  0.18750000000000000       0.34375000000000000        0.0000000000000000     
  0.21875000000000000       0.34375000000000000        0.0000000000000000     
  0.25000000000000000       0.34375000000000000        0.0000000000000000     
  0.12500000000000000       0.37500000000000000        0.0000000000000000     
  0.15625000000000000       0.37500000000000000        0.0000000000000000     
  0.18750000000000000       0.37500000000000000        0.0000000000000000     
  0.21875000000000000       0.37500000000000000        0.0000000000000000     
  0.25000000000000000       0.37500000000000000        0.0000000000000000     
  0.25000000000000000       0.25000000000000000        0.0000000000000000     
  0.28125000000000000       0.25000000000000000        0.0000000000000000     
  0.31250000000000000       0.25000000000000000        0.0000000000000000     
  0.34375000000000000       0.25000000000000000        0.0000000000000000     
  0.37500000000000000       0.25000000000000000        0.0000000000000000     
  0.25000000000000000       0.28125000000000000        0.0000000000000000     
  0.28125000000000000       0.28125000000000000        0.0000000000000000     
  0.31250000000000000       0.28125000000000000        0.0000000000000000     
  0.34375000000000000       0.28125000000000000        0.0000000000000000     
  0.37500000000000000       0.28125000000000000        0.0000000000000000     
  0.25000000000000000       0.31250000000000000        0.0000000000000000     
  0.28125000000000000       0.31250000000000000        0.0000000000000000     
  0.31250000000000000       0.31250000000000000        0.0000000000000000     
  0.34375000000000000       0.31250000000000000        0.0000000000000000     
  0.37500000000000000       0.31250000000000000        0.0000000000000000     
  0.25000000000000000       0.34375000000000000        0.0000000000000000     
  0.28125000000000000       0.34375000000000000        0.0000000000000000     
  0.31250000000000000       0.34375000000000000        0.0000000000000000     
  0.34375000000000000       0.34375000000000000        0.0000000000000000     
  0.37500000000000000       0.34375000000000000        0.0000000000000000     
  0.25000000000000000       0.37500000000000000        0.0000000000000000     
  0.28125000000000000       0.37500000000000000        0.0000000000000000     
  0.31250000000000000       0.37500000000000000        0.0000000000000000     
  0.34375000000000000       0.37500000000000000        0.0000000000000000     
  0.37500000000000000       0.37500000000000000        0.0000000000000000     
  0.37500000000000000       0.25000000000000000        0.0000000000000000     
  0.40625000000000000       0.25000000000000000        0.0000000000000000     
  0.43750000000000000       0.25000000000000000        0.0000000000000000     
  0.46875000000000000       0.25000000000000000        0.0000000000000000     
  0.50000000000000000       0.25000000000000000        0.0000000000000000     
  0.37500000000000000       0.28125000000000000        0.0000000000000000     
  0.40625000000000000       0.28125000000000000        0.0000000000000000     
  0.43750000000000000       0.28125000000000000        0.0000000000000000     
  0.46875000000000000       0.28125000000000000        0.0000000000000000     
  0.50000000000000000       0.28125000000000000        0.0000000000000000     
  0.37500000000000000       0.31250000000000000        0.0000000000000000     
  0.40625000000000000       0.31250000000000000        0.0000000000000000     
  0.43750000000000000       0.31250000000000000        0.0000000000000000     
  0.46875000000000000       0.31250000000000000        0.0000000000000000     
  0.50000000000000000       0.31250000000000000        0.0000000000000000     
  0.37500000000000000       0.34375000000000000        0.0000000000000000     
  0.40625000000000000       0.34375000000000000        0.0000000000000000     
  0.43750000000000000       0.34375000000000000        0.0000000000000000     
  0.46875000000000000       0.34375000000000000        0.0000000000000000     
  0.50000000000000000       0.34375000000000000        0.0000000000000000     
  0.37500000000000000       0.37500000000000000        0.0000000000000000     
  0.40625000000000000       0.37500000000000000        0.0000000000000000     
  0.43750000000000000       0.37500000000000000        0.0000000000000000     
  0.46875000000000000       0.37500000000000000        0.0000000000000000     
  0.50000000000000000       0.37500000000000000        0.0000000000000000     
  0.50000000000000000       0.25000000000000000        0.0000000000000000     
  0.53125000000000000       0.25000000000000000        0.0000000000000000     
  0.56250000000000000       0.25000000000000000        0.0000000000000000     
  0.59375000000000000       0.25000000000000000        0.0000000000000000     
  0.62500000000000000       0.25000000000000000        0.0000000000000000     
  0.50000000000000000       0.28125000000000000        0.0000000000000000     
  0.53125000000000000       0.28125000000000000        0.0000000000000000     
  0.56250000000000000       0.28125000000000000        0.0000000000000000     
  0.59375000000000000       0.28125000000000000        0.0000000000000000     
  0.62500000000000000       0.28125000000000000        0.0000000000000000     
  0.50000000000000000       0.31250000000000000        0.0000000000000000     
  0.53125000000000000       0.31250000000000000        0.0000000000000000     
  0.56250000000000000       0.31250000000000000        0.0000000000000000     
  0.59375000000000000       0.31250000000000000        0.0000000000000000     
  0.62500000000000000       0.31250000000000000        0.0000000000000000     
  0.50000000000000000       0.34375000000000000        0.0000000000000000     
  0.53125000000000000       0.34375000000000000        0.0000000000000000     
  0.56250000000000000       0.34375000000000000        0.0000000000000000     
  0.59375000000000000       0.34375000000000000        0.0000000000000000     
  0.62500000000000000       0.34375000000000000        0.0000000000000000     
  0.50000000000000000       0.37500000000000000        0.0000000000000000     
  0.53125000000000000       0.37500000000000000        0.0000000000000000     
  0.56250000000000000       0.37500000000000000        0.0000000000000000     
  0.59375000000000000       0.37500000000000000        0.0000000000000000     
  0.62500000000000000       0.37500000000000000        0.0000000000000000     
  0.62500000000000000       0.25000000000000000        0.0000000000000000     
  0.65625000000000000       0.25000000000000000        0.0000000000000000     
  0.68750000000000000       0.25000000000000000        0.0000000000000000     
  0.71875000000000000       0.25000000000000000        0.0000000000000000     
  0.75000000000000000       0.25000000000000000        0.0000000000000000     
  0.62500000000000000       0.28125000000000000        0.0000000000000000     
  0.65625000000000000       0.28125000000000000        0.0000000000000000     
  0.68750000000000000       0.28125000000000000        0.0000000000000000     
  0.71875000000000000       0.28125000000000000        0.0000000000000000     
  0.75000000000000000       0.28125000000000000        0.0000000000000000     
  0.62500000000000000       0.31250000000000000        0.0000000000000000     
  0.65625000000000000       0.31250000000000000        0.0000000000000000     
  0.68750000000000000       0.31250000000000000        0.0000000000000000     
  0.71875000000000000       0.31250000000000000        0.0000000000000000     
  0.75000000000000000       0.31250000000000000        0.0000000000000000     
  0.62500000000000000       0.34375000000000000        0.0000000000000000     
  0.65625000000000000       0.34375000000000000        0.0000000000000000     
  0.68750000000000000       0.34375000000000000        0.0000000000000000     
  0.71875000000000000       0.34375000000000000        0.0000000000000000     
  0.75000000000000000       0.34375000000000000        0.0000000000000000     
  0.62500000000000000       0.37500000000000000        0.0000000000000000     
  0.65625000000000000       0.37500000000000000        0.0000000000000000     
  0.68750000000000000       0.37500000000000000        0.0000000000000000     
  0.71875000000000000       0.37500000000000000        0.0000000000000000     
  0.75000000000000000       0.37500000000000000        0.0000000000000000     
  0.75000000000000000       0.25000000000000000        0.0000000000000000     
  0.78125000000000000       0.25000000000000000        0.0000000000000000     
  0.81250000000000000       0.25000000000000000        0.0000000000000000     
  0.84375000000000000       0.25000000000000000        0.0000000000000000     
  0.87500000000000000       0.25000000000000000        0.0000000000000000     
  0.75000000000000000       0.28125000000000000        0.0000000000000000     
  0.78125000000000000       0.28125000000000000        0.0000000000000000     
  0.81250000000000000       0.28125000000000000        0.0000000000000000     
  0.84375000000000000       0.28125000000000000        0.0000000000000000     
  0.87500000000000000       0.28125000000000000        0.0000000000000000     
  0.75000000000000000       0.31250000000000000        0.0000000000000000     
  0.78125000000000000       0.31250000000000000        0.0000000000000000     
  0.81250000000000000       0.31250000000000000        0.0000000000000000     
  0.84375000000000000       0.31250000000000000        0.0000000000000000     
  0.87500000000000000       0.31250000000000000        0.0000000000000000     
  0.75000000000000000       0.34375000000000000        0.0000000000000000     
  0.78125000000000000       0.34375000000000000        0.0000000000000000     
  0.81250000000000000       0.34375000000000000        0.0000000000000000     
  0.84375000000000000       0.34375000000000000        0.0000000000000000     
  0.87500000000000000       0.34375000000000000        0.0000000000000000     
  0.75000000000000000       0.37500000000000000        0.0000000000000000     
  0.78125000000000000       0.37500000000000000        0.0000000000000000     
  0.81250000000000000       0.37500000000000000        0.0000000000000000     
  0.84375000000000000       0.37500000000000000        0.0000000000000000     
  0.87500000000000000       0.37500000000000000        0.0000000000000000     
  0.87500000000000000       0.25000000000000000        0.0000000000000000     
  0.90625000000000000       0.25000000000000000        0.0000000000000000     
  0.93750000000000000       0.25000000000000000        0.0000000000000000     
  0.96875000000000000       0.25000000000000000        0.0000000000000000     
   1.0000000000000000       0.25000000000000000        0.0000000000000000     
  0.87500000000000000       0.28125000000000000        0.0000000000000000     
  0.90625000000000000       0.28125000000000000        0.0000000000000000     
  0.93750000000000000       0.28125000000000000        0.0000000000000000     
  0.96875000000000000       0.28125000000000000        0.0000000000000000     
   1.0000000000000000       0.28125000000000000        0.0000000000000000     
  0.87500000000000000       0.31250000000000000        0.0000000000000000     
  0.90625000000000000       0.31250000000000000        0.0000000000000000     
  0.93750000000000000       0.31250000000000000        0.0000000000000000     
  0.96875000000000000       0.31250000000000000        0.0000000000000000     
   1.0000000000000000       0.31250000000000000        0.0000000000000000     
  0.87500000000000000       0.34375000000000000        0.0000000000000000     
  0.90625000000000000       0.34375000000000000        0.0000000000000000     
  0.93750000000000000       0.34375000000000000        0.0000000000000000     
  0.96875000000000000       0.34375000000000000        0.0000000000000000     
   1.0000000000000000       0.34375000000000000        0.0000000000000000     
  0.87500000000000000       0.37500000000000000        0.0000000000000000     
  0.90625000000000000       0.37500000000000000        0.0000000000000000     
  0.93750000000000000       0.37500000000000000        0.0000000000000000     
  0.96875000000000000       0.37500000000000000        0.0000000000000000     
   1.0000000000000000       0.37500000000000000        0.0000000000000000     
   0.0000000000000000       0.37500000000000000        0.0000000000000000     
   3.1250000000000000E-002  0.37500000000000000        0.0000000000000000     
   6.2500000000000000E-002  0.37500000000000000        0.0000000000000000     
   9.3750000000000000E-002  0.37500000000000000        0.0000000000000000     
  0.12500000000000000       0.37500000000000000        0.0000000000000000     
   0.0000000000000000       0.40625000000000000        0.0000000000000000     
   3.1250000000000000E-002  0.40625000000000000        0.0000000000000000     
   6.2500000000000000E-002  0.40625000000000000        0.0000000000000000     
   9.3750000000000000E-002  0.40625000000000000        0.0000000000000000     
  0.12500000000000000       0.40625000000000000        0.0000000000000000     
   0.0000000000000000       0.43750000000000000        0.0000000000000000     
   3.1250000000000000E-002  0.43750000000000000        0.0000000000000000     
   6.2500000000000000E-002  0.43750000000000000        0.0000000000000000     
   9.3750000000000000E-002  0.43750000000000000        0.0000000000000000     
  0.12500000000000000       0.43750000000000000        0.0000000000000000     
   0.0000000000000000       0.46875000000000000        0.0000000000000000     
   3.1250000000000000E-002  0.46875000000000000        0.0000000000000000     
   6.2500000000000000E-002  0.46875000000000000        0.0000000000000000     
   9.3750000000000000E-002  0.46875000000000000        0.0000000000000000     
  0.12500000000000000       0.46875000000000000        0.0000000000000000     
   0.0000000000000000       0.50000000000000000        0.0000000000000000     
   3.1250000000000000E-002  0.50000000000000000        0.0000000000000000     
   6.2500000000000000E-002  0.50000000000000000        0.0000000000000000     
   9.3750000000000000E-002  0.50000000000000000        0.0000000000000000     
  0.12500000000000000       0.50000000000000000        0.0000000000000000     
  0.12500000000000000       0.37500000000000000        0.0000000000000000     
  0.15625000000000000       0.37500000000000000        0.0000000000000000     
  0.18750000000000000       0.37500000000000000        0.0000000000000000     
  0.21875000000000000       0.37500000000000000        0.0000000000000000     
  0.25000000000000000       0.37500000000000000        0.0000000000000000     
  0.12500000000000000       0.40625000000000000        0.0000000000000000     
  0.15625000000000000       0.40625000000000000        0.0000000000000000     
  0.18750000000000000       0.40625000000000000        0.0000000000000000     
  0.21875000000000000       0.40625000000000000        0.0000000000000000     
  0.25000000000000000       0.40625000000000000        0.0000000000000000     
  0.12500000000000000       0.43750000000000000        0.0000000000000000     
  0.15625000000000000       0.43750000000000000        0.0000000000000000     
  0.18750000000000000       0.43750000000000000        0.0000000000000000     
  0.21875000000000000       0.43750000000000000        0.0000000000000000     
  0.25000000000000000       0.43750000000000000        0.0000000000000000     
  0.12500000000000000       0.46875000000000000        0.0000000000000000     
  0.15625000000000000       0.46875000000000000        0.0000000000000000     
  0.18750000000000000       0.46875000000000000        0.0000000000000000     
  0.21875000000000000       0.46875000000000000        0.0000000000000000     
  0.25000000000000000       0.46875000000000000        0.0000000000000000     
  0.12500000000000000       0.50000000000000000        0.0000000000000000     
  0.15625000000000000       0.50000000000000000        0.0000000000000000     
  0.18750000000000000       0.50000000000000000        0.0000000000000000     
  0.21875000000000000       0.50000000000000000        0.0000000000000000     
  0.25000000000000000       0.50000000000000000        0.0000000000000000     
  0.25000000000000000       0.37500000000000000        0.0000000000000000     
  0.28125000000000000       0.37500000000000000        0.0000000000000000     
  0.31250000000000000       0.37500000000000000        0.0000000000000000     
  0.34375000000000000       0.37500000000000000        0.0000000000000000     
  0.37500000000000000       0.37500000000000000        0.0000000000000000     
  0.25000000000000000       0.40625000000000000        0.0000000000000000     
  0.28125000000000000       0.40625000000000000        0.0000000000000000     
  0.31250000000000000       0.40625000000000000        0.0000000000000000     
  0.34375000000000000       0.40625000000000000        0.0000000000000000     
  0.37500000000000000       0.40625000000000000        0.0000000000000000     
  0.25000000000000000       0.43750000000000000        0.0000000000000000     
  0.28125000000000000       0.43750000000000000        0.0000000000000000     
  0.31250000000000000       0.43750000000000000        0.0000000000000000     
  0.34375000000000000       0.43750000000000000        0.0000000000000000     
  0.37500000000000000       0.43750000000000000        0.0000000000000000     
  0.25000000000000000       0.46875000000000000        0.0000000000000000     
  0.28125000000000000       0.46875000000000000        0.0000000000000000     
  0.31250000000000000       0.46875000000000000        0.0000000000000000     
  0.34375000000000000       0.46875000000000000        0.0000000000000000     
  0.37500000000000000       0.46875000000000000        0.0000000000000000     
  0.25000000000000000       0.50000000000000000        0.0000000000000000     
  0.28125000000000000       0.50000000000000000        0.0000000000000000     
  0.31250000000000000       0.50000000000000000        0.0000000000000000     
  0.34375000000000000       0.50000000000000000        0.0000000000000000     
  0.37500000000000000       0.50000000000000000        0.0000000000000000     
  0.37500000000000000       0.37500000000000000        0.0000000000000000     
  0.40625000000000000       0.37500000000000000        0.0000000000000000     
  0.43750000000000000       0.37500000000000000        0.0000000000000000     
  0.46875000000000000       0.37500000000000000        0.0000000000000000     
  0.50000000000000000       0.37500000000000000        0.0000000000000000     
  0.37500000000000000       0.40625000000000000        0.0000000000000000     
  0.40625000000000000       0.40625000000000000        0.0000000000000000     
  0.43750000000000000       0.40625000000000000        0.0000000000000000     
  0.46875000000000000       0.40625000000000000        0.0000000000000000     
  0.50000000000000000       0.40625000000000000        0.0000000000000000     
  0.37500000000000000       0.43750000000000000        0.0000000000000000     
  0.40625000000000000       0.43750000000000000        0.0000000000000000     
  0.43750000000000000       0.43750000000000000        0.0000000000000000     
  0.46875000000000000       0.43750000000000000        0.0000000000000000     
  0.50000000000000000       0.43750000000000000        0.0000000000000000     
  0.37500000000000000       0.46875000000000000        0.0000000000000000     
  0.40625000000000000       0.46875000000000000        0.0000000000000000     
  0.43750000000000000       0.46875000000000000        0.0000000000000000     
  0.46875000000000000       0.46875000000000000        0.0000000000000000     
  0.50000000000000000       0.46875000000000000        0.0000000000000000     
  0.37500000000000000       0.50000000000000000        0.0000000000000000     
  0.40625000000000000       0.50000000000000000        0.0000000000000000     
  0.43750000000000000       0.50000000000000000        0.0000000000000000     
  0.46875000000000000       0.50000000000000000        0.0000000000000000     
  0.50000000000000000       0.50000000000000000        0.0000000000000000     
  0.50000000000000000       0.37500000000000000        0.0000000000000000     
  0.53125000000000000       0.37500000000000000        0.0000000000000000     
  0.56250000000000000       0.37500000000000000        0.0000000000000000     
  0.59375000000000000       0.37500000000000000        0.0000000000000000     
  0.62500000000000000       0.37500000000000000        0.0000000000000000     
  0.50000000000000000       0.40625000000000000        0.0000000000000000     
  0.53125000000000000       0.40625000000000000        0.0000000000000000     
  0.56250000000000000       0.40625000000000000        0.0000000000000000     
  0.59375000000000000       0.40625000000000000        0.0000000000000000     
  0.62500000000000000       0.40625000000000000        0.0000000000000000     
  0.50000000000000000       0.43750000000000000        0.0000000000000000     
  0.53125000000000000       0.43750000000000000        0.0000000000000000     
  0.56250000000000000       0.43750000000000000        0.0000000000000000     
  0.59375000000000000       0.43750000000000000        0.0000000000000000     
  0.62500000000000000       0.43750000000000000        0.0000000000000000     
  0.50000000000000000       0.46875000000000000        0.0000000000000000     
  0.53125000000000000       0.46875000000000000        0.0000000000000000     
  0.56250000000000000       0.46875000000000000        0.0000000000000000     
  0.59375000000000000       0.46875000000000000        0.0000000000000000     
  0.62500000000000000       0.46875000000000000        0.0000000000000000     
  0.50000000000000000       0.50000000000000000        0.0000000000000000     
  0.53125000000000000       0.50000000000000000        0.0000000000000000     
  0.56250000000000000       0.50000000000000000        0.0000000000000000     
  0.59375000000000000       0.50000000000000000        0.0000000000000000     
  0.62500000000000000       0.50000000000000000        0.0000000000000000     
  0.62500000000000000       0.37500000000000000        0.0000000000000000     
  0.65625000000000000       0.37500000000000000        0.0000000000000000     
  0.68750000000000000       0.37500000000000000        0.0000000000000000     
  0.71875000000000000       0.37500000000000000        0.0000000000000000     
  0.75000000000000000       0.37500000000000000        0.0000000000000000     
  0.62500000000000000       0.40625000000000000        0.0000000000000000     
  0.65625000000000000       0.40625000000000000        0.0000000000000000     
  0.68750000000000000       0.40625000000000000        0.0000000000000000     
  0.71875000000000000       0.40625000000000000        0.0000000000000000     
  0.75000000000000000       0.40625000000000000        0.0000000000000000     
  0.62500000000000000       0.43750000000000000        0.0000000000000000     
  0.65625000000000000       0.43750000000000000        0.0000000000000000     
  0.68750000000000000       0.43750000000000000        0.0000000000000000     
  0.71875000000000000       0.43750000000000000        0.0000000000000000     
  0.75000000000000000       0.43750000000000000        0.0000000000000000     
  0.62500000000000000       0.46875000000000000        0.0000000000000000     
  0.65625000000000000       0.46875000000000000        0.0000000000000000     
  0.68750000000000000       0.46875000000000000        0.0000000000000000     
  0.71875000000000000       0.46875000000000000        0.0000000000000000     
  0.75000000000000000       0.46875000000000000        0.0000000000000000     
  0.62500000000000000       0.50000000000000000        0.0000000000000000     
  0.65625000000000000       0.50000000000000000        0.0000000000000000     
  0.68750000000000000       0.50000000000000000        0.0000000000000000     
  0.71875000000000000       0.50000000000000000        0.0000000000000000     
  0.75000000000000000       0.50000000000000000        0.0000000000000000     
  0.75000000000000000       0.37500000000000000        0.0000000000000000     
  0.78125000000000000       0.37500000000000000        0.0000000000000000     
  0.81250000000000000       0.37500000000000000        0.0000000000000000     
  0.84375000000000000       0.37500000000000000        0.0000000000000000     
  0.87500000000000000       0.37500000000000000        0.0000000000000000     
  0.75000000000000000       0.40625000000000000        0.0000000000000000     
  0.78125000000000000       0.40625000000000000        0.0000000000000000     
  0.81250000000000000       0.40625000000000000        0.0000000000000000     
  0.84375000000000000       0.40625000000000000        0.0000000000000000     
  0.87500000000000000       0.40625000000000000        0.0000000000000000     
  0.75000000000000000       0.43750000000000000        0.0000000000000000     
  0.78125000000000000       0.43750000000000000        0.0000000000000000     
  0.81250000000000000       0.43750000000000000        0.0000000000000000     
  0.84375000000000000       0.43750000000000000        0.0000000000000000     
  0.87500000000000000       0.43750000000000000        0.0000000000000000     
  0.75000000000000000       0.46875000000000000        0.0000000000000000     
  0.78125000000000000       0.46875000000000000        0.0000000000000000     
  0.81250000000000000       0.46875000000000000        0.0000000000000000     
  0.84375000000000000       0.46875000000000000        0.0000000000000000     
  0.87500000000000000       0.46875000000000000        0.0000000000000000     
  0.75000000000000000       0.50000000000000000        0.0000000000000000     
  0.78125000000000000       0.50000000000000000        0.0000000000000000     
  0.81250000000000000       0.50000000000000000        0.0000000000000000     
  0.84375000000000000       0.50000000000000000        0.0000000000000000     
  0.87500000000000000       0.50000000000000000        0.0000000000000000     
  0.87500000000000000       0.37500000000000000        0.0000000000000000     
  0.90625000000000000       0.37500000000000000        0.0000000000000000     
  0.93750000000000000       0.37500000000000000        0.0000000000000000     
  0.96875000000000000       0.37500000000000000        0.0000000000000000     
   1.0000000000000000       0.37500000000000000        0.0000000000000000     
  0.87500000000000000       0.40625000000000000        0.0000000000000000     
  0.90625000000000000       0.40625000000000000        0.0000000000000000     
  0.93750000000000000       0.40625000000000000        0.0000000000000000     
  0.96875000000000000       0.40625000000000000        0.0000000000000000     
   1.0000000000000000       0.40625000000000000        0.0000000000000000     
  0.87500000000000000       0.43750000000000000        0.0000000000000000     
  0.90625000000000000       0.43750000000000000        0.0000000000000000     
  0.93750000000000000       0.43750000000000000        0.0000000000000000     
  0.96875000000000000       0.43750000000000000        0.0000000000000000     
   1.0000000000000000       0.43750000000000000        0.0000000000000000     
  0.87500000000000000       0.46875000000000000        0.0000000000000000     
  0.90625000000000000       0.46875000000000000        0.0000000000000000     
  0.93750000000000000       0.46875000000000000        0.0000000000000000     
  0.96875000000000000       0.46875000000000000        0.0000000000000000     
   1.0000000000000000       0.46875000000000000        0.0000000000000000     
  0.87500000000000000       0.50000000000000000        0.0000000000000000     
  0.90625000000000000       0.50000000000000000        0.0000000000000000     
  0.93750000000000000       0.50000000000000000        0.0000000000000000     
  0.96875000000000000       0.50000000000000000        0.0000000000000000     
   1.0000000000000000       0.50000000000000000        0.0000000000000000     
   0.0000000000000000       0.50000000000000000        0.0000000000000000     
   3.1250000000000000E-002  0.50000000000000000        0.0000000000000000     
   6.2500000000000000E-002  0.50000000000000000        0.0000000000000000     
   9.3750000000000000E-002  0.50000000000000000        0.0000000000000000     
  0.12500000000000000       0.50000000000000000        0.0000000000000000     
   0.0000000000000000       0.53125000000000000        0.0000000000000000     
   3.1250000000000000E-002  0.53125000000000000        0.0000000000000000     
   6.2500000000000000E-002  0.53125000000000000        0.0000000000000000     
   9.3750000000000000E-002  0.53125000000000000        0.0000000000000000     
  0.12500000000000000       0.53125000000000000        0.0000000000000000     
   0.0000000000000000       0.56250000000000000        0.0000000000000000     
   3.1250000000000000E-002  0.56250000000000000        0.0000000000000000     
   6.2500000000000000E-002  0.56250000000000000        0.0000000000000000     
   9.3750000000000000E-002  0.56250000000000000        0.0000000000000000     
  0.12500000000000000       0.56250000000000000        0.0000000000000000     
   0.0000000000000000       0.59375000000000000        0.0000000000000000     
   3.1250000000000000E-002  0.59375000000000000        0.0000000000000000     
   6.2500000000000000E-002  0.59375000000000000        0.0000000000000000     
   9.3750000000000000E-002  0.59375000000000000        0.0000000000000000     
  0.12500000000000000       0.59375000000000000        0.0000000000000000     
   0.0000000000000000       0.62500000000000000        0.0000000000000000     
   3.1250000000000000E-002  0.62500000000000000        0.0000000000000000     
   6.2500000000000000E-002  0.62500000000000000        0.0000000000000000     
   9.3750000000000000E-002  0.62500000000000000        0.0000000000000000     
  0.12500000000000000       0.62500000000000000        0.0000000000000000     
  0.12500000000000000       0.50000000000000000        0.0000000000000000     
  0.15625000000000000       0.50000000000000000        0.0000000000000000     
  0.18750000000000000       0.50000000000000000        0.0000000000000000     
  0.21875000000000000       0.50000000000000000        0.0000000000000000     
  0.25000000000000000       0.50000000000000000        0.0000000000000000     
  0.12500000000000000       0.53125000000000000        0.0000000000000000     
  0.15625000000000000       0.53125000000000000        0.0000000000000000     
  0.18750000000000000       0.53125000000000000        0.0000000000000000     
  0.21875000000000000       0.53125000000000000        0.0000000000000000     
  0.25000000000000000       0.53125000000000000        0.0000000000000000     
  0.12500000000000000       0.56250000000000000        0.0000000000000000     
  0.15625000000000000       0.56250000000000000        0.0000000000000000     
  0.18750000000000000       0.56250000000000000        0.0000000000000000     
  0.21875000000000000       0.56250000000000000        0.0000000000000000     
  0.25000000000000000       0.56250000000000000        0.0000000000000000     
  0.12500000000000000       0.59375000000000000        0.0000000000000000     
  0.15625000000000000       0.59375000000000000        0.0000000000000000     
  0.18750000000000000       0.59375000000000000        0.0000000000000000     
  0.21875000000000000       0.59375000000000000        0.0000000000000000     
  0.25000000000000000       0.59375000000000000        0.0000000000000000     
  0.12500000000000000       0.62500000000000000        0.0000000000000000     
  0.15625000000000000       0.62500000000000000        0.0000000000000000     
  0.18750000000000000       0.62500000000000000        0.0000000000000000     
  0.21875000000000000       0.62500000000000000        0.0000000000000000     
  0.25000000000000000       0.62500000000000000        0.0000000000000000     
  0.25000000000000000       0.50000000000000000        0.0000000000000000     
  0.28125000000000000       0.50000000000000000        0.0000000000000000     
  0.31250000000000000       0.50000000000000000        0.0000000000000000     
  0.34375000000000000       0.50000000000000000        0.0000000000000000     
  0.37500000000000000       0.50000000000000000        0.0000000000000000     
  0.25000000000000000       0.53125000000000000        0.0000000000000000     
  0.28125000000000000       0.53125000000000000        0.0000000000000000     
  0.31250000000000000       0.53125000000000000        0.0000000000000000     
  0.34375000000000000       0.53125000000000000        0.0000000000000000     
  0.37500000000000000       0.53125000000000000        0.0000000000000000     
  0.25000000000000000       0.56250000000000000        0.0000000000000000     
  0.28125000000000000       0.56250000000000000        0.0000000000000000     
  0.31250000000000000       0.56250000000000000        0.0000000000000000     
  0.34375000000000000       0.56250000000000000        0.0000000000000000     
  0.37500000000000000       0.56250000000000000        0.0000000000000000     
  0.25000000000000000       0.59375000000000000        0.0000000000000000     
  0.28125000000000000       0.59375000000000000        0.0000000000000000     
  0.31250000000000000       0.59375000000000000        0.0000000000000000     
  0.34375000000000000       0.59375000000000000        0.0000000000000000     
  0.37500000000000000       0.59375000000000000        0.0000000000000000     
  0.25000000000000000       0.62500000000000000        0.0000000000000000     
  0.28125000000000000       0.62500000000000000        0.0000000000000000     
  0.31250000000000000       0.62500000000000000        0.0000000000000000     
  0.34375000000000000       0.62500000000000000        0.0000000000000000     
  0.37500000000000000       0.62500000000000000        0.0000000000000000     
  0.37500000000000000       0.50000000000000000        0.0000000000000000     
  0.40625000000000000       0.50000000000000000        0.0000000000000000     
  0.43750000000000000       0.50000000000000000        0.0000000000000000     
  0.46875000000000000       0.50000000000000000        0.0000000000000000     
  0.50000000000000000       0.50000000000000000        0.0000000000000000     
  0.37500000000000000       0.53125000000000000        0.0000000000000000     
  0.40625000000000000       0.53125000000000000        0.0000000000000000     
  0.43750000000000000       0.53125000000000000        0.0000000000000000     
  0.46875000000000000       0.53125000000000000        0.0000000000000000     
  0.50000000000000000       0.53125000000000000        0.0000000000000000     
  0.37500000000000000       0.56250000000000000        0.0000000000000000     
  0.40625000000000000       0.56250000000000000        0.0000000000000000     
  0.43750000000000000       0.56250000000000000        0.0000000000000000     
  0.46875000000000000       0.56250000000000000        0.0000000000000000     
  0.50000000000000000       0.56250000000000000        0.0000000000000000     
  0.37500000000000000       0.59375000000000000        0.0000000000000000     
  0.40625000000000000       0.59375000000000000        0.0000000000000000     
  0.43750000000000000       0.59375000000000000        0.0000000000000000     
  0.46875000000000000       0.59375000000000000        0.0000000000000000     
  0.50000000000000000       0.59375000000000000        0.0000000000000000     
  0.37500000000000000       0.62500000000000000        0.0000000000000000     
  0.40625000000000000       0.62500000000000000        0.0000000000000000     
  0.43750000000000000       0.62500000000000000        0.0000000000000000     
  0.46875000000000000       0.62500000000000000        0.0000000000000000     
  0.50000000000000000       0.62500000000000000        0.0000000000000000     
  0.50000000000000000       0.50000000000000000        0.0000000000000000     
  0.53125000000000000       0.50000000000000000        0.0000000000000000     
  0.56250000000000000       0.50000000000000000        0.0000000000000000     
  0.59375000000000000       0.50000000000000000        0.0000000000000000     
  0.62500000000000000       0.50000000000000000        0.0000000000000000     
  0.50000000000000000       0.53125000000000000        0.0000000000000000     
  0.53125000000000000       0.53125000000000000        0.0000000000000000     
  0.56250000000000000       0.53125000000000000        0.0000000000000000     
  0.59375000000000000       0.53125000000000000        0.0000000000000000     
  0.62500000000000000       0.53125000000000000        0.0000000000000000     
  0.50000000000000000       0.56250000000000000        0.0000000000000000     
  0.53125000000000000       0.56250000000000000        0.0000000000000000     
  0.56250000000000000       0.56250000000000000        0.0000000000000000     
  0.59375000000000000       0.56250000000000000        0.0000000000000000     
  0.62500000000000000       0.56250000000000000        0.0000000000000000     
  0.50000000000000000       0.59375000000000000        0.0000000000000000     
  0.53125000000000000       0.59375000000000000        0.0000000000000000     
  0.56250000000000000       0.59375000000000000        0.0000000000000000     
  0.59375000000000000       0.59375000000000000        0.0000000000000000     
  0.62500000000000000       0.59375000000000000        0.0000000000000000     
  0.50000000000000000       0.62500000000000000        0.0000000000000000     
  0.53125000000000000       0.62500000000000000        0.0000000000000000     
  0.56250000000000000       0.62500000000000000        0.0000000000000000     
  0.59375000000000000       0.62500000000000000        0.0000000000000000     
  0.62500000000000000       0.62500000000000000        0.0000000000000000     
  0.62500000000000000       0.50000000000000000        0.0000000000000000     
  0.65625000000000000       0.50000000000000000        0.0000000000000000     
  0.68750000000000000       0.50000000000000000        0.0000000000000000     
  0.71875000000000000       0.50000000000000000        0.0000000000000000     
  0.75000000000000000       0.50000000000000000        0.0000000000000000     
  0.62500000000000000       0.53125000000000000        0.0000000000000000     
  0.65625000000000000       0.53125000000000000        0.0000000000000000     
  0.68750000000000000       0.53125000000000000        0.0000000000000000     
  0.71875000000000000       0.53125000000000000        0.0000000000000000     
  0.75000000000000000       0.53125000000000000        0.0000000000000000     
  0.62500000000000000       0.56250000000000000        0.0000000000000000     
  0.65625000000000000       0.56250000000000000        0.0000000000000000     
  0.68750000000000000       0.56250000000000000        0.0000000000000000     
  0.71875000000000000       0.56250000000000000        0.0000000000000000     
  0.75000000000000000       0.56250000000000000        0.0000000000000000     
  0.62500000000000000       0.59375000000000000        0.0000000000000000     
  0.65625000000000000       0.59375000000000000        0.0000000000000000     
  0.68750000000000000       0.59375000000000000        0.0000000000000000     
  0.71875000000000000       0.59375000000000000        0.0000000000000000     
  0.75000000000000000       0.59375000000000000        0.0000000000000000     
  0.62500000000000000       0.62500000000000000        0.0000000000000000     
  0.65625000000000000       0.62500000000000000        0.0000000000000000     
  0.68750000000000000       0.62500000000000000        0.0000000000000000     
  0.71875000000000000       0.62500000000000000        0.0000000000000000     
  0.75000000000000000       0.62500000000000000        0.0000000000000000     
  0.75000000000000000       0.50000000000000000        0.0000000000000000     
  0.78125000000000000       0.50000000000000000        0.0000000000000000     
  0.81250000000000000       0.50000000000000000        0.0000000000000000     
  0.84375000000000000       0.50000000000000000        0.0000000000000000     
  0.87500000000000000       0.50000000000000000        0.0000000000000000     
  0.75000000000000000       0.53125000000000000        0.0000000000000000     
  0.78125000000000000       0.53125000000000000        0.0000000000000000     
  0.81250000000000000       0.53125000000000000        0.0000000000000000     
  0.84375000000000000       0.53125000000000000        0.0000000000000000     
  0.87500000000000000       0.53125000000000000        0.0000000000000000     
  0.75000000000000000       0.56250000000000000        0.0000000000000000     
  0.78125000000000000       0.56250000000000000        0.0000000000000000     
  0.81250000000000000       0.56250000000000000        0.0000000000000000     
  0.84375000000000000       0.56250000000000000        0.0000000000000000     
  0.87500000000000000       0.56250000000000000        0.0000000000000000     
  0.75000000000000000       0.59375000000000000        0.0000000000000000     
  0.78125000000000000       0.59375000000000000        0.0000000000000000     
  0.81250000000000000       0.59375000000000000        0.0000000000000000     
  0.84375000000000000       0.59375000000000000        0.0000000000000000     
  0.87500000000000000       0.59375000000000000        0.0000000000000000     
  0.75000000000000000       0.62500000000000000        0.0000000000000000     
  0.78125000000000000       0.62500000000000000        0.0000000000000000     
  0.81250000000000000       0.62500000000000000        0.0000000000000000     
  0.84375000000000000       0.62500000000000000        0.0000000000000000     
  0.87500000000000000       0.62500000000000000        0.0000000000000000     
  0.87500000000000000       0.50000000000000000        0.0000000000000000     
  0.90625000000000000       0.50000000000000000        0.0000000000000000     
  0.93750000000000000       0.50000000000000000        0.0000000000000000     
  0.96875000000000000       0.50000000000000000        0.0000000000000000     
   1.0000000000000000       0.50000000000000000        0.0000000000000000     
  0.87500000000000000       0.53125000000000000        0.0000000000000000     
  0.90625000000000000       0.53125000000000000        0.0000000000000000     
  0.93750000000000000       0.53125000000000000        0.0000000000000000     
  0.96875000000000000       0.53125000000000000        0.0000000000000000     
   1.0000000000000000       0.53125000000000000        0.0000000000000000     
  0.87500000000000000       0.56250000000000000        0.0000000000000000     
  0.90625000000000000       0.56250000000000000        0.0000000000000000     
  0.93750000000000000       0.56250000000000000        0.0000000000000000     
  0.96875000000000000       0.56250000000000000        0.0000000000000000     
   1.0000000000000000       0.56250000000000000        0.0000000000000000     
  0.87500000000000000       0.59375000000000000        0.0000000000000000     
  0.90625000000000000       0.59375000000000000        0.0000000000000000     
  0.93750000000000000       0.59375000000000000        0.0000000000000000     
  0.96875000000000000       0.59375000000000000        0.0000000000000000     
   1.0000000000000000       0.59375000000000000        0.0000000000000000     
  0.87500000000000000       0.62500000000000000        0.0000000000000000     
  0.90625000000000000       0.62500000000000000        0.0000000000000000     
  0.93750000000000000       0.62500000000000000        0.0000000000000000     
  0.96875000000000000       0.62500000000000000        0.0000000000000000     
   1.0000000000000000       0.62500000000000000        0.0000000000000000     
   0.0000000000000000       0.62500000000000000        0.0000000000000000     
   3.1250000000000000E-002  0.62500000000000000        0.0000000000000000     
   6.2500000000000000E-002  0.62500000000000000        0.0000000000000000     
   9.3750000000000000E-002  0.62500000000000000        0.0000000000000000     
  0.12500000000000000       0.62500000000000000        0.0000000000000000     
   0.0000000000000000       0.65625000000000000        0.0000000000000000     
   3.1250000000000000E-002  0.65625000000000000        0.0000000000000000     
   6.2500000000000000E-002  0.65625000000000000        0.0000000000000000     
   9.3750000000000000E-002  0.65625000000000000        0.0000000000000000     
  0.12500000000000000       0.65625000000000000        0.0000000000000000     
   0.0000000000000000       0.68750000000000000        0.0000000000000000     
   3.1250000000000000E-002  0.68750000000000000        0.0000000000000000     
   6.2500000000000000E-002  0.68750000000000000        0.0000000000000000     
   9.3750000000000000E-002  0.68750000000000000        0.0000000000000000     
  0.12500000000000000       0.68750000000000000        0.0000000000000000     
   0.0000000000000000       0.71875000000000000        0.0000000000000000     
   3.1250000000000000E-002  0.71875000000000000        0.0000000000000000     
   6.2500000000000000E-002  0.71875000000000000        0.0000000000000000     
   9.3750000000000000E-002  0.71875000000000000        0.0000000000000000     
  0.12500000000000000       0.71875000000000000        0.0000000000000000     
   0.0000000000000000       0.75000000000000000        0.0000000000000000     
   3.1250000000000000E-002  0.75000000000000000        0.0000000000000000     
   6.2500000000000000E-002  0.75000000000000000        0.0000000000000000     
   9.3750000000000000E-002  0.75000000000000000        0.0000000000000000     
  0.12500000000000000       0.75000000000000000        0.0000000000000000     
  0.12500000000000000       0.62500000000000000        0.0000000000000000     
  0.15625000000000000       0.62500000000000000        0.0000000000000000     
  0.18750000000000000       0.62500000000000000        0.0000000000000000     
  0.21875000000000000       0.62500000000000000        0.0000000000000000     
  0.25000000000000000       0.62500000000000000        0.0000000000000000     
  0.12500000000000000       0.65625000000000000        0.0000000000000000     
  0.15625000000000000       0.65625000000000000        0.0000000000000000     
  0.18750000000000000       0.65625000000000000        0.0000000000000000     
  0.21875000000000000       0.65625000000000000        0.0000000000000000     
  0.25000000000000000       0.65625000000000000        0.0000000000000000     
  0.12500000000000000       0.68750000000000000        0.0000000000000000     
  0.15625000000000000       0.68750000000000000        0.0000000000000000     
  0.18750000000000000       0.68750000000000000        0.0000000000000000     
  0.21875000000000000       0.68750000000000000        0.0000000000000000     
  0.25000000000000000       0.68750000000000000        0.0000000000000000     
  0.12500000000000000       0.71875000000000000        0.0000000000000000     
  0.15625000000000000       0.71875000000000000        0.0000000000000000     
  0.18750000000000000       0.71875000000000000        0.0000000000000000     
  0.21875000000000000       0.71875000000000000        0.0000000000000000     
  0.25000000000000000       0.71875000000000000        0.0000000000000000     
  0.12500000000000000       0.75000000000000000        0.0000000000000000     
  0.15625000000000000       0.75000000000000000        0.0000000000000000     
  0.18750000000000000       0.75000000000000000        0.0000000000000000     
  0.21875000000000000       0.75000000000000000        0.0000000000000000     
  0.25000000000000000       0.75000000000000000        0.0000000000000000     
  0.25000000000000000       0.62500000000000000        0.0000000000000000     
  0.28125000000000000       0.62500000000000000        0.0000000000000000     
  0.31250000000000000       0.62500000000000000        0.0000000000000000     
  0.34375000000000000       0.62500000000000000        0.0000000000000000     
  0.37500000000000000       0.62500000000000000        0.0000000000000000     
  0.25000000000000000       0.65625000000000000        0.0000000000000000     
  0.28125000000000000       0.65625000000000000        0.0000000000000000     
  0.31250000000000000       0.65625000000000000        0.0000000000000000     
  0.34375000000000000       0.65625000000000000        0.0000000000000000     
  0.37500000000000000       0.65625000000000000        0.0000000000000000     
  0.25000000000000000       0.68750000000000000        0.0000000000000000     
  0.28125000000000000       0.68750000000000000        0.0000000000000000     
  0.31250000000000000       0.68750000000000000        0.0000000000000000     
  0.34375000000000000       0.68750000000000000        0.0000000000000000     
  0.37500000000000000       0.68750000000000000        0.0000000000000000     
  0.25000000000000000       0.71875000000000000        0.0000000000000000     
  0.28125000000000000       0.71875000000000000        0.0000000000000000     
  0.31250000000000000       0.71875000000000000        0.0000000000000000     
  0.34375000000000000       0.71875000000000000        0.0000000000000000     
  0.37500000000000000       0.71875000000000000        0.0000000000000000     
  0.25000000000000000       0.75000000000000000        0.0000000000000000     
  0.28125000000000000       0.75000000000000000        0.0000000000000000     
  0.31250000000000000       0.75000000000000000        0.0000000000000000     
  0.34375000000000000       0.75000000000000000        0.0000000000000000     
  0.37500000000000000       0.75000000000000000        0.0000000000000000     
  0.37500000000000000       0.62500000000000000        0.0000000000000000     
  0.40625000000000000       0.62500000000000000        0.0000000000000000     
  0.43750000000000000       0.62500000000000000        0.0000000000000000     
  0.46875000000000000       0.62500000000000000        0.0000000000000000     
  0.50000000000000000       0.62500000000000000        0.0000000000000000     
  0.37500000000000000       0.65625000000000000        0.0000000000000000     
  0.40625000000000000       0.65625000000000000        0.0000000000000000     
  0.43750000000000000       0.65625000000000000        0.0000000000000000     
  0.46875000000000000       0.65625000000000000        0.0000000000000000     
  0.50000000000000000       0.65625000000000000        0.0000000000000000     
  0.37500000000000000       0.68750000000000000        0.0000000000000000     
  0.40625000000000000       0.68750000000000000        0.0000000000000000     
  0.43750000000000000       0.68750000000000000        0.0000000000000000     
  0.46875000000000000       0.68750000000000000        0.0000000000000000     
  0.50000000000000000       0.68750000000000000        0.0000000000000000     
  0.37500000000000000       0.71875000000000000        0.0000000000000000     
  0.40625000000000000       0.71875000000000000        0.0000000000000000     
  0.43750000000000000       0.71875000000000000        0.0000000000000000     
  0.46875000000000000       0.71875000000000000        0.0000000000000000     
  0.50000000000000000       0.71875000000000000        0.0000000000000000     
  0.37500000000000000       0.75000000000000000        0.0000000000000000     
  0.40625000000000000       0.75000000000000000        0.0000000000000000     
  0.43750000000000000       0.75000000000000000        0.0000000000000000     
  0.46875000000000000       0.75000000000000000        0.0000000000000000     
  0.50000000000000000       0.75000000000000000        0.0000000000000000     
  0.50000000000000000       0.62500000000000000        0.0000000000000000     
  0.53125000000000000       0.62500000000000000        0.0000000000000000     
  0.56250000000000000       0.62500000000000000        0.0000000000000000     
  0.59375000000000000       0.62500000000000000        0.0000000000000000     
  0.62500000000000000       0.62500000000000000        0.0000000000000000     
  0.50000000000000000       0.65625000000000000        0.0000000000000000     
  0.53125000000000000       0.65625000000000000        0.0000000000000000     
  0.56250000000000000       0.65625000000000000        0.0000000000000000     
  0.59375000000000000       0.65625000000000000        0.0000000000000000     
  0.62500000000000000       0.65625000000000000        0.0000000000000000     
  0.50000000000000000       0.68750000000000000        0.0000000000000000     
  0.53125000000000000       0.68750000000000000        0.0000000000000000     
  0.56250000000000000       0.68750000000000000        0.0000000000000000     
  0.59375000000000000       0.68750000000000000        0.0000000000000000     
  0.62500000000000000       0.68750000000000000        0.0000000000000000     
  0.50000000000000000       0.71875000000000000        0.0000000000000000     
  0.53125000000000000       0.71875000000000000        0.0000000000000000     
  0.56250000000000000       0.71875000000000000        0.0000000000000000     
  0.59375000000000000       0.71875000000000000        0.0000000000000000     
  0.62500000000000000       0.71875000000000000        0.0000000000000000     
  0.50000000000000000       0.75000000000000000        0.0000000000000000     
  0.53125000000000000       0.75000000000000000        0.0000000000000000     
  0.56250000000000000       0.75000000000000000        0.0000000000000000     
  0.59375000000000000       0.75000000000000000        0.0000000000000000     
  0.62500000000000000       0.75000000000000000        0.0000000000000000     
  0.62500000000000000       0.62500000000000000        0.0000000000000000     
  0.65625000000000000       0.62500000000000000        0.0000000000000000     
  0.68750000000000000       0.62500000000000000        0.0000000000000000     
  0.71875000000000000       0.62500000000000000        0.0000000000000000     
  0.75000000000000000       0.62500000000000000        0.0000000000000000     
  0.62500000000000000       0.65625000000000000        0.0000000000000000     
  0.65625000000000000       0.65625000000000000        0.0000000000000000     
  0.68750000000000000       0.65625000000000000        0.0000000000000000     
  0.71875000000000000       0.65625000000000000        0.0000000000000000     
  0.75000000000000000       0.65625000000000000        0.0000000000000000     
  0.62500000000000000       0.68750000000000000        0.0000000000000000     
  0.65625000000000000       0.68750000000000000        0.0000000000000000     
  0.68750000000000000       0.68750000000000000        0.0000000000000000     
  0.71875000000000000       0.68750000000000000        0.0000000000000000     
  0.75000000000000000       0.68750000000000000        0.0000000000000000     
  0.62500000000000000       0.71875000000000000        0.0000000000000000     
  0.65625000000000000       0.71875000000000000        0.0000000000000000     
  0.68750000000000000       0.71875000000000000        0.0000000000000000     
  0.71875000000000000       0.71875000000000000        0.0000000000000000     
  0.75000000000000000       0.71875000000000000        0.0000000000000000     
  0.62500000000000000       0.75000000000000000        0.0000000000000000     
  0.65625000000000000       0.75000000000000000        0.0000000000000000     
  0.68750000000000000       0.75000000000000000        0.0000000000000000     
  0.71875000000000000       0.75000000000000000        0.0000000000000000     
  0.75000000000000000       0.75000000000000000        0.0000000000000000     
  0.75000000000000000       0.62500000000000000        0.0000000000000000     
  0.78125000000000000       0.62500000000000000        0.0000000000000000     
  0.81250000000000000       0.62500000000000000        0.0000000000000000     
  0.84375000000000000       0.62500000000000000        0.0000000000000000     
  0.87500000000000000       0.62500000000000000        0.0000000000000000     
  0.75000000000000000       0.65625000000000000        0.0000000000000000     
  0.78125000000000000       0.65625000000000000        0.0000000000000000     
  0.81250000000000000       0.65625000000000000        0.0000000000000000     
  0.84375000000000000       0.65625000000000000        0.0000000000000000     
  0.87500000000000000       0.65625000000000000        0.0000000000000000     
  0.75000000000000000       0.68750000000000000        0.0000000000000000     
  0.78125000000000000       0.68750000000000000        0.0000000000000000     
  0.81250000000000000       0.68750000000000000        0.0000000000000000     
  0.84375000000000000       0.68750000000000000        0.0000000000000000     
  0.87500000000000000       0.68750000000000000        0.0000000000000000     
  0.75000000000000000       0.71875000000000000        0.0000000000000000     
  0.78125000000000000       0.71875000000000000        0.0000000000000000     
  0.81250000000000000       0.71875000000000000        0.0000000000000000     
  0.84375000000000000       0.71875000000000000        0.0000000000000000     
  0.87500000000000000       0.71875000000000000        0.0000000000000000     
  0.75000000000000000       0.75000000000000000        0.0000000000000000     
  0.78125000000000000       0.75000000000000000        0.0000000000000000     
  0.81250000000000000       0.75000000000000000        0.0000000000000000     
  0.84375000000000000       0.75000000000000000        0.0000000000000000     
  0.87500000000000000       0.75000000000000000        0.0000000000000000     
  0.87500000000000000       0.62500000000000000        0.0000000000000000     
  0.90625000000000000       0.62500000000000000        0.0000000000000000     
  0.93750000000000000       0.62500000000000000        0.0000000000000000     
  0.96875000000000000       0.62500000000000000        0.0000000000000000     
   1.0000000000000000       0.62500000000000000        0.0000000000000000     
  0.87500000000000000       0.65625000000000000        0.0000000000000000     
  0.90625000000000000       0.65625000000000000        0.0000000000000000     
  0.93750000000000000       0.65625000000000000        0.0000000000000000     
  0.96875000000000000       0.65625000000000000        0.0000000000000000     
   1.0000000000000000       0.65625000000000000        0.0000000000000000     
  0.87500000000000000       0.68750000000000000        0.0000000000000000     
  0.90625000000000000       0.68750000000000000        0.0000000000000000     
  0.93750000000000000       0.68750000000000000        0.0000000000000000     
  0.96875000000000000       0.68750000000000000        0.0000000000000000     
   1.0000000000000000       0.68750000000000000        0.0000000000000000     
  0.87500000000000000       0.71875000000000000        0.0000000000000000     
  0.90625000000000000       0.71875000000000000        0.0000000000000000     
  0.93750000000000000       0.71875000000000000        0.0000000000000000     
  0.96875000000000000       0.71875000000000000        0.0000000000000000     
   1.0000000000000000       0.71875000000000000        0.0000000000000000     
  0.87500000000000000       0.75000000000000000        0.0000000000000000     
  0.90625000000000000       0.75000000000000000        0.0000000000000000     
  0.93750000000000000       0.75000000000000000        0.0000000000000000     
  0.96875000000000000       0.75000000000000000        0.0000000000000000     
   1.0000000000000000       0.75000000000000000        0.0000000000000000     
   0.0000000000000000       0.75000000000000000        0.0000000000000000     
   3.1250000000000000E-002  0.75000000000000000        0.0000000000000000     
   6.2500000000000000E-002  0.75000000000000000        0.0000000000000000     
   9.3750000000000000E-002  0.75000000000000000        0.0000000000000000     
  0.12500000000000000       0.75000000000000000        0.0000000000000000     
   0.0000000000000000       0.78125000000000000        0.0000000000000000     
   3.1250000000000000E-002  0.78125000000000000        0.0000000000000000     
   6.2500000000000000E-002  0.78125000000000000        0.0000000000000000     
   9.3750000000000000E-002  0.78125000000000000        0.0000000000000000     
  0.12500000000000000       0.78125000000000000        0.0000000000000000     
   0.0000000000000000       0.81250000000000000        0.0000000000000000     
   3.1250000000000000E-002  0.81250000000000000        0.0000000000000000     
   6.2500000000000000E-002  0.81250000000000000        0.0000000000000000     
   9.3750000000000000E-002  0.81250000000000000        0.0000000000000000     
  0.12500000000000000       0.81250000000000000        0.0000000000000000     
   0.0000000000000000       0.84375000000000000        0.0000000000000000     
   3.1250000000000000E-002  0.84375000000000000        0.0000000000000000     
   6.2500000000000000E-002  0.84375000000000000        0.0000000000000000     
   9.3750000000000000E-002  0.84375000000000000        0.0000000000000000     
  0.12500000000000000       0.84375000000000000        0.0000000000000000     
   0.0000000000000000       0.87500000000000000        0.0000000000000000     
   3.1250000000000000E-002  0.87500000000000000        0.0000000000000000     
   6.2500000000000000E-002  0.87500000000000000        0.0000000000000000     
   9.3750000000000000E-002  0.87500000000000000        0.0000000000000000     
  0.12500000000000000       0.87500000000000000        0.0000000000000000     
  0.12500000000000000       0.75000000000000000        0.0000000000000000     
  0.15625000000000000       0.75000000000000000        0.0000000000000000     
  0.18750000000000000       0.75000000000000000        0.0000000000000000     
  0.21875000000000000       0.75000000000000000        0.0000000000000000     
  0.25000000000000000       0.75000000000000000        0.0000000000000000     
  0.12500000000000000       0.78125000000000000        0.0000000000000000     
  0.15625000000000000       0.78125000000000000        0.0000000000000000     
  0.18750000000000000       0.78125000000000000        0.0000000000000000     
  0.21875000000000000       0.78125000000000000        0.0000000000000000     
  0.25000000000000000       0.78125000000000000        0.0000000000000000     
  0.12500000000000000       0.81250000000000000        0.0000000000000000     
  0.15625000000000000       0.81250000000000000        0.0000000000000000     
  0.18750000000000000       0.81250000000000000        0.0000000000000000     
  0.21875000000000000       0.81250000000000000        0.0000000000000000     
  0.25000000000000000       0.81250000000000000        0.0000000000000000     
  0.12500000000000000       0.84375000000000000        0.0000000000000000     
  0.15625000000000000       0.84375000000000000        0.0000000000000000     
  0.18750000000000000       0.84375000000000000        0.0000000000000000     
  0.21875000000000000       0.84375000000000000        0.0000000000000000     
  0.25000000000000000       0.84375000000000000        0.0000000000000000     
  0.12500000000000000       0.87500000000000000        0.0000000000000000     
  0.15625000000000000       0.87500000000000000        0.0000000000000000     
  0.18750000000000000       0.87500000000000000        0.0000000000000000     
  0.21875000000000000       0.87500000000000000        0.0000000000000000     
  0.25000000000000000       0.87500000000000000        0.0000000000000000     
  0.25000000000000000       0.75000000000000000        0.0000000000000000     
  0.28125000000000000       0.75000000000000000        0.0000000000000000     
  0.31250000000000000       0.75000000000000000        0.0000000000000000     
  0.34375000000000000       0.75000000000000000        0.0000000000000000     
  0.37500000000000000       0.75000000000000000        0.0000000000000000     
  0.25000000000000000       0.78125000000000000        0.0000000000000000     
  0.28125000000000000       0.78125000000000000        0.0000000000000000     
  0.31250000000000000       0.78125000000000000        0.0000000000000000     
  0.34375000000000000       0.78125000000000000        0.0000000000000000     
  0.37500000000000000       0.78125000000000000        0.0000000000000000     
  0.25000000000000000       0.81250000000000000        0.0000000000000000     
  0.28125000000000000       0.81250000000000000        0.0000000000000000     
  0.31250000000000000       0.81250000000000000        0.0000000000000000     
  0.34375000000000000       0.81250000000000000        0.0000000000000000     
  0.37500000000000000       0.81250000000000000        0.0000000000000000     
  0.25000000000000000       0.84375000000000000        0.0000000000000000     
  0.28125000000000000       0.84375000000000000        0.0000000000000000     
  0.31250000000000000       0.84375000000000000        0.0000000000000000     
  0.34375000000000000       0.84375000000000000        0.0000000000000000     
  0.37500000000000000       0.84375000000000000        0.0000000000000000     
  0.25000000000000000       0.87500000000000000        0.0000000000000000     
  0.28125000000000000       0.87500000000000000        0.0000000000000000     
  0.31250000000000000       0.87500000000000000        0.0000000000000000     
  0.34375000000000000       0.87500000000000000        0.0000000000000000     
  0.37500000000000000       0.87500000000000000        0.0000000000000000     
  0.37500000000000000       0.75000000000000000        0.0000000000000000     
  0.40625000000000000       0.75000000000000000        0.0000000000000000     
  0.43750000000000000       0.75000000000000000        0.0000000000000000     
  0.46875000000000000       0.75000000000000000        0.0000000000000000     
  0.50000000000000000       0.75000000000000000        0.0000000000000000     
  0.37500000000000000       0.78125000000000000        0.0000000000000000     
  0.40625000000000000       0.78125000000000000        0.0000000000000000     
  0.43750000000000000       0.78125000000000000        0.0000000000000000     
  0.46875000000000000       0.78125000000000000        0.0000000000000000     
  0.50000000000000000       0.78125000000000000        0.0000000000000000     
  0.37500000000000000       0.81250000000000000        0.0000000000000000     
  0.40625000000000000       0.81250000000000000        0.0000000000000000     
  0.43750000000000000       0.81250000000000000        0.0000000000000000     
  0.46875000000000000       0.81250000000000000        0.0000000000000000     
  0.50000000000000000       0.81250000000000000        0.0000000000000000     
  0.37500000000000000       0.84375000000000000        0.0000000000000000     
  0.40625000000000000       0.84375000000000000        0.0000000000000000     
  0.43750000000000000       0.84375000000000000        0.0000000000000000     
  0.46875000000000000       0.84375000000000000        0.0000000000000000     
  0.50000000000000000       0.84375000000000000        0.0000000000000000     
  0.37500000000000000       0.87500000000000000        0.0000000000000000     
  0.40625000000000000       0.87500000000000000        0.0000000000000000     
  0.43750000000000000       0.87500000000000000        0.0000000000000000     
  0.46875000000000000       0.87500000000000000        0.0000000000000000     
  0.50000000000000000       0.87500000000000000        0.0000000000000000     
  0.50000000000000000       0.75000000000000000        0.0000000000000000     
  0.53125000000000000       0.75000000000000000        0.0000000000000000     
  0.56250000000000000       0.75000000000000000        0.0000000000000000     
  0.59375000000000000       0.75000000000000000        0.0000000000000000     
  0.62500000000000000       0.75000000000000000        0.0000000000000000     
  0.50000000000000000       0.78125000000000000        0.0000000000000000     
  0.53125000000000000       0.78125000000000000        0.0000000000000000     
  0.56250000000000000       0.78125000000000000        0.0000000000000000     
  0.59375000000000000       0.78125000000000000        0.0000000000000000     
  0.62500000000000000       0.78125000000000000        0.0000000000000000     
  0.50000000000000000       0.81250000000000000        0.0000000000000000     
  0.53125000000000000       0.81250000000000000        0.0000000000000000     
  0.56250000000000000       0.81250000000000000        0.0000000000000000     
  0.59375000000000000       0.81250000000000000        0.0000000000000000     
  0.62500000000000000       0.81250000000000000        0.0000000000000000     
  0.50000000000000000       0.84375000000000000        0.0000000000000000     
  0.53125000000000000       0.84375000000000000        0.0000000000000000     
  0.56250000000000000       0.84375000000000000        0.0000000000000000     
  0.59375000000000000       0.84375000000000000        0.0000000000000000     
  0.62500000000000000       0.84375000000000000        0.0000000000000000     
  0.50000000000000000       0.87500000000000000        0.0000000000000000     
  0.53125000000000000       0.87500000000000000        0.0000000000000000     
  0.56250000000000000       0.87500000000000000        0.0000000000000000     
  0.59375000000000000       0.87500000000000000        0.0000000000000000     
  0.62500000000000000       0.87500000000000000        0.0000000000000000     
  0.62500000000000000       0.75000000000000000        0.0000000000000000     
  0.65625000000000000       0.75000000000000000        0.0000000000000000     
  0.68750000000000000       0.75000000000000000        0.0000000000000000     
  0.71875000000000000       0.75000000000000000        0.0000000000000000     
  0.75000000000000000       0.75000000000000000        0.0000000000000000     
  0.62500000000000000       0.78125000000000000        0.0000000000000000     
  0.65625000000000000       0.78125000000000000        0.0000000000000000     
  0.68750000000000000       0.78125000000000000        0.0000000000000000     
  0.71875000000000000       0.78125000000000000        0.0000000000000000     
  0.75000000000000000       0.78125000000000000        0.0000000000000000     
  0.62500000000000000       0.81250000000000000        0.0000000000000000     
  0.65625000000000000       0.81250000000000000        0.0000000000000000     
  0.68750000000000000       0.81250000000000000        0.0000000000000000     
  0.71875000000000000       0.81250000000000000        0.0000000000000000     
  0.75000000000000000       0.81250000000000000        0.0000000000000000     
  0.62500000000000000       0.84375000000000000        0.0000000000000000     
  0.65625000000000000       0.84375000000000000        0.0000000000000000     
  0.68750000000000000       0.84375000000000000        0.0000000000000000     
  0.71875000000000000       0.84375000000000000        0.0000000000000000     
  0.75000000000000000       0.84375000000000000        0.0000000000000000     
  0.62500000000000000       0.87500000000000000        0.0000000000000000     
  0.65625000000000000       0.87500000000000000        0.0000000000000000     
  0.68750000000000000       0.87500000000000000        0.0000000000000000     
  0.71875000000000000       0.87500000000000000        0.0000000000000000     
  0.75000000000000000       0.87500000000000000        0.0000000000000000     
  0.75000000000000000       0.75000000000000000        0.0000000000000000     
  0.78125000000000000       0.75000000000000000        0.0000000000000000     
  0.81250000000000000       0.75000000000000000        0.0000000000000000     
  0.84375000000000000       0.75000000000000000        0.0000000000000000     
  0.87500000000000000       0.75000000000000000        0.0000000000000000     
  0.75000000000000000       0.78125000000000000        0.0000000000000000     
  0.78125000000000000       0.78125000000000000        0.0000000000000000     
  0.81250000000000000       0.78125000000000000        0.0000000000000000     
  0.84375000000000000       0.78125000000000000        0.0000000000000000     
  0.87500000000000000       0.78125000000000000        0.0000000000000000     
  0.75000000000000000       0.81250000000000000        0.0000000000000000     
  0.78125000000000000       0.81250000000000000        0.0000000000000000     
  0.81250000000000000       0.81250000000000000        0.0000000000000000     
  0.84375000000000000       0.81250000000000000        0.0000000000000000     
  0.87500000000000000       0.81250000000000000        0.0000000000000000     
  0.75000000000000000       0.84375000000000000        0.0000000000000000     
  0.78125000000000000       0.84375000000000000        0.0000000000000000     
  0.81250000000000000       0.84375000000000000        0.0000000000000000     
  0.84375000000000000       0.84375000000000000        0.0000000000000000     
  0.87500000000000000       0.84375000000000000        0.0000000000000000     
  0.75000000000000000       0.87500000000000000        0.0000000000000000     
  0.78125000000000000       0.87500000000000000        0.0000000000000000     
  0.81250000000000000       0.87500000000000000        0.0000000000000000     
  0.84375000000000000       0.87500000000000000        0.0000000000000000     
  0.87500000000000000       0.87500000000000000        0.0000000000000000     
  0.87500000000000000       0.75000000000000000        0.0000000000000000     
  0.90625000000000000       0.75000000000000000        0.0000000000000000     
  0.93750000000000000       0.75000000000000000        0.0000000000000000     
  0.96875000000000000       0.75000000000000000        0.0000000000000000     
   1.0000000000000000       0.75000000000000000        0.0000000000000000     
  0.87500000000000000       0.78125000000000000        0.0000000000000000     
  0.90625000000000000       0.78125000000000000        0.0000000000000000     
  0.93750000000000000       0.78125000000000000        0.0000000000000000     
  0.96875000000000000       0.78125000000000000        0.0000000000000000     
   1.0000000000000000       0.78125000000000000        0.0000000000000000     
  0.87500000000000000       0.81250000000000000        0.0000000000000000     
  0.90625000000000000       0.81250000000000000        0.0000000000000000     
  0.93750000000000000       0.81250000000000000        0.0000000000000000     
  0.96875000000000000       0.81250000000000000        0.0000000000000000     
   1.0000000000000000       0.81250000000000000        0.0000000000000000     
  0.87500000000000000       0.84375000000000000        0.0000000000000000     
  0.90625000000000000       0.84375000000000000        0.0000000000000000     
  0.93750000000000000       0.84375000000000000        0.0000000000000000     
  0.96875000000000000       0.84375000000000000        0.0000000000000000     
   1.0000000000000000       0.84375000000000000        0.0000000000000000     
  0.87500000000000000       0.87500000000000000        0.0000000000000000     
  0.90625000000000000       0.87500000000000000        0.0000000000000000     
  0.93750000000000000       0.87500000000000000        0.0000000000000000     
  0.96875000000000000       0.87500000000000000        0.0000000000000000     
   1.0000000000000000       0.87500000000000000        0.0000000000000000     
   0.0000000000000000       0.87500000000000000        0.0000000000000000     
   3.1250000000000000E-002  0.87500000000000000        0.0000000000000000     
   6.2500000000000000E-002  0.87500000000000000        0.0000000000000000     
   9.3750000000000000E-002  0.87500000000000000        0.0000000000000000     
  0.12500000000000000       0.87500000000000000        0.0000000000000000     
   0.0000000000000000       0.90625000000000000        0.0000000000000000     
   3.1250000000000000E-002  0.90625000000000000        0.0000000000000000     
   6.2500000000000000E-002  0.90625000000000000        0.0000000000000000     
   9.3750000000000000E-002  0.90625000000000000        0.0000000000000000     
  0.12500000000000000       0.90625000000000000        0.0000000000000000     
   0.0000000000000000       0.93750000000000000        0.0000000000000000     
   3.1250000000000000E-002  0.93750000000000000        0.0000000000000000     
   6.2500000000000000E-002  0.93750000000000000        0.0000000000000000     
   9.3750000000000000E-002  0.93750000000000000        0.0000000000000000     
  0.12500000000000000       0.93750000000000000        0.0000000000000000     
   0.0000000000000000       0.96875000000000000        0.0000000000000000     
   3.1250000000000000E-002  0.96875000000000000        0.0000000000000000     
   6.2500000000000000E-002  0.96875000000000000        0.0000000000000000     
   9.3750000000000000E-002  0.96875000000000000        0.0000000000000000     
  0.12500000000000000       0.96875000000000000        0.0000000000000000     
   0.0000000000000000        1.0000000000000000        0.0000000000000000     
   3.1250000000000000E-002   1.0000000000000000        0.0000000000000000     
   6.2500000000000000E-002   1.0000000000000000        0.0000000000000000     
   9.3750000000000000E-002   1.0000000000000000        0.0000000000000000     
  0.12500000000000000        1.0000000000000000        0.0000000000000000     
  0.12500000000000000       0.87500000000000000        0.0000000000000000     
  0.15625000000000000       0.87500000000000000        0.0000000000000000     
  0.18750000000000000       0.87500000000000000        0.0000000000000000     
  0.21875000000000000       0.87500000000000000        0.0000000000000000     
  0.25000000000000000       0.87500000000000000        0.0000000000000000     
  0.12500000000000000       0.90625000000000000        0.0000000000000000     
  0.15625000000000000       0.90625000000000000        0.0000000000000000     
  0.18750000000000000       0.90625000000000000        0.0000000000000000     
  0.21875000000000000       0.90625000000000000        0.0000000000000000     
  0.25000000000000000       0.90625000000000000        0.0000000000000000     
  0.12500000000000000       0.93750000000000000        0.0000000000000000     
  0.15625000000000000       0.93750000000000000        0.0000000000000000     
  0.18750000000000000       0.93750000000000000        0.0000000000000000     
  0.21875000000000000       0.93750000000000000        0.0000000000000000     
  0.25000000000000000       0.93750000000000000        0.0000000000000000     
  0.12500000000000000       0.96875000000000000        0.0000000000000000     
  0.15625000000000000       0.96875000000000000        0.0000000000000000     
  0.18750000000000000       0.96875000000000000        0.0000000000000000     
  0.21875000000000000       0.96875000000000000        0.0000000000000000     
  0.25000000000000000       0.96875000000000000        0.0000000000000000     
  0.12500000000000000        1.0000000000000000        0.0000000000000000     
  0.15625000000000000        1.0000000000000000        0.0000000000000000     
  0.18750000000000000        1.0000000000000000        0.0000000000000000     
  0.21875000000000000        1.0000000000000000        0.0000000000000000     
  0.25000000000000000        1.0000000000000000        0.0000000000000000     
  0.25000000000000000       0.87500000000000000        0.0000000000000000     
  0.28125000000000000       0.87500000000000000        0.0000000000000000     
  0.31250000000000000       0.87500000000000000        0.0000000000000000     
  0.34375000000000000       0.87500000000000000        0.0000000000000000     
  0.37500000000000000       0.87500000000000000        0.0000000000000000     
  0.25000000000000000       0.90625000000000000        0.0000000000000000     
  0.28125000000000000       0.90625000000000000        0.0000000000000000     
  0.31250000000000000       0.90625000000000000        0.0000000000000000     
  0.34375000000000000       0.90625000000000000        0.0000000000000000     
  0.37500000000000000       0.90625000000000000        0.0000000000000000     
  0.25000000000000000       0.93750000000000000        0.0000000000000000     
  0.28125000000000000       0.93750000000000000        0.0000000000000000     
  0.31250000000000000       0.93750000000000000        0.0000000000000000     
  0.34375000000000000       0.93750000000000000        0.0000000000000000     
  0.37500000000000000       0.93750000000000000        0.0000000000000000     
  0.25000000000000000       0.96875000000000000        0.0000000000000000     
  0.28125000000000000       0.96875000000000000        0.0000000000000000     
  0.31250000000000000       0.96875000000000000        0.0000000000000000     
  0.34375000000000000       0.96875000000000000        0.0000000000000000     
  0.37500000000000000       0.96875000000000000        0.0000000000000000     
  0.25000000000000000        1.0000000000000000        0.0000000000000000     
  0.28125000000000000        1.0000000000000000        0.0000000000000000     
  0.31250000000000000        1.0000000000000000        0.0000000000000000     
  0.34375000000000000        1.0000000000000000        0.0000000000000000     
  0.37500000000000000        1.0000000000000000        0.0000000000000000     
  0.37500000000000000       0.87500000000000000        0.0000000000000000     
  0.40625000000000000       0.87500000000000000        0.0000000000000000     
  0.43750000000000000       0.87500000000000000        0.0000000000000000     
  0.46875000000000000       0.87500000000000000        0.0000000000000000     
  0.50000000000000000       0.87500000000000000        0.0000000000000000     
  0.37500000000000000       0.90625000000000000        0.0000000000000000     
  0.40625000000000000       0.90625000000000000        0.0000000000000000     
  0.43750000000000000       0.90625000000000000        0.0000000000000000     
  0.46875000000000000       0.90625000000000000        0.0000000000000000     
  0.50000000000000000       0.90625000000000000        0.0000000000000000     
  0.37500000000000000       0.93750000000000000        0.0000000000000000     
  0.40625000000000000       0.93750000000000000        0.0000000000000000     
  0.43750000000000000       0.93750000000000000        0.0000000000000000     
  0.46875000000000000       0.93750000000000000        0.0000000000000000     
  0.50000000000000000       0.93750000000000000        0.0000000000000000     
  0.37500000000000000       0.96875000000000000        0.0000000000000000     
  0.40625000000000000       0.96875000000000000        0.0000000000000000     
  0.43750000000000000       0.96875000000000000        0.0000000000000000     
  0.46875000000000000       0.96875000000000000        0.0000000000000000     
  0.50000000000000000       0.96875000000000000        0.0000000000000000     
  0.37500000000000000        1.0000000000000000        0.0000000000000000     
  0.40625000000000000        1.0000000000000000        0.0000000000000000     
  0.43750000000000000        1.0000000000000000        0.0000000000000000     
  0.46875000000000000        1.0000000000000000        0.0000000000000000     
  0.50000000000000000        1.0000000000000000        0.0000000000000000     
  0.50000000000000000       0.87500000000000000        0.0000000000000000     
  0.53125000000000000       0.87500000000000000        0.0000000000000000     
  0.56250000000000000       0.87500000000000000        0.0000000000000000     
  0.59375000000000000       0.87500000000000000        0.0000000000000000     
  0.62500000000000000       0.87500000000000000        0.0000000000000000     
  0.50000000000000000       0.90625000000000000        0.0000000000000000     
  0.53125000000000000       0.90625000000000000        0.0000000000000000     
  0.56250000000000000       0.90625000000000000        0.0000000000000000     
  0.59375000000000000       0.90625000000000000        0.0000000000000000     
  0.62500000000000000       0.90625000000000000        0.0000000000000000     
  0.50000000000000000       0.93750000000000000        0.0000000000000000     
  0.53125000000000000       0.93750000000000000        0.0000000000000000     
  0.56250000000000000       0.93750000000000000        0.0000000000000000     
  0.59375000000000000       0.93750000000000000        0.0000000000000000     
  0.62500000000000000       0.93750000000000000        0.0000000000000000     
  0.50000000000000000       0.96875000000000000        0.0000000000000000     
  0.53125000000000000       0.96875000000000000        0.0000000000000000     
  0.56250000000000000       0.96875000000000000        0.0000000000000000     
  0.59375000000000000       0.96875000000000000        0.0000000000000000     
  0.62500000000000000       0.96875000000000000        0.0000000000000000     
  0.50000000000000000        1.0000000000000000        0.0000000000000000     
  0.53125000000000000        1.0000000000000000        0.0000000000000000     
  0.56250000000000000        1.0000000000000000        0.0000000000000000     
  0.59375000000000000        1.0000000000000000        0.0000000000000000     
  0.62500000000000000        1.0000000000000000        0.0000000000000000     
  0.62500000000000000       0.87500000000000000        0.0000000000000000     
  0.65625000000000000       0.87500000000000000        0.0000000000000000     
  0.68750000000000000       0.87500000000000000        0.0000000000000000     
  0.71875000000000000       0.87500000000000000        0.0000000000000000     
  0.75000000000000000       0.87500000000000000        0.0000000000000000     
  0.62500000000000000       0.90625000000000000        0.0000000000000000     
  0.65625000000000000       0.90625000000000000        0.0000000000000000     
  0.68750000000000000       0.90625000000000000        0.0000000000000000     
  0.71875000000000000       0.90625000000000000        0.0000000000000000     
  0.75000000000000000       0.90625000000000000        0.0000000000000000     
  0.62500000000000000       0.93750000000000000        0.0000000000000000     
  0.65625000000000000       0.93750000000000000        0.0000000000000000     
  0.68750000000000000       0.93750000000000000        0.0000000000000000     
  0.71875000000000000       0.93750000000000000        0.0000000000000000     
  0.75000000000000000       0.93750000000000000        0.0000000000000000     
  0.62500000000000000       0.96875000000000000        0.0000000000000000     
  0.65625000000000000       0.96875000000000000        0.0000000000000000     
  0.68750000000000000       0.96875000000000000        0.0000000000000000     
  0.71875000000000000       0.96875000000000000        0.0000000000000000     
  0.75000000000000000       0.96875000000000000        0.0000000000000000     
  0.62500000000000000        1.0000000000000000        0.0000000000000000     
  0.65625000000000000        1.0000000000000000        0.0000000000000000     
  0.68750000000000000        1.0000000000000000        0.0000000000000000     
  0.71875000000000000        1.0000000000000000        0.0000000000000000     
  0.75000000000000000        1.0000000000000000        0.0000000000000000     
  0.75000000000000000       0.87500000000000000        0.0000000000000000     
  0.78125000000000000       0.87500000000000000        0.0000000000000000     
  0.81250000000000000       0.87500000000000000        0.0000000000000000     
  0.84375000000000000       0.87500000000000000        0.0000000000000000     
  0.87500000000000000       0.87500000000000000        0.0000000000000000     
  0.75000000000000000       0.90625000000000000        0.0000000000000000     
  0.78125000000000000       0.90625000000000000        0.0000000000000000     
  0.81250000000000000       0.90625000000000000        0.0000000000000000     
  0.84375000000000000       0.90625000000000000        0.0000000000000000     
  0.87500000000000000       0.90625000000000000        0.0000000000000000     
  0.75000000000000000       0.93750000000000000        0.0000000000000000     
  0.78125000000000000       0.93750000000000000        0.0000000000000000     
  0.81250000000000000       0.93750000000000000        0.0000000000000000     
  0.84375000000000000       0.93750000000000000        0.0000000000000000     
  0.87500000000000000       0.93750000000000000        0.0000000000000000     
  0.75000000000000000       0.96875000000000000        0.0000000000000000     
  0.78125000000000000       0.96875000000000000        0.0000000000000000     
  0.81250000000000000       0.96875000000000000        0.0000000000000000     
  0.84375000000000000       0.96875000000000000        0.0000000000000000     
  0.87500000000000000       0.96875000000000000        0.0000000000000000     
  0.75000000000000000        1.0000000000000000        0.0000000000000000     
  0.78125000000000000        1.0000000000000000        0.0000000000000000     
  0.81250000000000000        1.0000000000000000        0.0000000000000000     
  0.84375000000000000        1.0000000000000000        0.0000000000000000     
  0.87500000000000000        1.0000000000000000        0.0000000000000000     
  0.87500000000000000       0.87500000000000000        0.0000000000000000     
  0.90625000000000000       0.87500000000000000        0.0000000000000000     
  0.93750000000000000       0.87500000000000000        0.0000000000000000     
  0.96875000000000000       0.87500000000000000        0.0000000000000000     
   1.0000000000000000       0.87500000000000000        0.0000000000000000     
  0.87500000000000000       0.90625000000000000        0.0000000000000000     
  0.90625000000000000       0.90625000000000000        0.0000000000000000     
  0.93750000000000000       0.90625000000000000        0.0000000000000000     
  0.96875000000000000       0.90625000000000000        0.0000000000000000     
   1.0000000000000000       0.90625000000000000        0.0000000000000000     
  0.87500000000000000       0.93750000000000000        0.0000000000000000     
  0.90625000000000000       0.93750000000000000        0.0000000000000000     
  0.93750000000000000       0.93750000000000000        0.0000000000000000     
  0.96875000000000000       0.93750000000000000        0.0000000000000000     
   1.0000000000000000       0.93750000000000000        0.0000000000000000     
  0.87500000000000000       0.96875000000000000        0.0000000000000000     
  0.90625000000000000       0.96875000000000000        0.0000000000000000     
  0.93750000000000000       0.96875000000000000        0.0000000000000000     
  0.96875000000000000       0.96875000000000000        0.0000000000000000     
   1.0000000000000000       0.96875000000000000        0.0000000000000000     
  0.87500000000000000        1.0000000000000000        0.0000000000000000     
  0.90625000000000000        1.0000000000000000        0.0000000000000000     
  0.93750000000000000        1.0000000000000000        0.0000000000000000     
  0.96875000000000000        1.0000000000000000        0.0000000000000000     
   1.0000000000000000        1.0000000000000000        0.0000000000000000     
 </DataArray>
 </Points>
 <Cells>
 <DataArray  type="Int32"  Name="connectivity"  format="ascii">
           0           1           6           5
           1           2           7           6
           2           3           8           7
           3           4           9           8
           5           6          11          10
           6           7          12          11
           7           8          13          12
           8           9          14          13
          10          11          16          15
          11          12          17          16
          12          13          18          17
          13          14          19          18
          15          16          21          20
          16          17          22          21
          17          18          23          22
          18          19          24          23
          25          26          31          30
          26          27          32          31
          27          28          33          32
          28          29          34          33
          30          31          36          35
          31          32          37          36
          32          33          38          37
          33          34          39          38
          35          36          41          40
          36          37          42          41
          37          38          43          42
          38          39          44          43
          40          41          46          45
          41          42          47          46
          42          43          48          47
          43          44          49          48
          50          51          56          55
          51          52          57          56
          52          53          58          57
          53          54          59          58
          55          56          61          60
          56          57          62          61
          57          58          63          62
          58          59          64          63
          60          61          66          65
          61          62          67          66
          62          63          68          67
          63          64          69          68
          65          66          71          70
          66          67          72          71
          67          68          73          72
          68          69          74          73
          75          76          81          80
          76          77          82          81
          77          78          83          82
          78          79          84          83
          80          81          86          85
          81          82          87          86
          82          83          88          87
          83          84          89          88
          85          86          91          90
          86          87          92          91
          87          88          93          92
          88          89          94          93
          90          91          96          95
          91          92          97          96
          92          93          98          97
          93          94          99          98
         100         101         106         105
         101         102         107         106
         102         103         108         107
         103         104         109         108
         105         106         111         110
         106         107         112         111
         107         108         113         112
         108         109         114         113
         110         111         116         115
         111         112         117         116
         112         113         118         117
         113         114         119         118
         115         116         121         120
         116         117         122         121
         117         118         123         122
         118         119         124         123
         125         126         131         130
         126         127         132         131
         127         128         133         132
         128         129         134         133
         130         131         136         135
         131         132         137         136
         132         133         138         137
         133         134         139         138
         135         136         141         140
         136         137         142         141
         137         138         143         142
         138         139         144         143
         140         141         146         145
         141         142         147         146
         142         143         148         147
         143         144         149         148
         150         151         156         155
         151         152         157         156
         152         153         158         157
         153         154         159         158
         155         156         161         160
         156         157         162         161
         157         158         163         162
         158         159         164         163
         160         161         166         165
         161         162         167         166
         162         163         168         167
         163         164         169         168
         165         166         171         170
         166         167         172         171
         167         168         173         172
         168         169         174         173
         175         176         181         180
         176         177         182         181
         177         178         183         182
         178         179         184         183
         180         181         186         185
         181         182         187         186
         182         183         188         187
         183         184         189         188
         185         186         191         190
         186         187         192         191
         187         188         193         192
         188         189         194         193
         190         191         196         195
         191         192         197         196
         192         193         198         197
         193         194         199         198
         200         201         206         205
         201         202         207         206
         202         203         208         207
         203         204         209         208
         205         206         211         210
         206         207         212         211
         207         208         213         212
         208         209         214         213
         210         211         216         215
         211         212         217         216
         212         213         218         217
         213         214         219         218
         215         216         221         220
         216         217         222         221
         217         218         223         222
         218         219         224         223
         225         226         231         230
         226         227         232         231
         227         228         233         232
         228         229         234         233
         230         231         236         235
         231         232         237         236
         232         233         238         237
         233         234         239         238
         235         236         241         240
         236         237         242         241
         237         238         243         242
         238         239         244         243
         240         241         246         245
         241         242         247         246
         242         243         248         247
         243         244         249         248
         250         251         256         255
         251         252         257         256
         252         253         258         257
         253         254         259         258
         255         256         261         260
         256         257         262         261
         257         258         263         262
         258         259         264         263
         260         261         266         265
         261         262         267         266
         262         263         268         267
         263         264         269         268
         265         266         271         270
         266         267         272         271
         267         268         273         272
         268         269         274         273
         275         276         281         280
         276         277         282         281
         277         278         283         282
         278         279         284         283
         280         281         286         285
         281         282         287         286
         282         283         288         287
         283         284         289         288
         285         286         291         290
         286         287         292         291
         287         288         293         292
         288         289         294         293
         290         291         296         295
         291         292         297         296
         292         293         298         297
         293         294         299         298
         300         301         306         305
         301         302         307         306
         302         303         308         307
         303         304         309         308
         305         306         311         310
         306         307         312         311
         307         308         313         312
         308         309         314         313
         310         311         316         315
         311         312         317         316
         312         313         318         317
         313         314         319         318
         315         316         321         320
         316         317         322         321
         317         318         323         322
         318         319         324         323
         325         326         331         330
         326         327         332         331
         327         328         333         332
         328         329         334         333
         330         331         336         335
         331         332         337         336
         332         333         338         337
         333         334         339         338
         335         336         341         340
         336         337         342         341
         337         338         343         342
         338         339         344         343
         340         341         346         345
         341         342         347         346
         342         343         348         347
         343         344         349         348
         350         351         356         355
         351         352         357         356
         352         353         358         357
         353         354         359         358
         355         356         361         360
         356         357         362         361
         357         358         363         362
         358         359         364         363
         360         361         366         365
         361         362         367         366
         362         363         368         367
         363         364         369         368
         365         366         371         370
         366         367         372         371
         367         368         373         372
         368         369         374         373
         375         376         381         380
         376         377         382         381
         377         378         383         382
         378         379         384         383
         380         381         386         385
         381         382         387         386
         382         383         388         387
         383         384         389         388
         385         386         391         390
         386         387         392         391
         387         388         393         392
         388         389         394         393
         390         391         396         395
         391         392         397         396
         392         393         398         397
         393         394         399         398
         400         401         406         405
         401         402         407         406
         402         403         408         407
         403         404         409         408
         405         406         411         410
         406         407         412         411
         407         408         413         412
         408         409         414         413
         410         411         416         415
         411         412         417         416
         412         413         418         417
         413         414         419         418
         415         416         421         420
         416         417         422         421
         417         418         423         422
         418         419         424         423
         425         426         431         430
         426         427         432         431
         427         428         433         432
         428         429         434         433
         430         431         436         435
         431         432         437         436
         432         433         438         437
         433         434         439         438
         435         436         441         440
         436         437         442         441
         437         438         443         442
         438         439         444         443
         440         441         446         445
         441         442         447         446
         442         443         448         447
         443         444         449         448
         450         451         456         455
         451         452         457         456
         452         453         458         457
         453         454         459         458
         455         456         461         460
         456         457         462         461
         457         458         463         462
         458         459         464         463
         460         461         466         465
         461         462         467         466
         462         463         468         467
         463         464         469         468
         465         466         471         470
         466         467         472         471
         467         468         473         472
         468         469         474         473
         475         476         481         480
         476         477         482         481
         477         478         483         482
         478         479         484         483
         480         481         486         485
         481         482         487         486
         482         483         488         487
         483         484         489         488
         485         486         491         490
         486         487         492         491
         487         488         493         492
         488         489         494         493
         490         491         496         495
         491         492         497         496
         492         493         498         497
         493         494         499         498
         500         501         506         505
         501         502         507         506
         502         503         508         507
         503         504         509         508
         505         506         511         510
         506         507         512         511
         507         508         513         512
         508         509         514         513
         510         511         516         515
         511         512         517         516
         512         513         518         517
         513         514         519         518
         515         516         521         520
         516         517         522         521
         517         518         523         522
         518         519         524         523
         525         526         531         530
         526         527         532         531
         527         528         533         532
         528         529         534         533
         530         531         536         535
         531         532         537         536
         532         533         538         537
         533         534         539         538
         535         536         541         540
         536         537         542         541
         537         538         543         542
         538         539         544         543
         540         541         546         545
         541         542         547         546
         542         543         548         547
         543         544         549         548
         550         551         556         555
         551         552         557         556
         552         553         558         557
         553         554         559         558
         555         556         561         560
         556         557         562         561
         557         558         563         562
         558         559         564         563
         560         561         566         565
         561         562         567         566
         562         563         568         567
         563         564         569         568
         565         566         571         570
         566         567         572         571
         567         568         573         572
         568         569         574         573
         575         576         581         580
         576         577         582         581
         577         578         583         582
         578         579         584         583
         580         581         586         585
         581         582         587         586
         582         583         588         587
         583         584         589         588
         585         586         591         590
         586         587         592         591
         587         588         593         592
         588         589         594         593
         590         591         596         595
         591         592         597         596
         592         593         598         597
         593         594         599         598
         600         601         606         605
         601         602         607         606
         602         603         608         607
         603         604         609         608
         605         606         611         610
         606         607         612         611
         607         608         613         612
         608         609         614         613
         610         611         616         615
         611         612         617         616
         612         613         618         617
         613         614         619         618
         615         616         621         620
         616         617         622         621
         617         618         623         622
         618         619         624         623
         625         626         631         630
         626         627         632         631
         627         628         633         632
         628         629         634         633
         630         631         636         635
         631         632         637         636
         632         633         638         637
         633         634         639         638
         635         636         641         640
         636         637         642         641
         637         638         643         642
         638         639         644         643
         640         641         646         645
         641         642         647         646
         642         643         648         647
         643         644         649         648
         650         651         656         655
         651         652         657         656
         652         653         658         657
         653         654         659         658
         655         656         661         660
         656         657         662         661
         657         658         663         662
         658         659         664         663
         660         661         666         665
         661         662         667         666
         662         663         668         667
         663         664         669         668
         665         666         671         670
         666         667         672         671
         667         668         673         672
         668         669         674         673
         675         676         681         680
         676         677         682         681
         677         678         683         682
         678         679         684         683
         680         681         686         685
         681         682         687         686
         682         683         688         687
         683         684         689         688
         685         686         691         690
         686         687         692         691
         687         688         693         692
         688         689         694         693
         690         691         696         695
         691         692         697         696
         692         693         698         697
         693         694         699         698
         700         701         706         705
         701         702         707         706
         702         703         708         707
         703         704         709         708
         705         706         711         710
         706         707         712         711
         707         708         713         712
         708         709         714         713
         710         711         716         715
         711         712         717         716
         712         713         718         717
         713         714         719         718
         715         716         721         720
         716         717         722         721
         717         718         723         722
         718         719         724         723
         725         726         731         730
         726         727         732         731
         727         728         733         732
         728         729         734         733
         730         731         736         735
         731         732         737         736
         732         733         738         737
         733         734         739         738
         735         736         741         740
         736         737         742         741
         737         738         743         742
         738         739         744         743
         740         741         746         745
         741         742         747         746
         742         743         748         747
         743         744         749         748
         750         751         756         755
         751         752         757         756
         752         753         758         757
         753         754         759         758
         755         756         761         760
         756         757         762         761
         757         758         763         762
         758         759         764         763
         760         761         766         765
         761         762         767         766
         762         763         768         767
         763         764         769         768
         765         766         771         770
         766         767         772         771
         767         768         773         772
         768         769         774         773
         775         776         781         780
         776         777         782         781
         777         778         783         782
         778         779         784         783
         780         781         786         785
         781         782         787         786
         782         783         788         787
         783         784         789         788
         785         786         791         790
         786         787         792         791
         787         788         793         792
         788         789         794         793
         790         791         796         795
         791         792         797         796
         792         793         798         797
         793         794         799         798
         800         801         806         805
         801         802         807         806
         802         803         808         807
         803         804         809         808
         805         806         811         810
         806         807         812         811
         807         808         813         812
         808         809         814         813
         810         811         816         815
         811         812         817         816
         812         813         818         817
         813         814         819         818
         815         816         821         820
         816         817         822         821
         817         818         823         822
         818         819         824         823
         825         826         831         830
         826         827         832         831
         827         828         833         832
         828         829         834         833
         830         831         836         835
         831         832         837         836
         832         833         838         837
         833         834         839         838
         835         836         841         840
         836         837         842         841
         837         838         843         842
         838         839         844         843
         840         841         846         845
         841         842         847         846
         842         843         848         847
         843         844         849         848
         850         851         856         855
         851         852         857         856
         852         853         858         857
         853         854         859         858
         855         856         861         860
         856         857         862         861
         857         858         863         862
         858         859         864         863
         860         861         866         865
         861         862         867         866
         862         863         868         867
         863         864         869         868
         865         866         871         870
         866         867         872         871
         867         868         873         872
         868         869         874         873
         875         876         881         880
         876         877         882         881
         877         878         883         882
         878         879         884         883
         880         881         886         885
         881         882         887         886
         882         883         888         887
         883         884         889         888
         885         886         891         890
         886         887         892         891
         887         888         893         892
         888         889         894         893
         890         891         896         895
         891         892         897         896
         892         893         898         897
         893         894         899         898
         900         901         906         905
         901         902         907         906
         902         903         908         907
         903         904         909         908
         905         906         911         910
         906         907         912         911
         907         908         913         912
         908         909         914         913
         910         911         916         915
         911         912         917         916
         912         913         918         917
         913         914         919         918
         915         916         921         920
         916         917         922         921
         917         918         923         922
         918         919         924         923
         925         926         931         930
         926         927         932         931
         927         928         933         932
         928         929         934         933
         930         931         936         935
         931         932         937         936
         932         933         938         937
         933         934         939         938
         935         936         941         940
         936         937         942         941
         937         938         943         942
         938         939         944         943
         940         941         946         945
         941         942         947         946
         942         943         948         947
         943         944         949         948
         950         951         956         955
         951         952         957         956
         952         953         958         957
         953         954         959         958
         955         956         961         960
         956         957         962         961
         957         958         963         962
         958         959         964         963
         960         961         966         965
         961         962         967         966
         962         963         968         967
         963         964         969         968
         965         966         971         970
         966         967         972         971
         967         968         973         972
         968         969         974         973
         975         976         981         980
         976         977         982         981
         977         978         983         982
         978         979         984         983
         980         981         986         985
         981         982         987         986
         982         983         988         987
         983         984         989         988
         985         986         991         990
         986         987         992         991
         987         988         993         992
         988         989         994         993
         990         991         996         995
         991         992         997         996
         992         993         998         997
         993         994         999         998
        1000        1001        1006        1005
        1001        1002        1007        1006
        1002        1003        1008        1007
        1003        1004        1009        1008
        1005        1006        1011        1010
        1006        1007        1012        1011
        1007        1008        1013        1012
        1008        1009        1014        1013
        1010        1011        1016        1015
        1011        1012        1017        1016
        1012        1013        1018        1017
        1013        1014        1019        1018
        1015        1016        1021        1020
        1016        1017        1022        1021
        1017        1018        1023        1022
        1018        1019        1024        1023
        1025        1026        1031        1030
        1026        1027        1032        1031
        1027        1028        1033        1032
        1028        1029        1034        1033
        1030        1031        1036        1035
        1031        1032        1037        1036
        1032        1033        1038        1037
        1033        1034        1039        1038
        1035        1036        1041        1040
        1036        1037        1042        1041
        1037        1038        1043        1042
        1038        1039        1044        1043
        1040        1041        1046        1045
        1041        1042        1047        1046
        1042        1043        1048        1047
        1043        1044        1049        1048
        1050        1051        1056        1055
        1051        1052        1057        1056
        1052        1053        1058        1057
        1053        1054        1059        1058
        1055        1056        1061        1060
        1056        1057        1062        1061
        1057        1058        1063        1062
        1058        1059        1064        1063
        1060        1061        1066        1065
        1061        1062        1067        1066
        1062        1063        1068        1067
        1063        1064        1069        1068
        1065        1066        1071        1070
        1066        1067        1072        1071
        1067        1068        1073        1072
        1068        1069        1074        1073
        1075        1076        1081        1080
        1076        1077        1082        1081
        1077        1078        1083        1082
        1078        1079        1084        1083
        1080        1081        1086        1085
        1081        1082        1087        1086
        1082        1083        1088        1087
        1083        1084        1089        1088
        1085        1086        1091        1090
        1086        1087        1092        1091
        1087        1088        1093        1092
        1088        1089        1094        1093
        1090        1091        1096        1095
        1091        1092        1097        1096
        1092        1093        1098        1097
        1093        1094        1099        1098
        1100        1101        1106        1105
        1101        1102        1107        1106
        1102        1103        1108        1107
        1103        1104        1109        1108
        1105        1106        1111        1110
        1106        1107        1112        1111
        1107        1108        1113        1112
        1108        1109        1114        1113
        1110        1111        1116        1115
        1111        1112        1117        1116
        1112        1113        1118        1117
        1113        1114        1119        1118
        1115        1116        1121        1120
        1116        1117        1122        1121
        1117        1118        1123        1122
        1118        1119        1124        1123
        1125        1126        1131        1130
        1126        1127        1132        1131
        1127        1128        1133        1132
        1128        1129        1134        1133
        1130        1131        1136        1135
        1131        1132        1137        1136
        1132        1133        1138        1137
        1133        1134        1139        1138
        1135        1136        1141        1140
        1136        1137        1142        1141
        1137        1138        1143        1142
        1138        1139        1144        1143
        1140        1141        1146        1145
        1141        1142        1147        1146
        1142        1143        1148        1147
        1143        1144        1149        1148
        1150        1151        1156        1155
        1151        1152        1157        1156
        1152        1153        1158        1157
        1153        1154        1159        1158
        1155        1156        1161        1160
        1156        1157        1162        1161
        1157        1158        1163        1162
        1158        1159        1164        1163
        1160        1161        1166        1165
        1161        1162        1167        1166
        1162        1163        1168        1167
        1163        1164        1169        1168
        1165        1166        1171        1170
        1166        1167        1172        1171
        1167        1168        1173        1172
        1168        1169        1174        1173
        1175        1176        1181        1180
        1176        1177        1182        1181
        1177        1178        1183        1182
        1178        1179        1184        1183
        1180        1181        1186        1185
        1181        1182        1187        1186
        1182        1183        1188        1187
        1183        1184        1189        1188
        1185        1186        1191        1190
        1186        1187        1192        1191
        1187        1188        1193        1192
        1188        1189        1194        1193
        1190        1191        1196        1195
        1191        1192        1197        1196
        1192        1193        1198        1197
        1193        1194        1199        1198
        1200        1201        1206        1205
        1201        1202        1207        1206
        1202        1203        1208        1207
        1203        1204        1209        1208
        1205        1206        1211        1210
        1206        1207        1212        1211
        1207        1208        1213        1212
        1208        1209        1214        1213
        1210        1211        1216        1215
        1211        1212        1217        1216
        1212        1213        1218        1217
        1213        1214        1219        1218
        1215        1216        1221        1220
        1216        1217        1222        1221
        1217        1218        1223        1222
        1218        1219        1224        1223
        1225        1226        1231        1230
        1226        1227        1232        1231
        1227        1228        1233        1232
        1228        1229        1234        1233
        1230        1231        1236        1235
        1231        1232        1237        1236
        1232        1233        1238        1237
        1233        1234        1239        1238
        1235        1236        1241        1240
        1236        1237        1242        1241
        1237        1238        1243        1242
        1238        1239        1244        1243
        1240        1241        1246        1245
        1241        1242        1247        1246
        1242        1243        1248        1247
        1243        1244        1249        1248
        1250        1251        1256        1255
        1251        1252        1257        1256
        1252        1253        1258        1257
        1253        1254        1259        1258
        1255        1256        1261        1260
        1256        1257        1262        1261
        1257        1258        1263        1262
        1258        1259        1264        1263
        1260        1261        1266        1265
        1261        1262        1267        1266
        1262        1263        1268        1267
        1263        1264        1269        1268
        1265        1266        1271        1270
        1266        1267        1272        1271
        1267        1268        1273        1272
        1268        1269        1274        1273
        1275        1276        1281        1280
        1276        1277        1282        1281
        1277        1278        1283        1282
        1278        1279        1284        1283
        1280        1281        1286        1285
        1281        1282        1287        1286
        1282        1283        1288        1287
        1283        1284        1289        1288
        1285        1286        1291        1290
        1286        1287        1292        1291
        1287        1288        1293        1292
        1288        1289        1294        1293
        1290        1291        1296        1295
        1291        1292        1297        1296
        1292        1293        1298        1297
        1293        1294        1299        1298
        1300        1301        1306        1305
        1301        1302        1307        1306
        1302        1303        1308        1307
        1303        1304        1309        1308
        1305        1306        1311        1310
        1306        1307        1312        1311
        1307        1308        1313        1312
        1308        1309        1314        1313
        1310        1311        1316        1315
        1311        1312        1317        1316
        1312        1313        1318        1317
        1313        1314        1319        1318
        1315        1316        1321        1320
        1316        1317        1322        1321
        1317        1318        1323        1322
        1318        1319        1324        1323
        1325        1326        1331        1330
        1326        1327        1332        1331
        1327        1328        1333        1332
        1328        1329        1334        1333
        1330        1331        1336        1335
        1331        1332        1337        1336
        1332        1333        1338        1337
        1333        1334        1339        1338
        1335        1336        1341        1340
        1336        1337        1342        1341
        1337        1338        1343        1342
        1338        1339        1344        1343
        1340        1341        1346        1345
        1341        1342        1347        1346
        1342        1343        1348        1347
        1343        1344        1349        1348
        1350        1351        1356        1355
        1351        1352        1357        1356
        1352        1353        1358        1357
        1353        1354        1359        1358
        1355        1356        1361        1360
        1356        1357        1362        1361
        1357        1358        1363        1362
        1358        1359        1364        1363
        1360        1361        1366        1365
        1361        1362        1367        1366
        1362        1363        1368        1367
        1363        1364        1369        1368
        1365        1366        1371        1370
        1366        1367        1372        1371
        1367        1368        1373        1372
        1368        1369        1374        1373
        1375        1376        1381        1380
        1376        1377        1382        1381
        1377        1378        1383        1382
        1378        1379        1384        1383
        1380        1381        1386        1385
        1381        1382        1387        1386
        1382        1383        1388        1387
        1383        1384        1389        1388
        1385        1386        1391        1390
        1386        1387        1392        1391
        1387        1388        1393        1392
        1388        1389        1394        1393
        1390        1391        1396        1395
        1391        1392        1397        1396
        1392        1393        1398        1397
        1393        1394        1399        1398
        1400        1401        1406        1405
        1401        1402        1407        1406
        1402        1403        1408        1407
        1403        1404        1409        1408
        1405        1406        1411        1410
        1406        1407        1412        1411
        1407        1408        1413        1412
        1408        1409        1414        1413
        1410        1411        1416        1415
        1411        1412        1417        1416
        1412        1413        1418        1417
        1413        1414        1419        1418
        1415        1416        1421        1420
        1416        1417        1422        1421
        1417        1418        1423        1422
        1418        1419        1424        1423
        1425        1426        1431        1430
        1426        1427        1432        1431
        1427        1428        1433        1432
        1428        1429        1434        1433
        1430        1431        1436        1435
        1431        1432        1437        1436
        1432        1433        1438        1437
        1433        1434        1439        1438
        1435        1436        1441        1440
        1436        1437        1442        1441
        1437        1438        1443        1442
        1438        1439        1444        1443
        1440        1441        1446        1445
        1441        1442        1447        1446
        1442        1443        1448        1447
        1443        1444        1449        1448
        1450        1451        1456        1455
        1451        1452        1457        1456
        1452        1453        1458        1457
        1453        1454        1459        1458
        1455        1456        1461        1460
        1456        1457        1462        1461
        1457        1458        1463        1462
        1458        1459        1464        1463
        1460        1461        1466        1465
        1461        1462        1467        1466
        1462        1463        1468        1467
        1463        1464        1469        1468
        1465        1466        1471        1470
        1466        1467        1472        1471
        1467        1468        1473        1472
        1468        1469        1474        1473
        1475        1476        1481        1480
        1476        1477        1482        1481
        1477        1478        1483        1482
        1478        1479        1484        1483
        1480        1481        1486        1485
        1481        1482        1487        1486
        1482        1483        1488        1487
        1483        1484        1489        1488
        1485        1486        1491        1490
        1486        1487        1492        1491
        1487        1488        1493        1492
        1488        1489        1494        1493
        1490        1491        1496        1495
        1491        1492        1497        1496
        1492        1493        1498        1497
        1493        1494        1499        1498
        1500        1501        1506        1505
        1501        1502        1507        1506
        1502        1503        1508        1507
        1503        1504        1509        1508
        1505        1506        1511        1510
        1506        1507        1512        1511
        1507        1508        1513        1512
        1508        1509        1514        1513
        1510        1511        1516        1515
        1511        1512        1517        1516
        1512        1513        1518        1517
        1513        1514        1519        1518
        1515        1516        1521        1520
        1516        1517        1522        1521
        1517        1518        1523        1522
        1518        1519        1524        1523
        1525        1526        1531        1530
        1526        1527        1532        1531
        1527        1528        1533        1532
        1528        1529        1534        1533
        1530        1531        1536        1535
        1531        1532        1537        1536
        1532        1533        1538        1537
        1533        1534        1539        1538
        1535        1536        1541        1540
        1536        1537        1542        1541
        1537        1538        1543        1542
        1538        1539        1544        1543
        1540        1541        1546        1545
        1541        1542        1547        1546
        1542        1543        1548        1547
        1543        1544        1549        1548
        1550        1551        1556        1555
        1551        1552        1557        1556
        1552        1553        1558        1557
        1553        1554        1559        1558
        1555        1556        1561        1560
        1556        1557        1562        1561
        1557        1558        1563        1562
        1558        1559        1564        1563
        1560        1561        1566        1565
        1561        1562        1567        1566
        1562        1563        1568        1567
        1563        1564        1569        1568
        1565        1566        1571        1570
        1566        1567        1572        1571
        1567        1568        1573        1572
        1568        1569        1574        1573
        1575        1576        1581        1580
        1576        1577        1582        1581
        1577        1578        1583        1582
        1578        1579        1584        1583
        1580        1581        1586        1585
        1581        1582        1587        1586
        1582        1583        1588        1587
        1583        1584        1589        1588
        1585        1586        1591        1590
        1586        1587        1592        1591
        1587        1588        1593        1592
        1588        1589        1594        1593
        1590        1591        1596        1595
        1591        1592        1597        1596
        1592        1593        1598        1597
        1593        1594        1599        1598
 </DataArray>
 <DataArray  type="Int32"  Name="offsets"  format="ascii"> 
           4
           8
          12
          16
          20
          24
          28
          32
          36
          40
          44
          48
          52
          56
          60
          64
          68
          72
          76
          80
          84
          88
          92
          96
         100
         104
         108
         112
         116
         120
         124
         128
         132
         136
         140
         144
         148
         152
         156
         160
         164
         168
         172
         176
         180
         184
         188
         192
         196
         200
         204
         208
         212
         216
         220
         224
         228
         232
         236
         240
         244
         248
         252
         256
         260
         264
         268
         272
         276
         280
         284
         288
         292
         296
         300
         304
         308
         312
         316
         320
         324
         328
         332
         336
         340
         344
         348
         352
         356
         360
         364
         368
         372
         376
         380
         384
         388
         392
         396
         400
         404
         408
         412
         416
         420
         424
         428
         432
         436
         440
         444
         448
         452
         456
         460
         464
         468
         472
         476
         480
         484
         488
         492
         496
         500
         504
         508
         512
         516
         520
         524
         528
         532
         536
         540
         544
         548
         552
         556
         560
         564
         568
         572
         576
         580
         584
         588
         592
         596
         600
         604
         608
         612
         616
         620
         624
         628
         632
         636
         640
         644
         648
         652
         656
         660
         664
         668
         672
         676
         680
         684
         688
         692
         696
         700
         704
         708
         712
         716
         720
         724
         728
         732
         736
         740
         744
         748
         752
         756
         760
         764
         768
         772
         776
         780
         784
         788
         792
         796
         800
         804
         808
         812
         816
         820
         824
         828
         832
         836
         840
         844
         848
         852
         856
         860
         864
         868
         872
         876
         880
         884
         888
         892
         896
         900
         904
         908
         912
         916
         920
         924
         928
         932
         936
         940
         944
         948
         952
         956
         960
         964
         968
         972
         976
         980
         984
         988
         992
         996
        1000
        1004
        1008
        1012
        1016
        1020
        1024
        1028
        1032
        1036
        1040
        1044
        1048
        1052
        1056
        1060
        1064
        1068
        1072
        1076
        1080
        1084
        1088
        1092
        1096
        1100
        1104
        1108
        1112
        1116
        1120
        1124
        1128
        1132
        1136
        1140
        1144
        1148
        1152
        1156
        1160
        1164
        1168
        1172
        1176
        1180
        1184
        1188
        1192
        1196
        1200
        1204
        1208
        1212
        1216
        1220
        1224
        1228
        1232
        1236
        1240
        1244
        1248
        1252
        1256
        1260
        1264
        1268
        1272
        1276
        1280
        1284
        1288
        1292
        1296
        1300
        1304
        1308
        1312
        1316
        1320
        1324
        1328
        1332
        1336
        1340
        1344
        1348
        1352
        1356
        1360
        1364
        1368
        1372
        1376
        1380
        1384
        1388
        1392
        1396
        1400
        1404
        1408
        1412
        1416
        1420
        1424
        1428
        1432
        1436
        1440
        1444
        1448
        1452
        1456
        1460
        1464
        1468
        1472
        1476
        1480
        1484
        1488
        1492
        1496
        1500
        1504
        1508
        1512
        1516
        1520
        1524
        1528
        1532
        1536
        1540
        1544
        1548
        1552
        1556
        1560
        1564
        1568
        1572
        1576
        1580
        1584
        1588
        1592
        1596
        1600
        1604
        1608
        1612
        1616
        1620
        1624
        1628
        1632
        1636
        1640
        1644
        1648
        1652
        1656
        1660
        1664
        1668
        1672
        1676
        1680
        1684
        1688
        1692
        1696
        1700
        1704
        1708
        1712
        1716
        1720
        1724
        1728
        1732
        1736
        1740
        1744
        1748
        1752
        1756
        1760
        1764
        1768
        1772
        1776
        1780
        1784
        1788
        1792
        1796
        1800
        1804
        1808
        1812
        1816
        1820
        1824
        1828
        1832
        1836
        1840
        1844
        1848
        1852
        1856
        1860
        1864
        1868
        1872
        1876
        1880
        1884
        1888
        1892
        1896
        1900
        1904
        1908
        1912
        1916
        1920
        1924
        1928
        1932
        1936
        1940
        1944
        1948
        1952
        1956
        1960
        1964
        1968
        1972
        1976
        1980
        1984
        1988
        1992
        1996
        2000
        2004
        2008
        2012
        2016
        2020
        2024
        2028
        2032
        2036
        2040
        2044
        2048
        2052
        2056
        2060
        2064
        2068
        2072
        2076
        2080
        2084
        2088
        2092
        2096
        2100
        2104
        2108
        2112
        2116
        2120
        2124
        2128
        2132
        2136
        2140
        2144
        2148
        2152
        2156
        2160
        2164
        2168
        2172
        2176
        2180
        2184
        2188
        2192
        2196
        2200
        2204
        2208
        2212
        2216
        2220
        2224
        2228
        2232
        2236
        2240
        2244
        2248
        2252
        2256
        2260
        2264
        2268
        2272
        2276
        2280
        2284
        2288
        2292
        2296
        2300
        2304
        2308
        2312
        2316
        2320
        2324
        2328
        2332
        2336
        2340
        2344
        2348
        2352
        2356
        2360
        2364
        2368
        2372
        2376
        2380
        2384
        2388
        2392
        2396
        2400
        2404
        2408
        2412
        2416
        2420
        2424
        2428
        2432
        2436
        2440
        2444
        2448
        2452
        2456
        2460
        2464
        2468
        2472
        2476
        2480
        2484
        2488
        2492
        2496
        2500
        2504
        2508
        2512
        2516
        2520
        2524
        2528
        2532
        2536
        2540
        2544
        2548
        2552
        2556
        2560
        2564
        2568
        2572
        2576
        2580
        2584
        2588
        2592
        2596
        2600
        2604
        2608
        2612
        2616
        2620
        2624
        2628
        2632
        2636
        2640
        2644
        2648
        2652
        2656
        2660
        2664
        2668
        2672
        2676
        2680
        2684
        2688
        2692
        2696
        2700
        2704
        2708
        2712
        2716
        2720
        2724
        2728
        2732
        2736
        2740
        2744
        2748
        2752
        2756
        2760
        2764
        2768
        2772
        2776
        2780
        2784
        2788
        2792
        2796
        2800
        2804
        2808
        2812
        2816
        2820
        2824
        2828
        2832
        2836
        2840
        2844
        2848
        2852
        2856
        2860
        2864
        2868
        2872
        2876
        2880
        2884
        2888
        2892
        2896
        2900
        2904
        2908
        2912
        2916
        2920
        2924
        2928
        2932
        2936
        2940
        2944
        2948
        2952
        2956
        2960
        2964
        2968
        2972
        2976
        2980
        2984
        2988
        2992
        2996
        3000
        3004
        3008
        3012
        3016
        3020
        3024
        3028
        3032
        3036
        3040
        3044
        3048
        3052
        3056
        3060
        3064
        3068
        3072
        3076
        3080
        3084
        3088
        3092
        3096
        3100
        3104
        3108
        3112
        3116
        3120
        3124
        3128
        3132
        3136
        3140
        3144
        3148
        3152
        3156
        3160
        3164
        3168
        3172
        3176
        3180
        3184
        3188
        3192
        3196
        3200
        3204
        3208
        3212
        3216
        3220
        3224
        3228
        3232
        3236
        3240
        3244
        3248
        3252
        3256
        3260
        3264
        3268
        3272
        3276
        3280
        3284
        3288
        3292
        3296
        3300
        3304
        3308
        3312
        3316
        3320
        3324
        3328
        3332
        3336
        3340
        3344
        3348
        3352
        3356
        3360
        3364
        3368
        3372
        3376
        3380
        3384
        3388
        3392
        3396
        3400
        3404
        3408
        3412
        3416
        3420
        3424
        3428
        3432
        3436
        3440
        3444
        3448
        3452
        3456
        3460
        3464
        3468
        3472
        3476
        3480
        3484
        3488
        3492
        3496
        3500
        3504
        3508
        3512
        3516
        3520
        3524
        3528
        3532
        3536
        3540
        3544
        3548
        3552
        3556
        3560
        3564
        3568
        3572
        3576
        3580
        3584
        3588
        3592
        3596
        3600
        3604
        3608
        3612
        3616
        3620
        3624
        3628
        3632
        3636
        3640
        3644
        3648
        3652
        3656
        3660
        3664
        3668
        3672
        3676
        3680
        3684
        3688
        3692
        3696
        3700
        3704
        3708
        3712
        3716
        3720
        3724
        3728
        3732
        3736
        3740
        3744
        3748
        3752
        3756
        3760
        3764
        3768
        3772
        3776
        3780
        3784
        3788
        3792
        3796
        3800
        3804
        3808
        3812
        3816
        3820
        3824
        3828
        3832
        3836
        3840
        3844
        3848
        3852
        3856
        3860
        3864
        3868
        3872
        3876
        3880
        3884
        3888
        3892
        3896
        3900
        3904
        3908
        3912
        3916
        3920
        3924
        3928
        3932
        3936
        3940
        3944
        3948
        3952
        3956
        3960
        3964
        3968
        3972
        3976
        3980
        3984
        3988
        3992
        3996
        4000
        4004
        4008
        4012
        4016
        4020
        4024
        4028
        4032
        4036
        4040
        4044
        4048
        4052
        4056
        4060
        4064
        4068
        4072
        4076
        4080
        4084
        4088
        4092
        4096
 </DataArray>
 <DataArray  type="UInt8"  Name="types"  format="ascii">
 9
 9
 9
 9
 9
 9
 9
 9
 9
 9
 9
 9
 9
 9
 9
 9
 9
 9
 9
 9
 9
 9
 9
 9
 9
 9
 9
 9
 9
 9
 9
 9
 9
 9
 9
 9
 9
 9
 9
 9
 9
 9
 9
 9
 9
 9
 9
 9
 9
 9
 9
 9
 9
 9
 9
 9
 9
 9
 9
 9
 9
 9
 9
 9
 9
 9
 9
 9
 9
 9
 9
 9
 9
 9
 9
 9
 9
 9
 9
 9
 9
 9
 9
 9
 9
 9
 9
 9
 9
 9
 9
 9
 9
 9
 9
 9
 9
 9
 9
 9
 9
 9
 9
 9
 9
 9
 9
 9
 9
 9
 9
 9
 9
 9
 9
 9
 9
 9
 9
 9
 9
 9
 9
 9
 9
 9
 9
 9
 9
 9
 9
 9
 9
 9
 9
 9
 9
 9
 9
 9
 9
 9
 9
 9
 9
 9
 9
 9
 9
 9
 9
 9
 9
 9
 9
 9
 9
 9
 9
 9
 9
 9
 9
 9
 9
 9
 9
 9
 9
 9
 9
 9
 9
 9
 9
 9
 9
 9
 9
 9
 9
 9
 9
 9
 9
 9
 9
 9
 9
 9
 9
 9
 9
 9
 9
 9
 9
 9
 9
 9
 9
 9
 9
 9
 9
 9
 9
 9
 9
 9
 9
 9
 9
 9
 9
 9
 9
 9
 9
 9
 9
 9
 9
 9
 9
 9
 9
 9
 9
 9
 9
 9
 9
 9
 9
 9
 9
 9
 9
 9
 9
 9
 9
 9
 9
 9
 9
 9
 9
 9
 9
 9
 9
 9
 9
 9
 9
 9
 9
 9
 9
 9
 9
 9
 9
 9
 9
 9
 9
 9
 9
 9
 9
 9
 9
 9
 9
 9
 9
 9
 9
 9
 9
 9
 9
 9
 9
 9
 9
 9
 9
 9
 9
 9
 9
 9
 9
 9
 9
 9
 9
 9
 9
 9
 9
 9
 9
 9
 9
 9
 9
 9
 9
 9
 9
 9
 9
 9
 9
 9
 9
 9
 9
 9
 9
 9
 9
 9
 9
 9
 9
 9
 9
 9
 9
 9
 9
 9
 9
 9
 9
 9
 9
 9
 9
 9
 9
 9
 9
 9
 9
 9
 9
 9
 9
 9
 9
 9
 9
 9
 9
 9
 9
 9
 9
 9
 9
 9
 9
 9
 9
 9
 9
 9
 9
 9
 9
 9
 9
 9
 9
 9
 9
 9
 9
 9
 9
 9
 9
 9
 9
 9
 9
 9
 9
 9
 9
 9
 9
 9
 9
 9
 9
 9
 9
 9
 9
 9
 9
 9
 9
 9
 9
 9
 9
 9
 9
 9
 9
 9
 9
 9
 9
 9
 9
 9
 9
 9
 9
 9
 9
 9
 9
 9
 9
 9
 9
 9
 9
 9
 9
 9
 9
 9
 9
 9
 9
 9
 9
 9
 9
 9
 9
 9
 9
 9
 9
 9
 9
 9
 9
 9
 9
 9
 9
 9
 9
 9
 9
 9
 9
 9
 9
 9
 9
 9
 9
 9
 9
 9
 9
 9
 9
 9
 9
 9
 9
 9
 9
 9
 9
 9
 9
 9
 9
 9
 9
 9
 9
 9
 9
 9
 9
 9
 9
 9
 9
 9
 9
 9
 9
 9
 9
 9
 9
 9
 9
 9
 9
 9
 9
 9
 9
 9
 9
 9
 9
 9
 9
 9
 9
 9
 9
 9
 9
 9
 9
 9
 9
 9
 9
 9
 9
 9
 9
 9
 9
 9
 9
 9
 9
 9
 9
 9
 9
 9
 9
 9
 9
 9
 9
 9
 9
 9
 9
 9
 9
 9
 9
 9
 9
 9
 9
 9
 9
 9
 9
 9
 9
 9
 9
 9
 9
 9
 9
 9
 9
 9
 9
 9
 9
 9
 9
 9
 9
 9
 9
 9
 9
 9
 9
 9
 9
 9
 9
 9
 9
 9
 9
 9
 9
 9
 9
 9
 9
 9
 9
 9
 9
 9
 9
 9
 9
 9
 9
 9
 9
 9
 9
 9
 9
 9
 9
 9
 9
 9
 9
 9
 9
 9
 9
 9
 9
 9
 9
 9
 9
 9
 9
 9
 9
 9
 9
 9
 9
 9
 9
 9
 9
 9
 9
 9
 9
 9
 9
 9
 9
 9
 9
 9
 9
 9
 9
 9
 9
 9
 9
 9
 9
 9
 9
 9
 9
 9
 9
 9
 9
 9
 9
 9
 9
 9
 9
 9
 9
 9
 9
 9
 9
 9
 9
 9
 9
 9
 9
 9
 9
 9
 9
 9
 9
 9
 9
 9
 9
 9
 9
 9
 9
 9
 9
 9
 9
 9
 9
 9
 9
 9
 9
 9
 9
 9
 9
 9
 9
 9
 9
 9
 9
 9
 9
 9
 9
 9
 9
 9
 9
 9
 9
 9
 9
 9
 9
 9
 9
 9
 9
 9
 9
 9
 9
 9
 9
 9
 9
 9
 9
 9
 9
 9
 9
 9
 9
 9
 9
 9
 9
 9
 9
 9
 9
 9
 9
 9
 9
 9
 9
 9
 9
 9
 9
 9
 9
 9
 9
 9
 9
 9
 9
 9
 9
 9
 9
 9
 9
 9
 9
 9
 9
 9
 9
 9
 9
 9
 9
 9
 9
 9
 9
 9
 9
 9
 9
 9
 9
 9
 9
 9
 9
 9
 9
 9
 9
 9
 9
 9
 9
 9
 9
 9
 9
 9
 9
 9
 9
 9
 9
 9
 9
 9
 9
 9
 9
 9
 9
 9
 9
 9
 9
 9
 9
 9
 9
 9
 9
 9
 9
 9
 9
 9
 9
 9
 9
 9
 9
 9
 9
 9
 9
 9
 9
 9
 9
 9
 9
 9
 9
 9
 9
 9
 9
 9
 9
 9
 9
 9
 9
 9
 9
 9
 9
 9
 9
 9
 9
 9
 9
 9
 9
 9
 9
 9
 9
 9
 9
 9
 9
 9
 9
 9
 9
 9
 9
 9
 9
 9
 9
 9
 9
 9
 9
 9
 9
 9
 9
 9
 9
 9
 9
 9
 9
 9
 9
 9
 9
 9
 9
 9
 9
 9
 9
 9
 9
 9
 9
 9
 9
 9
 9
 9
 9
 9
 9
 9
 9
 9
 9
 9
 9
 9
 9
 9
 9
 9
 9
 9
 9
 9
 9
 9
 9
 9
 9
 9
 9
 9
 9
 9
 9
 9
 9
 9
 9
 9
 9
 9
 9
 9
 9
 9
 9
 9
 9
 9
 9
 9
 9
 9
 9
 9
 9
 9
 9
 9
 9
 9
 9
 9
 9
 9
 9
 9
 9
 9
 </DataArray>
 </Cells> 
 <PointData>
 <DataArray  type="Float64" Name="disp" NumberOfComponents="3" format="ascii">
   0.0000000000000000        0.0000000000000000        0.0000000000000000     
   6.0961408590495137E-003   3.7904522595912302E-003   0.0000000000000000     
   1.1666428367645702E-002   7.3235458607443828E-003   0.0000000000000000     
   1.6710862525788565E-002   1.0599280803459454E-002   0.0000000000000000     
   2.1229443333478100E-002   1.3617657087736452E-002   0.0000000000000000     
   0.0000000000000000        0.0000000000000000        0.0000000000000000     
   4.8914109981440627E-003   3.0218534101483737E-003   0.0000000000000000     
   9.5742226096976607E-003   6.0598313231303731E-003   0.0000000000000000     
   1.4048434834660794E-002   9.1139337389459976E-003   0.0000000000000000     
   1.8314047673033459E-002   1.2184160657595249E-002   0.0000000000000000     
   0.0000000000000000        0.0000000000000000        0.0000000000000000     
   3.9538435813923460E-003   2.4246249684831476E-003   0.0000000000000000     
   7.9112337173509496E-003   5.0619336350159177E-003   0.0000000000000000     
   1.1872170407875813E-002   7.9119259995983106E-003   0.0000000000000000     
   1.5836653652966937E-002   1.0974602062230327E-002   0.0000000000000000     
   0.0000000000000000        0.0000000000000000        0.0000000000000000     
   3.2834386087943635E-003   1.9987669345955519E-003   0.0000000000000000     
   6.6774616906055727E-003   4.3298527964010167E-003   0.0000000000000000     
   1.0182069245433630E-002   6.9932575854163952E-003   0.0000000000000000     
   1.3797261273278530E-002   9.9889813016416883E-003   0.0000000000000000     
   0.0000000000000000        0.0000000000000000        0.0000000000000000     
   2.8801960803501152E-003   1.7442793084855867E-003   0.0000000000000000     
   5.8729065294615274E-003   3.8635888072856709E-003   0.0000000000000000     
   8.9781313473342363E-003   6.3579284964002522E-003   0.0000000000000000     
   1.2195870533968242E-002   9.2272983758293313E-003   0.0000000000000000     
   2.1229443333478100E-002   1.3617657087736452E-002   0.0000000000000000     
   2.5435205588608487E-002   1.6609751500259284E-002   0.0000000000000000     
   2.9541184089073899E-002   1.9806640827711861E-002   0.0000000000000000     
   3.3547378834874332E-002   2.3208325070094189E-002   0.0000000000000000     
   3.7453789826009790E-002   2.6814804227406265E-002   0.0000000000000000     
   1.8314047673033459E-002   1.2184160657595249E-002   0.0000000000000000     
   2.2409340348309572E-002   1.5339022354212164E-002   0.0000000000000000     
   2.6372592083983036E-002   1.8647029103930787E-002   0.0000000000000000     
   3.0203802880053861E-002   2.2108180906751110E-002   0.0000000000000000     
   3.3902972736522034E-002   2.5722477762673140E-002   0.0000000000000000     
   1.5836653652966937E-002   1.0974602062230327E-002   0.0000000000000000     
   1.9732906256881889E-002   1.4208746834390714E-002   0.0000000000000000     
   2.3489151023878239E-002   1.7573145327558218E-002   0.0000000000000000     
   2.7105387953955992E-002   2.1067797541732849E-002   0.0000000000000000     
   3.0581617047115137E-002   2.4692703476914591E-002   0.0000000000000000     
   1.3797261273278530E-002   9.9889813016416883E-003   0.0000000000000000     
   1.7405903314325438E-002   1.3218924940794933E-002   0.0000000000000000     
   2.0890860908759499E-002   1.6584989498594174E-002   0.0000000000000000     
   2.4252134056580724E-002   2.0087174975039410E-002   0.0000000000000000     
   2.7489722757789110E-002   2.3725481370130638E-002   0.0000000000000000     
   1.2195870533968242E-002   9.2272983758293313E-003   0.0000000000000000     
   1.5428331520640213E-002   1.2369556673424821E-002   0.0000000000000000     
   1.8577721738626825E-002   1.5682561617038644E-002   0.0000000000000000     
   2.1644041187928061E-002   1.9166313206670789E-002   0.0000000000000000     
   2.4627289868543938E-002   2.2820811442321266E-002   0.0000000000000000     
   3.7453789826009790E-002   2.6814804227406265E-002   0.0000000000000000     
   4.1264856948901057E-002   3.0620844139780341E-002   0.0000000000000000     
   4.4985020089968950E-002   3.4621210647348667E-002   0.0000000000000000     
   4.8614279249213438E-002   3.8815903750111222E-002   0.0000000000000000     
   5.2152634426634530E-002   4.3204923448068040E-002   0.0000000000000000     
   3.3902972736522034E-002   2.5722477762673140E-002   0.0000000000000000     
   3.7493471923131183E-002   2.9518827103383324E-002   0.0000000000000000     
   4.0998670709624964E-002   3.3526136360568122E-002   0.0000000000000000     
   4.4418569096003328E-002   3.7744405534227539E-002   0.0000000000000000     
   4.7753167082266318E-002   4.2173634624361564E-002   0.0000000000000000     
   3.0581617047115137E-002   2.4692703476914591E-002   0.0000000000000000     
   3.3947509551812118E-002   2.8492867983543287E-002   0.0000000000000000     
   3.7232736716503345E-002   3.2513295912058732E-002   0.0000000000000000     
   4.0437298541188840E-002   3.6753987262460958E-002   0.0000000000000000     
   4.3561195025868568E-002   4.1214942034749950E-002   0.0000000000000000     
   2.7489722757789110E-002   2.3725481370130638E-002   0.0000000000000000     
   3.0626969834943844E-002   2.7542966780260213E-002   0.0000000000000000     
   3.3687218110604135E-002   3.1582689301820510E-002   0.0000000000000000     
   3.6670467584769946E-002   3.5844648934811499E-002   0.0000000000000000     
   3.9576718257441315E-002   4.0328845679233200E-002   0.0000000000000000     
   2.4627289868543938E-002   2.2820811442321266E-002   0.0000000000000000     
   2.7531852772526372E-002   2.6669123493534126E-002   0.0000000000000000     
   3.0362114891927285E-002   3.0734316529853416E-002   0.0000000000000000     
   3.3118076226746673E-002   3.5016390551279149E-002   0.0000000000000000     
   3.5799736776984545E-002   3.9515345557811311E-002   0.0000000000000000     
   5.2152634426634530E-002   4.3204923448068040E-002   0.0000000000000000     
   5.5598363687115473E-002   4.7795325881657399E-002   0.0000000000000000     
   5.8949745095539505E-002   5.2594167191317612E-002   0.0000000000000000     
   6.2206778651906637E-002   5.7601447377048663E-002   0.0000000000000000     
   6.5369464356216850E-002   6.2817166438850561E-002   0.0000000000000000     
   4.7753167082266318E-002   4.2173634624361564E-002   0.0000000000000000     
   5.0997820924994545E-002   4.6808152790111919E-002   0.0000000000000000     
   5.4147886880768707E-002   5.1642289190620305E-002   0.0000000000000000     
   5.7203364949588761E-002   5.6676043825886757E-002   0.0000000000000000     
   6.0164255131454736E-002   6.1909416695911240E-002   0.0000000000000000     
   4.3561195025868568E-002   4.1214942034749950E-002   0.0000000000000000     
   4.6598942612682888E-002   4.5883589456210280E-002   0.0000000000000000     
   4.9545057743772103E-002   5.0747358754126573E-002   0.0000000000000000     
   5.2399540419136220E-002   5.5806249928498794E-002   0.0000000000000000     
   5.5162390638775233E-002   6.1060262979326971E-002   0.0000000000000000     
   3.9576718257441315E-002   4.0328845679233200E-002   0.0000000000000000     
   4.2401728750180480E-002   4.5021635879952525E-002   0.0000000000000000     
   4.5141257684549713E-002   4.9909375881836388E-002   0.0000000000000000     
   4.7795305060549007E-002   5.4992065684884787E-002   0.0000000000000000     
   5.0363870878178355E-002   6.0269705289097746E-002   0.0000000000000000     
   3.5799736776984545E-002   3.9515345557811311E-002   0.0000000000000000     
   3.8406179337487342E-002   4.4222292061338611E-002   0.0000000000000000     
   4.0936486703101543E-002   4.9128340573749756E-002   0.0000000000000000     
   4.3390658873827127E-002   5.4233491095044738E-002   0.0000000000000000     
   4.5768695849664115E-002   5.9537743625223571E-002   0.0000000000000000     
   6.5369464356216850E-002   6.2817166438850561E-002   0.0000000000000000     
   6.8439508799256935E-002   6.8223056990491665E-002   0.0000000000000000     
   7.1418618571813683E-002   7.3800851645740309E-002   0.0000000000000000     
   7.4306793673887067E-002   7.9550550404596507E-002   0.0000000000000000     
   7.7104034105477115E-002   8.5472153267060244E-002   0.0000000000000000     
   6.0164255131454736E-002   6.1909416695911240E-002   0.0000000000000000     
   6.3035699721974925E-002   6.7330902522991454E-002   0.0000000000000000     
   6.5822841016757616E-002   7.2928996029425069E-002   0.0000000000000000     
   6.8525679015802851E-002   7.8703697215212073E-002   0.0000000000000000     
   7.1144213719110602E-002   8.4655006080352507E-002   0.0000000000000000     
   5.5162390638775233E-002   6.1060262979326971E-002   0.0000000000000000     
   5.7840220499496428E-002   6.6501522033129049E-002   0.0000000000000000     
   6.0439642098107052E-002   7.2122151216423042E-002   0.0000000000000000     
   6.2960655434607146E-002   7.7922150529208881E-002   0.0000000000000000     
   6.5403260508996669E-002   8.3901519971486649E-002   0.0000000000000000     
   5.0363870878178355E-002   6.0269705289097746E-002   0.0000000000000000     
   5.2853071131821451E-002   6.5734915520904449E-002   0.0000000000000000     
   5.5269021815861984E-002   7.1380317206734184E-002   0.0000000000000000     
   5.7611722930299931E-002   7.7205910346586915E-002   0.0000000000000000     
   5.9881174475135322E-002   8.3211694940462627E-002   0.0000000000000000     
   4.5768695849664115E-002   5.9537743625223571E-002   0.0000000000000000     
   4.8074251618950022E-002   6.5031082986317684E-002   0.0000000000000000     
   5.0310980170022397E-002   7.0703494000358566E-002   0.0000000000000000     
   5.2478881502881256E-002   7.6554976667346161E-002   0.0000000000000000     
   5.4577955617526576E-002   8.2585530987280498E-002   0.0000000000000000     
   7.7104034105477115E-002   8.5472153267060244E-002   0.0000000000000000     
   7.9801984215594590E-002   9.1562373879902278E-002   0.0000000000000000     
   8.2392288353250256E-002   9.7817925889893367E-002   0.0000000000000000     
   8.4874946518444128E-002  0.10423880929703352        0.0000000000000000     
   8.7249958711176176E-002  0.11082502410132272        0.0000000000000000     
   7.1144213719110602E-002   8.4655006080352507E-002   0.0000000000000000     
   7.3669924712518361E-002   9.0775468518008690E-002   0.0000000000000000     
   7.6094291581863621E-002   9.7057630421342980E-002   0.0000000000000000     
   7.8417314327146423E-002  0.10350149179035535        0.0000000000000000     
   8.0638992948366697E-002  0.11010705262504586        0.0000000000000000     
   6.5403260508996669E-002   8.3901519971486649E-002   0.0000000000000000     
   6.7759139198388232E-002   9.0050233243302011E-002   0.0000000000000000     
   7.0019973379894435E-002   9.6358264044700742E-002   0.0000000000000000     
   7.2185763053515276E-002  0.10282561237568281        0.0000000000000000     
   7.4256508219250728E-002  0.10945227823624824        0.0000000000000000     
   5.9881174475135322E-002   8.3211694940462627E-002   0.0000000000000000     
   6.2069627673204210E-002   8.9386668055782256E-002   0.0000000000000000     
   6.4169333747342683E-002   9.5719826759966667E-002   0.0000000000000000     
   6.6180292697550713E-002  0.10221117105301589        0.0000000000000000     
   6.8102504523828322E-002  0.10886070093492990        0.0000000000000000     
   5.4577955617526576E-002   8.2585530987280498E-002   0.0000000000000000     
   5.6601390136966287E-002   8.8784772955449426E-002   0.0000000000000000     
   5.8542372684208352E-002   9.5142318567140796E-002   0.0000000000000000     
   6.0400903259252722E-002  0.10165816782235462        0.0000000000000000     
   6.2176981862099440E-002  0.10833232072109085        0.0000000000000000     
   8.7249958711176176E-002  0.11082502410132272        0.0000000000000000     
   8.9538303186438198E-002  0.11755783574729095        0.0000000000000000     
   9.1760958199221934E-002  0.12441850967946816        0.0000000000000000     
   9.3917923749527440E-002  0.13140704589785435        0.0000000000000000     
   9.6009199837354661E-002  0.13852344440244951        0.0000000000000000     
   8.0638992948366697E-002  0.11010705262504586        0.0000000000000000     
   8.2776592337540922E-002  0.11685844024595414        0.0000000000000000     
   8.4847377386685491E-002  0.12373978197361991        0.0000000000000000     
   8.6851348095800460E-002  0.13075107780804315        0.0000000000000000     
   8.8788504464885787E-002  0.13789232774922389        0.0000000000000000     
   7.4256508219250728E-002  0.10945227823624824        0.0000000000000000     
   7.6246790492334238E-002  0.11622457378683330        0.0000000000000000     
   7.8171191487999253E-002  0.12312881118787428        0.0000000000000000     
   8.0029711206245704E-002  0.13016499043937113        0.0000000000000000     
   8.1822349647073633E-002  0.13733311154132391        0.0000000000000000     
   6.8102504523828322E-002  0.10886070093492990        0.0000000000000000     
   6.9948897650818243E-002  0.11565623636992844        0.0000000000000000     
   7.1732400503163207E-002  0.12258559732223123        0.0000000000000000     
   7.3453013080863216E-002  0.12964878379183825        0.0000000000000000     
   7.5110735383918270E-002  0.13684579577874953        0.0000000000000000     
   6.2176981862099440E-002  0.10833232072109085        0.0000000000000000     
   6.3882913812992853E-002  0.11515342799523957        0.0000000000000000     
   6.5531004432177353E-002  0.12211014037669080        0.0000000000000000     
   6.7121253719652968E-002  0.12920245786544454        0.0000000000000000     
   6.8653661675419628E-002  0.13643038046150077        0.0000000000000000     
   9.6009199837354661E-002  0.13852344440244951        0.0000000000000000     
   9.8031873865530028E-002  0.14581473402760811        0.0000000000000000     
   9.9983033236879904E-002  0.15332794360768454        0.0000000000000000     
  0.10186267795140434       0.16106307314267881        0.0000000000000000     
  0.10367080800910329       0.16902012263259089        0.0000000000000000     
   8.8788504464885787E-002  0.13789232774922389        0.0000000000000000     
   9.0636562944392512E-002  0.14517056525353558        0.0000000000000000     
   9.2373239984771732E-002  0.15259282377735178        0.0000000000000000     
   9.3998535586023405E-002  0.16015910332067243        0.0000000000000000     
   9.5512449748147557E-002  0.16786940388349758        0.0000000000000000     
   8.1822349647073633E-002  0.13733311154132391        0.0000000000000000     
   8.3515095065774800E-002  0.14461668971245301        0.0000000000000000     
   8.5073935717640908E-002  0.15199924017147898        0.0000000000000000     
   8.6498871602671987E-002  0.15948076291840171        0.0000000000000000     
   8.7789902720868021E-002  0.16706125795322133        0.0000000000000000     
   7.5110735383918270E-002  0.13684579577874953        0.0000000000000000     
   7.6667470229676835E-002  0.14415310740436035        0.0000000000000000     
   7.8085120435487473E-002  0.15154719279006604        0.0000000000000000     
   7.9363686001350076E-002  0.15902805193586667        0.0000000000000000     
   8.0503166927264738E-002  0.16659568484176218        0.0000000000000000     
   6.8653661675419628E-002  0.13643038046150077        0.0000000000000000     
   7.0093688436098672E-002  0.14377981832925762        0.0000000000000000     
   7.1406794138311344E-002  0.15123668163311310        0.0000000000000000     
   7.2592978782057685E-002  0.15880097037306726        0.0000000000000000     
   7.3652242367337667E-002  0.16647268454912012        0.0000000000000000     
   0.0000000000000000        0.0000000000000000        0.0000000000000000     
   2.8801960803501152E-003   1.7442793084855867E-003   0.0000000000000000     
   5.8729065294615274E-003   3.8635888072856709E-003   0.0000000000000000     
   8.9781313473342363E-003   6.3579284964002522E-003   0.0000000000000000     
   1.2195870533968242E-002   9.2272983758293313E-003   0.0000000000000000     
   0.0000000000000000        0.0000000000000000        0.0000000000000000     
   2.6103180579222056E-003   1.5884544089967581E-003   0.0000000000000000     
   5.2896851292487217E-003   3.5557820374194724E-003   0.0000000000000000     
   8.0381012139795482E-003   5.9019828852681427E-003   0.0000000000000000     
   1.0855566312114685E-002   8.6270569525427679E-003   0.0000000000000000     
   0.0000000000000000        0.0000000000000000        0.0000000000000000     
   2.3400066033732389E-003   1.4585845549725731E-003   0.0000000000000000     
   4.7199143852970638E-003   3.2990728565520161E-003   0.0000000000000000     
   7.1397233457714754E-003   5.5214649047383279E-003   0.0000000000000000     
   9.5994334847964713E-003   8.1257606995315101E-003   0.0000000000000000     
   0.0000000000000000        0.0000000000000000        0.0000000000000000     
   2.0692617167032152E-003   1.3546697464130310E-003   0.0000000000000000     
   4.1635942976065536E-003   3.0934612646833009E-003   0.0000000000000000     
   6.2829977427100144E-003   5.2163745548108103E-003   0.0000000000000000     
   8.4274720520136001E-003   7.7234096167955587E-003   0.0000000000000000     
   0.0000000000000000        0.0000000000000000        0.0000000000000000     
   1.7980833979121340E-003   1.2767099833181324E-003   0.0000000000000000     
   3.6207248661771904E-003   2.9389472618133283E-003   0.0000000000000000     
   5.4679244047951695E-003   4.9867118354855883E-003   0.0000000000000000     
   7.3396820137660718E-003   7.4200037043349130E-003   0.0000000000000000     
   1.2195870533968242E-002   9.2272983758293313E-003   0.0000000000000000     
   1.5428331520640213E-002   1.2369556673424821E-002   0.0000000000000000     
   1.8577721738626825E-002   1.5682561617038644E-002   0.0000000000000000     
   2.1644041187928061E-002   1.9166313206670789E-002   0.0000000000000000     
   2.4627289868543938E-002   2.2820811442321266E-002   0.0000000000000000     
   1.0855566312114685E-002   8.6270569525427679E-003   0.0000000000000000     
   1.3688687272843048E-002   1.1648755574083821E-002   0.0000000000000000     
   1.6484070945353552E-002   1.4884830084731772E-002   0.0000000000000000     
   1.9241717329646201E-002   1.8335280484486616E-002   0.0000000000000000     
   2.1961626425720991E-002   2.2000106773348356E-002   0.0000000000000000     
   9.5994334847964713E-003   8.1257606995315101E-003   0.0000000000000000     
   1.2075466967950759E-002   1.1044635184575369E-002   0.0000000000000000     
   1.4544245960813048E-002   1.4210763303513700E-002   0.0000000000000000     
   1.7005770463383332E-002   1.7624145056346508E-002   0.0000000000000000     
   1.9460040475661616E-002   2.1284780443073789E-002   0.0000000000000000     
   8.4274720520136001E-003   7.7234096167955587E-003   0.0000000000000000     
   1.0588670605963349E-002   1.0557195504899459E-002   0.0000000000000000     
   1.2758246785005299E-002   1.3660361273384427E-002   0.0000000000000000     
   1.4936200589139458E-002   1.7032906922250460E-002   0.0000000000000000     
   1.7122532018365819E-002   2.0674832451497559E-002   0.0000000000000000     
   7.3396820137660718E-003   7.4200037043349130E-003   0.0000000000000000     
   9.2282981868808140E-003   1.0186436535056102E-002   0.0000000000000000     
   1.1126073417930317E-002   1.3233623994343958E-002   0.0000000000000000     
   1.3033007706914576E-002   1.6561566082198480E-002   0.0000000000000000     
   1.4949101053833597E-002   2.0170262798619672E-002   0.0000000000000000     
   2.4627289868543938E-002   2.2820811442321266E-002   0.0000000000000000     
   2.7531852772526372E-002   2.6669123493534126E-002   0.0000000000000000     
   3.0362114891927285E-002   3.0734316529853416E-002   0.0000000000000000     
   3.3118076226746673E-002   3.5016390551279149E-002   0.0000000000000000     
   3.5799736776984545E-002   3.9515345557811311E-002   0.0000000000000000     
   2.1961626425720991E-002   2.2000106773348356E-002   0.0000000000000000     
   2.4627360717409019E-002   2.5877390622159890E-002   0.0000000000000000     
   2.7222482688541376E-002   2.9965213701764106E-002   0.0000000000000000     
   2.9746992339118067E-002   3.4263576012161005E-002   0.0000000000000000     
   3.2200889669139088E-002   3.8772477553350580E-002   0.0000000000000000     
   1.9460040475661616E-002   2.1284780443073789E-002   0.0000000000000000     
   2.1878696022441090E-002   2.5173820664932397E-002   0.0000000000000000     
   2.4233377128514946E-002   2.9272416923159194E-002   0.0000000000000000     
   2.6524083793883182E-002   3.3580569217754166E-002   0.0000000000000000     
   2.8750816018545802E-002   3.8098277548717308E-002   0.0000000000000000     
   1.7122532018365819E-002   2.0674832451497559E-002   0.0000000000000000     
   1.9285858687622594E-002   2.4558413621851655E-002   0.0000000000000000     
   2.1394798211848001E-002   2.8655926194038676E-002   0.0000000000000000     
   2.3449350591042029E-002   3.2967370168058618E-002   0.0000000000000000     
   2.5449515825204681E-002   3.7492745543911500E-002   0.0000000000000000     
   1.4949101053833597E-002   2.0170262798619672E-002   0.0000000000000000     
   1.6848848712953529E-002   2.4031169492917653E-002   0.0000000000000000     
   1.8706745938540523E-002   2.8115741514402562E-002   0.0000000000000000     
   2.0522792730594590E-002   3.2423978863074396E-002   0.0000000000000000     
   2.2296989089115725E-002   3.6955881538933144E-002   0.0000000000000000     
   3.5799736776984545E-002   3.9515345557811311E-002   0.0000000000000000     
   3.8406179337487342E-002   4.4222292061338611E-002   0.0000000000000000     
   4.0936486703101543E-002   4.9128340573749756E-002   0.0000000000000000     
   4.3390658873827127E-002   5.4233491095044738E-002   0.0000000000000000     
   4.5768695849664115E-002   5.9537743625223571E-002   0.0000000000000000     
   3.2200889669139088E-002   3.8772477553350580E-002   0.0000000000000000     
   3.4586420573943830E-002   4.3488774416429968E-002   0.0000000000000000     
   3.6905830948871683E-002   4.8409322692496301E-002   0.0000000000000000     
   3.9159120793922642E-002   5.3534122381549573E-002   0.0000000000000000     
   4.1346290109096712E-002   5.8863173483589784E-002   0.0000000000000000     
   2.8750816018545802E-002   3.8098277548717308E-002   0.0000000000000000     
   3.0916578658890317E-002   4.2824299361288017E-002   0.0000000000000000     
   3.3024376571304255E-002   4.7757392100705648E-002   0.0000000000000000     
   3.5074209755787615E-002   5.2897555766970215E-002   0.0000000000000000     
   3.7066078212340391E-002   5.8244790360081698E-002   0.0000000000000000     
   2.5449515825204681E-002   3.7492745543911500E-002   0.0000000000000000     
   2.7396653592326813E-002   4.2228866895912744E-002   0.0000000000000000     
   2.9292123570399269E-002   4.7172548798377803E-002   0.0000000000000000     
   3.1135925759422051E-002   5.2323791251306664E-002   0.0000000000000000     
   3.2928060159395159E-002   5.7682594254699328E-002   0.0000000000000000     
   2.2296989089115725E-002   3.6955881538933144E-002   0.0000000000000000     
   2.4026645374253301E-002   4.1702477020304156E-002   0.0000000000000000     
   2.5709071946156705E-002   4.6654792785512753E-002   0.0000000000000000     
   2.7344268804825940E-002   5.1812828834558927E-002   0.0000000000000000     
   2.8932235950261002E-002   5.7176585167442673E-002   0.0000000000000000     
   4.5768695849664115E-002   5.9537743625223571E-002   0.0000000000000000     
   4.8074251618950022E-002   6.5031082986317684E-002   0.0000000000000000     
   5.0310980170022397E-002   7.0703494000358566E-002   0.0000000000000000     
   5.2478881502881256E-002   7.6554976667346161E-002   0.0000000000000000     
   5.4577955617526576E-002   8.2585530987280498E-002   0.0000000000000000     
   4.1346290109096712E-002   5.8863173483589784E-002   0.0000000000000000     
   4.3468227269222795E-002   6.4383193306869216E-002   0.0000000000000000     
   4.5525820649129849E-002   7.0080899159640164E-002   0.0000000000000000     
   4.7519070248817838E-002   7.5956291041902615E-002   0.0000000000000000     
   4.9447976068286770E-002   8.2009368953656597E-002   0.0000000000000000     
   3.7066078212340391E-002   5.8244790360081698E-002   0.0000000000000000     
   3.8999463390980503E-002   6.3784415360059521E-002   0.0000000000000000     
   4.0873846741725853E-002   6.9501750246923066E-002   0.0000000000000000     
   4.2689228264576454E-002   7.5396795020672341E-002   0.0000000000000000     
   4.4445607959532292E-002   8.1469549681307318E-002   0.0000000000000000     
   3.2928060159395159E-002   5.7682594254699328E-002   0.0000000000000000     
   3.4667959984223111E-002   6.3234749145888600E-002   0.0000000000000000     
   3.6355058447810423E-002   6.8966047262207245E-002   0.0000000000000000     
   3.7989355550157096E-002   7.4876488603655283E-002   0.0000000000000000     
   3.9570851291263129E-002   8.0966073170232689E-002   0.0000000000000000     
   2.8932235950261002E-002   5.7176585167442673E-002   0.0000000000000000     
   3.0473717048950622E-002   6.2734194664356466E-002   0.0000000000000000     
   3.1969455767383546E-002   6.8473790205492713E-002   0.0000000000000000     
   3.3419452105559765E-002   7.4395371790851456E-002   0.0000000000000000     
   3.4823706063479287E-002   8.0498939420432652E-002   0.0000000000000000     
   5.4577955617526576E-002   8.2585530987280498E-002   0.0000000000000000     
   5.6601390136966287E-002   8.8784772955449426E-002   0.0000000000000000     
   5.8542372684208352E-002   9.5142318567140796E-002   0.0000000000000000     
   6.0400903259252722E-002  0.10165816782235462        0.0000000000000000     
   6.2176981862099440E-002  0.10833232072109085        0.0000000000000000     
   4.9447976068286770E-002   8.2009368953656597E-002   0.0000000000000000     
   5.1306650289725940E-002   8.8230678622104611E-002   0.0000000000000000     
   5.3089205095324596E-002   9.4610765774449157E-002   0.0000000000000000     
   5.4795640485082744E-002  0.10114963041069024        0.0000000000000000     
   5.6425956459000379E-002  0.10784727253082789        0.0000000000000000     
   4.4445607959532292E-002   8.1469549681307318E-002   0.0000000000000000     
   4.6137631831534590E-002   8.7710515735548888E-002   0.0000000000000000     
   4.7759945885524561E-002   9.4110194690117818E-002   0.0000000000000000     
   4.9312550121502187E-002  0.10066858654501415        0.0000000000000000     
   5.0795444539467473E-002  0.10738569130023784        0.0000000000000000     
   3.9570851291263129E-002   8.0966073170232689E-002   0.0000000000000000     
   4.1094334762392271E-002   8.7224284295782231E-002   0.0000000000000000     
   4.2554595054808235E-002   9.3640605314146780E-002   0.0000000000000000     
   4.3951632168511057E-002  0.10021503622532625        0.0000000000000000     
   4.5285446103500694E-002  0.10694757702932073        0.0000000000000000     
   3.4823706063479287E-002   8.0498939420432652E-002   0.0000000000000000     
   3.6176759082298962E-002   8.6771984302804708E-002   0.0000000000000000     
   3.7473152603175651E-002   9.3201997646536042E-002   0.0000000000000000     
   3.8712886626109347E-002   9.9788979451626639E-002   0.0000000000000000     
   3.9895961151100057E-002  0.10653292971807650        0.0000000000000000     
   6.2176981862099440E-002  0.10833232072109085        0.0000000000000000     
   6.3882913812992853E-002  0.11515342799523957        0.0000000000000000     
   6.5531004432177353E-002  0.12211014037669080        0.0000000000000000     
   6.7121253719652968E-002  0.12920245786544454        0.0000000000000000     
   6.8653661675419628E-002  0.13643038046150077        0.0000000000000000     
   5.6425956459000379E-002  0.10784727253082789        0.0000000000000000     
   5.7992085046451348E-002  0.11469269070893798        0.0000000000000000     
   5.9505958276809434E-002  0.12167488351909639        0.0000000000000000     
   6.0967576150074670E-002  0.12879385096130316        0.0000000000000000     
   6.2376938666247023E-002  0.13604959303555827        0.0000000000000000     
   5.0795444539467473E-002  0.10738569130023784        0.0000000000000000     
   5.2219657418786952E-002  0.11425056655719493        0.0000000000000000     
   5.3596217038827158E-002  0.12125226991729143        0.0000000000000000     
   5.4925123399588084E-002  0.12839080138052733        0.0000000000000000     
   5.6206376501069730E-002  0.13566616094690259        0.0000000000000000     
   4.5285446103500694E-002  0.10694757702932073        0.0000000000000000     
   4.6565630929999692E-002  0.11382705554001048        0.0000000000000000     
   4.7801780718230519E-002  0.12084229957127589        0.0000000000000000     
   4.8993895468193216E-002  0.12799330912311702        0.0000000000000000     
   5.0141975179887742E-002  0.13528008419553378        0.0000000000000000     
   3.9895961151100057E-002  0.10653292971807650        0.0000000000000000     
   4.1030005580089540E-002  0.11342215765738457        0.0000000000000000     
   4.2122649315019522E-002  0.12044497248104979        0.0000000000000000     
   4.3173892355890038E-002  0.12760137418907222        0.0000000000000000     
   4.4183734702701059E-002  0.13489136278145181        0.0000000000000000     
   6.8653661675419628E-002  0.13643038046150077        0.0000000000000000     
   7.0093688436098672E-002  0.14377981832925762        0.0000000000000000     
   7.1406794138311344E-002  0.15123668163311310        0.0000000000000000     
   7.2592978782057685E-002  0.15880097037306726        0.0000000000000000     
   7.3652242367337667E-002  0.16647268454912012        0.0000000000000000     
   6.2376938666247023E-002  0.13604959303555827        0.0000000000000000     
   6.3706135200827615E-002  0.14344056345173481        0.0000000000000000     
   6.4927255129317560E-002  0.15096521591970583        0.0000000000000000     
   6.6040298451716814E-002  0.15862355043947132        0.0000000000000000     
   6.7045265168025420E-002  0.16641556701103130        0.0000000000000000     
   5.6206376501069730E-002  0.13566616094690259        0.0000000000000000     
   5.7417196039651036E-002  0.14307908373638190        0.0000000000000000     
   5.8534801711710958E-002  0.15063030486892989        0.0000000000000000     
   5.9559193517249483E-002  0.15831982434454653        0.0000000000000000     
   6.0490371456266609E-002  0.16614764216323180        0.0000000000000000     
   5.0141975179887742E-002  0.13528008419553378        0.0000000000000000     
   5.1226870952568934E-002  0.14269537918319899        0.0000000000000000     
   5.2229433885491554E-002  0.15023194848078536        0.0000000000000000     
   5.3149663978655663E-002  0.15788979208829290        0.0000000000000000     
   5.3987561232061214E-002  0.16566891000572165        0.0000000000000000     
   4.4183734702701059E-002  0.13489136278145181        0.0000000000000000     
   4.5135159939581282E-002  0.14228944979218597        0.0000000000000000     
   4.6011151650659388E-002  0.14977014675527217        0.0000000000000000     
   4.6811709835935376E-002  0.15733345367071047        0.0000000000000000     
   4.7536834495409255E-002  0.16497937053850079        0.0000000000000000     
   0.0000000000000000        0.0000000000000000        0.0000000000000000     
   1.7980833979121340E-003   1.2767099833181324E-003   0.0000000000000000     
   3.6207248661771904E-003   2.9389472618133283E-003   0.0000000000000000     
   5.4679244047951695E-003   4.9867118354855883E-003   0.0000000000000000     
   7.3396820137660718E-003   7.4200037043349130E-003   0.0000000000000000     
   0.0000000000000000        0.0000000000000000        0.0000000000000000     
   1.5347426080917319E-003   1.2175825853775679E-003   0.0000000000000000     
   3.0986630602212704E-003   2.8209836748143689E-003   0.0000000000000000     
   4.6917613563886174E-003   4.8102032683104024E-003   0.0000000000000000     
   6.3140374965937702E-003   7.1852413658656704E-003   0.0000000000000000     
   0.0000000000000000        0.0000000000000000        0.0000000000000000     
   1.2875103083337441E-003   1.1701648722810278E-003   0.0000000000000000     
   2.6047658489510889E-003   2.7250233305586924E-003   0.0000000000000000     
   3.9517666218520341E-003   4.6645753748329943E-003   0.0000000000000000     
   5.3285126270365803E-003   6.9888210051039321E-003   0.0000000000000000     
   0.0000000000000000        0.0000000000000000        0.0000000000000000     
   1.0563864986381716E-003   1.1344568440285129E-003   0.0000000000000000     
   2.1390332323666457E-003   2.6510662290462998E-003   0.0000000000000000     
   3.2479402011854220E-003   4.5498281550533613E-003   0.0000000000000000     
   4.3831074050945011E-003   6.8307426220496972E-003   0.0000000000000000     
   0.0000000000000000        0.0000000000000000        0.0000000000000000     
   8.4137117900501377E-004   1.1104585006200228E-003   0.0000000000000000     
   1.7014652104679405E-003   2.5991123702771911E-003   0.0000000000000000     
   2.5802820943887799E-003   4.4659616089715052E-003   0.0000000000000000     
   3.4778218307675328E-003   6.7110062167029649E-003   0.0000000000000000     
   7.3396820137660718E-003   7.4200037043349130E-003   0.0000000000000000     
   9.2282981868808140E-003   1.0186436535056102E-002   0.0000000000000000     
   1.1126073417930317E-002   1.3233623994343958E-002   0.0000000000000000     
   1.3033007706914576E-002   1.6561566082198480E-002   0.0000000000000000     
   1.4949101053833597E-002   2.0170262798619672E-002   0.0000000000000000     
   6.3140374965937702E-003   7.1852413658656704E-003   0.0000000000000000     
   7.9527702053502156E-003   9.8965272144871056E-003   0.0000000000000000     
   9.5952382071714387E-003   1.2894490061181645E-002   0.0000000000000000     
   1.1241441502057433E-002   1.6179129905949285E-002   0.0000000000000000     
   1.2891380090008207E-002   1.9750446748790028E-002   0.0000000000000000     
   5.3285126270365803E-003   6.9888210051039321E-003   0.0000000000000000     
   6.7205071560186109E-003   9.6516364826342866E-003   0.0000000000000000     
   8.1132535003120062E-003   1.2606898068686843E-002   0.0000000000000000     
   9.5067516599167713E-003   1.5854605763261597E-002   0.0000000000000000     
   1.0901001634832904E-002   1.9394759566358548E-002   0.0000000000000000     
   4.3831074050945011E-003   6.8307426220496972E-003   0.0000000000000000     
   5.5315090388859981E-003   9.4517643394976467E-003   0.0000000000000000     
   6.6801192973520301E-003   1.2370848016859554E-002   0.0000000000000000     
   7.8289381804925937E-003   1.5587993654135417E-002   0.0000000000000000     
   8.9779656883076930E-003   1.9103201251325232E-002   0.0000000000000000     
   3.4778218307675328E-003   6.7110062167029649E-003   0.0000000000000000     
   4.3857758539523790E-003   9.2969107850771841E-003   0.0000000000000000     
   5.2958355982915001E-003   1.2186339905699776E-002   0.0000000000000000     
   6.2080010637848961E-003   1.5379293578570744E-002   0.0000000000000000     
   7.1222722504325677E-003   1.8875771803690086E-002   0.0000000000000000     
   1.4949101053833597E-002   2.0170262798619672E-002   0.0000000000000000     
   1.6848848712953529E-002   2.4031169492917653E-002   0.0000000000000000     
   1.8706745938540523E-002   2.8115741514402562E-002   0.0000000000000000     
   2.0522792730594590E-002   3.2423978863074396E-002   0.0000000000000000     
   2.2296989089115725E-002   3.6955881538933144E-002   0.0000000000000000     
   1.2891380090008207E-002   1.9750446748790028E-002   0.0000000000000000     
   1.4528490489460132E-002   2.3582473641537927E-002   0.0000000000000000     
   1.6136209218849586E-002   2.7649243636027040E-002   0.0000000000000000     
   1.7714536278176561E-002   3.1950756732257356E-002   0.0000000000000000     
   1.9263471667441072E-002   3.6487012930228893E-002   0.0000000000000000     
   1.0901001634832904E-002   1.9394759566358548E-002   0.0000000000000000     
   1.2285608408168641E-002   2.3202711431120016E-002   0.0000000000000000     
   1.3650176963032211E-002   2.7253813310688303E-002   0.0000000000000000     
   1.4994707299423626E-002   3.1548065205063425E-002   0.0000000000000000     
   1.6319199417342872E-002   3.6085467114245373E-002   0.0000000000000000     
   8.9779656883076930E-003   1.9103201251325232E-002   0.0000000000000000     
   1.0120202469079053E-002   2.2891882861663916E-002   0.0000000000000000     
   1.1248649171088417E-002   2.6929450538386371E-002   0.0000000000000000     
   1.2363305794335769E-002   3.1215904281492589E-002   0.0000000000000000     
   1.3464172338821122E-002   3.5751244090982591E-002   0.0000000000000000     
   7.1222722504325677E-003   1.8875771803690086E-002   0.0000000000000000     
   8.0322726721913772E-003   2.2649987933169632E-002   0.0000000000000000     
   8.9316258430181903E-003   2.6676155319121223E-002   0.0000000000000000     
   9.8203317629130052E-003   3.0954273961544859E-002   0.0000000000000000     
   1.0698390431875820E-002   3.5484343860440540E-002   0.0000000000000000     
   2.2296989089115725E-002   3.6955881538933144E-002   0.0000000000000000     
   2.4026645374253301E-002   4.1702477020304156E-002   0.0000000000000000     
   2.5709071946156705E-002   4.6654792785512753E-002   0.0000000000000000     
   2.7344268804825940E-002   5.1812828834558927E-002   0.0000000000000000     
   2.8932235950261002E-002   5.7176585167442673E-002   0.0000000000000000     
   1.9263471667441072E-002   3.6487012930228893E-002   0.0000000000000000     
   2.0776165673155888E-002   4.1242488993529731E-002   0.0000000000000000     
   2.2245768581833802E-002   4.6201661685747984E-002   0.0000000000000000     
   2.3672280393474798E-002   5.1364531006883631E-002   0.0000000000000000     
   2.5055701108078893E-002   5.6731096956936698E-002   0.0000000000000000     
   1.6319199417342872E-002   3.6085467114245373E-002   0.0000000000000000     
   1.7614826157520677E-002   4.0846262074656955E-002   0.0000000000000000     
   1.8872760360687774E-002   4.5810693122720979E-002   0.0000000000000000     
   2.0093002026844147E-002   5.0978760258437457E-002   0.0000000000000000     
   2.1275551155989808E-002   5.6350463481806362E-002   0.0000000000000000     
   1.3464172338821122E-002   3.5751244090982591E-002   0.0000000000000000     
   1.4542626827347672E-002   4.0513796263685807E-002   0.0000000000000000     
   1.5590047282718620E-002   4.5481887096431729E-002   0.0000000000000000     
   1.6606433704933976E-002   5.0655516589220344E-002   0.0000000000000000     
   1.7591786093993724E-002   5.6034684742051664E-002   0.0000000000000000     
   1.0698390431875820E-002   3.5484343860440540E-002   0.0000000000000000     
   1.1559567682636862E-002   4.0245091560616314E-002   0.0000000000000000     
   1.2397629347926351E-002   4.5215243606880257E-002   0.0000000000000000     
   1.3212575427744287E-002   5.0394799999232347E-002   0.0000000000000000     
   1.4004405922090669E-002   5.5783760737672612E-002   0.0000000000000000     
   2.8932235950261002E-002   5.7176585167442673E-002   0.0000000000000000     
   3.0473717048950622E-002   6.2734194664356466E-002   0.0000000000000000     
   3.1969455767383546E-002   6.8473790205492713E-002   0.0000000000000000     
   3.3419452105559765E-002   7.4395371790851456E-002   0.0000000000000000     
   3.4823706063479287E-002   8.0498939420432652E-002   0.0000000000000000     
   2.5055701108078893E-002   5.6731096956936698E-002   0.0000000000000000     
   2.6398260447236855E-002   6.2291996820940269E-002   0.0000000000000000     
   2.7702188132539485E-002   6.8037867883927489E-002   0.0000000000000000     
   2.8967484163986767E-002   7.3968710145898356E-002   0.0000000000000000     
   3.0194148541578709E-002   8.0084523606852837E-002   0.0000000000000000     
   2.1275551155989808E-002   5.6350463481806362E-002   0.0000000000000000     
   2.2423116041155620E-002   6.1917400521117244E-002   0.0000000000000000     
   2.3538404975372483E-002   6.7671169104659618E-002   0.0000000000000000     
   2.4621417958640392E-002   7.3611769232433469E-002   0.0000000000000000     
   2.5672154990959345E-002   7.9739200904438826E-002   0.0000000000000000     
   1.7591786093993724E-002   5.6034684742051664E-002   0.0000000000000000     
   1.8548283830706908E-002   6.1610405764887341E-002   0.0000000000000000     
   1.9478106295882550E-002   6.7373693867689072E-002   0.0000000000000000     
   2.0381253489520641E-002   7.3324549050456808E-002   0.0000000000000000     
   2.1257725411621194E-002   7.9462971313190620E-002   0.0000000000000000     
   1.4004405922090669E-002   5.5783760737672612E-002   0.0000000000000000     
   1.4773763815890722E-002   6.1371012552250581E-002   0.0000000000000000     
   1.5521292094069673E-002   6.7145442173015851E-002   0.0000000000000000     
   1.6246990756627517E-002   7.3107049599968388E-002   0.0000000000000000     
   1.6950859803564255E-002   7.9255834833108219E-002   0.0000000000000000     
   3.4823706063479287E-002   8.0498939420432652E-002   0.0000000000000000     
   3.6176759082298962E-002   8.6771984302804708E-002   0.0000000000000000     
   3.7473152603175651E-002   9.3201997646536042E-002   0.0000000000000000     
   3.8712886626109347E-002   9.9788979451626639E-002   0.0000000000000000     
   3.9895961151100057E-002  0.10653292971807650        0.0000000000000000     
   3.0194148541578709E-002   8.0084523606852837E-002   0.0000000000000000     
   3.1376450921110258E-002   8.6370770435189884E-002   0.0000000000000000     
   3.2508660958376345E-002   9.2812912799308464E-002   0.0000000000000000     
   3.3590778653376993E-002   9.9410950699208508E-002   0.0000000000000000     
   3.4622804006112187E-002  0.10616488413489006        0.0000000000000000     
   2.5672154990959345E-002   7.9739200904438826E-002   0.0000000000000000     
   2.6684956408681720E-002   8.6037797371511363E-002   0.0000000000000000     
   2.7654162548159909E-002   9.2491891884486768E-002   0.0000000000000000     
   2.8579773409393907E-002   9.9101484443365043E-002   0.0000000000000000     
   2.9461788992383723E-002  0.10586657504814620        0.0000000000000000     
   2.1257725411621194E-002   7.9462971313190620E-002   0.0000000000000000     
   2.2102275545013365E-002   8.5773065111769131E-002   0.0000000000000000     
   2.2909657372526336E-002   9.2238934902071038E-002   0.0000000000000000     
   2.3679870894160095E-002   9.8860580684096311E-002   0.0000000000000000     
   2.4412916109914654E-002  0.10563800245784497        0.0000000000000000     
   1.6950859803564255E-002   7.9255834833108219E-002   0.0000000000000000     
   1.7628408330105191E-002   8.5576573655963217E-002   0.0000000000000000     
   1.8275145431475626E-002   9.2054041852061216E-002   0.0000000000000000     
   1.8891071107675558E-002   9.8688239421402243E-002   0.0000000000000000     
   1.9476185358704986E-002  0.10547916636398628        0.0000000000000000     
   3.9895961151100057E-002  0.10653292971807650        0.0000000000000000     
   4.1030005580089540E-002  0.11342215765738457        0.0000000000000000     
   4.2122649315019522E-002  0.12044497248104979        0.0000000000000000     
   4.3173892355890038E-002  0.12760137418907222        0.0000000000000000     
   4.4183734702701059E-002  0.13489136278145181        0.0000000000000000     
   3.4622804006112187E-002  0.10616488413489006        0.0000000000000000     
   3.5610595596070382E-002  0.11306254233102483        0.0000000000000000     
   3.6560012002740040E-002  0.12009175451228460        0.0000000000000000     
   3.7471053226121161E-002  0.12725252067866930        0.0000000000000000     
   3.8343719266213723E-002  0.13454484083017895        0.0000000000000000     
   2.9461788992383723E-002  0.10586657504814620        0.0000000000000000     
   3.0305215204956139E-002  0.11277487898263887        0.0000000000000000     
   3.1115057954937953E-002  0.11981411153065168        0.0000000000000000     
   3.1891317242329159E-002  0.12698427269218460        0.0000000000000000     
   3.2633993067129788E-002  0.13428536246723766        0.0000000000000000     
   2.4412916109914654E-002  0.10563800245784497        0.0000000000000000     
   2.5113864406746775E-002  0.11255916761222663        0.0000000000000000     
   2.5787787171613247E-002  0.11961204353615101        0.0000000000000000     
   2.6434684404514072E-002  0.12679663022961807        0.0000000000000000     
   2.7054556105449244E-002  0.13411292769262786        0.0000000000000000     
   1.9476185358704986E-002  0.10547916636398628        0.0000000000000000     
   2.0036543201442315E-002  0.11241540821978817        0.0000000000000000     
   2.0578199652765940E-002  0.11948555052878265        0.0000000000000000     
   2.1101154712675863E-002  0.12668959329096977        0.0000000000000000     
   2.1605408381172087E-002  0.13402753650634952        0.0000000000000000     
   4.4183734702701059E-002  0.13489136278145181        0.0000000000000000     
   4.5135159939581282E-002  0.14228944979218597        0.0000000000000000     
   4.6011151650659388E-002  0.14977014675527217        0.0000000000000000     
   4.6811709835935376E-002  0.15733345367071047        0.0000000000000000     
   4.7536834495409255E-002  0.16497937053850079        0.0000000000000000     
   3.8343719266213723E-002  0.13454484083017895        0.0000000000000000     
   3.9162111491648166E-002  0.14192530038835732        0.0000000000000000     
   3.9910331271054887E-002  0.14935048477474805        0.0000000000000000     
   4.0588378604433900E-002  0.15682039398935121        0.0000000000000000     
   4.1196253491785184E-002  0.16433502803216676        0.0000000000000000     
   3.2633993067129788E-002  0.13428536246723766        0.0000000000000000     
   3.3327774099729632E-002  0.14166693579672748        0.0000000000000000     
   3.3957349010518528E-002  0.14907854762157063        0.0000000000000000     
   3.4522717799496477E-002  0.15652019794176716        0.0000000000000000     
   3.5023880466663479E-002  0.16399188675731702        0.0000000000000000     
   2.7054556105449244E-002  0.13411292769262786        0.0000000000000000     
   2.7632147763825679E-002  0.14151435601729639        0.0000000000000000     
   2.8152204869050304E-002  0.14895433529573990        0.0000000000000000     
   2.8614727421123119E-002  0.15643286552795829        0.0000000000000000     
   2.9019715420044122E-002  0.16394994671395155        0.0000000000000000     
   2.1605408381172087E-002  0.13402753650634952        0.0000000000000000     
   2.2075232483936308E-002  0.14146756105006414        0.0000000000000000     
   2.2494898846650218E-002  0.14897784779725579        0.0000000000000000     
   2.2864407469313827E-002  0.15655839674792457        0.0000000000000000     
   2.3183758351927125E-002  0.16420920790207039        0.0000000000000000     
   0.0000000000000000        0.0000000000000000        0.0000000000000000     
   8.4137117900501377E-004   1.1104585006200228E-003   0.0000000000000000     
   1.7014652104679405E-003   2.5991123702771911E-003   0.0000000000000000     
   2.5802820943887799E-003   4.4659616089715052E-003   0.0000000000000000     
   3.4778218307675328E-003   6.7110062167029649E-003   0.0000000000000000     
   0.0000000000000000        0.0000000000000000        0.0000000000000000     
   6.3356467436734721E-004   1.0945829372559822E-003   0.0000000000000000     
   1.2775093414003169E-003   2.5632791625527884E-003   0.0000000000000000     
   1.9318340010989086E-003   4.4060886758904181E-003   0.0000000000000000     
   2.5965386534631224E-003   6.6230114772688736E-003   0.0000000000000000     
   0.0000000000000000        0.0000000000000000        0.0000000000000000     
   4.2406730965824911E-004   1.0832432491368158E-003   0.0000000000000000     
   8.5261318330911865E-004   2.5376840141745137E-003   0.0000000000000000     
   1.2856376209526086E-003   4.3633222951130948E-003   0.0000000000000000     
   1.7231406225887193E-003   6.5601580919525566E-003   0.0000000000000000     
   0.0000000000000000        0.0000000000000000        0.0000000000000000     
   2.1287908487771918E-004   1.0764394362625237E-003   0.0000000000000000     
   4.2677673619434590E-004   2.5223269251423682E-003   0.0000000000000000     
   6.4169295394988037E-004   4.3376624666395325E-003   0.0000000000000000     
   8.5762773814432227E-004   6.5224460607540185E-003   0.0000000000000000     
   0.0000000000000000        0.0000000000000000        0.0000000000000000     
   2.5757418116792441E-014   1.0741714986331058E-003   0.0000000000000000     
   5.5998608528007310E-014   2.5172078954563497E-003   0.0000000000000000     
   9.0723381498264422E-014   4.3291091904697331E-003   0.0000000000000000     
   1.2993181834272671E-013   6.5098753836732538E-003   0.0000000000000000     
   3.4778218307675328E-003   6.7110062167029649E-003   0.0000000000000000     
   4.3857758539523790E-003   9.2969107850771841E-003   0.0000000000000000     
   5.2958355982915001E-003   1.2186339905699776E-002   0.0000000000000000     
   6.2080010637848961E-003   1.5379293578570744E-002   0.0000000000000000     
   7.1222722504325677E-003   1.8875771803690086E-002   0.0000000000000000     
   2.5965386534631224E-003   6.6230114772688736E-003   0.0000000000000000     
   3.2685893239655130E-003   9.1811095575195008E-003   0.0000000000000000     
   3.9449520380786356E-003   1.2047444907473653E-002   0.0000000000000000     
   4.6256267958024880E-003   1.5222017527131320E-002   0.0000000000000000     
   5.3106135971370729E-003   1.8704827416492518E-002   0.0000000000000000     
   1.7231406225887193E-003   6.5601580919525566E-003   0.0000000000000000     
   2.1652311716731615E-003   9.0983943949711973E-003   0.0000000000000000     
   2.6120182516616466E-003   1.1948234194447316E-002   0.0000000000000000     
   3.0635018625541758E-003   1.5109677490380903E-002   0.0000000000000000     
   3.5196820043507482E-003   1.8582724282771964E-002   0.0000000000000000     
   8.5762773814432227E-004   6.5224460607540185E-003   0.0000000000000000     
   1.0757013970753237E-003   9.0487652974322770E-003   0.0000000000000000     
   1.2970342390405359E-003   1.1888707766620762E-002   0.0000000000000000     
   1.5216262640399588E-003   1.5042273468319475E-002   0.0000000000000000     
   1.7494774720735930E-003   1.8509462402528418E-002   0.0000000000000000     
   1.2993181834272671E-013   6.5098753836732538E-003   0.0000000000000000     
   1.7199941828877768E-013   9.0322222649027346E-003   0.0000000000000000     
   2.1530145017083918E-013   1.1868865623994002E-002   0.0000000000000000     
   2.5983781573308933E-013   1.5019805460947052E-002   0.0000000000000000     
   3.0560840316717908E-013   1.8485041775761882E-002   0.0000000000000000     
   7.1222722504325677E-003   1.8875771803690086E-002   0.0000000000000000     
   8.0322726721913772E-003   2.2649987933169632E-002   0.0000000000000000     
   8.9316258430181903E-003   2.6676155319121223E-002   0.0000000000000000     
   9.8203317629130052E-003   3.0954273961544859E-002   0.0000000000000000     
   1.0698390431875820E-002   3.5484343860440540E-002   0.0000000000000000     
   5.3106135971370729E-003   1.8704827416492518E-002   0.0000000000000000     
   5.9933618358616646E-003   2.2468488338654235E-002   0.0000000000000000     
   6.6673209057555426E-003   2.6485614056713465E-002   0.0000000000000000     
   7.3324908068187044E-003   3.0756204570670211E-002   0.0000000000000000     
   7.9888715390511525E-003   3.5280259880524481E-002   0.0000000000000000     
   3.5196820043507482E-003   1.8582724282771964E-002   0.0000000000000000     
   3.9750127784459778E-003   2.2338845771134794E-002   0.0000000000000000     
   4.4239482862344793E-003   2.6349513154983687E-002   0.0000000000000000     
   4.8664885277162522E-003   3.0614726434318652E-002   0.0000000000000000     
   5.3026335028912974E-003   3.5134485609139683E-002   0.0000000000000000     
   1.7494774720735930E-003   1.8509462402528418E-002   0.0000000000000000     
   1.9772254999443142E-003   2.2261060230611314E-002   0.0000000000000000     
   2.2015079844549990E-003   2.6267852613931903E-002   0.0000000000000000     
   2.4223249256056464E-003   3.0529839552490175E-002   0.0000000000000000     
   2.6396763233962578E-003   3.5047021046286132E-002   0.0000000000000000     
   3.0560840316717908E-013   1.8485041775761882E-002   0.0000000000000000     
   3.5667573495407057E-013   2.2235131717083797E-002   0.0000000000000000     
   4.1710265883537767E-013   2.6240632433558096E-002   0.0000000000000000     
   4.8688735877246148E-013   3.0501543925184782E-002   0.0000000000000000     
   5.6603224711515576E-013   3.5017866191963849E-002   0.0000000000000000     
   1.0698390431875820E-002   3.5484343860440540E-002   0.0000000000000000     
   1.1559567682636862E-002   4.0245091560616314E-002   0.0000000000000000     
   1.2397629347926351E-002   4.5215243606880257E-002   0.0000000000000000     
   1.3212575427744287E-002   5.0394799999232347E-002   0.0000000000000000     
   1.4004405922090669E-002   5.5783760737672612E-002   0.0000000000000000     
   7.9888715390511525E-003   3.5280259880524481E-002   0.0000000000000000     
   8.6332279135282117E-003   4.0037870430128145E-002   0.0000000000000000     
   9.2623247413252136E-003   4.5009126663333059E-002   0.0000000000000000     
   9.8761620224421549E-003   5.0194028580139244E-002   0.0000000000000000     
   1.0474739756879037E-002   5.5592576180546686E-002   0.0000000000000000     
   5.3026335028912974E-003   3.5134485609139683E-002   0.0000000000000000     
   5.7311867101616796E-003   3.9889855336900960E-002   0.0000000000000000     
   6.1509516479294670E-003   4.4861900275056668E-002   0.0000000000000000     
   6.5619283161946537E-003   5.0050620423606827E-002   0.0000000000000000     
   6.9641167149572464E-003   5.5456015782551410E-002   0.0000000000000000     
   2.6396763233962578E-003   3.5047021046286132E-002   0.0000000000000000     
   2.8534440725372667E-003   3.9801046280934782E-002   0.0000000000000000     
   3.0635100677391101E-003   4.4773564442051099E-002   0.0000000000000000     
   3.2698743090017854E-003   4.9964575529635104E-002   0.0000000000000000     
   3.4725367963252952E-003   5.5374079543686776E-002   0.0000000000000000     
   5.6603224711515576E-013   3.5017866191963849E-002   0.0000000000000000     
   6.5497249551044190E-013   3.9771443262229596E-002   0.0000000000000000     
   7.5414490190855998E-013   4.4744119164316330E-002   0.0000000000000000     
   8.6354802974163147E-013   4.9935893898224060E-002   0.0000000000000000     
   9.8318402030894703E-013   5.5346767463952770E-002   0.0000000000000000     
   1.4004405922090669E-002   5.5783760737672612E-002   0.0000000000000000     
   1.4773763815890722E-002   6.1371012552250581E-002   0.0000000000000000     
   1.5521292094069673E-002   6.7145442173015851E-002   0.0000000000000000     
   1.6246990756627517E-002   7.3107049599968388E-002   0.0000000000000000     
   1.6950859803564255E-002   7.9255834833108219E-002   0.0000000000000000     
   1.0474739756879037E-002   5.5592576180546686E-002   0.0000000000000000     
   1.1057130639710080E-002   6.1191119166493502E-002   0.0000000000000000     
   1.1622407366009502E-002   6.6976007239917770E-002   0.0000000000000000     
   1.2170569935777304E-002   7.2947240400819499E-002   0.0000000000000000     
   1.2701618349013484E-002   7.9104818649198688E-002   0.0000000000000000     
   6.9641167149572464E-003   5.5456015782551410E-002   0.0000000000000000     
   7.3559589451680021E-003   6.1062623890902619E-002   0.0000000000000000     
   7.7358971077776863E-003   6.6854982287672629E-002   0.0000000000000000     
   8.1039312027862929E-003   7.2833090972861447E-002   0.0000000000000000     
   8.4600612301938289E-003   7.8996949946469067E-002   0.0000000000000000     
   3.4725367963252952E-003   5.5374079543686776E-002   0.0000000000000000     
   3.6702487322644891E-003   6.0985526725477940E-002   0.0000000000000000     
   3.8617613193742194E-003   6.6782367316280428E-002   0.0000000000000000     
   4.0470745576544863E-003   7.2764601316094232E-002   0.0000000000000000     
   4.2261884471052882E-003   7.8932228724919340E-002   0.0000000000000000     
   9.8318402030894703E-013   5.5346767463952770E-002   0.0000000000000000     
   9.9954040270328059E-013   6.0959827670219471E-002   0.0000000000000000     
   7.9910541074881825E-013   6.6758162325741180E-002   0.0000000000000000     
   3.8187894957786989E-013   7.2741771430517854E-002   0.0000000000000000     
  -2.5213793726497347E-013   7.8910654984549522E-002   0.0000000000000000     
   1.6950859803564255E-002   7.9255834833108219E-002   0.0000000000000000     
   1.7628408330105191E-002   8.5576573655963217E-002   0.0000000000000000     
   1.8275145431475626E-002   9.2054041852061216E-002   0.0000000000000000     
   1.8891071107675558E-002   9.8688239421402243E-002   0.0000000000000000     
   1.9476185358704986E-002  0.10547916636398628        0.0000000000000000     
   1.2701618349013484E-002   7.9104818649198688E-002   0.0000000000000000     
   1.3212037516505935E-002   8.5434498983905760E-002   0.0000000000000000     
   1.3698312349042532E-002   9.1922038403791095E-002   0.0000000000000000     
   1.4160442846623286E-002   9.8567436908854722E-002   0.0000000000000000     
   1.4598429009248192E-002  0.10537069449909667        0.0000000000000000     
   8.4600612301938289E-003   7.8996949946469067E-002   0.0000000000000000     
   8.8018458567643218E-003   8.5333017075408912E-002   0.0000000000000000     
   9.1268437492618062E-003   9.1827750226594410E-002   0.0000000000000000     
   9.4350549076862786E-003   9.8481149400025586E-002   0.0000000000000000     
   9.7264793320377425E-003  0.10529321459570244        0.0000000000000000     
   4.2261884471052882E-003   7.8932228724919340E-002   0.0000000000000000     
   4.3978333508803633E-003   8.5272127930472688E-002   0.0000000000000000     
   4.5607396321334457E-003   9.1771177320471187E-002   0.0000000000000000     
   4.7149072908645381E-003   9.8429376894914863E-002   0.0000000000000000     
   4.8603363270736380E-003  0.10524672665380369        0.0000000000000000     
  -2.5213793726497347E-013   7.8910654984549522E-002   0.0000000000000000     
  -1.1459474862085539E-012   8.5251831549097087E-002   0.0000000000000000     
  -2.3425468921416115E-012   9.1752319685421399E-002   0.0000000000000000     
  -3.8419408035809607E-012   9.8412119393522485E-002   0.0000000000000000     
  -5.6441249243754932E-012  0.10523123067340034        0.0000000000000000     
   1.9476185358704986E-002  0.10547916636398628        0.0000000000000000     
   2.0036543201442315E-002  0.11241540821978817        0.0000000000000000     
   2.0578199652765940E-002  0.11948555052878265        0.0000000000000000     
   2.1101154712675863E-002  0.12668959329096977        0.0000000000000000     
   2.1605408381172087E-002  0.13402753650634952        0.0000000000000000     
   1.4598429009248192E-002  0.10537069449909667        0.0000000000000000     
   1.5019029444235384E-002  0.11232109774178142        0.0000000000000000     
   1.5429002758902993E-002  0.11940793320417367        0.0000000000000000     
   1.5828348953251015E-002  0.12663120088627339        0.0000000000000000     
   1.6217068027279458E-002  0.13399090078808051        0.0000000000000000     
   9.7264793320377425E-003  0.10529321459570244        0.0000000000000000     
   1.0007100990318634E-002  0.11225373311466447        0.0000000000000000     
   1.0282903850531390E-002  0.11935249225795116        0.0000000000000000     
   1.0553887912676007E-002  0.12658949202556255        0.0000000000000000     
   1.0820053176752487E-002  0.13396473241749857        0.0000000000000000     
   4.8603363270736380E-003  0.10524672665380369        0.0000000000000000     
   5.0007578396920622E-003  0.11221331433843722        0.0000000000000000     
   5.1399029276511269E-003  0.11931922769011509        0.0000000000000000     
   5.2777715909508305E-003  0.12656446670883725        0.0000000000000000     
   5.4143638295911763E-003  0.13394903139460371        0.0000000000000000     
  -5.6441249243754932E-012  0.10523123067340034        0.0000000000000000     
  -7.6443324326797013E-012  0.11219984141309974        0.0000000000000000     
  -9.7377942298235154E-012  0.11930813950066549        0.0000000000000000     
  -1.1924508770818840E-011  0.12655612493609752        0.0000000000000000     
  -1.4204478739066051E-011  0.13394379771939594        0.0000000000000000     
   2.1605408381172087E-002  0.13402753650634952        0.0000000000000000     
   2.2075232483936308E-002  0.14146756105006414        0.0000000000000000     
   2.2494898846650218E-002  0.14897784779725579        0.0000000000000000     
   2.2864407469313827E-002  0.15655839674792457        0.0000000000000000     
   2.3183758351927125E-002  0.16420920790207039        0.0000000000000000     
   1.6217068027279458E-002  0.13399090078808051        0.0000000000000000     
   1.6579860638749673E-002  0.14147289630870211        0.0000000000000000     
   1.6901427445423015E-002  0.14906305084724514        0.0000000000000000     
   1.7181768447299482E-002  0.15676136440370961        0.0000000000000000     
   1.7420883644379083E-002  0.16456783697809554        0.0000000000000000     
   1.0820053176752487E-002  0.13396473241749857        0.0000000000000000     
   1.1068864606953929E-002  0.14147670720688177        0.0000000000000000     
   1.1287787167473425E-002  0.14912391016683454        0.0000000000000000     
   1.1476820858310978E-002  0.15690634129735698        0.0000000000000000     
   1.1635965679466585E-002  0.16482400059844901        0.0000000000000000     
   5.4143638295911763E-003  0.13394903139460371        0.0000000000000000     
   5.5422443885490792E-003  0.14147899374460310        0.0000000000000000     
   5.6539780128014548E-003  0.14916042575602409        0.0000000000000000     
   5.7495647023483049E-003  0.15699332742886665        0.0000000000000000     
   5.8290044571896321E-003  0.16497769876313079        0.0000000000000000     
  -1.4204478739066051E-011  0.13394379771939594        0.0000000000000000     
  -1.6464881758340710E-011  0.14147975592186615        0.0000000000000000     
  -1.8592898379764244E-011  0.14917259761481372        0.0000000000000000     
  -2.0588529226752902E-011  0.15702232279823863        0.0000000000000000     
  -2.2451773079579240E-011  0.16502893147214093        0.0000000000000000     
   0.0000000000000000        0.0000000000000000        0.0000000000000000     
   2.5757418116792441E-014   1.0741714986331058E-003   0.0000000000000000     
   5.5998608528007310E-014   2.5172078954563497E-003   0.0000000000000000     
   9.0723381498264422E-014   4.3291091904697331E-003   0.0000000000000000     
   1.2993181834272671E-013   6.5098753836732538E-003   0.0000000000000000     
   0.0000000000000000        0.0000000000000000        0.0000000000000000     
  -2.1287908482698760E-004   1.0764394362487838E-003   0.0000000000000000     
  -4.2677673608396279E-004   2.5223269251168465E-003   0.0000000000000000     
  -6.4169295377092532E-004   4.3376624666041884E-003   0.0000000000000000     
  -8.5762773788787539E-004   6.5224460607108100E-003   0.0000000000000000     
   0.0000000000000000        0.0000000000000000        0.0000000000000000     
  -4.2406730960986740E-004   1.0832432491097793E-003   0.0000000000000000     
  -8.5261318320357710E-004   2.5376840141242444E-003   0.0000000000000000     
  -1.2856376207811290E-003   4.3633222950433953E-003   0.0000000000000000     
  -1.7231406223425232E-003   6.5601580918672299E-003   0.0000000000000000     
   0.0000000000000000        0.0000000000000000        0.0000000000000000     
  -6.3356467432288213E-004   1.0945829372160927E-003   0.0000000000000000     
  -1.2775093413028447E-003   2.5632791624785427E-003   0.0000000000000000     
  -1.9318340009398878E-003   4.4060886757873504E-003   0.0000000000000000     
  -2.5965386532340114E-003   6.6230114771425137E-003   0.0000000000000000     
   0.0000000000000000        0.0000000000000000        0.0000000000000000     
  -8.4137117896603149E-004   1.1104585005677237E-003   0.0000000000000000     
  -1.7014652103817653E-003   2.5991123701797417E-003   0.0000000000000000     
  -2.5802820942472013E-003   4.4659616088360554E-003   0.0000000000000000     
  -3.4778218305623397E-003   6.7110062165366630E-003   0.0000000000000000     
   1.2993181834272671E-013   6.5098753836732538E-003   0.0000000000000000     
   1.7199941828877768E-013   9.0322222649027346E-003   0.0000000000000000     
   2.1530145017083918E-013   1.1868865623994002E-002   0.0000000000000000     
   2.5983781573308933E-013   1.5019805460947052E-002   0.0000000000000000     
   3.0560840316717908E-013   1.8485041775761882E-002   0.0000000000000000     
  -8.5762773788787539E-004   6.5224460607108100E-003   0.0000000000000000     
  -1.0757013967356685E-003   9.0487652973832121E-003   0.0000000000000000     
  -1.2970342386151594E-003   1.1888707766567901E-002   0.0000000000000000     
  -1.5216262635263482E-003   1.5042273468264880E-002   0.0000000000000000     
  -1.7494774714692353E-003   1.8509462402474142E-002   0.0000000000000000     
  -1.7231406223425232E-003   6.5601580918672299E-003   0.0000000000000000     
  -2.1652311713465373E-003   9.0983943948743460E-003   0.0000000000000000     
  -2.6120182512519496E-003   1.1948234194343346E-002   0.0000000000000000     
  -3.0635018620587592E-003   1.5109677490274219E-002   0.0000000000000000     
  -3.5196820037669664E-003   1.8582724282666975E-002   0.0000000000000000     
  -2.5965386532340114E-003   6.6230114771425137E-003   0.0000000000000000     
  -3.2685893236606071E-003   9.1811095573761381E-003   0.0000000000000000     
  -3.9449520376950683E-003   1.2047444907320324E-002   0.0000000000000000     
  -4.6256267953373948E-003   1.5222017526975076E-002   0.0000000000000000     
  -5.3106135965875871E-003   1.8704827416340393E-002   0.0000000000000000     
  -3.4778218305623397E-003   6.7110062165366630E-003   0.0000000000000000     
  -4.3857758536778781E-003   9.2969107848885867E-003   0.0000000000000000     
  -5.2958355979445173E-003   1.2186339905498847E-002   0.0000000000000000     
  -6.2080010633622567E-003   1.5379293578367443E-002   0.0000000000000000     
  -7.1222722499310947E-003   1.8875771803494375E-002   0.0000000000000000     
   3.0560840316717908E-013   1.8485041775761882E-002   0.0000000000000000     
   3.5667573495407057E-013   2.2235131717083797E-002   0.0000000000000000     
   4.1710265883537767E-013   2.6240632433558096E-002   0.0000000000000000     
   4.8688735877246148E-013   3.0501543925184782E-002   0.0000000000000000     
   5.6603224711515576E-013   3.5017866191963849E-002   0.0000000000000000     
  -1.7494774714692353E-003   1.8509462402474142E-002   0.0000000000000000     
  -1.9772254992389900E-003   2.2261060230554953E-002   0.0000000000000000     
  -2.2015079836307833E-003   2.6267852613866584E-002   0.0000000000000000     
  -2.4223249246446148E-003   3.0529839552409021E-002   0.0000000000000000     
  -2.6396763222804845E-003   3.5047021046182271E-002   0.0000000000000000     
  -3.5196820037669664E-003   1.8582724282666975E-002   0.0000000000000000     
  -3.9750127777647363E-003   2.2338845771027495E-002   0.0000000000000000     
  -4.4239482854402309E-003   2.6349513154861649E-002   0.0000000000000000     
  -4.8664885267934513E-003   3.0614726434169449E-002   0.0000000000000000     
  -5.3026335018243982E-003   3.5134485608950883E-002   0.0000000000000000     
  -5.3106135965875871E-003   1.8704827416340393E-002   0.0000000000000000     
  -5.9933618352205629E-003   2.2468488338501416E-002   0.0000000000000000     
  -6.6673209050112413E-003   2.6485614056543302E-002   0.0000000000000000     
  -7.3324908059596225E-003   3.0756204570466055E-002   0.0000000000000000     
  -7.9888715380657081E-003   3.5280259880269671E-002   0.0000000000000000     
  -7.1222722499310947E-003   1.8875771803494375E-002   0.0000000000000000     
  -8.0322726716064684E-003   2.2649987932976720E-002   0.0000000000000000     
  -8.9316258423438131E-003   2.6676155318911543E-002   0.0000000000000000     
  -9.8203317621431280E-003   3.0954273961298850E-002   0.0000000000000000     
  -1.0698390431004415E-002   3.5484343860138642E-002   0.0000000000000000     
   5.6603224711515576E-013   3.5017866191963849E-002   0.0000000000000000     
   6.5497249551044190E-013   3.9771443262229596E-002   0.0000000000000000     
   7.5414490190855998E-013   4.4744119164316330E-002   0.0000000000000000     
   8.6354802974163147E-013   4.9935893898224060E-002   0.0000000000000000     
   9.8318402030894703E-013   5.5346767463952770E-002   0.0000000000000000     
  -2.6396763222804845E-003   3.5047021046182271E-002   0.0000000000000000     
  -2.8534440712484096E-003   3.9801046280800299E-002   0.0000000000000000     
  -3.0635100662584104E-003   4.4773564441877044E-002   0.0000000000000000     
  -3.2698743073104838E-003   4.9964575529412518E-002   0.0000000000000000     
  -3.4725367944046306E-003   5.5374079543406708E-002   0.0000000000000000     
  -5.3026335018243982E-003   3.5134485608950883E-002   0.0000000000000000     
  -5.7311867089360853E-003   3.9889855336661770E-002   0.0000000000000000     
  -6.1509516465315297E-003   4.4861900274757893E-002   0.0000000000000000     
  -6.5619283146107314E-003   5.0050620423239267E-002   0.0000000000000000     
  -6.9641167131736922E-003   5.5456015782105884E-002   0.0000000000000000     
  -7.9888715380657081E-003   3.5280259880269671E-002   0.0000000000000000     
  -8.6332279124080504E-003   4.0037870429814000E-002   0.0000000000000000     
  -9.2623247400652180E-003   4.5009126662958872E-002   0.0000000000000000     
  -9.8761620210371971E-003   5.0194028579704307E-002   0.0000000000000000     
  -1.0474739755324000E-002   5.5592576180050285E-002   0.0000000000000000     
  -1.0698390431004415E-002   3.5484343860138642E-002   0.0000000000000000     
  -1.1559567681664315E-002   4.0245091560256990E-002   0.0000000000000000     
  -1.2397629346859472E-002   4.5215243606479993E-002   0.0000000000000000     
  -1.3212575426589882E-002   5.0394799998807638E-002   0.0000000000000000     
  -1.4004405920855554E-002   5.5783760737239937E-002   0.0000000000000000     
   9.8318402030894703E-013   5.5346767463952770E-002   0.0000000000000000     
   9.9954040270328059E-013   6.0959827670219471E-002   0.0000000000000000     
   7.9910541074881825E-013   6.6758162325741180E-002   0.0000000000000000     
   3.8187894957786989E-013   7.2741771430517854E-002   0.0000000000000000     
  -2.5213793726497347E-013   7.8910654984549522E-002   0.0000000000000000     
  -3.4725367944046306E-003   5.5374079543406708E-002   0.0000000000000000     
  -3.6702487303172261E-003   6.0985526725196498E-002   0.0000000000000000     
  -3.8617613178246451E-003   6.6782367316118765E-002   0.0000000000000000     
  -4.0470745569268851E-003   7.2764601316173502E-002   0.0000000000000000     
  -4.2261884476239488E-003   7.8932228725360709E-002   0.0000000000000000     
  -6.9641167131736922E-003   5.5456015782105884E-002   0.0000000000000000     
  -7.3559589433761906E-003   6.1062623890478326E-002   0.0000000000000000     
  -7.7358971063740158E-003   6.6854982287477147E-002   0.0000000000000000     
  -8.1039312021671684E-003   7.2833090973102380E-002   0.0000000000000000     
  -8.4600612307556451E-003   7.8996949947353998E-002   0.0000000000000000     
  -1.0474739755324000E-002   5.5592576180050285E-002   0.0000000000000000     
  -1.1057130638177357E-002   6.1191119166064935E-002   0.0000000000000000     
  -1.1622407364849017E-002   6.6976007239816324E-002   0.0000000000000000     
  -1.2170569935338972E-002   7.2947240401304472E-002   0.0000000000000000     
  -1.2701618349647229E-002   7.9104818650529346E-002   0.0000000000000000     
  -1.4004405920855554E-002   5.5783760737239937E-002   0.0000000000000000     
  -1.4773763814720720E-002   6.1371012551956330E-002   0.0000000000000000     
  -1.5521292093249636E-002   6.7145442173136283E-002   0.0000000000000000     
  -1.6246990756442297E-002   7.3107049600779767E-002   0.0000000000000000     
  -1.6950859804298699E-002   7.9255834834886810E-002   0.0000000000000000     
  -2.5213793726497347E-013   7.8910654984549522E-002   0.0000000000000000     
  -1.1459474862085539E-012   8.5251831549097087E-002   0.0000000000000000     
  -2.3425468921416115E-012   9.1752319685421399E-002   0.0000000000000000     
  -3.8419408035809607E-012   9.8412119393522485E-002   0.0000000000000000     
  -5.6441249243754932E-012  0.10523123067340034        0.0000000000000000     
  -4.2261884476239488E-003   7.8932228725360709E-002   0.0000000000000000     
  -4.3978333531533827E-003   8.5272127931246611E-002   0.0000000000000000     
  -4.5607396367527342E-003   9.1771177321397432E-002   0.0000000000000000     
  -4.7149072984220015E-003   9.8429376895813145E-002   0.0000000000000000     
  -4.8603363381611864E-003  0.10524672665449381        0.0000000000000000     
  -8.4600612307556451E-003   7.8996949947353998E-002   0.0000000000000000     
  -8.8018458589807207E-003   8.5333017076885800E-002   0.0000000000000000     
  -9.1268437536836753E-003   9.1827750228351657E-002   0.0000000000000000     
  -9.4350549148644967E-003   9.8481149401751539E-002   0.0000000000000000     
  -9.7264793425231900E-003  0.10529321459708545        0.0000000000000000     
  -1.2701618349647229E-002   7.9104818650529346E-002   0.0000000000000000     
  -1.3212037518627968E-002   8.5434498986014670E-002   0.0000000000000000     
  -1.3698312353135364E-002   9.1922038406284087E-002   0.0000000000000000     
  -1.4160442853169421E-002   9.8567436911337625E-002   0.0000000000000000     
  -1.4598429018730137E-002  0.10537069450117524        0.0000000000000000     
  -1.6950859804298699E-002   7.9255834834886810E-002   0.0000000000000000     
  -1.7628408332095117E-002   8.5576573658633193E-002   0.0000000000000000     
  -1.8275145435107810E-002   9.2054041855194738E-002   0.0000000000000000     
  -1.8891071113336780E-002   9.8688239424571417E-002   0.0000000000000000     
  -1.9476185366782028E-002  0.10547916636676323        0.0000000000000000     
  -5.6441249243754932E-012  0.10523123067340034        0.0000000000000000     
  -7.6443324326797013E-012  0.11219984141309974        0.0000000000000000     
  -9.7377942298235154E-012  0.11930813950066549        0.0000000000000000     
  -1.1924508770818840E-011  0.12655612493609752        0.0000000000000000     
  -1.4204478739066051E-011  0.13394379771939594        0.0000000000000000     
  -4.8603363381611864E-003  0.10524672665449381        0.0000000000000000     
  -5.0007578546979676E-003  0.11221331433869647        0.0000000000000000     
  -5.1399029467600211E-003  0.11931922768967822        0.0000000000000000     
  -5.2777716143473452E-003  0.12656446670743907        0.0000000000000000     
  -5.4143638574599444E-003  0.13394903139197900        0.0000000000000000     
  -9.7264793425231900E-003  0.10529321459708545        0.0000000000000000     
  -1.0007101004476261E-002  0.11225373311527183        0.0000000000000000     
  -1.0282903868540198E-002  0.11935249225722917        0.0000000000000000     
  -1.0553887934715010E-002  0.12658949202295749        0.0000000000000000     
  -1.0820053203000692E-002  0.13396473241245674        0.0000000000000000     
  -1.4598429018730137E-002  0.10537069450117524        0.0000000000000000     
  -1.5019029456979211E-002  0.11232109774282588        0.0000000000000000     
  -1.5429002775078327E-002  0.11940793320331840        0.0000000000000000     
  -1.5828348973027501E-002  0.12663120088265281        0.0000000000000000     
  -1.6217068050826719E-002  0.13399090078082912        0.0000000000000000     
  -1.9476185366782028E-002  0.10547916636676323        0.0000000000000000     
  -2.0036543212206822E-002  0.11241540822135856        0.0000000000000000     
  -2.0578199666374412E-002  0.11948555052794584        0.0000000000000000     
  -2.1101154729284817E-002  0.12668959328652504        0.0000000000000000     
  -2.1605408400938022E-002  0.13402753649709614        0.0000000000000000     
  -1.4204478739066051E-011  0.13394379771939594        0.0000000000000000     
  -1.6464881758340710E-011  0.14147975592186615        0.0000000000000000     
  -1.8592898379764244E-011  0.14917259761481372        0.0000000000000000     
  -2.0588529226752902E-011  0.15702232279823863        0.0000000000000000     
  -2.2451773079579240E-011  0.16502893147214093        0.0000000000000000     
  -5.4143638574599444E-003  0.13394903139197900        0.0000000000000000     
  -5.5422444208464488E-003  0.14147899373907338        0.0000000000000000     
  -5.6539780492554899E-003  0.14916042574449756        0.0000000000000000     
  -5.7495647426870685E-003  0.15699332740825150        0.0000000000000000     
  -5.8290045011411881E-003  0.16497769873033521        0.0000000000000000     
  -1.0820053203000692E-002  0.13396473241245674        0.0000000000000000     
  -1.1068864637354120E-002  0.14147670719662733        0.0000000000000000     
  -1.1287787201732177E-002  0.14912391014636966        0.0000000000000000     
  -1.1476820896134858E-002  0.15690634126168373        0.0000000000000000     
  -1.1635965720562171E-002  0.16482400054256954        0.0000000000000000     
  -1.6217068050826719E-002  0.13399090078082912        0.0000000000000000     
  -1.6579860665987899E-002  0.14147289629452797        0.0000000000000000     
  -1.6901427476022961E-002  0.14906305082043003        0.0000000000000000     
  -1.7181768480931899E-002  0.15676136435853538        0.0000000000000000     
  -1.7420883680714712E-002  0.16456783690884394        0.0000000000000000     
  -2.1605408400938022E-002  0.13402753649709614        0.0000000000000000     
  -2.2075232506747779E-002  0.14146756103277530        0.0000000000000000     
  -2.2494898872127835E-002  0.14897784776667874        0.0000000000000000     
  -2.2864407497078180E-002  0.15655839669880642        0.0000000000000000     
  -2.3183758381598828E-002  0.16420920782915838        0.0000000000000000     
   0.0000000000000000        0.0000000000000000        0.0000000000000000     
  -8.4137117896603149E-004   1.1104585005677237E-003   0.0000000000000000     
  -1.7014652103817653E-003   2.5991123701797417E-003   0.0000000000000000     
  -2.5802820942472013E-003   4.4659616088360554E-003   0.0000000000000000     
  -3.4778218305623397E-003   6.7110062165366630E-003   0.0000000000000000     
   0.0000000000000000        0.0000000000000000        0.0000000000000000     
  -1.0563864986060456E-003   1.1344568439647430E-003   0.0000000000000000     
  -2.1390332322947345E-003   2.6510662289272952E-003   0.0000000000000000     
  -3.2479402010660648E-003   4.5498281548876553E-003   0.0000000000000000     
  -4.3831074049200383E-003   6.8307426218458256E-003   0.0000000000000000     
   0.0000000000000000        0.0000000000000000        0.0000000000000000     
  -1.2875103083096549E-003   1.1701648722072214E-003   0.0000000000000000     
  -2.6047658488961472E-003   2.7250233304206522E-003   0.0000000000000000     
  -3.9517666217594744E-003   4.6645753746402943E-003   0.0000000000000000     
  -5.3285126268996386E-003   6.9888210048661458E-003   0.0000000000000000     
   0.0000000000000000        0.0000000000000000        0.0000000000000000     
  -1.5347426080768590E-003   1.2175825852951587E-003   0.0000000000000000     
  -3.0986630601860026E-003   2.8209836746598163E-003   0.0000000000000000     
  -4.6917613563274294E-003   4.8102032680939722E-003   0.0000000000000000     
  -6.3140374965011403E-003   7.1852413655976296E-003   0.0000000000000000     
   0.0000000000000000        0.0000000000000000        0.0000000000000000     
  -1.7980833979076582E-003   1.2767099832285550E-003   0.0000000000000000     
  -3.6207248661643018E-003   2.9389472616447852E-003   0.0000000000000000     
  -5.4679244047699310E-003   4.9867118352486910E-003   0.0000000000000000     
  -7.3396820137245442E-003   7.4200037040402728E-003   0.0000000000000000     
  -3.4778218305623397E-003   6.7110062165366630E-003   0.0000000000000000     
  -4.3857758536778781E-003   9.2969107848885867E-003   0.0000000000000000     
  -5.2958355979445173E-003   1.2186339905498847E-002   0.0000000000000000     
  -6.2080010633622567E-003   1.5379293578367443E-002   0.0000000000000000     
  -7.1222722499310947E-003   1.8875771803494375E-002   0.0000000000000000     
  -4.3831074049200383E-003   6.8307426218458256E-003   0.0000000000000000     
  -5.5315090386507618E-003   9.4517643392663074E-003   0.0000000000000000     
  -6.6801192970523384E-003   1.2370848016613603E-002   0.0000000000000000     
  -7.8289381801247698E-003   1.5587993653887714E-002   0.0000000000000000     
  -8.9779656878680586E-003   1.9103201251088643E-002   0.0000000000000000     
  -5.3285126268996386E-003   6.9888210048661458E-003   0.0000000000000000     
  -6.7205071558316650E-003   9.6516364823639109E-003   0.0000000000000000     
  -8.1132535000705761E-003   1.2606898068399290E-002   0.0000000000000000     
  -9.5067516596163710E-003   1.5854605762972280E-002   0.0000000000000000     
  -1.0901001634469054E-002   1.9394759566082886E-002   0.0000000000000000     
  -6.3140374965011403E-003   7.1852413655976296E-003   0.0000000000000000     
  -7.9527702052205884E-003   9.8965272141814005E-003   0.0000000000000000     
  -9.5952382069992275E-003   1.2894490060855905E-002   0.0000000000000000     
  -1.1241441501837059E-002   1.6179129905621144E-002   0.0000000000000000     
  -1.2891380089734075E-002   1.9750446748477112E-002   0.0000000000000000     
  -7.3396820137245442E-003   7.4200037040402728E-003   0.0000000000000000     
  -9.2282981868175348E-003   1.0186436534718776E-002   0.0000000000000000     
  -1.1126073417838297E-002   1.3233623993983453E-002   0.0000000000000000     
  -1.3033007706786826E-002   1.6561566081834296E-002   0.0000000000000000     
  -1.4949101053663127E-002   2.0170262798271318E-002   0.0000000000000000     
  -7.1222722499310947E-003   1.8875771803494375E-002   0.0000000000000000     
  -8.0322726716064684E-003   2.2649987932976720E-002   0.0000000000000000     
  -8.9316258423438131E-003   2.6676155318911543E-002   0.0000000000000000     
  -9.8203317621431280E-003   3.0954273961298850E-002   0.0000000000000000     
  -1.0698390431004415E-002   3.5484343860138642E-002   0.0000000000000000     
  -8.9779656878680586E-003   1.9103201251088643E-002   0.0000000000000000     
  -1.0120202468565357E-002   2.2891882861434749E-002   0.0000000000000000     
  -1.1248649170499810E-002   2.6929450538144394E-002   0.0000000000000000     
  -1.2363305793671430E-002   3.1215904281217580E-002   0.0000000000000000     
  -1.3464172338080208E-002   3.5751244090654298E-002   0.0000000000000000     
  -1.0901001634469054E-002   1.9394759566082886E-002   0.0000000000000000     
  -1.2285608407740128E-002   2.3202711430856841E-002   0.0000000000000000     
  -1.3650176962541108E-002   2.7253813310419872E-002   0.0000000000000000     
  -1.4994707298871991E-002   3.1548065204771984E-002   0.0000000000000000     
  -1.6319199416732776E-002   3.6085467113913174E-002   0.0000000000000000     
  -1.2891380089734075E-002   1.9750446748477112E-002   0.0000000000000000     
  -1.4528490489130788E-002   2.3582473641242999E-002   0.0000000000000000     
  -1.6136209218467701E-002   2.7649243635737987E-002   0.0000000000000000     
  -1.7714536277744809E-002   3.1950756731962071E-002   0.0000000000000000     
  -1.9263471666962125E-002   3.6487012929915255E-002   0.0000000000000000     
  -1.4949101053663127E-002   2.0170262798271318E-002   0.0000000000000000     
  -1.6848848712737334E-002   2.4031169492593221E-002   0.0000000000000000     
  -1.8706745938279586E-002   2.8115741514098725E-002   0.0000000000000000     
  -2.0522792730289893E-002   3.2423978862787840E-002   0.0000000000000000     
  -2.2296989088768242E-002   3.6955881538660550E-002   0.0000000000000000     
  -1.0698390431004415E-002   3.5484343860138642E-002   0.0000000000000000     
  -1.1559567681664315E-002   4.0245091560256990E-002   0.0000000000000000     
  -1.2397629346859472E-002   4.5215243606479993E-002   0.0000000000000000     
  -1.3212575426589882E-002   5.0394799998807638E-002   0.0000000000000000     
  -1.4004405920855554E-002   5.5783760737239937E-002   0.0000000000000000     
  -1.3464172338080208E-002   3.5751244090654298E-002   0.0000000000000000     
  -1.4542626826539139E-002   4.0513796263310774E-002   0.0000000000000000     
  -1.5590047281861218E-002   4.5481887096043234E-002   0.0000000000000000     
  -1.6606433704046443E-002   5.0655516588851660E-002   0.0000000000000000     
  -1.7591786093094818E-002   5.6034684741736063E-002   0.0000000000000000     
  -1.6319199416732776E-002   3.6085467113913174E-002   0.0000000000000000     
  -1.7614826156866797E-002   4.0846262074295391E-002   0.0000000000000000     
  -1.8872760360017386E-002   4.5810693122370599E-002   0.0000000000000000     
  -2.0093002026184536E-002   5.0978760258138772E-002   0.0000000000000000     
  -2.1275551155368257E-002   5.6350463481599937E-002   0.0000000000000000     
  -1.9263471666962125E-002   3.6487012929915255E-002   0.0000000000000000     
  -2.0776165672647288E-002   4.1242488993210820E-002   0.0000000000000000     
  -2.2245768581327964E-002   4.6201661685462067E-002   0.0000000000000000     
  -2.3672280393004157E-002   5.1364531006668976E-002   0.0000000000000000     
  -2.5055701107675864E-002   5.6731096956831553E-002   0.0000000000000000     
  -2.2296989088768242E-002   3.6955881538660550E-002   0.0000000000000000     
  -2.4026645373880610E-002   4.1702477020057083E-002   0.0000000000000000     
  -2.5709071945792965E-002   4.6654792785317652E-002   0.0000000000000000     
  -2.7344268804505311E-002   5.1812828834442257E-002   0.0000000000000000     
  -2.8932235950017645E-002   5.7176585167430911E-002   0.0000000000000000     
  -1.4004405920855554E-002   5.5783760737239937E-002   0.0000000000000000     
  -1.4773763814720720E-002   6.1371012551956330E-002   0.0000000000000000     
  -1.5521292093249636E-002   6.7145442173136283E-002   0.0000000000000000     
  -1.6246990756442297E-002   7.3107049600779767E-002   0.0000000000000000     
  -1.6950859804298699E-002   7.9255834834886810E-002   0.0000000000000000     
  -1.7591786093094818E-002   5.6034684741736063E-002   0.0000000000000000     
  -1.8548283829913546E-002   6.1610405764780933E-002   0.0000000000000000     
  -1.9478106295409844E-002   6.7373693868070739E-002   0.0000000000000000     
  -2.0381253489583716E-002   7.3324549051605487E-002   0.0000000000000000     
  -2.1257725412435154E-002   7.9462971315385184E-002   0.0000000000000000     
  -2.1275551155368257E-002   5.6350463481599937E-002   0.0000000000000000     
  -2.2423116040663087E-002   6.1917400521167149E-002   0.0000000000000000     
  -2.3538404975163612E-002   6.7671169105253434E-002   0.0000000000000000     
  -2.4621417958869803E-002   7.3611769233858829E-002   0.0000000000000000     
  -2.5672154991781677E-002   7.9739200906983290E-002   0.0000000000000000     
  -2.5055701107675864E-002   5.6731096956831553E-002   0.0000000000000000     
  -2.6398260446969357E-002   6.2291996821114956E-002   0.0000000000000000     
  -2.7702188132510925E-002   6.8037867884684383E-002   0.0000000000000000     
  -2.8967484164300571E-002   7.3968710147539765E-002   0.0000000000000000     
  -3.0194148542338286E-002   8.0084523609681171E-002   0.0000000000000000     
  -2.8932235950017645E-002   5.7176585167430911E-002   0.0000000000000000     
  -3.0473717048832349E-002   6.2734194664624404E-002   0.0000000000000000     
  -3.1969455767451804E-002   6.8473790206363544E-002   0.0000000000000000     
  -3.3419452105876005E-002   7.4395371792648324E-002   0.0000000000000000     
  -3.4823706064104967E-002   8.0498939423478758E-002   0.0000000000000000     
  -1.6950859804298699E-002   7.9255834834886810E-002   0.0000000000000000     
  -1.7628408332095117E-002   8.5576573658633193E-002   0.0000000000000000     
  -1.8275145435107810E-002   9.2054041855194738E-002   0.0000000000000000     
  -1.8891071113336780E-002   9.8688239424571417E-002   0.0000000000000000     
  -1.9476185366782028E-002  0.10547916636676323        0.0000000000000000     
  -2.1257725412435154E-002   7.9462971315385184E-002   0.0000000000000000     
  -2.2102275546824250E-002   8.5773065114927549E-002   0.0000000000000000     
  -2.2909657375611098E-002   9.2238934905750261E-002   0.0000000000000000     
  -2.3679870898795700E-002   9.8860580687853361E-002   0.0000000000000000     
  -2.4412916116378060E-002  0.10563800246123685        0.0000000000000000     
  -2.5672154991781677E-002   7.9739200906983290E-002   0.0000000000000000     
  -2.6684956410257445E-002   8.6037797375083838E-002   0.0000000000000000     
  -2.7654162550655323E-002   9.2491891888617409E-002   0.0000000000000000     
  -2.8579773412975320E-002   9.9101484447583960E-002   0.0000000000000000     
  -2.9461788997217426E-002  0.10586657505198355        0.0000000000000000     
  -3.0194148542338286E-002   8.0084523609681171E-002   0.0000000000000000     
  -3.1376450922394709E-002   8.6370770439102088E-002   0.0000000000000000     
  -3.2508660960240493E-002   9.2812912803796097E-002   0.0000000000000000     
  -3.3590778655875633E-002   9.9410950703763185E-002   0.0000000000000000     
  -3.4622804009300130E-002  0.10616488413900338        0.0000000000000000     
  -3.4823706064104967E-002   8.0498939423478758E-002   0.0000000000000000     
  -3.6176759083236039E-002   8.6771984306982311E-002   0.0000000000000000     
  -3.7473152604366601E-002   9.3201997651286408E-002   0.0000000000000000     
  -3.8712886627496647E-002   9.9788979456391064E-002   0.0000000000000000     
  -3.9895961152626176E-002  0.10653292972229628        0.0000000000000000     
  -1.9476185366782028E-002  0.10547916636676323        0.0000000000000000     
  -2.0036543212206822E-002  0.11241540822135856        0.0000000000000000     
  -2.0578199666374412E-002  0.11948555052794584        0.0000000000000000     
  -2.1101154729284817E-002  0.12668959328652504        0.0000000000000000     
  -2.1605408400938022E-002  0.13402753649709614        0.0000000000000000     
  -2.4412916116378060E-002  0.10563800246123685        0.0000000000000000     
  -2.5113864415245025E-002  0.11255916761429643        0.0000000000000000     
  -2.5787787182283473E-002  0.11961204353542783        0.0000000000000000     
  -2.6434684417493394E-002  0.12679663022463109        0.0000000000000000     
  -2.7054556120874790E-002  0.13411292768190614        0.0000000000000000     
  -2.9461788997217426E-002  0.10586657505198355        0.0000000000000000     
  -3.0305215211179782E-002  0.11277487898506589        0.0000000000000000     
  -3.1115057962660533E-002  0.11981411153008066        0.0000000000000000     
  -3.1891317251659675E-002  0.12698427268702786        0.0000000000000000     
  -3.2633993078177201E-002  0.13428536245590753        0.0000000000000000     
  -3.4622804009300130E-002  0.10616488413900338        0.0000000000000000     
  -3.5610595600011077E-002  0.11306254233366696        0.0000000000000000     
  -3.6560012007505596E-002  0.12009175451190432        0.0000000000000000     
  -3.7471053231783638E-002  0.12725252067371540        0.0000000000000000     
  -3.8343719272845245E-002  0.13454484081910029        0.0000000000000000     
  -3.9895961152626176E-002  0.10653292972229628        0.0000000000000000     
  -4.1030005581738922E-002  0.11342215766009967        0.0000000000000000     
  -4.2122649316818632E-002  0.12044497248089880        0.0000000000000000     
  -4.3173892357865305E-002  0.12760137418469369        0.0000000000000000     
  -4.4183734704878935E-002  0.13489136277148439        0.0000000000000000     
  -2.1605408400938022E-002  0.13402753649709614        0.0000000000000000     
  -2.2075232506747779E-002  0.14146756103277530        0.0000000000000000     
  -2.2494898872127835E-002  0.14897784776667874        0.0000000000000000     
  -2.2864407497078180E-002  0.15655839669880642        0.0000000000000000     
  -2.3183758381598828E-002  0.16420920782915838        0.0000000000000000     
  -2.7054556120874790E-002  0.13411292768190614        0.0000000000000000     
  -2.7632147781583686E-002  0.14151435599779924        0.0000000000000000     
  -2.8152204888776095E-002  0.14895433526285659        0.0000000000000000     
  -2.8614727442452022E-002  0.15643286547707813        0.0000000000000000     
  -2.9019715442611463E-002  0.16394994664046386        0.0000000000000000     
  -3.2633993078177201E-002  0.13428536245590753        0.0000000000000000     
  -3.3327774112445516E-002  0.14166693577602971        0.0000000000000000     
  -3.3957349024697013E-002  0.14907854758670441        0.0000000000000000     
  -3.4522717814931700E-002  0.15652019788793167        0.0000000000000000     
  -3.5023880483149569E-002  0.16399188667971148        0.0000000000000000     
  -3.8343719272845245E-002  0.13454484081910029        0.0000000000000000     
  -3.9162111499333289E-002  0.14192530036746664        0.0000000000000000     
  -3.9910331279890611E-002  0.14935048473822221        0.0000000000000000     
  -4.0588378614517237E-002  0.15682039393136710        0.0000000000000000     
  -4.1196253503213168E-002  0.16433502794690114        0.0000000000000000     
  -4.4183734704878935E-002  0.13489136277148439        0.0000000000000000     
  -4.5135159942246983E-002  0.14228944977211011        0.0000000000000000     
  -4.6011151654356867E-002  0.14977014671741004        0.0000000000000000     
  -4.6811709841208624E-002  0.15733345360738432        0.0000000000000000     
  -4.7536834502802230E-002  0.16497937044203292        0.0000000000000000     
   0.0000000000000000        0.0000000000000000        0.0000000000000000     
  -1.7980833979076582E-003   1.2767099832285550E-003   0.0000000000000000     
  -3.6207248661643018E-003   2.9389472616447852E-003   0.0000000000000000     
  -5.4679244047699310E-003   4.9867118352486910E-003   0.0000000000000000     
  -7.3396820137245442E-003   7.4200037040402728E-003   0.0000000000000000     
   0.0000000000000000        0.0000000000000000        0.0000000000000000     
  -2.0692617167100452E-003   1.3546697463186078E-003   0.0000000000000000     
  -4.1635942976180843E-003   3.0934612645050130E-003   0.0000000000000000     
  -6.2829977427241168E-003   5.2163745545592156E-003   0.0000000000000000     
  -8.4274720520281423E-003   7.7234096164812164E-003   0.0000000000000000     
   0.0000000000000000        0.0000000000000000        0.0000000000000000     
  -2.3400066033920129E-003   1.4585845548765141E-003   0.0000000000000000     
  -4.7199143853343881E-003   3.2990728563699521E-003   0.0000000000000000     
  -7.1397233458271236E-003   5.5214649044803147E-003   0.0000000000000000     
  -9.5994334848702231E-003   8.1257606992075990E-003   0.0000000000000000     
   0.0000000000000000        0.0000000000000000        0.0000000000000000     
  -2.6103180579535620E-003   1.5884544089022742E-003   0.0000000000000000     
  -5.2896851293132143E-003   3.5557820372396024E-003   0.0000000000000000     
  -8.0381012140789566E-003   5.9019828850119856E-003   0.0000000000000000     
  -1.0855566312250788E-002   8.6270569522194206E-003   0.0000000000000000     
   0.0000000000000000        0.0000000000000000        0.0000000000000000     
  -2.8801960803946924E-003   1.7442793083958883E-003   0.0000000000000000     
  -5.8729065295545623E-003   3.8635888071139645E-003   0.0000000000000000     
  -8.9781313474796114E-003   6.3579284961542302E-003   0.0000000000000000     
  -1.2195870534169838E-002   9.2272983755166821E-003   0.0000000000000000     
  -7.3396820137245442E-003   7.4200037040402728E-003   0.0000000000000000     
  -9.2282981868175348E-003   1.0186436534718776E-002   0.0000000000000000     
  -1.1126073417838297E-002   1.3233623993983453E-002   0.0000000000000000     
  -1.3033007706786826E-002   1.6561566081834296E-002   0.0000000000000000     
  -1.4949101053663127E-002   2.0170262798271318E-002   0.0000000000000000     
  -8.4274720520281423E-003   7.7234096164812164E-003   0.0000000000000000     
  -1.0588670605973400E-002   1.0557195504537884E-002   0.0000000000000000     
  -1.2758246785003138E-002   1.3660361272996090E-002   0.0000000000000000     
  -1.4936200589117352E-002   1.7032906921855832E-002   0.0000000000000000     
  -1.7122532018316039E-002   2.0674832451117120E-002   0.0000000000000000     
  -9.5994334848702231E-003   8.1257606992075990E-003   0.0000000000000000     
  -1.2075466968039085E-002   1.1044635184200569E-002   0.0000000000000000     
  -1.4544245960909108E-002   1.4210763303107979E-002   0.0000000000000000     
  -1.7005770463480299E-002   1.7624145055929838E-002   0.0000000000000000     
  -1.9460040475752654E-002   2.1284780442666136E-002   0.0000000000000000     
  -1.0855566312250788E-002   8.6270569522194206E-003   0.0000000000000000     
  -1.3688687273014583E-002   1.1648755573706827E-002   0.0000000000000000     
  -1.6484070945556210E-002   1.4884830084319125E-002   0.0000000000000000     
  -1.9241717329875670E-002   1.8335280484056308E-002   0.0000000000000000     
  -2.1961626425972970E-002   2.2000106772918384E-002   0.0000000000000000     
  -1.2195870534169838E-002   9.2272983755166821E-003   0.0000000000000000     
  -1.5428331520899896E-002   1.2369556673056665E-002   0.0000000000000000     
  -1.8577721738944442E-002   1.5682561616629519E-002   0.0000000000000000     
  -2.1644041188303473E-002   1.9166313206235245E-002   0.0000000000000000     
  -2.4627289868976988E-002   2.2820811441873843E-002   0.0000000000000000     
  -1.4949101053663127E-002   2.0170262798271318E-002   0.0000000000000000     
  -1.6848848712737334E-002   2.4031169492593221E-002   0.0000000000000000     
  -1.8706745938279586E-002   2.8115741514098725E-002   0.0000000000000000     
  -2.0522792730289893E-002   3.2423978862787840E-002   0.0000000000000000     
  -2.2296989088768242E-002   3.6955881538660550E-002   0.0000000000000000     
  -1.7122532018316039E-002   2.0674832451117120E-002   0.0000000000000000     
  -1.9285858687540472E-002   2.4558413621499530E-002   0.0000000000000000     
  -2.1394798211731913E-002   2.8655926193722668E-002   0.0000000000000000     
  -2.3449350590890362E-002   3.2967370167786517E-002   0.0000000000000000     
  -2.5449515825015829E-002   3.7492745543691100E-002   0.0000000000000000     
  -1.9460040475752654E-002   2.1284780442666136E-002   0.0000000000000000     
  -2.1878696022520912E-002   2.5173820664553960E-002   0.0000000000000000     
  -2.4233377128579821E-002   2.9272416922830367E-002   0.0000000000000000     
  -2.6524083793929367E-002   3.3580569217495360E-002   0.0000000000000000     
  -2.8750816018569568E-002   3.8098277548548942E-002   0.0000000000000000     
  -2.1961626425972970E-002   2.2000106772918384E-002   0.0000000000000000     
  -2.4627360717678660E-002   2.5877390621756501E-002   0.0000000000000000     
  -2.7222482688823314E-002   2.9965213701421824E-002   0.0000000000000000     
  -2.9746992339406909E-002   3.4263576011914362E-002   0.0000000000000000     
  -3.2200889669429474E-002   3.8772477553234083E-002   0.0000000000000000     
  -2.4627289868976988E-002   2.2820811441873843E-002   0.0000000000000000     
  -2.7531852773013715E-002   2.6669123493107162E-002   0.0000000000000000     
  -3.0362114892462384E-002   3.0734316529497045E-002   0.0000000000000000     
  -3.3118076227322983E-002   3.5016390551043504E-002   0.0000000000000000     
  -3.5799736777595521E-002   3.9515345557746530E-002   0.0000000000000000     
  -2.2296989088768242E-002   3.6955881538660550E-002   0.0000000000000000     
  -2.4026645373880610E-002   4.1702477020057083E-002   0.0000000000000000     
  -2.5709071945792965E-002   4.6654792785317652E-002   0.0000000000000000     
  -2.7344268804505311E-002   5.1812828834442257E-002   0.0000000000000000     
  -2.8932235950017645E-002   5.7176585167430911E-002   0.0000000000000000     
  -2.5449515825015829E-002   3.7492745543691100E-002   0.0000000000000000     
  -2.7396653592117761E-002   4.2228866895757292E-002   0.0000000000000000     
  -2.9292123570205632E-002   4.7172548798305979E-002   0.0000000000000000     
  -3.1135925759279436E-002   5.2323791251337182E-002   0.0000000000000000     
  -3.2928060159339176E-002   5.7682594254850880E-002   0.0000000000000000     
  -2.8750816018569568E-002   3.8098277548548942E-002   0.0000000000000000     
  -3.0916578658909739E-002   4.2824299361234559E-002   0.0000000000000000     
  -3.3024376571359211E-002   4.7757392100795673E-002   0.0000000000000000     
  -3.5074209755917976E-002   5.2897555767232249E-002   0.0000000000000000     
  -3.7066078212586041E-002   5.8244790360544321E-002   0.0000000000000000     
  -3.2200889669429474E-002   3.8772477553234083E-002   0.0000000000000000     
  -3.4586420574256545E-002   4.3488774416488907E-002   0.0000000000000000     
  -3.6905830949253690E-002   4.8409322692786708E-002   0.0000000000000000     
  -3.9159120794420917E-002   5.3534122382127493E-002   0.0000000000000000     
  -4.1346290109758231E-002   5.8863173484511262E-002   0.0000000000000000     
  -3.5799736777595521E-002   3.9515345557746530E-002   0.0000000000000000     
  -3.8406179338158174E-002   4.4222292061520327E-002   0.0000000000000000     
  -4.0936486703889094E-002   4.9128340574279124E-002   0.0000000000000000     
  -4.3390658874788289E-002   5.4233491096022900E-002   0.0000000000000000     
  -4.5768695850855759E-002   5.9537743626751669E-002   0.0000000000000000     
  -2.8932235950017645E-002   5.7176585167430911E-002   0.0000000000000000     
  -3.0473717048832349E-002   6.2734194664624404E-002   0.0000000000000000     
  -3.1969455767451804E-002   6.8473790206363544E-002   0.0000000000000000     
  -3.3419452105876005E-002   7.4395371792648324E-002   0.0000000000000000     
  -3.4823706064104967E-002   8.0498939423478758E-002   0.0000000000000000     
  -3.2928060159339176E-002   5.7682594254850880E-002   0.0000000000000000     
  -3.4667959984283611E-002   6.3234749146332980E-002   0.0000000000000000     
  -3.6355058448011519E-002   6.8966047263269381E-002   0.0000000000000000     
  -3.7989355550522894E-002   7.4876488605660110E-002   0.0000000000000000     
  -3.9570851291817727E-002   8.0966073173505126E-002   0.0000000000000000     
  -3.7066078212586041E-002   5.8244790360544321E-002   0.0000000000000000     
  -3.8999463391354738E-002   6.3784415360878241E-002   0.0000000000000000     
  -4.0873846742215385E-002   6.9501750248380387E-002   0.0000000000000000     
  -4.2689228265168001E-002   7.5396795023050717E-002   0.0000000000000000     
  -4.4445607960212560E-002   8.1469549684889273E-002   0.0000000000000000     
  -4.1346290109758231E-002   5.8863173484511262E-002   0.0000000000000000     
  -4.3468227270045699E-002   6.4383193308260200E-002   0.0000000000000000     
  -4.5525820650063387E-002   7.0080899161696492E-002   0.0000000000000000     
  -4.7519070249811321E-002   7.5956291044820171E-002   0.0000000000000000     
  -4.9447976069289482E-002   8.2009368957631223E-002   0.0000000000000000     
  -4.5768695850855759E-002   5.9537743626751669E-002   0.0000000000000000     
  -4.8074251620356515E-002   6.5031082988478817E-002   0.0000000000000000     
  -5.0310980171555546E-002   7.0703494003217765E-002   0.0000000000000000     
  -5.2478881504452873E-002   7.6554976670968472E-002   0.0000000000000000     
  -5.4577955619048477E-002   8.2585530991730952E-002   0.0000000000000000     
  -3.4823706064104967E-002   8.0498939423478758E-002   0.0000000000000000     
  -3.6176759083236039E-002   8.6771984306982311E-002   0.0000000000000000     
  -3.7473152604366601E-002   9.3201997651286408E-002   0.0000000000000000     
  -3.8712886627496647E-002   9.9788979456391064E-002   0.0000000000000000     
  -3.9895961152626176E-002  0.10653292972229628        0.0000000000000000     
  -3.9570851291817727E-002   8.0966073173505126E-002   0.0000000000000000     
  -4.1094334763071685E-002   8.7224284300187443E-002   0.0000000000000000     
  -4.2554595055460429E-002   9.3640605319089992E-002   0.0000000000000000     
  -4.3951632168983977E-002  0.10021503623021284        0.0000000000000000     
  -4.5285446103642303E-002  0.10694757703355595        0.0000000000000000     
  -4.4445607960212560E-002   8.1469549684889273E-002   0.0000000000000000     
  -4.6137631832191897E-002   8.7710515740180447E-002   0.0000000000000000     
  -4.7759945885948785E-002   9.4110194695208649E-002   0.0000000000000000     
  -4.9312550121483237E-002  0.10066858654997382        0.0000000000000000     
  -5.0795444538795254E-002  0.10738569130447603        0.0000000000000000     
  -4.9447976069289482E-002   8.2009368957631223E-002   0.0000000000000000     
  -5.1306650290596653E-002   8.8230678626961365E-002   0.0000000000000000     
  -5.3089205095831649E-002   9.4610765779642267E-002   0.0000000000000000     
  -5.4795640484994433E-002  0.10114963041567401        0.0000000000000000     
  -5.6425956458085028E-002  0.10784727253505652        0.0000000000000000     
  -5.4577955619048477E-002   8.2585530991730952E-002   0.0000000000000000     
  -5.6601390138285981E-002   8.8784772960530153E-002   0.0000000000000000     
  -5.8542372685109020E-002   9.5142318572390958E-002   0.0000000000000000     
  -6.0400903259517559E-002  0.10165816782731336        0.0000000000000000     
  -6.2176981861511625E-002  0.10833232072529742        0.0000000000000000     
  -3.9895961152626176E-002  0.10653292972229628        0.0000000000000000     
  -4.1030005581738922E-002  0.11342215766009967        0.0000000000000000     
  -4.2122649316818632E-002  0.12044497248089880        0.0000000000000000     
  -4.3173892357865305E-002  0.12760137418469369        0.0000000000000000     
  -4.4183734704878935E-002  0.13489136277148439        0.0000000000000000     
  -4.5285446103642303E-002  0.10694757703355595        0.0000000000000000     
  -4.6565630929715066E-002  0.11382705554274955        0.0000000000000000     
  -4.7801780717481902E-002  0.12084229957142391        0.0000000000000000     
  -4.8993895466942820E-002  0.12799330911957899        0.0000000000000000     
  -5.0141975178097840E-002  0.13528008418721482        0.0000000000000000     
  -5.0795444538795254E-002  0.10738569130447603        0.0000000000000000     
  -5.2219657417291239E-002  0.11425056656000222        0.0000000000000000     
  -5.3596217036377611E-002  0.12125226991783936        0.0000000000000000     
  -5.4925123396054376E-002  0.12839080137798745        0.0000000000000000     
  -5.6206376496321514E-002  0.13566616094044651        0.0000000000000000     
  -5.6425956458085028E-002  0.10784727253505652        0.0000000000000000     
  -5.7992085044467456E-002  0.11469269071185763        0.0000000000000000     
  -5.9505958273505757E-002  0.12167488352014519        0.0000000000000000     
  -6.0967576145199931E-002  0.12879385095991913        0.0000000000000000     
  -6.2376938659549970E-002  0.13604959303117950        0.0000000000000000     
  -6.2176981861511625E-002  0.10833232072529742        0.0000000000000000     
  -6.3882913811243724E-002  0.11515342799831584        0.0000000000000000     
  -6.5531004428866349E-002  0.12211014037834138        0.0000000000000000     
  -6.7121253714379520E-002  0.12920245786537404        0.0000000000000000     
  -6.8653661667783208E-002  0.13643038045941377        0.0000000000000000     
  -4.4183734704878935E-002  0.13489136277148439        0.0000000000000000     
  -4.5135159942246983E-002  0.14228944977211011        0.0000000000000000     
  -4.6011151654356867E-002  0.14977014671741004        0.0000000000000000     
  -4.6811709841208624E-002  0.15733345360738432        0.0000000000000000     
  -4.7536834502802230E-002  0.16497937044203292        0.0000000000000000     
  -5.0141975178097840E-002  0.13528008418721482        0.0000000000000000     
  -5.1226870950725277E-002  0.14269537916510266        0.0000000000000000     
  -5.2229433884603507E-002  0.15023194844401397        0.0000000000000000     
  -5.3149663979732545E-002  0.15788979202394862        0.0000000000000000     
  -5.3987561236112355E-002  0.16566890990490665        0.0000000000000000     
  -5.6206376496321514E-002  0.13566616094044651        0.0000000000000000     
  -5.7417196034306853E-002  0.14307908372158715        0.0000000000000000     
  -5.8534801707138248E-002  0.15063030483777998        0.0000000000000000     
  -5.9559193514815673E-002  0.15831982428902505        0.0000000000000000     
  -6.0490371457339133E-002  0.16614764207532223        0.0000000000000000     
  -6.2376938659549970E-002  0.13604959303117950        0.0000000000000000     
  -6.3706135192991745E-002  0.14344056344156345        0.0000000000000000     
  -6.4927255121961083E-002  0.15096521589870812        0.0000000000000000     
  -6.6040298446458034E-002  0.15862355040261356        0.0000000000000000     
  -6.7045265166482543E-002  0.16641556695327969        0.0000000000000000     
  -6.8653661667783208E-002  0.13643038045941377        0.0000000000000000     
  -7.0093688426779890E-002  0.14377981832503159        0.0000000000000000     
  -7.1406794129072013E-002  0.15123668162679840        0.0000000000000000     
  -7.2592978774659589E-002  0.15880097036471422        0.0000000000000000     
  -7.3652242363542592E-002  0.16647268453877900        0.0000000000000000     
   0.0000000000000000        0.0000000000000000        0.0000000000000000     
  -2.8801960803946924E-003   1.7442793083958883E-003   0.0000000000000000     
  -5.8729065295545623E-003   3.8635888071139645E-003   0.0000000000000000     
  -8.9781313474796114E-003   6.3579284961542302E-003   0.0000000000000000     
  -1.2195870534169838E-002   9.2272983755166821E-003   0.0000000000000000     
   0.0000000000000000        0.0000000000000000        0.0000000000000000     
  -3.2834386088483724E-003   1.9987669345130315E-003   0.0000000000000000     
  -6.6774616907202267E-003   4.3298527962420509E-003   0.0000000000000000     
  -1.0182069245615563E-002   6.9932575851870560E-003   0.0000000000000000     
  -1.3797261273534381E-002   9.9889813013480482E-003   0.0000000000000000     
   0.0000000000000000        0.0000000000000000        0.0000000000000000     
  -3.9538435814475709E-003   2.4246249684093803E-003   0.0000000000000000     
  -7.9112337174719986E-003   5.0619336348728715E-003   0.0000000000000000     
  -1.1872170408073285E-002   7.9119259993904751E-003   0.0000000000000000     
  -1.5836653653251431E-002   1.0974602061962189E-002   0.0000000000000000     
   0.0000000000000000        0.0000000000000000        0.0000000000000000     
  -4.8914109981922881E-003   3.0218534100849345E-003   0.0000000000000000     
  -9.5742226098098817E-003   6.0598313230064279E-003   0.0000000000000000     
  -1.4048434834852781E-002   9.1139337387644813E-003   0.0000000000000000     
  -1.8314047673320982E-002   1.2184160657359097E-002   0.0000000000000000     
   0.0000000000000000        0.0000000000000000        0.0000000000000000     
  -6.0961408590825246E-003   3.7904522595396933E-003   0.0000000000000000     
  -1.1666428367733874E-002   7.3235458606427210E-003   0.0000000000000000     
  -1.6710862525954044E-002   1.0599280803309082E-002   0.0000000000000000     
  -2.1229443333743037E-002   1.3617657087538778E-002   0.0000000000000000     
  -1.2195870534169838E-002   9.2272983755166821E-003   0.0000000000000000     
  -1.5428331520899896E-002   1.2369556673056665E-002   0.0000000000000000     
  -1.8577721738944442E-002   1.5682561616629519E-002   0.0000000000000000     
  -2.1644041188303473E-002   1.9166313206235245E-002   0.0000000000000000     
  -2.4627289868976988E-002   2.2820811441873843E-002   0.0000000000000000     
  -1.3797261273534381E-002   9.9889813013480482E-003   0.0000000000000000     
  -1.7405903314661044E-002   1.3218924940445392E-002   0.0000000000000000     
  -2.0890860909179920E-002   1.6584989498199445E-002   0.0000000000000000     
  -2.4252134057091000E-002   2.0087174974610218E-002   0.0000000000000000     
  -2.7489722758394296E-002   2.3725481369677694E-002   0.0000000000000000     
  -1.5836653653251431E-002   1.0974602061962189E-002   0.0000000000000000     
  -1.9732906257264052E-002   1.4208746834068319E-002   0.0000000000000000     
  -2.3489151024368764E-002   1.7573145327189187E-002   0.0000000000000000     
  -2.7105387954565584E-002   2.1067797541324786E-002   0.0000000000000000     
  -3.0581617047854497E-002   2.4692703476475113E-002   0.0000000000000000     
  -1.8314047673320982E-002   1.2184160657359097E-002   0.0000000000000000     
  -2.2409340348708905E-002   1.5339022353925456E-002   0.0000000000000000     
  -2.6372592084510982E-002   1.8647029103598743E-002   0.0000000000000000     
  -3.0203802880727208E-002   2.2108180906378956E-002   0.0000000000000000     
  -3.3902972737357588E-002   2.5722477762266091E-002   0.0000000000000000     
  -2.1229443333743037E-002   1.3617657087538778E-002   0.0000000000000000     
  -2.5435205588995622E-002   1.6609751500016791E-002   0.0000000000000000     
  -2.9541184089606570E-002   1.9806640827428106E-002   0.0000000000000000     
  -3.3547378835575882E-002   2.3208325069772721E-002   0.0000000000000000     
  -3.7453789826903554E-002   2.6814804227050640E-002   0.0000000000000000     
  -2.4627289868976988E-002   2.2820811441873843E-002   0.0000000000000000     
  -2.7531852773013715E-002   2.6669123493107162E-002   0.0000000000000000     
  -3.0362114892462384E-002   3.0734316529497045E-002   0.0000000000000000     
  -3.3118076227322983E-002   3.5016390551043504E-002   0.0000000000000000     
  -3.5799736777595521E-002   3.9515345557746530E-002   0.0000000000000000     
  -2.7489722758394296E-002   2.3725481369677694E-002   0.0000000000000000     
  -3.0626969835645342E-002   2.7542966779821605E-002   0.0000000000000000     
  -3.3687218111399665E-002   3.1582689301461665E-002   0.0000000000000000     
  -3.6670467585657285E-002   3.5844648934597871E-002   0.0000000000000000     
  -3.9576718258418166E-002   4.0328845679230216E-002   0.0000000000000000     
  -3.0581617047854497E-002   2.4692703476475113E-002   0.0000000000000000     
  -3.3947509552692802E-002   2.8492867983115511E-002   0.0000000000000000     
  -3.7232736717537789E-002   3.2513295911721314E-002   0.0000000000000000     
  -4.0437298542389470E-002   3.6753987262292516E-002   0.0000000000000000     
  -4.3561195027247840E-002   4.1214942034829123E-002   0.0000000000000000     
  -3.3902972737357588E-002   2.5722477762266091E-002   0.0000000000000000     
  -3.7493471924156106E-002   2.9518827102988872E-002   0.0000000000000000     
  -4.0998670710876768E-002   3.3526136360275981E-002   0.0000000000000000     
  -4.4418569097519581E-002   3.7744405534127445E-002   0.0000000000000000     
  -4.7753167084084551E-002   4.2173634624543245E-002   0.0000000000000000     
  -3.7453789826903554E-002   2.6814804227050640E-002   0.0000000000000000     
  -4.1264856950035241E-002   3.0620844139441689E-002   0.0000000000000000     
  -4.4985020091416583E-002   3.4621210647125693E-002   0.0000000000000000     
  -4.8614279251047603E-002   3.8815903750102659E-002   0.0000000000000000     
  -5.2152634428928271E-002   4.3204923448372567E-002   0.0000000000000000     
  -3.5799736777595521E-002   3.9515345557746530E-002   0.0000000000000000     
  -3.8406179338158174E-002   4.4222292061520327E-002   0.0000000000000000     
  -4.0936486703889094E-002   4.9128340574279124E-002   0.0000000000000000     
  -4.3390658874788289E-002   5.4233491096022900E-002   0.0000000000000000     
  -4.5768695850855759E-002   5.9537743626751669E-002   0.0000000000000000     
  -3.9576718258418166E-002   4.0328845679230216E-002   0.0000000000000000     
  -4.2401728751274514E-002   4.5021635880264740E-002   0.0000000000000000     
  -4.5141257685818503E-002   4.9909375882607451E-002   0.0000000000000000     
  -4.7795305062050097E-002   5.4992065686258348E-002   0.0000000000000000     
  -5.0363870879969339E-002   6.0269705291217453E-002   0.0000000000000000     
  -4.3561195027247840E-002   4.1214942034829123E-002   0.0000000000000000     
  -4.6598942614265490E-002   4.5883589456658068E-002   0.0000000000000000     
  -4.9545057745595027E-002   5.0747358755106282E-002   0.0000000000000000     
  -5.2399540421236422E-002   5.5806249930173746E-002   0.0000000000000000     
  -5.5162390641189676E-002   6.1060262981860472E-002   0.0000000000000000     
  -4.7753167084084551E-002   4.2173634624543245E-002   0.0000000000000000     
  -5.0997820927131100E-002   4.6808152790700309E-002   0.0000000000000000     
  -5.4147886883218650E-002   5.1642289191775582E-002   0.0000000000000000     
  -5.7203364952347228E-002   5.6676043827769064E-002   0.0000000000000000     
  -6.0164255134516821E-002   6.1909416698680740E-002   0.0000000000000000     
  -5.2152634428928271E-002   4.3204923448372567E-002   0.0000000000000000     
  -5.5598363689871311E-002   4.7795325882391479E-002   0.0000000000000000     
  -5.8949745098689388E-002   5.2594167192615393E-002   0.0000000000000000     
  -6.2206778655382537E-002   5.7601447379044324E-002   0.0000000000000000     
  -6.5369464359950710E-002   6.2817166441678257E-002   0.0000000000000000     
  -4.5768695850855759E-002   5.9537743626751669E-002   0.0000000000000000     
  -4.8074251620356515E-002   6.5031082988478817E-002   0.0000000000000000     
  -5.0310980171555546E-002   7.0703494003217765E-002   0.0000000000000000     
  -5.2478881504452873E-002   7.6554976670968472E-002   0.0000000000000000     
  -5.4577955619048477E-002   8.2585530991730952E-002   0.0000000000000000     
  -5.0363870879969339E-002   6.0269705291217453E-002   0.0000000000000000     
  -5.2853071133869570E-002   6.5734915523810722E-002   0.0000000000000000     
  -5.5269021818044162E-002   7.1380317210364155E-002   0.0000000000000000     
  -5.7611722932493128E-002   7.7205910350877746E-002   0.0000000000000000     
  -5.9881174477216463E-002   8.3211694945351536E-002   0.0000000000000000     
  -5.5162390641189676E-002   6.1060262981860472E-002   0.0000000000000000     
  -5.7840220502167257E-002   6.6501522036532465E-002   0.0000000000000000     
  -6.0439642100881555E-002   7.2122151220555722E-002   0.0000000000000000     
  -6.2960655437332591E-002   7.7922150533930243E-002   0.0000000000000000     
  -6.5403260511520331E-002   8.3901519976656014E-002   0.0000000000000000     
  -6.0164255134516821E-002   6.1909416698680740E-002   0.0000000000000000     
  -6.3035699725249583E-002   6.7330902526644046E-002   0.0000000000000000     
  -6.5822841020067718E-002   7.2928996033792437E-002   0.0000000000000000     
  -6.8525679018971219E-002   7.8703697220125879E-002   0.0000000000000000     
  -7.1144213721960087E-002   8.4655006085644385E-002   0.0000000000000000     
  -6.5369464359950710E-002   6.2817166441678257E-002   0.0000000000000000     
  -6.8439508803116555E-002   6.8223056994145492E-002   0.0000000000000000     
  -7.1418618575602680E-002   7.3800851650074301E-002   0.0000000000000000     
  -7.4306793677409069E-002   7.9550550409464696E-002   0.0000000000000000     
  -7.7104034108535724E-002   8.5472153272316664E-002   0.0000000000000000     
  -5.4577955619048477E-002   8.2585530991730952E-002   0.0000000000000000     
  -5.6601390138285981E-002   8.8784772960530153E-002   0.0000000000000000     
  -5.8542372685109020E-002   9.5142318572390958E-002   0.0000000000000000     
  -6.0400903259517559E-002  0.10165816782731336        0.0000000000000000     
  -6.2176981861511625E-002  0.10833232072529742        0.0000000000000000     
  -5.9881174477216463E-002   8.3211694945351536E-002   0.0000000000000000     
  -6.2069627675018474E-002   8.9386668061049293E-002   0.0000000000000000     
  -6.4169333748703483E-002   9.5719826765234911E-002   0.0000000000000000     
  -6.6180292698271498E-002  0.10221117105790835        0.0000000000000000     
  -6.8102504523722490E-002  0.10886070093906962        0.0000000000000000     
  -6.5403260511520331E-002   8.3901519976656014E-002   0.0000000000000000     
  -6.7759139200552709E-002   9.0050233248681319E-002   0.0000000000000000     
  -7.0019973381537620E-002   9.6358264049954415E-002   0.0000000000000000     
  -7.2185763054475077E-002  0.10282561238047531        0.0000000000000000     
  -7.4256508219365053E-002  0.10945227824024401        0.0000000000000000     
  -7.1144213721960087E-002   8.4655006085644385E-002   0.0000000000000000     
  -7.3669924714888688E-002   9.0775468523426189E-002   0.0000000000000000     
  -7.6094291583611418E-002   9.7057630426549482E-002   0.0000000000000000     
  -7.8417314328128290E-002  0.10350149179501426        0.0000000000000000     
  -8.0638992948439320E-002  0.11010705262882056        0.0000000000000000     
  -7.7104034108535724E-002   8.5472153272316664E-002   0.0000000000000000     
  -7.9801984218026423E-002   9.1562373885283890E-002   0.0000000000000000     
  -8.2392288354924903E-002   9.7817925895020086E-002   0.0000000000000000     
  -8.4874946519231192E-002  0.10423880930152522        0.0000000000000000     
  -8.7249958710945263E-002  0.11082502410479932        0.0000000000000000     
  -6.2176981861511625E-002  0.10833232072529742        0.0000000000000000     
  -6.3882913811243724E-002  0.11515342799831584        0.0000000000000000     
  -6.5531004428866349E-002  0.12211014037834138        0.0000000000000000     
  -6.7121253714379520E-002  0.12920245786537404        0.0000000000000000     
  -6.8653661667783208E-002  0.13643038045941377        0.0000000000000000     
  -6.8102504523722490E-002  0.10886070093906962        0.0000000000000000     
  -6.9948897649591363E-002  0.11565623637311426        0.0000000000000000     
  -7.1732400500412977E-002  0.12258559732443780        0.0000000000000000     
  -7.3453013076187360E-002  0.12964878379304026        0.0000000000000000     
  -7.5110735376914484E-002  0.13684579577892159        0.0000000000000000     
  -7.4256508219365053E-002  0.10945227824024401        0.0000000000000000     
  -7.6246790491481739E-002  0.11622457378999039        0.0000000000000000     
  -7.8171191486099315E-002  0.12312881119044441        0.0000000000000000     
  -8.0029711203217738E-002  0.13016499044160604        0.0000000000000000     
  -8.1822349642837036E-002  0.13733311154347527        0.0000000000000000     
  -8.0638992948439320E-002  0.11010705262882056        0.0000000000000000     
  -8.2776592336914839E-002  0.11685844024894426        0.0000000000000000     
  -8.4847377385925279E-002  0.12373978197636118        0.0000000000000000     
  -8.6851348095470640E-002  0.13075107781107137        0.0000000000000000     
  -8.8788504465550908E-002  0.13789232775307475        0.0000000000000000     
  -8.7249958710945263E-002  0.11082502410479932        0.0000000000000000     
  -8.9538303185890677E-002  0.11755783574997580        0.0000000000000000     
  -9.1760958199890927E-002  0.12441850968218808        0.0000000000000000     
  -9.3917923752946067E-002  0.13140704590143618        0.0000000000000000     
  -9.6009199845056042E-002  0.13852344440772008        0.0000000000000000     
  -6.8653661667783208E-002  0.13643038045941377        0.0000000000000000     
  -7.0093688426779890E-002  0.14377981832503159        0.0000000000000000     
  -7.1406794129072013E-002  0.15123668162679840        0.0000000000000000     
  -7.2592978774659589E-002  0.15880097036471422        0.0000000000000000     
  -7.3652242363542592E-002  0.16647268453877900        0.0000000000000000     
  -7.5110735376914484E-002  0.13684579577892159        0.0000000000000000     
  -7.6667470221011891E-002  0.14415310740606271        0.0000000000000000     
  -7.8085120426897081E-002  0.15154719279844434        0.0000000000000000     
  -7.9363685994570055E-002  0.15902805195606651        0.0000000000000000     
  -8.0503166924030867E-002  0.16659568487892931        0.0000000000000000     
  -8.1822349642837036E-002  0.13733311154347527        0.0000000000000000     
  -8.3515095061028236E-002  0.14461668971872782        0.0000000000000000     
  -8.5073935713862278E-002  0.15199924019003946        0.0000000000000000     
  -8.6498871601339164E-002  0.15948076295741007        0.0000000000000000     
  -8.7789902723458949E-002  0.16706125802083982        0.0000000000000000     
  -8.8788504465550908E-002  0.13789232775307475        0.0000000000000000     
  -9.0636562946828925E-002  0.14517056526302702        0.0000000000000000     
  -9.2373239989967604E-002  0.15259282380158373        0.0000000000000000     
  -9.3998535594966917E-002  0.16015910336874492        0.0000000000000000     
  -9.5512449761826851E-002  0.16786940396451053        0.0000000000000000     
  -9.6009199845056042E-002  0.13852344440772008        0.0000000000000000     
  -9.8031873878414028E-002  0.14581473403896028        0.0000000000000000     
  -9.9983033255213100E-002  0.15332794363307722        0.0000000000000000     
 -0.10186267797545327       0.16106307319007093        0.0000000000000000     
 -0.10367080803913456       0.16902012270994138        0.0000000000000000     
 </DataArray>
 <DataArray  type="Float64" Name="stress" NumberOfComponents="3" format="ascii">
   13416933698.692591        4025080109.6077771        2894127942.5060449     
   11766707272.770144        1889786799.4342334        1715787210.3802137     
   10313931839.283459        412663464.04656696        810535444.56768370     
   9058607398.2325382       -406289896.55521870        178372645.06845516     
   8000733949.6173820       -567073282.37112808       -180701188.11747190     
   10540400579.740051        3162120173.9220152        2225568855.6786909     
   9668016973.0446453        1589210892.4496341        1446474109.0977988     
   8944394024.2266617        512170470.56867313        862850096.67798376     
   8369531733.2861071       -69001091.720867157        474696818.41924584     
   7943430100.2229786       -154303794.41898632        282014274.32158452     
   8338434048.2304344        2501530214.4691305        1711962918.9846177     
   8022126883.1842842        1424475048.4245765        1275308767.6306038     
   7805890041.4572258        680987626.77698588        956507118.28544354     
   7689723523.0492535        271067949.52635860        755557970.94913709     
   7673627327.9603720        194716016.67269373        672461325.62168372     
   6811034104.1637421        2043310231.2491226        1353310132.4238243     
   6829037003.1890688        1395579267.3590620        1202291185.9786294     
   6898419890.9751463        919114932.67150640        1091506509.3900630     
   7019182767.5219755        613917227.18645692        1020956102.6581262     
   7191325632.8295565        479986150.90391159        990639965.78281987     
   5958200747.5399742        1787460224.2619922        1149610495.9963112     
   6088747333.0589933        1502523549.2530899        1227421364.1418738     
   6221983572.7804270        1226552388.2522349        1267848269.9918425     
   6357909466.7042751        959546741.25942791        1270891213.5462165     
   6496525014.8305368        701506608.27466750        1236550194.8049960     
   8000733949.6173820       -567073282.37112808       -180701188.11747190     
   7919648893.2921209       -198740773.59947443       -78342605.351502731     
   7796769576.5534687        30277533.794194698       -8773434.5844467748     
   7632095999.4014225        119981639.80988026        28006324.183700528     
   7425628161.8359756        70371544.447579384        31996670.952932689     
   7943430100.2229786       -154303794.41898632        282014274.32158452     
   7741443176.6389532        17468473.757858753        280825519.24022275     
   7515865193.8794146        110603878.01632786        264784795.32675225     
   7266696151.9443617        125102418.35641623        233892102.58117369     
   6993936050.8337946        60964094.778131485        188147441.00348634     
   7673627327.9603720        194716016.67269373        672461325.62168372     
   7401988374.7370195        185302995.54056406        588962300.80384862     
   7124961563.5760393        157930447.94966745        508548750.32071304     
   6842546894.4774227        112598373.89999390        431220674.17227203     
   6554744367.4411793        49306773.391553640        356978072.35853249     
   7191325632.8295565        479986150.90391159        990639965.78281987     
   6901284487.5863228        304762791.74864149        846067739.33937621     
   6624058685.6433411        172257243.59420776        722518430.39743686     
   6359648227.0006075        82469506.440607309        619992038.95699847     
   6108053111.6581268        35399580.287843466        538488565.01806271     
   6496525014.8305368        701506608.27466750        1236550194.8049960     
   6239331515.1868620        375847862.38208818        1052141834.8468074     
   6013156560.0813217        153584264.94995308        906693835.55692434     
   5818000149.5139122        34715815.978258133        800206196.93534958     
   5653862283.4846334        19242515.467002630        732678918.98208094     
   7425628161.8359756        70371544.447579384        31996670.952932689     
   7223422593.9205475       -21861531.600802422        14109678.997607894     
   7034065135.9254875       -71267574.581290245        718324.58603975608     
   6857555787.8507996       -77846584.493875504       -8177392.2817611583     
   6693894549.6964788       -41598561.338565826       -12577471.605800932     
   6993936050.8337946        60964094.778131485        188147441.00348634     
   6812102111.1895962        773523.36930370331        179561058.75915575     
   6638476749.6634655       -32055120.979290009        174755098.10902667     
   6473059966.2554092       -37521838.267636538        173729559.05311269     
   6315851760.9654274       -15626628.495744944        176484441.59139767     
   6554744367.4411793        49306773.391553640        356978072.35853249     
   6391238581.9266214        20545664.379803896        352279512.72250998     
   6231301842.7278357        3681376.4206328392        350646158.73114300     
   6074934149.8448305       -1286090.4859490395        352078010.38442928     
   5922135503.2775974        5643263.6600492001        356575067.68236750     
   6108053111.6581268        35399580.287843466        538488565.01806271     
   5960832006.1316252        37454891.430695772        532265040.88767546     
   5812540415.1185999        35941917.618473768        528391506.45238769     
   5663178338.6190538        30860658.851173162        526867961.71219695     
   5512745776.6329842        22211115.128803492        527694406.66710657     
   5653862283.4846334        19242515.467002630        732678918.98208094     
   5520882383.8046045        51501204.521980047        719517643.25464869     
   5382192466.8357563        64726502.614228487        707991141.27275848     
   5237792532.5780869        58918409.743738174        698099413.03641212     
   5087682581.0316019        34076925.910526752        689842458.54560924     
   6693894549.6964788       -41598561.338565826       -12577471.605800932     
   6525915309.0298347        2296889.6035184860       -4986915.9882600140     
   6350984328.9090633        23019875.698501825        1246518.6740025119     
   6169101609.3341665        20570396.946398973        6122832.3810010562     
   5980267150.3051367       -5051546.6528067589        9642025.1327205673     
   6315851760.9654274       -15626628.495744944        176484441.59139767     
   6141044962.6742058        7046520.3730330467        173255443.13581163     
   5962023553.5158491        15670966.351355791        171029052.55658835     
   5778787533.4903603        10246709.439239025        169805269.85372686     
   5591336902.5977345       -9226250.3633327484        169584095.02722496     
   5922135503.2775974        5643263.6600492001        356575067.68236750     
   5747243229.7378941        9116735.1683523655        345719831.83848321     
   5570873473.9180498        7665265.7428452969        338226932.70259565     
   5393026235.8180656        1288855.3835356236        334096370.27469945     
   5213701515.4379416       -10012495.909574032        333328144.55479884     
   5512745776.6329842        22211115.128803492        527694406.66710657     
   5344510110.2209015        8507533.9894592762        512406250.11974692     
   5177534090.1156683       -997226.12704205513        502840159.11201596     
   5011817716.3172855       -6303165.2207074165        498996133.64391512     
   4847360988.8257570       -7410283.2915320396        500874173.71544021     
   5087682581.0316019        34076925.910526752        689842458.54560924     
   4932845604.1232281        5218916.8363704681        673314697.97960293     
   4782005402.1086998       -10316509.258304596        664868731.78485870     
   4635161974.9880161       -12529352.373498201        664504559.96137571     
   4492315322.7611780       -1419612.5092067719        672222182.50915384     
   5980267150.3051367       -5051546.6528067589        9642025.1327205673     
   5796954030.9155426       -34113386.858046770       -11912419.376427850     
   5617232454.1682882       -51203418.255474567       -28297968.890867099     
   5441102420.0633907       -56321640.845046759       -39514623.410596542     
   5268563928.6008492       -49468054.626776218       -45562382.935607858     
   5591336902.5977345       -9226250.3633327484        169584095.02722496     
   5424659760.6267500       -25275630.880081892        155184381.69352496     
   5260345492.7818022       -33448764.310046196        145409803.75902182     
   5098394099.0628853       -33745650.653244734        140260361.22369215     
   4938805579.4700060       -26166289.909649611        139736054.08755806     
   5213701515.4379416       -10012495.909574032        333328144.55479884     
   5062106752.0412073       -13515496.391147137        324649715.79419094     
   4911646194.2541933       -13237811.506980896        320052662.83724403     
   4762319842.0768948       -9179441.2570977211        319536985.68394977     
   4614127695.5093193       -1340385.6414828300        323102684.33431989     
   4847360988.8257570       -7410283.2915320396        500874173.71544021     
   4709295005.1589136        1167016.6087734699        496483582.92555380     
   4571134558.5854702        9429440.1537537575        495630608.34379995     
   4432879649.1054296        17376987.343408108        498315249.97017515     
   4294530276.7187920        25009658.177735806        504537507.80468398     
   4492315322.7611780       -1419612.5092067719        672222182.50915384     
   4366224519.9798584        18771908.119655609        670685983.08761764     
   4238810585.7756290        34552990.672153473        672143640.27869236     
   4110073520.1484833        45923635.148267508        676595154.08236575     
   3980013323.0984292        52883841.548006535        684040524.49865031     
   5268563928.6008492       -49468054.626776218       -45562382.935607858     
   5061214949.7820549       -51697093.600524664       -51552137.451856315     
   4851171475.1439123       -62907785.305445910       -52887395.098876014     
   4638433504.6864090       -83100129.741556644       -49568155.876673371     
   4423001038.4095592       -112274126.90883279       -41594419.785249650     
   4938805579.4700060       -26166289.909649611        139736054.08755806     
   4743492576.8154202       -28607238.091640711        132841596.47412841     
   4546276284.2059841       -37392486.123128414        130599987.31970190     
   4347156701.6416855       -52522034.004171133        133011226.62425512     
   4146133829.1225214       -73995881.734743595        140075314.38781470     
   4614127695.5093193       -1340385.6414828300        323102684.33431989     
   4430845959.2754393       -3994655.9547393322        316226597.13228679     
   4246452138.9511895       -10355873.235877275        314001709.97902030     
   4060946234.5365796       -20424037.484900713        316428022.87451035     
   3874328246.0315971       -34199148.701822996        323505535.81877053     
   4294530276.7187920        25009658.177735806        504537507.80468398     
   4123275097.1621008        22140652.810151100        498602864.52262390     
   3951699039.3795333        18202053.356315136        497317772.87909424     
   3779802103.3710933        13193859.816242456        500682232.87409884     
   3607584289.1367846        7116072.1899323463        508696244.50763810     
   3980013323.0984292        52883841.548006535        684040524.49865031     
   3820779990.4754086        49798688.203023672        679970398.64513528     
   3662016985.4910092        48281293.653451443        680548176.01992095     
   3503724308.1452341        48331657.899286270        685773856.62301230     
   3345901958.4380765        49949780.940518975        695647440.45441186     
   4423001038.4095592       -112274126.90883279       -41594419.785249650     
   4295423445.7096024       -117120209.38112926       -59758199.386994451     
   4169202845.0632238       -117442985.00816274       -79512512.625123933     
   4044339236.4704194       -113242453.78994417       -100857359.49963361     
   3920832619.9312015       -104518615.72644925       -123792740.01052926     
   4146133829.1225214       -73995881.734743595        140075314.38781470     
   4017658918.8728032       -74633806.377496004        125987687.80435155     
   3890475123.4616756       -70968014.891631365        111829237.24294519     
   3764582442.8891306       -62998507.277142763        97599962.703601375     
   3639980877.1551695       -50725283.534042120        83299864.186307907     
   3874328246.0315971       -34199148.701822996        323505535.81877053     
   3749298045.8276634       -29326307.236360312        313417205.50277615     
   3625493083.2473145       -20369340.358938456        304777760.86727196     
   3502913358.2905574       -7328248.0695400238        297587201.91226244     
   3381558870.9573903        9796969.6318178177        291845528.63774830     
   3607584289.1367846        7116072.1899323463        508696244.50763810     
   3490340826.5741692        18802288.042266846        502530353.70827705     
   3374256724.4201460        34353038.589909792        499333058.24784285     
   3259331982.6747231        53768323.832890987        499104358.12634599     
   3145566601.3379011        77048143.771182656        501844253.34378755     
   3345901958.4380765        49949780.940518975        695647440.45441186     
   3240787261.1123276        69751979.458389759        693327132.42085850     
   3136766046.9801712        93199121.954925895        695495129.38466823     
   3033838316.0416241        120291208.43014848        702151431.34585834     
   2932004068.2966771        151028238.88403404        713296038.30442715     
   3920832619.9312015       -104518615.72644925       -123792740.01052926     
   3755861976.4586511       -196726956.95196056       -95987327.837453708     
   3531187326.9485822       -487948651.63586712       -104025738.13773759     
   3246808671.4010096       -978183699.77812386       -147907970.91139242     
   2902726009.8158960       -1667432101.3788395       -227634026.15839645     
   3639980877.1551695       -50725283.534042120        83299864.186307907     
   3402537732.2261996       -129361222.88104796        67834053.552985072     
   3126183677.2950034       -337700195.56883824        29331894.608435158     
   2810918712.3615274       -675742201.59752905       -32206612.647358492     
   2456742837.4258161       -1143487240.9670377       -116781468.21435617     
   3381558870.9573903        9796969.6318178177        291845528.63774830     
   3108236007.8924236       -44288732.840506554        257367107.23916754     
   2816795330.8604608       -158767148.53615284        212659811.69148794     
   2507236839.8615041       -333638277.45508683        157723641.99472430     
   2179560534.8955741       -568902119.59729791        92558598.148870453     
   3145566601.3379011        77048143.771182656        501844253.34378755     
   2872956803.4573059        58490513.169599295        472611833.22108155     
   2603022287.6449928        48850489.462288857        445958013.11142355     
   2335763053.9009628        48128072.649235129        421882793.01482606     
   2071179102.2251976        56323262.730421662        400386172.93127698     
   2932004068.2966771        151028238.88403404        713296038.30442715     
   2696700118.9208612        178976515.14933360        713568231.49874437     
   2484864547.6485858        285152718.42642868        729226498.86825347     
   2296497354.4798684        469556848.71535951        760270840.41294789     
   2131598539.4146726        732188906.01608324        806701256.13284171     
   5958200747.5399742        1787460224.2619922        1149610495.9963112     
   6088747333.0589933        1502523549.2530899        1227421364.1418738     
   6221983572.7804270        1226552388.2522349        1267848269.9918425     
   6357909466.7042751        959546741.25942791        1270891213.5462165     
   6496525014.8305368        701506608.27466750        1236550194.8049960     
   5434641338.8379087        1630392401.6513724        1033120836.3941761     
   5489909489.0846424        1372705883.3528998        1113449560.7788048     
   5547353006.5975342        1122270589.2749515        1166967261.0856321     
   5606971891.3765831        879086519.41752827        1193673937.3146584     
   5668766143.4217901        643153673.78062987        1193569589.4658842     
   4895063238.5363255        1468518971.5608976        936097980.30951738     
   4905261348.4187555        1247145128.4452486        1018344559.5075787     
   4917120538.6310863        1031308219.7626016        1084353052.8456323     
   4930640809.1733179        821008245.51295650        1134123460.3236787     
   4945822160.0454502        616245205.69631410        1167655781.9417169     
   4339466446.6352243        1301839933.9905672        858541927.74233460     
   4334802911.0613317        1125841284.5301366        942106360.32819557     
   4331286168.8810835        953665279.71518505        1020005645.2718424     
   4328916220.0944786        785311919.54571307        1092239782.5732753     
   4327693064.7015171        620781204.02172029        1158808772.2324936     
   3767850963.1346059        1130355288.9403818        800452678.69262803     
   3778534177.0123715        1008794351.6075636        884734963.24065578     
   3789849897.3475251        889341769.13270187        973925038.36426258     
   3801798124.1400652        771997541.51579690        1068022904.0634490     
   3814378857.3899927        656761668.75684917        1167028560.3382151     
   6496525014.8305368        701506608.27466750        1236550194.8049960     
   6239331515.1868620        375847862.38208818        1052141834.8468074     
   6013156560.0813217        153584264.94995308        906693835.55692434     
   5818000149.5139122        34715815.978258133        800206196.93534958     
   5653862283.4846334        19242515.467002630        732678918.98208094     
   5668766143.4217901        643153673.78062987        1193569589.4658842     
   5518447317.7150230        383609566.01902914        1072581629.3536785     
   5392341692.5668602        204776126.78611255        979587372.03286922     
   5290449267.9773026        106653356.08187723        914586817.50345540     
   5212770043.9463491        89241253.906328440        877579965.76543701     
   4945822160.0454502        616245205.69631410        1167655781.9417169     
   4871044700.0558434        413415743.59976649        1102148653.6993802     
   4813675096.6453152        268612470.10014510        1053668570.3715276     
   4773713349.8138609        181835385.19744849        1022215531.9581598     
   4751159459.5614872        153084488.89167905        1007789538.4592756     
   4327693064.7015171        620781204.02172029        1158808772.2324936     
   4297123662.2093248        465266395.12430286        1140842907.8839099     
   4277156772.3166809        345093294.89205229        1128937430.5728993     
   4267792395.0235868        260261903.32497025        1123092340.2994630     
   4269030530.3300452        210772220.42305636        1123307637.0635982     
   3814378857.3899927        656761668.75684917        1167028560.3382151     
   3796684204.1754665        539161520.59263754        1188664391.9072695     
   3782786719.5809622        434218601.16183388        1205393952.6369855     
   3772686403.6064816        341932910.46444201        1217217242.5273638     
   3766383256.2520237        262304448.50046039        1224134261.5784032     
   5653862283.4846334        19242515.467002630        732678918.98208094     
   5520882383.8046045        51501204.521980047        719517643.25464869     
   5382192466.8357563        64726502.614228487        707991141.27275848     
   5237792532.5780869        58918409.743738174        698099413.03641212     
   5087682581.0316019        34076925.910526752        689842458.54560924     
   5212770043.9463491        89241253.906328440        877579965.76543701     
   5076675601.8354645        87511965.092983484        853643142.76817071     
   4938262934.1898355        78055257.830495596        833519123.66354728     
   4797532041.0094614        60871132.118854523        817207908.45156384     
   4654482922.2943449        35959587.958068132        804709497.13222241     
   4751159459.5614872        153084488.89167905        1007789538.4592756     
   4618173418.2971716        119234105.19324470        977034258.57193077     
   4486260943.2521820        88962275.559244394        952269812.72432661     
   4355422034.4265251        62268999.989675999        933496200.91645956     
   4225656691.8201971        39154278.484542131        920713423.14833438     
   4269030530.3300452        210772220.42305636        1123307637.0635982     
   4145375833.1897182        146667624.82275558        1089690990.6659279     
   4026186494.0227942        97447555.800471783        1064243208.4550968     
   3911462512.8292775        63112013.356205225        1046964290.4311028     
   3801203889.6091671        43660997.489953279        1037854236.5939440     
   3766383256.2520237        262304448.50046039        1224134261.5784032     
   3658282846.5131092        169812523.98152041        1191613339.0501623     
   3558039586.5016747        103511098.55417907        1169439310.8558578     
   3465653476.2177191        63400172.218439221        1157612176.9954891     
   3381124515.6612430        49479744.974292755        1156131937.4690542     
   5087682581.0316019        34076925.910526752        689842458.54560924     
   4932845604.1232281        5218916.8363704681        673314697.97960293     
   4782005402.1086998       -10316509.258304596        664868731.78485870     
   4635161974.9880161       -12529352.373498201        664504559.96137571     
   4492315322.7611780       -1419612.5092067719        672222182.50915384     
   4654482922.2943449        35959587.958068132        804709497.13222241     
   4521012891.1304598        14230875.290568829        792828723.89490354     
   4390064891.1461058        908933.22149276733        787657046.14978051     
   4261638922.3412738       -4006238.2491681576        789194463.89685154     
   4135734984.7159667       -514639.12140822411        797440977.13611448     
   4225656691.8201971        39154278.484542131        920713423.14833438     
   4109631609.6034684        23378263.184504509        911759102.90633261     
   3994653814.8519497        11093206.101820230        908141179.27745712     
   3880723307.5656371        2299107.2364983559        909859652.26170909     
   3767840087.7445307       -3004033.4114711285        916914521.85908508     
   3801203889.6091671        43660997.489953279        1037854236.5939440     
   3698701759.5422554        32661080.518173218        1030105835.0138860     
   3595772173.2262325        20236309.382680893        1026321131.1678894     
   3492415130.6611004        6386684.0834932327        1026500125.0559475     
   3388630631.8468509       -8887795.3794088364        1030642816.6780649     
   3381124515.6612430        49479744.974292755        1156131937.4690542     
   3288223340.9468160        42079327.291572452        1147868920.2175670     
   3193419966.2689552        28338243.064074039        1142196901.8210738     
   3096714391.6276665        8256492.2918144464        1139115882.2795691     
   2998106617.0229445       -18165925.025217533        1138625861.5930576     
   4492315322.7611780       -1419612.5092067719        672222182.50915384     
   4366224519.9798584        18771908.119655609        670685983.08761764     
   4238810585.7756290        34552990.672153473        672143640.27869236     
   4110073520.1484833        45923635.148267508        676595154.08236575     
   3980013323.0984292        52883841.548006535        684040524.49865031     
   4135734984.7159667       -514639.12140822411        797440977.13611448     
   4014625320.9554472        7586675.0787858963        791238442.36831748     
   3893084680.6833062        14251400.906922102        788663744.02591836     
   3771113063.8995514        19479538.362996817        789716882.10891056     
   3648710470.6041718        23271087.447009325        794397856.61729872     
   3767840087.7445307       -3004033.4114711285        916914521.85908508     
   3653522933.8984880       -6449514.3718450069        907086499.14153659     
   3539666958.4521255       -8357733.9999647141        901520292.66217184     
   3426272161.4054356       -8728692.2958290577        900215902.42099416     
   3313338542.7584267       -7562389.2594392300        903173328.41799390     
   3388630631.8468509       -8887795.3794088364        1030642816.6780649     
   3282917358.8089805       -23336660.232242107        1018230153.4072735     
   3178557419.0820751       -33274414.048509717        1010713286.1874578     
   3075550812.6661429       -38701056.828211546        1008092215.0186142     
   2973897539.5611782       -39616588.571334958        1010366939.9007429     
   2998106617.0229445       -18165925.025217533        1138625861.5930576     
   2902808595.6869221       -43074762.502405286        1124669405.1655324     
   2809756062.5731621       -60498639.238718271        1116242724.6017725     
   2718949017.6816692       -70437555.234140635        1113345819.9017766     
   2630387461.0124407       -72891510.488683820        1115978691.0655410     
   3980013323.0984292        52883841.548006535        684040524.49865031     
   3820779990.4754086        49798688.203023672        679970398.64513528     
   3662016985.4910092        48281293.653451443        680548176.01992095     
   3503724308.1452341        48331657.899286270        685773856.62301230     
   3345901958.4380765        49949780.940518975        695647440.45441186     
   3648710470.6041718        23271087.447009325        794397856.61729872     
   3501311853.4340000        19106624.925668478        789281913.36400461     
   3354042759.2966084        15373905.846915483        788870765.50222325     
   3206903188.1919880        12072930.210739970        793164413.03194606     
   3059893140.1201406        9203698.0171496868        802162855.95318377     
   3313338542.7584267       -7562389.2594392300        903173328.41799390     
   3177937190.0788269       -12757396.245812297        896613962.39143908     
   3042324555.8261566       -18656675.142429590        894816283.91959751     
   2906500640.0004134       -25260225.949295282        897780293.00246429     
   2770465442.6015930       -32568048.666410089        905505989.64003813     
   2973897539.5611782       -39616588.571334958        1010366939.9007429     
   2850656000.4098783       -45793375.311425686        1001966545.7274337     
   2726862375.0796528       -53810449.314596891        998384731.27203906     
   2602516663.5705080       -63667810.580831170        999621496.53455818     
   2477618865.8824353       -75365459.110154510        1005676841.5149895     
   2630387461.0124407       -72891510.488683820        1115978691.0655410     
   2519468284.4271545       -80001312.271176815        1105339663.3719883     
   2407656217.0570989       -90087416.669570804        1099576107.5595551     
   2294951258.9022746       -103149823.68386352        1098688023.6282339     
   2181353409.9626727       -119188533.31407380        1102675411.5780284     
   3345901958.4380765        49949780.940518975        695647440.45441186     
   3240787261.1123276        69751979.458389759        693327132.42085850     
   3136766046.9801712        93199121.954925895        695495129.38466823     
   3033838316.0416241        120291208.43014848        702151431.34585834     
   2932004068.2966771        151028238.88403404        713296038.30442715     
   3059893140.1201406        9203698.0171496868        802162855.95318377     
   2963491924.1097074        22300596.710061073        799146311.65388751     
   2867477766.1223826        36687688.813317657        799891517.17476714     
   2771850666.1581635        52364974.326927185        804398472.51582158     
   2676610624.2170429        69332453.250880122        812667177.67704940     
   2770465442.6015930       -32568048.666410089        905505989.64003813     
   2680701835.9716272       -26799211.378908992        900969046.37609744     
   2590618862.1942630       -22094931.249399900        899467297.75512779     
   2500216521.2695107       -18455208.277858496        901000743.77712739     
   2409494813.1973581       -15880042.464305997        905569384.44209850     
   2477618865.8824353       -75365459.110154510        1005676841.5149895     
   2392416996.6980724       -77547444.808526397        998795336.58748174     
   2306189335.1958218       -83148738.233200669        994222471.12574768     
   2218935881.3756752       -92169339.384189129        991958245.12978232     
   2130656635.2376287       -104609248.26150000        992002658.59958649     
   2181353409.9626727       -119188533.31407380        1102675411.5780284     
   2098637406.2890570       -129944103.57876694        1092625182.2880459     
   2014189185.1270440       -146473732.13812149        1084157037.2866290     
   1928008746.4766464       -168777418.99208522        1077270976.5737841     
   1840096090.3378539       -196855164.14070129        1071967000.1495070     
   2932004068.2966771        151028238.88403404        713296038.30442715     
   2696700118.9208612        178976515.14933360        713568231.49874437     
   2484864547.6485858        285152718.42642868        729226498.86825347     
   2296497354.4798684        469556848.71535951        760270840.41294789     
   2131598539.4146726        732188906.01608324        806701256.13284171     
   2676610624.2170429        69332453.250880122        812667177.67704940     
   2468672793.1862717        67896628.795224786        826755872.38150346     
   2270505728.3174329        99030024.879338026        853290299.49640989     
   2082109429.6105201        162732641.50322318        892270459.02175999     
   1903483897.0655391        259004478.66686219        943696350.95755863     
   2409494813.1973581       -15880042.464305997        905569384.44209850     
   2220522124.0409451       -49220260.582105160        917494033.39148068     
   2027622589.1048429       -95649964.632190466        938924072.98656523     
   1830796208.3890586       -155169154.61455548        969859503.22735274     
   1630042981.8935905       -227777830.52920997        1010300324.1138549     
   2130656635.2376287       -104609248.26150000        992002658.59958649     
   1952248111.4848788       -172374152.98265362        985782714.52866971     
   1756215130.0108280       -298887250.10814285        986127819.33871603     
   1542557690.8154736       -484148539.63796687        993037973.02972364     
   1311275793.8988247       -728158021.57212067        1006513175.6016988     
   1840096090.3378539       -196855164.14070129        1071967000.1495070     
   1663850755.5180697       -301565048.40643501        1031621915.7930778     
   1456283351.0353744       -510681831.54853207        994901538.55287039     
   1217393876.8897676       -824205513.56701255        961805868.42888308     
   947182333.08123994       -1242136094.4618838        932334905.42111635     
   3767850963.1346059        1130355288.9403818        800452678.69262803     
   3778534177.0123715        1008794351.6075636        884734963.24065578     
   3789849897.3475251        889341769.13270187        973925038.36426258     
   3801798124.1400652        771997541.51579690        1068022904.0634490     
   3814378857.3899927        656761668.75684917        1167028560.3382151     
   3207357227.7580547        962207168.32741642        756681846.16464078     
   3235199500.9161906        868276543.67923689        853074677.62559235     
   3262777918.8611808        773466401.65390360        951382768.87633240     
   3290092481.5930247        677776742.25141621        1051606119.9168612     
   3317143189.1117225        581207565.47177505        1153744730.7471790     
   2685125680.2291565        805537704.06874692        722081043.16261637     
   2721576924.7082610        736672365.71738577        829538666.25420272     
   2756867952.3036866        663939637.75375998        935919018.34978735     
   2790998763.0154328        587339520.17786956        1041222099.4493700     
   2823969356.8434992        506872012.98971504        1145447909.5529509     
   2201156320.5479112        660346896.16437340        696650269.68655443     
   2237666448.3885827        613981817.72200990        814126929.12648714     
   2272119997.6750422        560761477.43227136        927533786.78462744     
   2304516968.4072886        500685875.29515779        1036870842.6609755     
   2334857360.5853229        433755011.31066889        1142138096.7555311     
   1755449148.7143188        526634744.61429560        680389525.73645532     
   1783468071.9571557        500204899.69310945        806839466.24244547     
   1808534054.9752471        463931920.68943769        926227074.18085277     
   1830647097.7685924        417815807.60328007        1038552349.5516773     
   1849807200.3371925        361856560.43463707        1143815292.3549190     
   3814378857.3899927        656761668.75684917        1167028560.3382151     
   3796684204.1754665        539161520.59263754        1188664391.9072695     
   3782786719.5809622        434218601.16183388        1205393952.6369855     
   3772686403.6064816        341932910.46444201        1217217242.5273638     
   3766383256.2520237        262304448.50046039        1224134261.5784032     
   3317143189.1117225        581207565.47177505        1153744730.7471790     
   3292231062.7000842        474261268.48508382        1182076676.1060069     
   3271019096.9776702        379648840.46247017        1207304408.8038905     
   3253507291.9444799        297370281.40393627        1229427928.8408298     
   3239695647.6005116        227425591.30948007        1248447236.2168236     
   2823969356.8434992        506872012.98971504        1145447909.5529509     
   2796988494.8873034        412124188.47631079        1180362792.7822864     
   2773610785.6895318        329386873.15765333        1213975521.5290713     
   2753836229.2501841        258660067.03374171        1246286095.7933042     
   2737664825.5692606        199943770.10457802        1277294515.5749876     
   2334857360.5853229        433755011.31066889        1142138096.7555311     
   2310956500.7371221        352750280.56631780        1183522741.9361079     
   2290561785.7165465        283432699.24738187        1225407290.8125277     
   2273673215.5235953        225802267.35386020        1267791743.3847899     
   2260290790.1582680        179858984.88575256        1310676099.6528957     
   1849807200.3371925        361856560.43463707        1143815292.3549190     
   1834135080.2495408        296139544.75510538        1191556523.5674708     
   1821872097.0587134        241786318.73165613        1241599716.6542597     
   1813018250.7647119        198796882.36428893        1293944871.6152837     
   1807573541.3675346        167171235.65300673        1348591988.4505451     
   3766383256.2520237        262304448.50046039        1224134261.5784032     
   3658282846.5131092        169812523.98152041        1191613339.0501623     
   3558039586.5016747        103511098.55417907        1169439310.8558578     
   3465653476.2177191        63400172.218439221        1157612176.9954891     
   3381124515.6612430        49479744.974292755        1156131937.4690542     
   3239695647.6005116        227425591.30948007        1248447236.2168236     
   3160923122.9560466        152957197.56108165        1231590122.7515523     
   3088317180.7671108        99044078.664450288        1222786750.2317975     
   3021877821.0337043        65686234.619583845        1222037118.6575577     
   2961605043.7558279        52883665.426481605        1229341228.0288343     
   2737664825.5692606        199943770.10457802        1277294515.5749876     
   2681668319.1951876        141533347.07950580        1274128882.6887443     
   2630147828.0046940        98042974.666365504        1276723837.3595967     
   2583103351.9977813        69472652.865158916        1285079379.5875449     
   2540534891.1744456        55822381.675878644        1299195509.3725893     
   2260290790.1582680        179858984.88575256        1310676099.6528957     
   2220518435.2305312        135540972.53679061        1319229618.8617377     
   2183531528.2144241        100507786.55992663        1331250572.2392561     
   2149330069.1099448        74759426.955155969        1346738959.7854505     
   2117914057.9170964        58295893.722485662        1365694781.5003216     
   1807573541.3675346        167171235.65300673        1348591988.4505451     
   1777473471.0620770        134980073.93293417        1366892331.2705319     
   1748468281.3962996        106438514.34512746        1386366954.8707752     
   1720557972.3702011        81546556.889584839        1407015859.2512729     
   1693742543.9837809        60304201.566302717        1428839044.4120300     
   3381124515.6612430        49479744.974292755        1156131937.4690542     
   3288223340.9468160        42079327.291572452        1147868920.2175670     
   3193419966.2689552        28338243.064074039        1142196901.8210738     
   3096714391.6276665        8256492.2918144464        1139115882.2795691     
   2998106617.0229445       -18165925.025217533        1138625861.5930576     
   2961605043.7558279        52883665.426481605        1229341228.0288343     
   2875181465.3523321        40588091.784381509        1219506291.2442343     
   2788098273.2111249        26093805.683235884        1213192773.3729107     
   2700355467.3322020        9400807.1230424643        1210400674.4148633     
   2611953047.7155643       -9490903.8961973190        1211129994.3700931     
   2540534891.1744456        55822381.675878644        1299195509.3725893     
   2463247252.1055555        39429154.981501579        1289238336.9848804     
   2386542585.5246658        24979169.913799167        1283733003.5687315     
   2310420891.4317813        12472426.472777605        1282679509.1241438     
   2234882169.8269029        1908924.6584367752        1286077853.6511171     
   2117914057.9170964        58295893.722485662        1365694781.5003216     
   2052420701.2064803        38602516.882933736        1357065057.4395051     
   1988752903.2095850        24994335.755779147        1353817592.4085338     
   1926910663.9264102        17471350.341030598        1355952386.4074094     
   1866893983.3569570        16033560.638687253        1363469439.4361298     
   1693742543.9837809        60304201.566302717        1428839044.4120300     
   1642701812.6551111        38108177.488674939        1422986452.6081097     
   1594729226.2658794        26139303.209174454        1423446539.8923206     
   1549824784.8160846        24397578.727794707        1430219306.2646625     
   1507988488.3057289        32883004.044549525        1443304751.7251337     
   2998106617.0229445       -18165925.025217533        1138625861.5930576     
   2902808595.6869221       -43074762.502405286        1124669405.1655324     
   2809756062.5731621       -60498639.238718271        1116242724.6017725     
   2718949017.6816692       -70437555.234140635        1113345819.9017766     
   2630387461.0124407       -72891510.488683820        1115978691.0655410     
   2611953047.7155643       -9490903.8961973190        1211129994.3700931     
   2533396516.7354627       -24103422.489016533        1202278124.0107563     
   2456373506.6373372       -33604204.808578610        1198398473.7035115     
   2380884017.4211845       -37993250.854901433        1199491043.4483562     
   2306928049.0870080       -37270560.627966404        1205555833.2452912     
   2234882169.8269029        1908924.6584367752        1286077853.6511171     
   2171474112.5979447       -2885180.0314366817        1281499940.7962961     
   2108887608.9106700       -4940772.9156945944        1281336692.1818950     
   2047122658.7650797       -4257853.9943416119        1285588107.8079090     
   1986179262.1611743       -836423.26737105846        1294254187.6743429     
   1866893983.3569570        16033560.638687253        1363469439.4361298     
   1817041383.2743618        20579964.870315433        1362334855.5221553     
   1767298369.3931642        25491656.439935803        1365057380.0369251     
   1717664941.7133589        30768635.347531736        1371637012.9804385     
   1668141100.2349486        36410901.593106091        1382073754.3527002     
   1507988488.3057289        32883004.044549525        1443304751.7251337     
   1470098328.7647202        46292012.216258764        1444782868.1883295     
   1431605788.0848181        57693083.258319795        1449560537.2685981     
   1392510866.2660160        67086217.170714796        1457637758.9659400     
   1352813563.3083196        74471413.953465343        1469014533.2803528     
   2630387461.0124407       -72891510.488683820        1115978691.0655410     
   2519468284.4271545       -80001312.271176815        1105339663.3719883     
   2407656217.0570989       -90087416.669570804        1099576107.5595551     
   2294951258.9022746       -103149823.68386352        1098688023.6282339     
   2181353409.9626727       -119188533.31407380        1102675411.5780284     
   2306928049.0870080       -37270560.627966404        1205555833.2452912     
   2209325366.9376373       -42021843.960325003        1195047330.0326297     
   2111257322.5339320       -48324334.807129979        1189362538.7087526     
   2012723915.8758991       -56178033.168359160        1188501459.2736626     
   1913725146.9635358       -65582939.044026971        1192464091.7273612     
   1986179262.1611743       -836423.26737105846        1294254187.6743429     
   1901745188.7553484       -3273553.8573186398        1284374992.2280822     
   1817273281.6256299       -5836796.8602330685        1279267748.6782804     
   1732763540.7720261       -8526152.2761042118        1278932457.0249355     
   1648215966.1945310       -11341620.104942083        1283369117.2680502     
   1668141100.2349486        36410901.593106091        1382073754.3527002     
   1596727749.8802989        36243558.037869871        1373322649.9583554     
   1525704094.3321993        37375197.171128750        1369291737.4681394     
   1455070133.5906541        39805818.992901206        1369981016.8820567     
   1384825867.6556592        43535423.503176868        1375390488.2001030     
   1352813563.3083196        74471413.953465343        1469014533.2803528     
   1294273050.3124812        76529491.725219548        1461890303.2234411     
   1236549760.6536355        81311647.286949694        1459434505.0783298     
   1179643694.3317821        88817880.638657212        1461647138.8450220     
   1123554851.3469255        99048191.780350477        1468528204.5235140     
   2181353409.9626727       -119188533.31407380        1102675411.5780284     
   2098637406.2890570       -129944103.57876694        1092625182.2880459     
   2014189185.1270440       -146473732.13812149        1084157037.2866290     
   1928008746.4766464       -168777418.99208522        1077270976.5737841     
   1840096090.3378539       -196855164.14070129        1071967000.1495070     
   1913725146.9635358       -65582939.044026971        1192464091.7273612     
   1838794965.3142607       -69749038.161601663        1182306462.3733423     
   1763023484.7627115       -76719466.953421712        1175035195.4078345     
   1686410705.3088984       -86494225.419454098        1170650290.8308380     
   1608956626.9528182       -99073313.559718728        1169151748.6423509     
   1648215966.1945310       -11341620.104942083        1283369117.2680502     
   1584798115.4265704       -7800295.4183056355        1274143492.8671412     
   1521429884.3424635       -4093571.7854970694        1269108508.9546838     
   1458111272.9422102       -221449.20650541782        1268264165.5306749     
   1394842281.2258091        3816072.3186586499        1271610462.5951197     
   1384825867.6556592        43535423.503176868        1375390488.2001030     
   1336646856.6259949        55902124.651131988        1368136273.7694426     
   1289408383.8662999        71403953.365658045        1366376977.9271746     
   1243110449.3765800        90040909.646767437        1370112600.6732998     
   1197753053.1568351        111812993.49444985        1379343142.0078189     
   1123554851.3469255        99048191.780350477        1468528204.5235140     
   1094341188.9125214        121358222.04668856        1464284805.0802464     
   1066958983.3342144        149773108.50001931        1466840602.3253114     
   1041408234.6120063        184292851.14034706        1476195596.2587116     
   1017688942.7458956        224917449.96766138        1492349786.8804438     
   1840096090.3378539       -196855164.14070129        1071967000.1495070     
   1663850755.5180697       -301565048.40643501        1031621915.7930778     
   1456283351.0353744       -510681831.54853207        994901538.55287039     
   1217393876.8897676       -824205513.56701255        961805868.42888308     
   947182333.08123994       -1242136094.4618838        932334905.42111635     
   1608956626.9528182       -99073313.559718728        1169151748.6423509     
   1455674169.1818345       -160911184.88560992        1107049146.3572130     
   1285753711.8332405       -278209054.80353332        1049092047.0841933     
   1099195254.9070382       -450966923.31348443        995280450.82330680     
   895998798.40322912       -679184790.41545510        945614357.57453465     
   1394842281.2258091        3816072.3186586499        1271610462.5951197     
   1266010688.7776327       -14703389.585196435        1204881757.4807978     
   1135225166.8371553       -39735949.796720803        1142819351.2744982     
   1002485715.4043742       -71281608.315918446        1085423243.9762263     
   867792334.47929192       -109340365.14279747        1032693435.5859852     
   1197753053.1568351        111812993.49444985        1379343142.0078189     
   1094860314.3054726        137058337.49483693        1325119749.1638324     
   1004697716.0471168        204737483.47190946        1276083451.1237743     
   927265258.38176000        314850431.42565006        1232234247.8876500     
   862562941.30940819        467397181.35607290        1193572139.4554398     
   1017688942.7458956        224917449.96766138        1492349786.8804438     
   942223045.76535261        294373996.35448241        1467763121.4063218     
   894171359.46312380        455211245.00235087        1448884346.6320248     
   873533883.83920598        707429195.91124773        1435713462.5575690     
   880310618.89359212        1051027849.0811634        1428250469.1829362     
   1755449148.7143188        526634744.61429560        680389525.73645532     
   1783468071.9571557        500204899.69310945        806839466.24244547     
   1808534054.9752471        463931920.68943769        926227074.18085277     
   1830647097.7685924        417815807.60328007        1038552349.5516773     
   1849807200.3371925        361856560.43463707        1143815292.3549190     
   1325801518.4904499        397740455.54713500        670173262.69703627     
   1339088983.8649898        375600053.73561823        792360108.26068568     
   1350161744.0711293        346077301.36276859        909287524.23715007     
   1359019799.1088696        309172198.42858648        1020955510.6264297     
   1365663148.9782097        264884744.93307185        1127364067.4285243     
   890010783.63837659        267003235.09151298        662875931.95301509     
   893717942.51718438        250697621.80143517        781660956.80672705     
   895948631.28393853        229470441.47117782        896989455.05365217     
   896702849.93863869        203321694.10074091        1008861426.6937903     
   895980598.48128498        172251379.69012403        1117276871.7271411     
   448076944.15809834        134423083.24742949        658497533.50439143     
   447354947.91374016        125497603.89056042        774742011.88056958     
   445894716.61367410        114111341.01466483        889332866.63035870     
   443696250.25790018        100264294.61974281        1002270097.7537591     
   440759548.84641796        83956464.705793679        1113553705.2507706     
   4.9615302708796168E-002   1.4884590812638850E-002   657038067.35116541     
   5.4656874264631082E-002   2.9940335924802004E-003   771603273.48221338     
   6.0336185452631551E-002  -6.7702911729242560E-003   886317758.96727061     
   6.6653679485114248E-002  -1.4407730102836715E-002   1001181523.8063366     
   7.3608861679945084E-002  -1.9919368352574438E-002   1116194567.9994116     
   1849807200.3371925        361856560.43463707        1143815292.3549190     
   1834135080.2495408        296139544.75510538        1191556523.5674708     
   1821872097.0587134        241786318.73165613        1241599716.6542597     
   1813018250.7647119        198796882.36428893        1293944871.6152837     
   1807573541.3675346        167171235.65300673        1348591988.4505451     
   1365663148.9782097        264884744.93307185        1127364067.4285243     
   1359674866.9015036        217326725.56870484        1182974306.9263606     
   1356243437.4975677        178291548.44690490        1239541153.1010346     
   1355368860.7664015        147779213.56767231        1297064605.9525464     
   1357051136.7080059        125789720.93100649        1355544665.4808953     
   895980598.48128498        172251379.69012403        1117276871.7271411     
   895832282.42295623        141699195.04315162        1179761787.9155316     
   897388534.81334293        116828905.22523078        1241857955.5833614     
   900649355.65244496        97640510.236360937        1303565374.7306297     
   905614744.94026244        84134010.076542616        1364884045.3573353     
   440759548.84641796        83956464.705793679        1113553705.2507706     
   442607326.81389868        69256953.178445458        1181918966.5349848     
   445307389.00603986        57398389.066633001        1248550124.1012387     
   448859735.42284167        48380772.370355800        1313447177.9495320     
   453264366.06430417        42204103.089613885        1376610128.0798657     
   7.3608861679945084E-002  -1.9919368352574438E-002   1116194567.9994116     
   7.4330622929613011E-002  -2.5413948646989183E-002   1189445842.7847188     
   7.5658206805778047E-002  -2.8888513033196929E-002   1259617658.6546669     
   7.7591734834398018E-002  -3.0343480418322782E-002   1326710015.6092560     
   8.0131391448985331E-002  -2.9778366128252708E-002   1390722913.6484861     
   1807573541.3675346        167171235.65300673        1348591988.4505451     
   1777473471.0620770        134980073.93293417        1366892331.2705319     
   1748468281.3962996        106438514.34512746        1386366954.8707752     
   1720557972.3702011        81546556.889584839        1407015859.2512729     
   1693742543.9837809        60304201.566302717        1428839044.4120300     
   1357051136.7080059        125789720.93100649        1355544665.4808953     
   1332780300.6677995        101137614.64689523        1374840644.8525093     
   1309330625.1067569        79222709.959996521        1395706587.7780688     
   1286702110.0248771        60045006.870306551        1418142494.2575753     
   1264894755.4221611        43604505.377830148        1442148364.2910240     
   905614744.94026244        84134010.076542616        1364884045.3573353     
   888303665.37584817        67360115.891554296        1384856321.0933084     
   871540026.13008106        52411022.768723965        1406794243.1569161     
   855323827.20296109        39286730.708050936        1430697811.5481591     
   839655068.59448934        27987239.709537864        1456567026.2670376     
   453264366.06430417        42204103.089613885        1376610128.0798657     
   444043565.18622255        33647577.666909784        1396939359.9929285     
   435096484.46627337        26003452.771315262        1419629921.0073164     
   426423123.90445459        19271728.402820483        1444681811.1230295     
   418023483.50076705        13452404.561430827        1472095030.3400655     
   8.0131391448985331E-002  -2.9778366128252708E-002   1390722913.6484861     
   9.8923605113293261E-002  -2.7035053454158110E-002   1411089761.5513711     
  0.11533179402343488       -3.2238663432965518E-002   1434213621.3292701     
  0.12935524903970350       -4.5391906808392356E-002   1460094492.9821830     
  0.14099531981508923       -6.6488550013662287E-002   1488732376.5101092     
   1693742543.9837809        60304201.566302717        1428839044.4120300     
   1642701812.6551111        38108177.488674939        1422986452.6081097     
   1594729226.2658794        26139303.209174454        1423446539.8923206     
   1549824784.8160846        24397578.727794707        1430219306.2646625     
   1507988488.3057289        32883004.044549525        1443304751.7251337     
   1264894755.4221611        43604505.377830148        1442148364.2910240     
   1230996749.1792045        28272249.987020195        1440179376.1231000     
   1199399851.6397731        20610356.941295624        1443500473.8514049     
   1170104062.8038676        20618826.240654528        1452111657.4759390     
   1143109382.6714890        28297657.885102570        1466012926.9967031     
   839655068.59448934        27987239.709537864        1456567026.2670376     
   819978092.60324669        18642244.555350482        1457586766.1265411     
   801835189.07961762        14410824.293206900        1462873998.6903746     
   785226358.02360046        15292978.923101813        1472428723.9585354     
   770151599.43519533        21288708.445040226        1486250941.9310288     
   418023483.50076705        13452404.561430827        1472095030.3400655     
   409645842.92723751        9218161.1936652064        1475208622.6184330     
   402035238.58540833        7540705.2649012804        1481567114.4092288     
   395191670.47527730        8420036.7751302421        1491170505.7124557     
   389115138.59684670        11856155.724361882        1504018796.5281110     
  0.14099531981508923       -6.6488550013662287E-002   1488732376.5101092     
  0.15117648433459940       -9.8036105332667239E-002   1493044945.5987768     
  0.15714581650601928      -0.14362344875666849        1499579821.0079718     
  0.15890138907062984      -0.20325631059200538        1508337002.7376957     
  0.15644399695116690      -0.27693273498561588        1519316490.7879486     
   1507988488.3057289        32883004.044549525        1443304751.7251337     
   1470098328.7647202        46292012.216258764        1444782868.1883295     
   1431605788.0848181        57693083.258319795        1449560537.2685981     
   1392510866.2660160        67086217.170714796        1457637758.9659400     
   1352813563.3083196        74471413.953465343        1469014533.2803528     
   1143109382.6714890        28297657.885102570        1466012926.9967031     
   1113126340.9857502        37884787.401678741        1464231208.1163168     
   1082691513.4568007        45965964.107552707        1466114306.9664047     
   1051804900.0846385        52541188.002718449        1471662223.5469646     
   1020466500.8692629        57610459.087169766        1480874957.8580000     
   770151599.43519533        21288708.445040226        1486250941.9310288     
   749119290.21444178        27367043.689400256        1481385082.2186923     
   727785790.44616055        32441410.442001939        1480549305.3502290     
   706151100.13035047        36511808.702842236        1483743611.3256390     
   684215219.26701462        39578238.471926689        1490968000.1449225     
   389115138.59684670        11856155.724361882        1504018796.5281110     
   378077176.45079291        14738781.079418063        1496244490.4954545     
   366888619.05289465        17119422.261660263        1492865532.4200742     
   355549466.40315396        18998079.271095112        1493881922.3019655     
   344059718.50156939        20374752.107714608        1499293660.1411312     
  0.15644399695116690      -0.27693273498561588        1519316490.7879486     
 -0.30519501760970902      -0.42826500130093709        1508809432.9466054     
 -0.72299307108935074      -0.43346177151289639        1503062988.1759367     
  -1.0969492484687817      -0.29251912819650128        1502077156.4759407     
  -1.4270662948049313       -5.4446602903868158E-003   1505851937.8466196     
   1352813563.3083196        74471413.953465343        1469014533.2803528     
   1294273050.3124812        76529491.725219548        1461890303.2234411     
   1236549760.6536355        81311647.286949694        1459434505.0783298     
   1179643694.3317821        88817880.638657212        1461647138.8450220     
   1123554851.3469255        99048191.780350477        1468528204.5235140     
   1020466500.8692629        57610459.087169766        1480874957.8580000     
   974375763.54752338        58498411.732125074        1473473457.6928771     
   928897943.71233094        61429422.665569752        1471250305.0099041     
   884033041.36369240        66403491.887527049        1474205499.8090863     
   839781056.50160587        73420619.397989154        1482339042.0904174     
   684215219.26701462        39578238.471926689        1490968000.1449225     
   652031159.24893773        39733136.478934824        1483050873.0460763     
   620255710.86697125        41250073.272973627        1480822008.9997330     
   588888874.12111485        44129048.854047239        1484281408.0058877     
   557930649.01136792        48370063.222152382        1493429070.0645442     
   344059718.50156939        20374752.107714608        1499293660.1411312     
   327239237.41672826        20233665.965656087        1490622549.2830465     
   310623062.11755610        20773599.109160721        1488149617.0478113     
   294211192.60405087        21994551.538221508        1491874863.4354241     
   278003628.87621135        23896523.252834953        1501798288.4458878     
  -1.4270662948049313       -5.4446602903868158E-003   1505851937.8466196     
  -1.9491043394655074       0.19229713975012541        1496188486.4037793     
  -2.5359146787967752       0.17413025005424787        1493233129.1541381     
  -3.1875008013085808       -5.9955743437744125E-002   1496985866.0976944     
  -3.9038585551023206      -0.50994648064679005        1507446697.2344503     
   1123554851.3469255        99048191.780350477        1468528204.5235140     
   1094341188.9125214        121358222.04668856        1464284805.0802464     
   1066958983.3342144        149773108.50001931        1466840602.3253114     
   1041408234.6120063        184292851.14034706        1476195596.2587116     
   1017688942.7458956        224917449.96766138        1492349786.8804438     
   839781056.50160587        73420619.397989154        1482339042.0904174     
   825042164.16811395        92304548.331685841        1479801782.3827765     
   811676864.45663273        115767119.33875090        1482390403.2950325     
   799685157.36716127        143808332.41918069        1490104904.8271878     
   789067042.89970648        176428187.57299945        1502945286.9792454     
   557930649.01136792        48370063.222152382        1493429070.0645442     
   552885623.72611642        62393619.907388538        1492063775.1527586     
   548756326.82879508        79469604.552392855        1494151044.7924426     
   545542758.31939828        99598017.157145649        1499690878.9835925     
   543244918.19792831        122778857.72165245        1508683277.7262082     
   278003628.87621135        23896523.252834953        1501798288.4458878     
   277871567.58653992        31625436.773832992        1501070783.3901966     
   278197370.45070595        40880564.140959181        1502122526.8175375     
   278981037.46871442        51661905.354224324        1504953518.7279136     
   280222568.64056474        63969460.413630709        1509563759.1213243     
  -3.9038585551023206      -0.50994648064679005        1507446697.2344503     
  -4.2506271396453688       -1.0690163955516452        1506822807.0950882     
  -4.6776312676723846       -1.8955381220697243        1506304849.3703251     
  -5.1848871350192489       -2.9895646054865455        1505892824.0601604     
  -5.7723818399183946       -4.3510559624124783        1505586731.1645939     
   1017688942.7458956        224917449.96766138        1492349786.8804438     
   942223045.76535261        294373996.35448241        1467763121.4063218     
   894171359.46312380        455211245.00235087        1448884346.6320248     
   873533883.83920598        707429195.91124773        1435713462.5575690     
   880310618.89359212        1051027849.0811634        1428250469.1829362     
   789067042.89970648        176428187.57299945        1502945286.9792454     
   724856191.84757137        226237168.09919441        1501211882.6519027     
   681205998.51263678        344581674.34939289        1506962368.9221127     
   658116462.89490199        531461706.32359123        1520196745.7898648     
   655587584.99436545        786877264.02177572        1540915013.2551773     
   543244918.19792831        122778857.72165245        1508683277.7262082     
   495363398.49625248        154462558.01384515        1521807322.7576857     
   461188983.55066711        231836607.49300295        1544191258.2844305     
   440721673.36116439        354901006.15910786        1575835084.3064370     
   433961467.92775142        523655754.01217163        1616738800.8237126     
   280222568.64056474        63969460.413630709        1509563759.1213243     
   253744665.71139798        79050166.098435163        1529549441.7236583     
   234120314.57720572        116976044.43315575        1560571014.7189751     
   221349515.23799053        177747095.41780204        1602628478.1072736     
   215432267.69374660        261363319.05234706        1655721831.8885579     
  -5.7723818399183946       -4.3510559624124783        1505586731.1645939     
  -6.5069931128295977       -7.6470324578076294        1524438239.5498233     
  -8.4077422679695744       -14.830136615077480        1556101638.2257509     
  -11.474625050500087       -25.900351128925635        1600576927.1923754     
  -15.707643427711933       -40.857686373379742        1657864106.4497042     
   4.9615302708796168E-002   1.4884590812638850E-002   657038067.35116541     
   5.4656874264631082E-002   2.9940335924802004E-003   771603273.48221338     
   6.0336185452631551E-002  -6.7702911729242560E-003   886317758.96727061     
   6.6653679485114248E-002  -1.4407730102836715E-002   1001181523.8063366     
   7.3608861679945084E-002  -1.9919368352574438E-002   1116194567.9994116     
  -448076944.06047046       -134423083.21814114        658497533.49352193     
  -447354947.80584860       -125497603.88414781        774742011.86998963     
  -445894716.49431491       -114111341.02711594        889332866.61999857     
  -443696250.12586981       -100264294.64704540        1002270097.7435486     
  -440759548.70051342       -83956464.743936971        1113553705.2406399     
  -890010783.54555714       -267003235.06366715        662875931.93164563     
  -893717942.41411984       -250697621.79561934        781660956.78585231     
  -895948631.16949737       -229470441.48362097        896989455.03313208     
  -896702849.81168973       -203321694.12767208        1008861426.6734856     
  -895980598.34069693       -172251379.72777253        1117276871.7069123     
  -1325801518.4056442       -397740455.52169323        670173262.66553664     
  -1339088983.7701571       -375600053.73142064        792360108.22980142     
  -1350161743.9652112       -346077301.37628555        909287524.20667160     
  -1359019798.9908059       -309172198.45628756        1020955510.5961473     
  -1365663148.8469427       -264884744.97142732        1127364067.3982289     
  -1755449148.6407323       -526634744.59221971        680389525.69519484     
  -1783468071.8739603       -500204899.69155174        806839466.20183694     
  -1808534054.8814559       -463931920.70510912        926227074.14061677     
  -1830647097.6632187       -417815807.63289195        1038552349.5115343     
  -1849807200.2192495       -361856560.47490001        1143815292.3145895     
   7.3608861679945084E-002  -1.9919368352574438E-002   1116194567.9994116     
   7.4330622929613011E-002  -2.5413948646989183E-002   1189445842.7847188     
   7.5658206805778047E-002  -2.8888513033196929E-002   1259617658.6546669     
   7.7591734834398018E-002  -3.0343480418322782E-002   1326710015.6092560     
   8.0131391448985331E-002  -2.9778366128252708E-002   1390722913.6484861     
  -440759548.70051342       -83956464.743936971        1113553705.2406399     
  -442607326.66633856       -69256953.227153331        1181918966.5250056     
  -445307388.85543048       -57398389.121259406        1248550124.0914764     
  -448859735.26778871       -48380772.426252916        1313447177.9400525     
  -453264365.90341312       -42204103.142134294        1376610128.0707331     
  -895980598.34069693       -172251379.72777253        1117276871.7069123     
  -895832282.28031492       -141699195.09088573        1179761787.8958187     
  -897388534.66707182       -116828905.27779606        1241857955.5642941     
  -900649355.50096714       -97640510.288501352        1303565374.7123394     
  -905614744.78200173       -84134010.123003870        1364884045.3399527     
  -1365663148.8469427       -264884744.97142732        1127364067.3982289     
  -1359674866.7675982       -217326725.61661014        1182974306.8971581     
  -1356243437.3592653       -178291548.49849758        1239541153.0731208     
  -1355368860.6219442       -147779213.61709017        1297064605.9261162     
  -1357051136.5556340       -125789720.97238630        1355544665.4561450     
  -1849807200.2192495       -361856560.47490001        1143815292.3145895     
  -1834135080.1281886       -296139544.80432570        1191556523.5290244     
  -1821872096.9320123       -241786318.78336674        1241599716.6179554     
  -1813018250.6307185       -198796882.41201693        1293944871.5813844     
  -1807573541.2243092       -167171235.69028157        1348591988.4193106     
   8.0131391448985331E-002  -2.9778366128252708E-002   1390722913.6484861     
   9.8923605113293261E-002  -2.7035053454158110E-002   1411089761.5513711     
  0.11533179402343488       -3.2238663432965518E-002   1434213621.3292701     
  0.12935524903970350       -4.5391906808392356E-002   1460094492.9821830     
  0.14099531981508923       -6.6488550013662287E-002   1488732376.5101092     
  -453264365.90341312       -42204103.142134294        1376610128.0707331     
  -444043564.98824489       -33647577.710528567        1396939359.9769948     
  -435096484.23514014       -26003452.819135413        1419629920.9834096     
  -426423123.64409846       -19271728.467951313        1444681811.0899777     
  -418023483.21512055       -13452404.656981468        1472095030.2966995     
  -905614744.78200173       -84134010.123003870        1364884045.3399527     
  -888303665.18434358       -67360115.926700354        1384856321.0632982     
  -871540025.90842927       -52411022.802874833        1406794243.1119370     
  -855323826.95425677       -39286730.751523703        1430697811.4858687     
  -839655068.32182729       -27987239.772647887        1456567026.1850939     
  -1357051136.5556340       -125789720.97238630        1355544665.4561450     
  -1332780300.4893742       -101137614.67555332        1374840644.8102832     
  -1309330624.9045362       -79222709.983459949        1395706587.7148530     
  -1286702109.8011205       -60045006.896106958        1418142494.1698563     
  -1264894755.1791270       -43604505.413494885        1442148364.1752911     
  -1807573541.2243092       -167171235.69028157        1348591988.4193106     
  -1777473470.9033341       -134980073.95708346        1366892331.2179480     
  -1748468281.2234614       -106438514.36089224        1386366954.7921572     
  -1720557972.1846886       -81546556.901702344        1407015859.1419377     
  -1693742543.7870176       -60304201.579515934        1428839044.2672913     
  0.14099531981508923       -6.6488550013662287E-002   1488732376.5101092     
  0.15117648433459940       -9.8036105332667239E-002   1493044945.5987768     
  0.15714581650601928      -0.14362344875666849        1499579821.0079718     
  0.15890138907062984      -0.20325631059200538        1508337002.7376957     
  0.15644399695116690      -0.27693273498561588        1519316490.7879486     
  -418023483.21512055       -13452404.656981468        1472095030.2966995     
  -409645842.61796099       -9218161.3305095732        1475208622.5613716     
  -402035238.25540853       -7540705.4527277052        1481567114.3359554     
  -395191670.12746567       -8420037.0236440748        1491170505.6204493     
  -389115138.23413062       -11856156.043254495        1504018796.4148562     
  -839655068.32182729       -27987239.772647887        1456567026.1850939     
  -819978092.31088221       -18642244.640117168        1457586766.0236423     
  -801835188.76493967       -14410824.390928477        1462873998.5614858     
  -785226357.68400037       -15292979.025084645        1472428723.7986243     
  -770151599.06806421       -21288708.542583108        1486250941.7350569     
  -1264894755.1791270       -43604505.413494885        1442148364.1752911     
  -1230996748.9275868       -28272250.026860237        1440179375.9855897     
  -1199399851.3714457       -20610356.958219945        1443500473.6845670     
  -1170104062.5107021       -20618826.207571626        1452111657.2722218     
  -1143109382.3453562       -28297657.774917245        1466012926.7485535     
  -1693742543.7870176       -60304201.579515934        1428839044.2672913     
  -1642701812.4680762       -38108177.490739167        1422986452.4472129     
  -1594729226.0749280       -26139303.154605567        1423446539.7051957     
  -1549824784.6075723       -24397578.571115136        1430219306.0412381     
  -1507988488.0660090       -32883003.740264535        1443304751.4553411     
  0.15644399695116690      -0.27693273498561588        1519316490.7879486     
 -0.30519501760970902      -0.42826500130093709        1508809432.9466054     
 -0.72299307108935074      -0.43346177151289639        1503062988.1759367     
  -1.0969492484687817      -0.29251912819650128        1502077156.4759407     
  -1.4270662948049313       -5.4446602903868158E-003   1505851937.8466196     
  -389115138.23413062       -11856156.043254495        1504018796.4148562     
  -378077176.97655523       -14738781.644472376        1496244490.4626427     
  -366888620.40143883       -17119422.853885785        1492865532.4814303     
  -355549468.50878012       -18998079.671492726        1493881922.4712214     
  -344059721.29857796       -20374752.097286716        1499293660.4320154     
  -770151599.06806421       -21288708.542583108        1486250941.7350569     
  -749119290.66176617       -27367043.964840412        1481385082.1579568     
  -727785791.66422367       -32441410.749616295        1480549305.4521885     
  -706151102.07543564       -36511808.896908641        1483743611.6177523     
  -684215221.89540529       -39578238.406723499        1490968000.6546462     
  -1143109382.3453562       -28297657.774917245        1466012926.7485535     
  -1113126341.3608241       -37884787.389360666        1464231208.0325530     
  -1082691514.5113459       -45965964.120648921        1466114307.0882137     
  -1051804901.7969179       -52541187.968775153        1471662223.9155343     
  -1020466503.2175452       -57610458.933747351        1480874958.5145161     
  -1507988488.0660090       -32883003.740264535        1443304751.4553411     
  -1470098329.0737309       -46292011.918035626        1444782868.0864282     
  -1431605788.9428029       -57693082.966975391        1449560537.3895042     
  -1392510867.6732280       -67086216.887091637        1457637759.3645689     
  -1352813565.2650037       -74471413.678376794        1469014534.0116231     
  -1.4270662948049313       -5.4446602903868158E-003   1505851937.8466196     
  -1.9491043394655074       0.19229713975012541        1496188486.4037793     
  -2.5359146787967752       0.17413025005424787        1493233129.1541381     
  -3.1875008013085808       -5.9955743437744125E-002   1496985866.0976944     
  -3.9038585551023206      -0.50994648064679005        1507446697.2344503     
  -344059721.29857796       -20374752.097286716        1499293660.4320154     
  -327239241.27524924       -20233665.705387801        1490622549.4899473     
  -310623067.13621724       -20773598.927810341        1488149617.1909246     
  -294211198.88148093       -21994551.764552206        1491874863.5349500     
  -278003636.51103944       -23896524.215610400        1501798288.5220232     
  -684215221.89540529       -39578238.406723499        1490968000.6546462     
  -652031162.89857399       -39733136.292230010        1483050873.4239101     
  -620255715.60556042       -41250073.190462738        1480822009.2860661     
  -588888880.01636517       -44129049.101423174        1484281408.2411211     
  -557930656.13098741       -48370064.025107756        1493429070.2890685     
  -1020466503.2175452       -57610458.933747351        1480874958.5145161     
  -974375766.81907690       -58498411.568229020        1473473458.2056668     
  -928897947.94394422       -61429422.613827467        1471250305.4395602     
  -884033046.59215355       -66403492.070567042        1474205500.2161987     
  -839781062.76370072       -73420619.938431412        1482339042.5355756     
  -1352813565.2650037       -74471413.678376794        1469014534.0116231     
  -1294273053.0367546       -76529491.533367097        1461890303.8352211     
  -1236549764.1513700       -81311647.197908163        1459434505.6514099     
  -1179643698.6088443       -88817880.671979129        1461647139.4601891     
  -1123554856.4091811       -99048191.955588490        1468528205.2615583     
  -3.9038585551023206      -0.50994648064679005        1507446697.2344503     
  -4.2506271396453688       -1.0690163955516452        1506822807.0950882     
  -4.6776312676723846       -1.8955381220697243        1506304849.3703251     
  -5.1848871350192489       -2.9895646054865455        1505892824.0601604     
  -5.7723818399183946       -4.3510559624124783        1505586731.1645939     
  -278003636.51103944       -23896524.215610400        1501798288.5220232     
  -277871575.85639364       -31625438.671711750        1501070783.3916867     
  -278197379.53083277       -40880567.558096334        1502122526.7471507     
  -278981047.53435373       -51661910.874755695        1504953518.5884173     
  -280222579.86696696       -63969468.621718802        1509563758.9154904     
  -557930656.13098741       -48370064.025107756        1493429070.2890685     
  -552885631.41434681       -62393621.460064828        1492063775.2107697     
  -548756335.27563548       -79469607.488118693        1494151044.6894782     
  -545542767.71485054       -99598022.109262645        1499690878.7251949     
  -543244928.73199570       -122778865.32350305        1508683277.3179104     
  -839781062.76370072       -73420619.938431412        1482339042.5355756     
  -825042170.92448771       -92304549.434076637        1479801782.5523403     
  -811676871.91204429       -115767121.68562099        1482390403.1973116     
  -799685165.72637224       -143808336.69307032        1490104904.4704907     
  -789067052.36747015       -176428194.45642021        1502945286.3718796     
  -1123554856.4091811       -99048191.955588490        1468528205.2615583     
  -1094341194.3868117       -121358222.59373680        1464284805.4163980     
  -1066958989.4400640       -149773110.15061900        1466840602.2706461     
  -1041408241.5689211       -184292854.62618756        1476195595.8243072     
  -1017688950.7733966       -224917456.02048296        1492349786.0773759     
  -5.7723818399183946       -4.3510559624124783        1505586731.1645939     
  -6.5069931128295977       -7.6470324578076294        1524438239.5498233     
  -8.4077422679695744       -14.830136615077480        1556101638.2257509     
  -11.474625050500087       -25.900351128925635        1600576927.1923754     
  -15.707643427711933       -40.857686373379742        1657864106.4497042     
  -280222579.86696696       -63969468.621718802        1509563758.9154904     
  -253744678.01373911       -79050179.633384585        1529549439.3708215     
  -234120329.53723547       -116976068.56746238        1560571010.2297213     
  -221349534.43745309       -177747135.42394736        1602628471.4921811     
  -215432292.71438771       -261363380.20281845        1655721823.1582062     
  -543244928.73199570       -122778865.32350305        1508683277.3179104     
  -495363409.68275493       -154462569.66842598        1521807318.9310081     
  -461188996.22082025       -231836625.97103602        1544191251.0605302     
  -440721688.34618783       -354901034.23131734        1575835073.7064812     
  -433961486.05885655       -523655794.44927454        1616738786.8688636     
  -789067052.36747015       -176428194.45642021        1502945286.3718796     
  -724856201.51403570       -226237177.75214604        1501211878.2303896     
  -681206008.45848894       -344581687.04083127        1506962360.7181902     
  -658116473.20082390       -531461722.32245690        1520196733.8352752     
  -655587595.74104607       -786877283.59704018        1540914997.5816641     
  -1017688950.7733966       -224917456.02048296        1492349786.0773759     
  -942223053.50758111       -294374003.88454211        1467763117.2689545     
  -894171366.25024104       -455211251.77684915        1448884339.2026870     
  -873533889.00136423       -707429199.69737208        1435713451.8785741     
  -880310621.76095986       -1051027847.6461297        1428250455.2966135     
  -1755449148.6407323       -526634744.59221971        680389525.69519484     
  -1783468071.8739603       -500204899.69155174        806839466.20183694     
  -1808534054.8814559       -463931920.70510912        926227074.14061677     
  -1830647097.6632187       -417815807.63289195        1038552349.5115343     
  -1849807200.2192495       -361856560.47490001        1143815292.3145895     
  -2201156320.4882097       -660346896.14646292        696650269.63631153     
  -2237666448.3195271       -613981817.72194040        814126929.07704782     
  -2272119997.5958638       -560761477.44748509        927533786.73545766     
  -2304516968.3172207       -500685875.32309687        1036870842.6115406     
  -2334857360.4835982       -433755011.34877580        1142138096.7052975     
  -2685125680.1854663       -805537704.05563986        722081043.10457814     
  -2721576924.6561995       -736672365.71966076        829538666.19686365     
  -2756867952.2427034       -663939637.76959038        935919018.29235864     
  -2790998762.9449821       -587339520.20542943        1041222099.3910629     
  -2823969356.7630320       -506872013.02717710        1145447909.4929762     
  -3207357227.7325020       -962207168.31975067        756681846.09999442     
  -3235199500.8839760       -868276543.68471253        853074677.56128478     
  -3262777918.8219748       -773466401.67142498        951382768.81132066     
  -3290092481.5464997       -677776742.27988911        1051606119.8501008     
  -3317143189.0575495       -581207565.51010323        1153744730.6776264     
  -3767850963.1293168       -1130355288.9387951        800452678.62256038     
  -3778534177.0028586       -1008794351.6170957        884734963.17031109     
  -3789849897.3336778       -889341769.15298951        973925038.29234254     
  -3801798124.1217761       -771997541.54647636        1068022903.9886547     
  -3814378857.3671522       -656761668.79755533        1167028560.2592478     
  -1849807200.2192495       -361856560.47490001        1143815292.3145895     
  -1834135080.1281886       -296139544.80432570        1191556523.5290244     
  -1821872096.9320123       -241786318.78336674        1241599716.6179554     
  -1813018250.6307185       -198796882.41201693        1293944871.5813844     
  -1807573541.2243092       -167171235.69028157        1348591988.4193106     
  -2334857360.4835982       -433755011.34877580        1142138096.7052975     
  -2310956500.6308951       -352750280.61295778        1183522741.8882434     
  -2290561785.6040912       -283432699.29680359        1225407290.7675145     
  -2273673215.4031858       -225802267.40031177        1267791743.3431108     
  -2260290790.0281801       -179858984.92348266        1310676099.6150327     
  -2823969356.7630320       -506872013.02717710        1145447909.4929762     
  -2796988494.8006058       -412124188.52169061        1180362792.7249157     
  -2773610785.5950937       -329386873.20591736        1213975521.4750082     
  -2753836229.1464968       -258660067.07985902        1246286095.7432549     
  -2737664825.4548125       -199943770.14351320        1277294515.5296540     
  -3317143189.0575495       -581207565.51010323        1153744730.6776264     
  -3292231062.6373210       -474261268.53052473        1182076676.0390420     
  -3271019096.9050217       -379648840.51071000        1207304408.7404389     
  -3253507291.8606510       -297370281.45065939        1229427928.7818165     
  -3239695647.5042109       -227425591.35037363        1248447236.1631763     
  -3814378857.3671522       -656761668.79755533        1167028560.2592478     
  -3796684204.1410403       -539161520.63946021        1188664391.8306208     
  -3782786719.5338712       -434218601.21117711        1205393952.5638039     
  -3772686403.5456491       -341932910.51271355        1217217242.4587955     
  -3766383256.1763706       -262304448.54406238        1224134261.5155981     
  -1807573541.2243092       -167171235.69028157        1348591988.4193106     
  -1777473470.9033341       -134980073.95708346        1366892331.2179480     
  -1748468281.2234614       -106438514.36089224        1386366954.7921572     
  -1720557972.1846886       -81546556.901702344        1407015859.1419377     
  -1693742543.7870176       -60304201.579515934        1428839044.2672913     
  -2260290790.0281801       -179858984.92348266        1310676099.6150327     
  -2220518435.0956135       -135540972.56376803        1319229618.8020017     
  -2183531528.0741019       -100507786.57423639        1331250572.1546578     
  -2149330068.9636450       -74759426.954883218        1346738959.6730006     
  -2117914057.7642434       -58295893.705719709        1365694781.3570285     
  -2737664825.4548125       -199943770.14351320        1277294515.5296540     
  -2681668319.0817542       -141533347.10860610        1274128882.6233423     
  -2630147827.8897066       -98042974.677064538        1276723837.2728326     
  -2583103351.8786674       -69472652.848885536        1285079379.4781234     
  -2540534891.0486379       -55822381.624073386        1299195509.2392154     
  -3239695647.5042109       -227425591.35037363        1248447236.1631763     
  -3160923122.8617625       -152957197.59160697        1231590122.6819704     
  -3088317180.6702776       -99044078.669382811        1222786750.1466801     
  -3021877820.9297571       -65686234.583708882        1222037118.5573061     
  -2961605043.6402001       -52883665.334579349        1229341227.9138477     
  -3766383256.1763706       -262304448.54406238        1224134261.5155981     
  -3658282846.4356337       -169812524.01276672        1191613338.9778850     
  -3558039586.4158139       -103511098.55119538        1169439310.7762022     
  -3465653476.1169119       -63400172.159348607        1157612176.9105496     
  -3381124515.5389285       -49479744.837230206        1156131937.3809280     
  -1693742543.7870176       -60304201.579515934        1428839044.2672913     
  -1642701812.4680762       -38108177.490739167        1422986452.4472129     
  -1594729226.0749280       -26139303.154605567        1423446539.7051957     
  -1549824784.6075723       -24397578.571115136        1430219306.0412381     
  -1507988488.0660090       -32883003.740264535        1443304751.4553411     
  -2117914057.7642434       -58295893.705719709        1365694781.3570285     
  -2052420701.0842986       -38602516.848425746        1357065057.2996123     
  -1988752903.1104600       -24994335.678163052        1353817592.2644811     
  -1926910663.8427339       -17471350.194932818        1355952386.2516358     
  -1866893983.2811151       -16033560.398731709        1363469439.2610753     
  -2540534891.0486379       -55822381.624073386        1299195509.2392154     
  -2463247252.0241847       -39429154.903211236        1289238336.8674233     
  -2386542585.4861593       -24979169.803770900        1283733003.4621422     
  -2310420891.4345598       -12472426.325748205        1282679509.0233712     
  -2234882169.8693857       -1908924.4691481590        1286077853.5511129     
  -2961605043.6402001       -52883665.334579349        1229341227.9138477     
  -2875181465.2877412       -40588091.655097961        1219506291.1506445     
  -2788098273.2020235       -26093805.531427026        1213192773.2981770     
  -2700355467.3830490       -9400806.9635676146        1210400674.3564470     
  -2611953047.8308177        9490904.0484850407        1211129994.3254528     
  -3381124515.5389285       -49479744.837230206        1156131937.3809280     
  -3288223340.8749628       -42079327.104083300        1147868920.1492767     
  -3193419966.2580533       -28338242.861134410        1142196901.7725880     
  -3096714391.6882029       -8256492.1083776951        1139115882.2508605     
  -2998106617.1654153        18165925.154172182        1138625861.5840962     
  -1507988488.0660090       -32883003.740264535        1443304751.4553411     
  -1470098329.0737309       -46292011.918035626        1444782868.0864282     
  -1431605788.9428029       -57693082.966975391        1449560537.3895042     
  -1392510867.6732280       -67086216.887091637        1457637759.3645689     
  -1352813565.2650037       -74471413.678376794        1469014534.0116231     
  -1866893983.2811151       -16033560.398731709        1363469439.2610753     
  -1817041383.6150711       -20579964.642144322        1362334855.5294640     
  -1767298370.1468318       -25491656.211572409        1365057380.2746785     
  -1717664942.8764009       -30768635.107028604        1371637013.4967172     
  -1668141101.8037736       -36410901.328497410        1382073755.1955812     
  -2234882169.8693857       -1908924.4691481590        1286077853.5511129     
  -2171474112.9443297        2885180.1973757744        1281499940.8976066     
  -2108887609.5535374        4940773.0830242634        1281336692.5257602     
  -2047122659.6970046        4257854.1878051758        1285588108.4355729     
  -1986179263.3747330        836423.51171684265        1294254188.6270475     
  -2611953047.8308177        9490904.0484850407        1211129994.3254528     
  -2533396517.0615082        24103422.600519300        1202278124.1908543     
  -2456373507.1629152        33604204.916822433        1198398474.1427495     
  -2380884018.1350355        37993250.997415900        1199491044.1811409     
  -2306928049.9778767        37270560.842278004        1205555834.3060308     
  -2998106617.1654153        18165925.154172182        1138625861.5840962     
  -2902808595.9666042        43074762.567287564        1124669405.4092059     
  -2809756062.9749694        60498639.289816141        1116242725.1256471     
  -2718949018.1905012        70437555.321789861        1113345820.7334197     
  -2630387461.6132073        72891510.663183331        1115978692.2325230     
  -1352813565.2650037       -74471413.678376794        1469014534.0116231     
  -1294273053.0367546       -76529491.533367097        1461890303.8352211     
  -1236549764.1513700       -81311647.197908163        1459434505.6514099     
  -1179643698.6088443       -88817880.671979129        1461647139.4601891     
  -1123554856.4091811       -99048191.955588490        1468528205.2615583     
  -1668141101.8037736       -36410901.328497410        1382073755.1955812     
  -1596727751.9902484       -36243557.804461479        1373322650.6594779     
  -1525704096.9965601       -37375197.013213098        1369291738.1089137     
  -1455070136.8227074       -39805818.954752624        1369981017.5438869     
  -1384825871.4686966       -43535423.629094779        1375390488.9644005     
  -1986179263.3747330        836423.51171684265        1294254188.6270475     
  -1901745190.2817931        3273554.1230338812        1284374993.0081091     
  -1817273283.4856675        5836797.0783034563        1279267749.3676531     
  -1732763542.9863565        8526152.3775281906        1278932457.7056839     
  -1648215968.7838557        11341620.020708919        1283369118.0221996     
  -2306928049.9778767        37270560.842278004        1205555834.3060308     
  -2209325367.9113913        42021844.249107361        1195047330.8811140     
  -2111257323.6186919        48324335.076651454        1189362539.4276283     
  -2012723917.0997906        56178033.324868560        1188501459.9455750     
  -1913725148.3546698        65582938.993816376        1192464092.4349556     
  -2630387461.6132073        72891510.663183331        1115978692.2325230     
  -2519468284.8790398        80001312.573774219        1105339664.2784908     
  -2407656217.3956366        90087416.981812596        1099576108.2888396     
  -2294951259.1630020        103149823.88729191        1098688024.2635655     
  -2181353410.1811299        119188533.29023004        1102675412.2026711     
  -1123554856.4091811       -99048191.955588490        1468528205.2615583     
  -1094341194.3868117       -121358222.59373680        1464284805.4163980     
  -1066958989.4400640       -149773110.15061900        1466840602.2706461     
  -1041408241.5689211       -184292854.62618756        1476195595.8243072     
  -1017688950.7733966       -224917456.02048296        1492349786.0773759     
  -1384825871.4686966       -43535423.629094779        1375390488.9644005     
  -1336646860.7928534       -55902125.078845203        1368136273.9266539     
  -1289408388.5094585       -71403954.503422916        1366376977.4948449     
  -1243110454.6185148       -90040911.902830720        1370112599.6689737     
  -1197753059.1200128       -111812997.27705169        1379343140.4490426     
  -1648215968.7838557        11341620.020708919        1283369118.0221996     
  -1584798118.2930362        7800295.1078138947        1274143492.9222302     
  -1521429887.5114987        4093571.1639723182        1269108508.3347259     
  -1458111276.4392424        221448.18919593096        1268264164.2596831     
  -1394842285.0762687       -3816073.8165206909        1271610460.6971080     
  -1913725148.3546698        65582938.993816376        1192464092.4349556     
  -1838794966.8873684        69749037.966223359        1182306462.4031255     
  -1763023486.4461844        76719466.851570845        1175035194.7902811     
  -1686410707.0311139        86494225.649874330        1170650289.5964305     
  -1608956628.6421583        99073314.361127734        1169151746.8215697     
  -2181353410.1811299        119188533.29023004        1102675412.2026711     
  -2098637406.5758452        129944103.49638748        1092625182.3693371     
  -2014189185.3135080        146473732.55939138        1084157036.8615203     
  -1928008746.3941250        168777420.47920942        1077270975.6792166     
  -1840096089.8176885        196855167.25587392        1071966998.8224339     
  -1017688950.7733966       -224917456.02048296        1492349786.0773759     
  -942223053.50758111       -294374003.88454211        1467763117.2689545     
  -894171366.25024104       -455211251.77684915        1448884339.2026870     
  -873533889.00136423       -707429199.69737208        1435713451.8785741     
  -880310621.76095986       -1051027847.6461297        1428250455.2966135     
  -1197753059.1200128       -111812997.27705169        1379343140.4490426     
  -1094860319.9208634       -137058342.45204392        1325119744.7086873     
  -1004697721.1716669       -204737489.12688199        1276083443.7081900     
  -927265262.87240839       -314850437.30150902        1232234237.4475489     
  -862562945.02309716       -467397186.97595859        1193572125.9267614     
  -1394842285.0762687       -3816073.8165206909        1271610460.6971080     
  -1266010692.5217774        14703387.124159813        1204881752.5097651     
  -1135225170.8587182        39735945.093407869        1142819343.0599818     
  -1002485720.0870746        71281600.091269135        1085423232.3477538     
  -867792340.20685554        109340352.11771947        1032693420.3730849     
  -1608956628.6421583        99073314.361127734        1169151746.8215697     
  -1455674171.3103290        160911184.84406817        1107049140.6721859     
  -1285753715.3113992        278209050.88400704        1049092037.2580584     
  -1099195260.6453621        450966912.48097003        995280436.57920194     
  -895998807.31223106        679184769.63491583        945614338.63558519     
  -1840096089.8176885        196855167.25587392        1071966998.8224339     
  -1663850756.2865067        301565050.70770192        1031621909.1959485     
  -1456283354.5297096        510681828.24491155        994901526.30242813     
  -1217393884.5472798        824205499.86755693        961805850.14186656     
  -947182346.33922756        1242136065.5756259        932334880.71426439     
  -3767850963.1293168       -1130355288.9387951        800452678.62256038     
  -3778534177.0028586       -1008794351.6170957        884734963.17031109     
  -3789849897.3336778       -889341769.15298951        973925038.29234254     
  -3801798124.1217761       -771997541.54647636        1068022903.9886547     
  -3814378857.3671522       -656761668.79755533        1167028560.2592478     
  -4339466446.6518831       -1301839933.9955649        858541927.66870821     
  -4334802911.0755482       -1125841284.5406237        942106360.25378144     
  -4331286168.8930330       -953665279.73174977        1020005645.1952696     
  -4328916220.1043377       -785311919.56894410        1092239782.4931726     
  -4327693064.7094650       -620781204.05220520        1158808772.1474905     
  -4895063238.5761747       -1468518971.5728524        936097980.23486960     
  -4905261348.4581499       -1247145128.4571252        1018344559.4312992     
  -4917120538.6704893       -1031308219.7759405        1084353052.7662780     
  -4930640809.2131891       -821008245.52929842        1134123460.2398055     
  -4945822160.0862551       -616245205.71719968        1167655781.8518825     
  -5434641338.9021912       -1630392401.6706574        1033120836.3210441     
  -5489909489.1506662       -1372705883.3666008        1113449560.7028642     
  -5547353006.6660471       -1122270589.2855620        1166967261.0053670     
  -5606971891.4483328       -879086519.42754030        1193673937.2285533     
  -5668766143.4975224       -643153673.79253745        1193569589.3724225     
  -5958200747.6299324       -1787460224.2889795        1149610495.9272325     
  -6088747333.1530952       -1502523549.2690501        1227421364.0684764     
  -6221983572.8797054       -1226552388.2606134        1267848269.9125376     
  -6357909466.8097639       -959546741.26366913        1270891213.4594159     
  -6496525014.9432707       -701506608.27821732        1236550194.7091115     
  -3814378857.3671522       -656761668.79755533        1167028560.2592478     
  -3796684204.1410403       -539161520.63946021        1188664391.8306208     
  -3782786719.5338712       -434218601.21117711        1205393952.5638039     
  -3772686403.5456491       -341932910.51271355        1217217242.4587955     
  -3766383256.1763706       -262304448.54406238        1224134261.5155981     
  -4327693064.7094650       -620781204.05220520        1158808772.1474905     
  -4297123662.2035608       -465266395.15854871        1140842907.8006129     
  -4277156772.2970629       -345093294.92957079        1128937430.4912515     
  -4267792394.9899664       -260261903.36527157        1123092340.2194047     
  -4269030530.2822762       -210772220.46565199        1123307636.9850743     
  -4945822160.0862551       -616245205.71719968        1167655781.8518825     
  -4871044700.0842581       -413415743.62309146        1102148653.6095517     
  -4813675096.6621256       -268612470.12852597        1053668570.2804428     
  -4773713349.8198528       -181835385.23350239        1022215531.8645545     
  -4751159459.5574465       -153084488.93802094        1007789538.3618885     
  -5668766143.4975224       -643153673.79253745        1193569589.3724225     
  -5518447317.7831316       -383609566.03308725        1072581629.2574365     
  -5392341692.6290607       -204776126.80804205        979587371.93137777     
  -5290449268.0353107       -106653356.11740327        914586817.39424706     
  -5212770044.0018854       -89241253.961171150        877579965.64604390     
  -6496525014.9432707       -701506608.27821732        1236550194.7091115     
  -6239331515.3001795       -375847862.38853312        1052141834.7442676     
  -6013156560.1978683       -153584264.96812105        906693835.44405723     
  -5818000149.6363373       -34715816.016975880        800206196.80848098     
  -5653862283.6155882       -19242515.535099506        732678918.83753824     
  -3766383256.1763706       -262304448.54406238        1224134261.5155981     
  -3658282846.4356337       -169812524.01276672        1191613338.9778850     
  -3558039586.4158139       -103511098.55119538        1169439310.7762022     
  -3465653476.1169119       -63400172.159348607        1157612176.9105496     
  -3381124515.5389285       -49479744.837230206        1156131937.3809280     
  -4269030530.2822762       -210772220.46565199        1123307636.9850743     
  -4145375833.1368637       -146667624.85875130        1089690990.5804176     
  -4026186493.9573483       -97447555.804832935        1064243208.3643411     
  -3911462512.7437263       -63112013.303894997        1046964290.3368434     
  -3801203889.4959993       -43660997.355941296        1037854236.4979252     
  -4751159459.5574465       -153084488.93802094        1007789538.3618885     
  -4618173418.2857943       -119234105.23904657        977034258.47115052     
  -4486260943.2250128       -88962275.576310635        952269812.62153995     
  -4355422034.3751030       -62268999.949812651        933496200.81305885     
  -4225656691.7360644       -39154278.359551430        920713423.04570401     
  -5212770044.0018854       -89241253.961171150        877579965.64604390     
  -5076675601.8824205       -87511965.153652191        853643142.65008402     
  -4938262934.2188072       -78055257.865625858        833519123.54780030     
  -4797532041.0110416       -60871132.097095966        817207908.33919418     
  -4654482922.2591228       -35959587.848058939        804709497.02426481     
  -5653862283.6155882       -19242515.535099506        732678918.83753824     
  -5520882383.9267473       -51501204.602563858        719517643.11721623     
  -5382192466.9387321       -64726502.672783613        707991141.14311969     
  -5237792532.6515398       -58918409.745749474        698099412.91525018     
  -5087682581.0651760       -34076925.821464062        689842458.43360627     
  -3381124515.5389285       -49479744.837230206        1156131937.3809280     
  -3288223340.8749628       -42079327.104083300        1147868920.1492767     
  -3193419966.2580533       -28338242.861134410        1142196901.7725880     
  -3096714391.6882029       -8256492.1083776951        1139115882.2508605     
  -2998106617.1654153        18165925.154172182        1138625861.5840962     
  -3801203889.4959993       -43660997.355941296        1037854236.4979252     
  -3698701759.4759331       -32661080.312399864        1030105834.9239705     
  -3595772173.2060866       -20236309.102931738        1026321131.0819626     
  -3492415130.6864676       -6386683.7275478840        1026500124.9719008     
  -3388630631.9170694        8887795.8137609959        1030642816.5937864     
  -4225656691.7360644       -39154278.359551430        920713423.04570401     
  -4109631609.5685115       -23378262.968195677        911759102.80908668     
  -3994653814.8543463       -11093205.754800558        908141179.18140185     
  -3880723307.5935683       -2299106.7193634510        909859652.16264820     
  -3767840087.7861786        3004034.1381113529        916914521.75282478     
  -4654482922.2591228       -35959587.848058939        804709497.02426481     
  -4521012891.1526985       -14230875.071475983        792828723.80462706     
  -4390064891.2028284       -908932.81673598289        787657046.07090640     
  -4261638922.4095073        4006238.9161667824        789194463.82310045     
  -4135734984.7727418        514640.12722849846        797440977.06121230     
  -5087682581.0651760       -34076925.821464062        689842458.43360627     
  -4932845604.2284966       -5218916.6222398281        673314697.91058958     
  -4782005402.2515335        10316509.711263895        664868731.75047553     
  -4635161975.1342869        12529353.179046631        664504559.95325959     
  -4492315322.8767567        1419613.7811059952        672222182.51894665     
  -2998106617.1654153        18165925.154172182        1138625861.5840962     
  -2902808595.9666042        43074762.567287564        1124669405.4092059     
  -2809756062.9749694        60498639.289816141        1116242725.1256471     
  -2718949018.1905012        70437555.321789861        1113345820.7334197     
  -2630387461.6132073        72891510.663183331        1115978692.2325230     
  -3388630631.9170694        8887795.8137609959        1030642816.5937864     
  -3282917358.9058690        23336660.731935024        1018230153.5616459     
  -3178557419.2185192        33274414.570611238        1010713286.6080754     
  -3075550812.8550158        38701057.329796076        1008092215.7330761     
  -2973897539.8153601        39616589.009489775        1010366940.9366469     
  -3767840087.7861786        3004034.1381113529        916914521.75282478     
  -3653522933.8561921        6449515.2932670116        907086499.22731042     
  -3539666958.3667283        8357734.9800086021        901520292.96760798     
  -3426272161.3177910        8728693.1983325481        900215902.97371328     
  -3313338542.7093782        7562389.9482378960        903173329.24562895     
  -4135734984.7727418        514640.12722849846        797440977.06121230     
  -4014625320.8175669       -7586673.7487106323        791238442.40620244     
  -3893084680.4195967       -14251399.481993914        788663744.20424175     
  -3771113063.5788269       -19479537.072613716        789716882.45532775     
  -3648710470.2952585       -23271086.520571470        794397857.15946317     
  -4492315322.8767567        1419613.7811059952        672222182.51894665     
  -4366224519.7900038       -18771906.394016504        670685983.09831810     
  -4238810585.3771238       -34552988.815389395        672143640.31797993     
  -4110073519.6381269       -45923633.483042717        676595154.17792630     
  -3980013322.5730062       -52883840.396944523        684040524.67815936     
  -2630387461.6132073        72891510.663183331        1115978692.2325230     
  -2519468284.8790398        80001312.573774219        1105339664.2784908     
  -2407656217.3956366        90087416.981812596        1099576108.2888396     
  -2294951259.1630020        103149823.88729191        1098688024.2635655     
  -2181353410.1811299        119188533.29023004        1102675412.2026711     
  -2973897539.8153601        39616589.009489775        1010366940.9366469     
  -2850656000.3691578        45793375.759474516        1001966546.4476416     
  -2726862374.7540607        53810449.739121556        998384731.73288357     
  -2602516662.9700613        63667810.948437452        999621496.79237628     
  -2477618865.0171652        75365459.387406468        1005676841.6261128     
  -3313338542.7093782        7562389.9482378960        903173329.24562895     
  -3177937189.6658039        12757396.803220630        896613962.87792456     
  -3042324555.0336652        18656675.620083570        894816284.09433842     
  -2906500638.8129640        25260226.398819923        897780292.89486861     
  -2770465441.0036993        32568049.139438510        905505989.27951562     
  -3648710470.2952585       -23271086.520571470        794397857.15946317     
  -3501311852.7689714       -19106624.294990063        789281913.56933689     
  -3354042758.2344570       -15373905.375315666        788870765.37319851     
  -3206903186.6917138       -12072929.761544824        793164412.57104230     
  -3059893138.1407471       -9203697.4536846876        802162855.16287374     
  -3980013322.5730062       -52883840.396944523        684040524.67815936     
  -3820779989.6786652       -49798687.535160303        679970398.52188516     
  -3662016984.3564320       -48281293.247066259        680548175.56946647     
  -3503724306.6063056       -48331657.532665730        685773855.82089877     
  -3345901956.4282894       -49949780.391959667        695647439.27619028     
  -2181353410.1811299        119188533.29023004        1102675412.2026711     
  -2098637406.5758452        129944103.49638748        1092625182.3693371     
  -2014189185.3135080        146473732.55939138        1084157036.8615203     
  -1928008746.3941250        168777420.47920942        1077270975.6792166     
  -1840096089.8176885        196855167.25587392        1071966998.8224339     
  -2477618865.0171652        75365459.387406468        1005676841.6261128     
  -2392416995.7297649        77547445.187524438        998795336.23961902     
  -2306189333.9557996        83148739.276191473        994222470.37678218     
  -2218935879.6952672        92169341.653416634        991958244.03760648     
  -2130656632.9481666        104609252.31919062        992002657.22208226     
  -2770465441.0036993        32568049.139438510        905505989.27951562     
  -2680701834.0394893        26799212.131917357        900969045.64095950     
  -2590618859.7592053        22094932.844670415        899467296.72420430     
  -2500216518.1628356        18455211.277695894        901000742.52925086     
  -2409494809.2503843        15880047.430993915        905569383.05609667     
  -3059893138.1407471       -9203697.4536846876        802162855.16287374     
  -2963491921.5050373       -22300595.670440316        799146310.57335997     
  -2867477762.7237334       -36687686.735198975        799891515.90378690     
  -2771850661.7968283       -52364970.647962213        804398471.15416265     
  -2676610618.7243257       -69332447.408727527        812667176.32447684     
  -3345901956.4282894       -49949780.391959667        695647439.27619028     
  -3240787258.1263862       -69751978.219520092        693327131.03681946     
  -3136766042.8493762       -93199119.463389993        695495127.91553187     
  -3033838310.5972486       -120291204.12353134        702151429.91233456     
  -2932004061.3700070       -151028232.19996750        713296037.02721679     
  -1840096089.8176885        196855167.25587392        1071966998.8224339     
  -1663850756.2865067        301565050.70770192        1031621909.1959485     
  -1456283354.5297096        510681828.24491155        994901526.30242813     
  -1217393884.5472798        824205499.86755693        961805850.14186656     
  -947182346.33922756        1242136065.5756259        932334880.71426439     
  -2130656632.9481666        104609252.31919062        992002657.22208226     
  -1952248110.7648938        172374158.26851690        985782706.98064899     
  -1756215130.9675169        298887256.26485276        986127805.31613839     
  -1542557693.5560250        484148546.30823255        993037952.22854125     
  -1311275798.5304317        728158028.39861989        1006513147.7178648     
  -2409494809.2503843        15880047.430993915        905569383.05609667     
  -2220522121.7179918        49220268.886925220        917494026.48627830     
  -2027622587.1830094        95649980.351497889        938924060.33733439     
  -1830796205.6454332        155169181.82469749        969859484.60927546     
  -1630042977.1052706        227777873.30653667        1010300299.3020842     
  -2676610618.7243257       -69332447.408727527        812667176.32447684     
  -2468672789.1457891       -67896617.437069297        826755867.71283424     
  -2270505723.1761842       -99029999.495176315        853290291.36602581     
  -2082109420.8155015       -162732593.58303660        892270447.28405416     
  -1903483882.0637503       -259004399.70064193        943696335.46692252     
  -2932004061.3700070       -151028232.19996750        713296037.02721679     
  -2696700113.0483065       -178976500.70348668        713568230.66031253     
  -2484864538.9470429       -285152683.27514666        729226498.40220761     
  -2296497339.0662251       -469556779.91496158        760270840.25289476     
  -2131598513.4058554       -732188790.62291503        806701256.21237290     
  -5958200747.6299324       -1787460224.2889795        1149610495.9272325     
  -6088747333.1530952       -1502523549.2690501        1227421364.0684764     
  -6221983572.8797054       -1226552388.2606134        1267848269.9125376     
  -6357909466.8097639       -959546741.26366913        1270891213.4594159     
  -6496525014.9432707       -701506608.27821732        1236550194.7091115     
  -6811034104.2706947       -2043310231.2812085        1353310132.3606436     
  -6829037003.3049803       -1395579267.3785415        1202291185.9160018     
  -6898419891.1010303       -919114932.68175817        1091506509.3255091     
  -7019182767.6588459       -613917227.19085932        1020956102.5891657     
  -7191325632.9784269       -479986150.90584326        990639965.70697117     
  -8338434048.3357735       -2501530214.5007319        1711962918.9284859     
  -8022126883.3059464       -1424475048.4427571        1275308767.5799220     
  -7805890041.5962038       -680987626.78505826        956507118.23683882     
  -7689723523.2065420       -271067949.52763367        755557970.89923656     
  -7673627328.1369629       -194716016.67048311        672461325.56711555     
  -10540400579.825169       -3162120173.9475503        2225568855.6307597     
  -9668016973.1559963       -1589210892.4616983        1446474109.0602367     
  -8944394024.3652248       -512170470.57051229        862850096.64652610     
  -8369531733.4528522        69001091.726006985        474696818.38962793     
  -7943430100.4188824        154303794.42786264        282014274.28954440     
  -13416933698.738878       -4025080109.6216631        2894127942.4674654     
  -11766707272.855129       -1889786799.4353642        1715787210.3569462     
  -10313931839.408094       -412663464.03812027        810535444.55457091     
  -9058607398.3977776        406289896.57006502        178372645.06034097     
  -8000733949.8241787        567073282.38919544       -180701188.12574381     
  -6496525014.9432707       -701506608.27821732        1236550194.7091115     
  -6239331515.3001795       -375847862.38853312        1052141834.7442676     
  -6013156560.1978683       -153584264.96812105        906693835.44405723     
  -5818000149.6363373       -34715816.016975880        800206196.80848098     
  -5653862283.6155882       -19242515.535099506        732678918.83753824     
  -7191325632.9784269       -479986150.90584326        990639965.70697117     
  -6901284487.7454500       -304762791.75244403        846067739.25682831     
  -6624058685.8149185       -172257243.60719371        722518430.30418265     
  -6359648227.1868296       -82469506.470089912        619992038.84903526     
  -6108053111.8611860       -35399580.341135263        538488564.89138424     
  -7673627328.1369629       -194716016.67048311        672461325.56711555     
  -7401988374.9344921       -185302995.53948832        588962300.74306595     
  -7124961563.7961264       -157930447.95551634        508548750.24937809     
  -6842546894.7218714       -112598373.91857433        431220674.08605099     
  -6554744367.7117205       -49306773.428654432        356978072.25308490     
  -7943430100.4188824        154303794.42786264        282014274.28954440     
  -7741443176.8673019       -17468473.749658585        280825519.20298040     
  -7515865194.1414948       -110603878.01308489        264784795.27964002     
  -7266696152.2414560       -125102418.36241293        233892102.51952964     
  -6993936051.1671906       -60964094.797652721        188147440.92264068     
  -8000733949.8241787        567073282.38919544       -180701188.12574381     
  -7919648893.5438824        198740773.61703587       -78342605.363427803     
  -7796769576.8510180       -30277533.779904842       -8773434.6050254256     
  -7632095999.7455893       -119981639.80162716        28006324.149471018     
  -7425628162.2275963       -70371544.448131084        31996670.900050633     
  -5653862283.6155882       -19242515.535099506        732678918.83753824     
  -5520882383.9267473       -51501204.602563858        719517643.11721623     
  -5382192466.9387321       -64726502.672783613        707991141.14311969     
  -5237792532.6515398       -58918409.745749474        698099412.91525018     
  -5087682581.0651760       -34076925.821464062        689842458.43360627     
  -6108053111.8611860       -35399580.341135263        538488564.89138424     
  -5960832006.3326883       -37454891.491790056        532265040.77718717     
  -5812540415.3086491       -35941917.657301664        528391506.35108298     
  -5663178338.7890663       -30860658.837665796        526867961.61306977     
  -5512745776.7739372       -22211115.032886028        527694406.56314844     
  -6554744367.7117205       -49306773.428654432        356978072.25308490     
  -6391238582.2239485       -20545664.426611900        352279512.64077687     
  -6231301843.0442677       -3681376.4515316486        350646158.65842575     
  -6074934150.1726713        1286090.4965937138        352078010.30603212     
  -5922135503.6091642       -5643263.5822494030        356575067.58360028     
  -6993936051.1671906       -60964094.797652721        188147440.92264068     
  -6812102111.6005287       -773523.40702772141        179561058.70798159     
  -6638476750.1455860        32055120.944527626        174755098.06515095     
  -6473059966.8023615        37521838.257023573        173729558.99414209     
  -6315851761.5708590        15626628.530446291        176484441.49495673     
  -7425628162.2275963       -70371544.448131084        31996670.900050633     
  -7223422594.4624243        21861531.566957951        14109678.978806268     
  -7034065136.6126013        71267574.530884743        718324.57125751022     
  -6857555788.6781311        77846584.443636417       -8177392.3226075312     
  -6693894550.6590137        41598561.305207253       -12577471.702777207     
  -5087682581.0651760       -34076925.821464062        689842458.43360627     
  -4932845604.2284966       -5218916.6222398281        673314697.91058958     
  -4782005402.2515335        10316509.711263895        664868731.75047553     
  -4635161975.1342869        12529353.179046631        664504559.95325959     
  -4492315322.8767567        1419613.7811059952        672222182.51894665     
  -5512745776.7739372       -22211115.032886028        527694406.56314844     
  -5344510110.4446678       -8507533.8011693954        512406250.06888729     
  -5177534090.4025726        997226.47329521179        502840159.12160736     
  -5011817716.6476488        6303165.7905125618        498996133.72130370     
  -4847360989.1799068        7410284.1504790783        500874173.86798108     
  -5922135503.6091642       -5643263.5822494030        356575067.58360028     
  -5747243230.1185074       -9116735.0173997879        345719831.78606099     
  -5570873474.3424854       -7665265.5013356209        338226932.71957731     
  -5393026236.2810946       -1288855.0340437889        334096370.38415205     
  -5213701515.9343414        10012496.384460211        333328144.77978331     
  -6315851761.5708590        15626628.530446291        176484441.49495673     
  -6141044963.2500248       -7046520.2709379196        173255443.06210414     
  -5962023554.0712786       -15670966.212630272        171029052.54438433     
  -5778787534.0346279       -10246709.294639587        169805269.94180313     
  -5591336903.1400671        9226250.4830517769        169584095.25435159     
  -6693894550.6590137        41598561.305207253       -12577471.702777207     
  -6525915309.8392029       -2296889.5617618561       -4986916.1029817080     
  -6350984329.5889482       -23019875.660590410        1246518.5960280260     
  -6169101609.9082375       -20570396.991233349        6122832.3942517554     
  -5980267150.7970867        5051546.4462625980        9642025.2916844357     
  -4492315322.8767567        1419613.7811059952        672222182.51894665     
  -4366224519.7900038       -18771906.394016504        670685983.09831810     
  -4238810585.3771238       -34552988.815389395        672143640.31797993     
  -4110073519.6381269       -45923633.483042717        676595154.17792630     
  -3980013322.5730062       -52883840.396944523        684040524.67815936     
  -4847360989.1799068        7410284.1504790783        500874173.86798108     
  -4709295005.1784468       -1167015.4220373631        496483583.01635677     
  -4571134558.3354797       -9429438.8562037945        495630608.39668906     
  -4432879648.6510077       -17376986.152007818        498315250.00898200     
  -4294530276.1250248       -25009657.309457541        504537507.85323870     
  -5213701515.9343414        10012496.384460211        333328144.77978331     
  -5062106752.1848278        13515497.064551353        324649715.93177527     
  -4911646194.0784225        13237812.267615795        320052662.90739948     
  -4762319841.6151266        9179441.9936504364        319536985.70665556     
  -4614127694.7949381        1340386.2426571846        323102684.32954675     
  -5591336903.1400671        9226250.4830517769        169584095.25435159     
  -5424659760.8091478        25275631.065762758        155184381.84457427     
  -5260345492.6059532        33448764.556055784        145409803.85010335     
  -5098394098.5304785        33745650.953935385        140260361.27093899     
  -4938805578.5827274        26166290.259409904        139736054.10708365     
  -5980267150.7970867        5051546.4462625980        9642025.2916844357     
  -5796954031.0514050        34113386.581596613       -11912419.245243043     
  -5617232453.9180689        51203418.009119034       -28297968.775189120     
  -5441102419.3970671        56321640.728860617       -39514623.298161000     
  -5268563927.4884052        49468054.740798712       -45562382.814151168     
  -3980013322.5730062       -52883840.396944523        684040524.67815936     
  -3820779989.6786652       -49798687.535160303        679970398.52188516     
  -3662016984.3564320       -48281293.247066259        680548175.56946647     
  -3503724306.6063056       -48331657.532665730        685773855.82089877     
  -3345901956.4282894       -49949780.391959667        695647439.27619028     
  -4294530276.1250248       -25009657.309457541        504537507.85323870     
  -4123275096.3076997       -22140652.267189026        498602864.35076523     
  -3951699038.2248521       -18202053.006525993        497317772.46662486     
  -3779802101.8764944       -13193859.527488947        500682232.20081586     
  -3607584287.2626228       -7116071.8300735950        508696243.55334091     
  -4614127694.7949381        1340386.2426571846        323102684.32954675     
  -4430845958.2989674        3994656.3921110630        316226596.95810014     
  -4246452137.6998615        10355873.552023411        314001709.61946481     
  -4060946232.9976120        20424037.722402096        316428022.31364119     
  -3874328244.1922283        34199148.903240442        323505535.04062599     
  -4938805578.5827274        26166290.259409904        139736054.10708365     
  -4743492575.6524696        28607238.442739725        132841596.34389758     
  -4546276282.7814445        37392486.428612709        130599987.02799477     
  -4347156699.9696627        52522034.217014790        133011226.15937924     
  -4146133827.2171116        73995881.807976484        140075313.73805478     
  -5268563927.4884052        49468054.740798712       -45562382.814151168     
  -5061214948.3682003        51697093.884693146       -51552137.491860211     
  -4851171473.4696131        62907785.623219967       -52887395.307797357     
  -4638433502.7926350        83100129.956359148       -49568156.261980541     
  -4423001036.3372812        112274126.88410664       -41594420.354386695     
  -3345901956.4282894       -49949780.391959667        695647439.27619028     
  -3240787258.1263862       -69751978.219520092        693327131.03681946     
  -3136766042.8493762       -93199119.463389993        695495127.91553187     
  -3033838310.5972486       -120291204.12353134        702151429.91233456     
  -2932004061.3700070       -151028232.19996750        713296037.02721679     
  -3607584287.2626228       -7116071.8300735950        508696243.55334091     
  -3490340823.7589049       -18802287.120087147        502530352.66344839     
  -3374256720.4906378       -34353036.528271198        499333056.99435323     
  -3259331977.4578171       -53768320.054602265        499104356.54605842     
  -3145566594.6604471       -77048137.699103117        501844251.31855488     
  -3874328244.1922283        34199148.903240442        323505535.04062599     
  -3749298043.7646623        29326307.667386770        313417204.75455928     
  -3625493080.7831092        20369341.611492395        304777759.79200369     
  -3502913355.2475643        7328250.7355666161        297587200.15295172     
  -3381558867.1580281       -9796964.9603857994        291845525.83741236     
  -4146133827.2171116        73995881.807976484        140075313.73805478     
  -4017658918.1436729        74633806.142878056        125987687.31015120     
  -3890475123.7268028        70968014.955875158        111829236.30848016     
  -3764582443.9664936        62998508.247000456        97599960.733022764     
  -3639980878.8627644        50725286.016203880        83299860.583790824     
  -4423001036.3372812        112274126.88410664       -41594420.354386695     
  -4295423446.8959198        117120208.30640244       -59758199.669769533     
  -4169202849.3217020        117442983.50490475       -79512513.456215531     
  -4044339243.6146030        113242452.47965908       -100857361.71373239     
  -3920832629.7746477        104518615.23062301       -123792744.44231753     
  -2932004061.3700070       -151028232.19996750        713296037.02721679     
  -2696700113.0483065       -178976500.70348668        713568230.66031253     
  -2484864538.9470429       -285152683.27514666        729226498.40220761     
  -2296497339.0662251       -469556779.91496158        760270840.25289476     
  -2131598513.4058554       -732188790.62291503        806701256.21237290     
  -3145566594.6604471       -77048137.699103117        501844251.31855488     
  -2872956798.4601917       -58490501.589675546        472611834.56285316     
  -2603022281.7609177       -48850463.816863060        445958017.92502445     
  -2335763044.5626473       -48128024.380729079        421882801.40506583     
  -2071179086.8653669       -56323183.281219244        400386185.00298858     
  -3381558867.1580281       -9796964.9603857994        291845525.83741236     
  -3108236005.9104190        44288740.912646413        257367109.19893867     
  -2816795329.4443569        158767164.18052161        212659818.68741372     
  -2507236837.7598276        333638304.84329140        157723654.30284142     
  -2179560530.8568463        568902162.90089285        92558616.045222804     
  -3639980878.8627644        50725286.016203880        83299860.583790824     
  -3402537735.3990030        129361226.80345154        67834054.568564847     
  -3126183681.9973307        337700200.71707416        29331900.689381838     
  -2810918718.6577473        675742207.75707555       -32206601.053779151     
  -2456742845.3802528        1143487247.9234266       -116781450.66090260     
  -3920832629.7746477        104518615.23062301       -123792744.44231753     
  -3755861986.9259334        196726956.08275938       -95987329.328263745     
  -3531187339.4198632        487948645.79275060       -104025736.06909232     
  -3246808687.2564330        978183684.36061788       -147907964.66481256     
  -2902726030.4356337        1667432071.7863617       -227634015.11541453     
 </DataArray>
 <DataArray  type="Float64" Name="VM" NumberOfComponents="1" format="ascii">
   12935960592.245245     
   11341159701.168255     
   10210886415.973232     
   9273581322.2101269     
   8304714146.8257751     
   10130572799.965191     
   9322472183.6367111     
   8827059500.3781395     
   8444367390.1709814     
   8036553302.0089102     
   7982527305.6544561     
   7735345284.5678864     
   7669724020.7795315     
   7670299319.3730202     
   7667131487.8648434     
   6491732553.2054558     
   6587065941.0981436     
   6757713215.1453819     
   6961585879.2825594     
   7172023213.6734629     
   5657732428.6699457     
   5890808472.8647995     
   6116227533.1596899     
   6331549956.8018732     
   6536571174.0838146     
   8304714146.8257751     
   8022013857.3330145     
   7781689824.4562531     
   7572973432.3684845     
   7390901446.4227467     
   8036553302.0089102     
   7748006538.7489042     
   7475259992.5900898     
   7216339713.7774525     
   6971275170.4690294     
   7667131487.8648434     
   7381923073.0486202     
   7102157167.4966507     
   6827922125.5646801     
   6559436836.9299507     
   7172023213.6734629     
   6911211548.5924873     
   6658294269.9323826     
   6409416519.8852596     
   6161432725.6376143     
   6536571174.0838146     
   6328229395.4383011     
   6142018792.4241123     
   5964004039.0590067     
   5785169803.6907759     
   7390901446.4227467     
   7234419411.9053516     
   7069968437.9270039     
   6896823136.7418251     
   6714825808.9214115     
   6971275170.4690294     
   6818811698.0089130     
   6661442508.5620432     
   6498872225.4943886     
   6331063370.5154552     
   6559436836.9299507     
   6410096961.6542253     
   6258997893.1088266     
   6106104836.1603918     
   5951448389.2753582     
   6161432725.6376143     
   6013283377.6434040     
   5866480785.1341362     
   5721061213.4274187     
   5577078021.7585897     
   5785169803.6907759     
   5634853990.4726267     
   5488858637.6214342     
   5347089671.7930326     
   5209601765.2675285     
   6714825808.9214115     
   6524772884.7292681     
   6339506104.7637987     
   6158851305.7097235     
   5982817832.0582600     
   6331063370.5154552     
   6144856567.4328775     
   5961567962.5268230     
   5781157175.2134056     
   5603659237.6798496     
   5951448389.2753582     
   5773825280.3954725     
   5597783504.8456039     
   5423342508.4872503     
   5250553195.9126291     
   5577078021.7585897     
   5413508343.9903965     
   5250768334.0522213     
   5088903446.7928696     
   4928032934.1550846     
   5209601765.2675285     
   5066291239.9290981     
   4923735065.0374966     
   4782014013.7150326     
   4641435587.1232491     
   5982817832.0582600     
   5814122393.9965372     
   5643221248.7303371     
   5469908930.2785416     
   5294059534.8582516     
   5603659237.6798496     
   5443981139.8280849     
   5283156027.6911068     
   5121115961.5115728     
   4957851746.4288282     
   5250553195.9126291     
   5099972219.2516336     
   4949420586.7617817     
   4798937552.3420706     
   4648606988.2797117     
   4928032934.1550846     
   4786590939.9487658     
   4646418612.9817009     
   4507621114.8058319     
   4370341558.3621330     
   4641435587.1232491     
   4509075918.8130293     
   4379221018.4138765     
   4251988571.4924421     
   4127536635.3636823     
   5294059534.8582516     
   5088044057.2977486     
   4883788463.2753382     
   4681324218.7685070     
   4480772537.4673157     
   4957851746.4288282     
   4763420944.1499605     
   4570688339.1109743     
   4379717733.3720379     
   4190651647.3081589     
   4648606988.2797117     
   4466554528.8847685     
   4286283932.9862480     
   4107921915.0567074     
   3931673328.5831466     
   4370341558.3621330     
   4201953139.0232663     
   4035629130.3191986     
   3871596044.8434896     
   3710169648.2783279     
   4127536635.3636823     
   3974625648.1116362     
   3824307784.1033163     
   3676946629.9215174     
   3533016262.4103007     
   4480772537.4673157     
   4356394580.6046171     
   4231389318.4427662     
   4105850853.7192483     
   3979902825.4365964     
   4190651647.3081589     
   4061357564.1316552     
   3931214796.5757561     
   3800235533.9914432     
   3668445107.2106133     
   3931673328.5831466     
   3802990924.1636896     
   3673844357.0516458     
   3544263018.6248546     
   3414297700.3411922     
   3710169648.2783279     
   3588149451.6384969     
   3466824643.8587136     
   3346371567.7301769     
   3227027820.7681904     
   3533016262.4103007     
   3423977748.4109001     
   3317647343.1420636     
   3214459631.5885878     
   3114966402.6110106     
   3979902825.4365964     
   3861569717.1585383     
   3803009332.3681259     
   3839298832.0052037     
   4025133337.0013895     
   3668445107.2106133     
   3471016877.4600139     
   3308377204.2503762     
   3203195237.1689086     
   3192697333.3508983     
   3414297700.3411922     
   3162193208.9042897     
   2922743589.9558887     
   2703459171.7829709     
   2517894286.3677073     
   3227027820.7681904     
   2959619409.9268789     
   2692134494.3816304     
   2424797899.7273383     
   2158060907.6451597     
   3114966402.6110106     
   2889483863.5452309     
   2672566532.8029337     
   2479936072.7249479     
   2339098303.7545042     
   5657732428.6699457     
   5890808472.8647995     
   6116227533.1596899     
   6331549956.8018732     
   6536571174.0838146     
   5151206063.4769859     
   5310998621.6329794     
   5467396390.7023392     
   5617515990.2504416     
   5759903954.1168547     
   4643117178.4203081     
   4755046161.5951252     
   4868066231.6951628     
   4979546629.7707539     
   5087566793.0054255     
   4133732970.0693293     
   4223793079.7609529     
   4319740114.3890133     
   4419914498.3958483     
   4522859644.7379780     
   3624578205.5282197     
   3719071187.9582253     
   3824788772.6452537     
   3941660709.2009106     
   4069588568.3367343     
   6536571174.0838146     
   6328229395.4383011     
   6142018792.4241123     
   5964004039.0590067     
   5785169803.6907759     
   5759903954.1168547     
   5651086795.6324015     
   5558222162.1417780     
   5472238240.9803495     
   5387595120.8637304     
   5087566793.0054255     
   5052565432.0128345     
   5028047315.3853140     
   5008806946.6735172     
   4991647174.5200377     
   4522859644.7379780     
   4537290487.9937782     
   4556384584.3246050     
   4577669016.8836803     
   4599425365.8817883     
   4069588568.3367343     
   4110626372.2886329     
   4149022601.1344500     
   4183889173.9001470     
   4214501328.1426878     
   5785169803.6907759     
   5634853990.4726267     
   5488858637.6214342     
   5347089671.7930326     
   5209601765.2675285     
   5387595120.8637304     
   5246155115.6856813     
   5107968131.5023651     
   4973074910.9009466     
   4841570323.9937172     
   4991647174.5200377     
   4863628948.1640692     
   4738754788.3211288     
   4616992118.5862398     
   4498376887.1064405     
   4599425365.8817883     
   4489982085.5464878     
   4384651924.3803205     
   4283113880.9819579     
   4185273848.7280192     
   4214501328.1426878     
   4129222019.2422652     
   4050287467.0403242     
   3976838999.6076484     
   3908590184.1092010     
   5209601765.2675285     
   5066291239.9290981     
   4923735065.0374966     
   4782014013.7150326     
   4641435587.1232491     
   4841570323.9937172     
   4718172767.6333628     
   4596726135.6162386     
   4477403176.0329723     
   4360523922.1592760     
   4498376887.1064405     
   4391748677.4266272     
   4288033330.8123469     
   4187437192.0280056     
   4090249795.5176697     
   4185273848.7280192     
   4091944763.8292284     
   4002152803.7599587     
   3916095862.2965112     
   3834017195.3683300     
   3908590184.1092010     
   3824738730.6279616     
   3744606723.4576659     
   3668364100.5575132     
   3596226247.8821921     
   4641435587.1232491     
   4509075918.8130293     
   4379221018.4138765     
   4251988571.4924421     
   4127536635.3636823     
   4360523922.1592760     
   4238512850.6902685     
   4119077691.2159324     
   4002395771.6838455     
   3888691816.6874208     
   4090249795.5176697     
   3979981485.4095035     
   3872610506.8296766     
   3768353752.2935233     
   3667491298.9624667     
   3834017195.3683300     
   3736988258.9294524     
   3643449344.9613132     
   3553630169.5327616     
   3467848869.9638190     
   3596226247.8821921     
   3513948602.6340585     
   3436039740.1039991     
   3362703982.7539859     
   3294269205.6499515     
   4127536635.3636823     
   3974625648.1116362     
   3824307784.1033163     
   3676946629.9215174     
   3533016262.4103007     
   3888691816.6874208     
   3749873240.8006477     
   3614585135.8869987     
   3483243668.4787216     
   3356376639.6216588     
   3667491298.9624667     
   3542843424.6928067     
   3422708719.9072475     
   3307541575.8137913     
   3197904218.6452031     
   3467848869.9638190     
   3357184639.2888031     
   3252033806.9605017     
   3152867349.1344280     
   3060254860.1398149     
   3294269205.6499515     
   3197031236.8585176     
   3106288231.9492617     
   3022500803.0394831     
   2946214538.8784518     
   3533016262.4103007     
   3423977748.4109001     
   3317647343.1420636     
   3214459631.5885878     
   3114966402.6110106     
   3356376639.6216588     
   3260766557.8685670     
   3168288640.8120265     
   3079272807.7914152     
   2994120783.6010456     
   3197904218.6452031     
   3113511987.1042380     
   3032516789.7292719     
   2955160280.8379402     
   2881726572.8450475     
   3060254860.1398149     
   2984623073.4321012     
   2912492860.4312973     
   2844052208.9694667     
   2779520643.0292077     
   2946214538.8784518     
   2876692433.4272528     
   2810627666.4406080     
   2748207807.7505851     
   2689661269.2776461     
   3114966402.6110106     
   2889483863.5452309     
   2672566532.8029337     
   2479936072.7249479     
   2339098303.7545042     
   2994120783.6010456     
   2825228587.0909505     
   2669169903.7397270     
   2532049394.9038749     
   2422604346.6441054     
   2881726572.8450475     
   2750967415.0937533     
   2638006738.6226892     
   2545949271.1214881     
   2478372601.4665165     
   2779520643.0292077     
   2663232121.4705434     
   2572135243.3697186     
   2513778896.1800351     
   2498735803.9306688     
   2689661269.2776461     
   2560045191.0310211     
   2468753085.0171242     
   2437202681.6067109     
   2494860906.1073680     
   3624578205.5282197     
   3719071187.9582253     
   3824788772.6452537     
   3941660709.2009106     
   4069588568.3367343     
   3137601497.0423408     
   3254931849.2222924     
   3381672433.0932112     
   3517352410.5826645     
   3661512414.9929705     
   2694443177.0588608     
   2830045903.5750370     
   2972974279.4310794     
   3122148028.8377094     
   3276657423.9484472     
   2298605059.8740492     
   2449213396.8861909     
   2604577149.6517978     
   2762779242.1797104     
   2922393628.4231348     
   1955314571.6318586     
   2119394632.9524281     
   2284881037.6296935     
   2448823901.0469685     
   2609272359.6517425     
   4069588568.3367343     
   4110626372.2886329     
   4149022601.1344500     
   4183889173.9001470     
   4214501328.1426878     
   3661512414.9929705     
   3700573907.6029472     
   3738263283.1451130     
   3773688050.2612333     
   3806103269.1189747     
   3276657423.9484472     
   3319646568.7450209     
   3362890307.3491116     
   3405568769.2152281     
   3447006095.2092352     
   2922393628.4231348     
   2975221066.8733664     
   3030289815.2814665     
   3086918155.9329548     
   3144573996.2764306     
   2609272359.6517425     
   2677314146.9491162     
   2749888067.4687443     
   2826484210.8988676     
   2906749917.1715164     
   4214501328.1426878     
   4129222019.2422652     
   4050287467.0403242     
   3976838999.6076484     
   3908590184.1092010     
   3806103269.1189747     
   3752570804.4363561     
   3705031108.9617662     
   3663016329.3739719     
   3626447318.2170815     
   3447006095.2092352     
   3420825104.9480600     
   3399925554.4520411     
   3384092399.6890888     
   3373328012.2064023     
   3144573996.2764306     
   3141528705.9064264     
   3142472607.2541966     
   3147323229.5089540     
   3156082917.7582936     
   2906749917.1715164     
   2922822607.6875052     
   2940817254.2350411     
   2960700066.4041066     
   2982449271.1129603     
   3908590184.1092010     
   3824738730.6279616     
   3744606723.4576659     
   3668364100.5575132     
   3596226247.8821921     
   3626447318.2170815     
   3551507356.8613949     
   3480938219.6907372     
   3414942441.9871707     
   3353757025.4676089     
   3373328012.2064023     
   3310351098.3371110     
   3252769111.3967485     
   3200809877.4650545     
   3154746340.4014702     
   3156082917.7582936     
   3107984715.9616556     
   3066679228.3495908     
   3032399189.7773910     
   3005455705.7294703     
   2982449271.1129603     
   2951608449.5022206     
   2929293364.1564813     
   2915702646.9296699     
   2911169730.5919056     
   3596226247.8821921     
   3513948602.6340585     
   3436039740.1039991     
   3362703982.7539859     
   3294269205.6499515     
   3353757025.4676089     
   3288793163.9102221     
   3228919514.3915792     
   3174404826.9228277     
   3125600937.6257567     
   3154746340.4014702     
   3106171201.7334180     
   3063220861.9734292     
   3026161926.8556890     
   2995304951.8419242     
   3005455705.7294703     
   2971958453.8417912     
   2944331323.1578035     
   2922778411.1706429     
   2907518796.1585941     
   2911169730.5919056     
   2890929062.6836667     
   2876440009.1133509     
   2867802694.7309413     
   2865120536.1483245     
   3294269205.6499515     
   3197031236.8585176     
   3106288231.9492617     
   3022500803.0394831     
   2946214538.8784518     
   3125600937.6257567     
   3043047600.8839140     
   2967409236.0941758     
   2899119100.6823401     
   2838673036.7994256     
   2995304951.8419242     
   2927751407.8879576     
   2867525278.3048902     
   2815016994.3011112     
   2770658191.9061718     
   2907518796.1585941     
   2855000404.6461186     
   2810164761.0719733     
   2773344064.1912999     
   2744894537.3721118     
   2865120536.1483245     
   2827245869.9502959     
   2797314465.7699351     
   2775592096.1373429     
   2762358636.0810184     
   2946214538.8784518     
   2876692433.4272528     
   2810627666.4406080     
   2748207807.7505851     
   2689661269.2776461     
   2838673036.7994256     
   2776298209.1097326     
   2718734822.9927125     
   2666194557.0368853     
   2618913715.1386981     
   2770658191.9061718     
   2719252236.5521665     
   2674491158.1928968     
   2636644346.8190680     
   2606003883.0801849     
   2744894537.3721118     
   2707474664.4218516     
   2678910559.5854197     
   2659534879.3872304     
   2649708036.3187437     
   2762358636.0810184     
   2740783305.1842327     
   2730548617.1210356     
   2732037918.5842738     
   2745670464.7191076     
   2689661269.2776461     
   2560045191.0310211     
   2468753085.0171242     
   2437202681.6067109     
   2494860906.1073680     
   2618913715.1386981     
   2460850948.1408343     
   2321648892.5573568     
   2208857533.6432004     
   2134294759.8986914     
   2606003883.0801849     
   2444756439.9487076     
   2292058590.9410138     
   2148475814.8681369     
   2014763206.3490295     
   2649708036.3187437     
   2516996505.7826757     
   2393909475.8221598     
   2285214543.9596963     
   2198444636.9200263     
   2745670464.7191076     
   2675828861.4825673     
   2626313079.1320362     
   2613307019.8704891     
   2659713059.1749535     
   1955314571.6318586     
   2119394632.9524281     
   2284881037.6296935     
   2448823901.0469685     
   2609272359.6517425     
   1654091546.0103540     
   1820652750.0506411     
   1988933710.8310881     
   2156247107.2880383     
   2320841582.5473113     
   1394269582.0865800     
   1571785497.3856132     
   1750302017.6200051     
   1927822788.7016680     
   2103102636.7453415     
   1208084282.5416148     
   1400146306.2379141     
   1591760250.6014929     
   1782152756.1533473     
   1970867478.4956717     
   1138023315.1590805     
   1336456072.9576569     
   1535147390.1818986     
   1734097266.8318045     
   1933305702.9073751     
   2609272359.6517425     
   2677314146.9491162     
   2749888067.4687443     
   2826484210.8988676     
   2906749917.1715164     
   2320841582.5473113     
   2408056808.9669266     
   2497751830.3773789     
   2589536228.0540166     
   2683134692.5001593     
   2103102636.7453415     
   2207072507.9776955     
   2311005798.5569196     
   2414665841.6924376     
   2517885813.4636526     
   1970867478.4956717     
   2088262786.8083794     
   2202876654.7816658     
   2314633890.7749696     
   2423482306.5220098     
   1933305702.9073751     
   2060180632.5547159     
   2181721782.9008341     
   2297929153.9457297     
   2408802745.6894021     
   2906749917.1715164     
   2922822607.6875052     
   2940817254.2350411     
   2960700066.4041066     
   2982449271.1129603     
   2683134692.5001593     
   2705974560.6162100     
   2731462033.5568609     
   2759589115.7586007     
   2790354941.3829718     
   2517885813.4636526     
   2547011118.8416038     
   2579507851.5173101     
   2615379151.0275178     
   2654631198.1422386     
   2423482306.5220098     
   2457170035.5106492     
   2494938567.8456841     
   2536790644.8220448     
   2582729663.3573799     
   2408802745.6894021     
   2444079161.0472264     
   2484130861.0496459     
   2528957845.6966605     
   2578560114.9882684     
   2982449271.1129603     
   2951608449.5022206     
   2929293364.1564813     
   2915702646.9296699     
   2911169730.5919056     
   2790354941.3829718     
   2775553850.1376729     
   2768636051.5417724     
   2769716100.7518044     
   2778980785.5258031     
   2654631198.1422386     
   2651622694.8532224     
   2655483617.8019094     
   2666260471.1113114     
   2684029945.7222161     
   2582729663.3573799     
   2587052367.1650453     
   2596879071.0305915     
   2612219029.1692481     
   2633088561.1322484     
   2578560114.9882684     
   2586029703.7609916     
   2597348439.9908500     
   2612516323.6778460     
   2631533354.8219790     
   2911169730.5919056     
   2890929062.6836667     
   2876440009.1133509     
   2867802694.7309413     
   2865120536.1483245     
   2778980785.5258031     
   2762287828.1957960     
   2751915752.1979756     
   2747937434.8639846     
   2750427825.4895611     
   2684029945.7222161     
   2669256969.8640971     
   2661426861.8664360     
   2660579814.0547752     
   2666757132.2659526     
   2633088561.1322484     
   2617982030.5532818     
   2610471586.8747096     
   2610569130.7586327     
   2618286945.1155043     
   2631533354.8219790     
   2613334596.8027077     
   2603381462.4970212     
   2601673951.9049163     
   2608212065.0263963     
   2865120536.1483245     
   2827245869.9502959     
   2797314465.7699351     
   2775592096.1373429     
   2762358636.0810184     
   2750427825.4895611     
   2721985093.5929832     
   2702461041.2325554     
   2692037616.3919349     
   2690901832.4720249     
   2666757132.2659526     
   2645587985.2794914     
   2634261678.1369481     
   2632873765.9782557     
   2641520451.0466413     
   2618286945.1155043     
   2601295912.3513823     
   2595040138.0964007     
   2599547031.1889744     
   2614843788.6128297     
   2608212065.0263963     
   2591474476.1509223     
   2586355647.2400265     
   2592855578.2937069     
   2610974269.3119664     
   2762358636.0810184     
   2740783305.1842327     
   2730548617.1210356     
   2732037918.5842738     
   2745670464.7191076     
   2690901832.4720249     
   2680018564.0046439     
   2677816235.1299829     
   2684476425.7887073     
   2700198815.3222680     
   2641520451.0466413     
   2637013816.5429554     
   2638427848.1619844     
   2645830661.0010138     
   2659298102.1322074     
   2614843788.6128297     
   2613248066.4634881     
   2614729123.3934202     
   2619301807.8055081     
   2626982931.4038148     
   2610974269.3119664     
   2609893659.8922501     
   2608996530.7967877     
   2608282882.0255780     
   2607752713.5786209     
   2745670464.7191076     
   2675828861.4825673     
   2626313079.1320362     
   2613307019.8704891     
   2659713059.1749535     
   2700198815.3222680     
   2678343087.2112622     
   2675977164.1784863     
   2701629057.3322968     
   2767013042.8409147     
   2659298102.1322074     
   2672156631.5462346     
   2704274935.7728009     
   2759265552.8281860     
   2841975463.4624867     
   2626982931.4038148     
   2658785664.5840344     
   2710582026.8516693     
   2783253405.8078818     
   2877961102.5466490     
   2607752713.5786209     
   2640404483.9011493     
   2695247099.1481647     
   2772280559.3196659     
   2871504864.4156656     
   1138023315.1590805     
   1336456072.9576569     
   1535147390.1818986     
   1734097266.8318045     
   1933305702.9073751     
   1208084282.4952347     
   1400146306.1911643     
   1591760250.5541193     
   1782152756.1051006     
   1970867478.4463379     
   1394269582.0092936     
   1571785497.3048122     
   1750302017.5358250     
   1927822788.6140134     
   2103102636.6540284     
   1654091545.9183669     
   1820652749.9510283     
   1988933710.7243640     
   2156247107.1743178     
   2320841582.4265046     
   1955314571.5365951     
   2119394632.8461466     
   2284881037.5130262     
   2448823900.9200950     
   2609272359.5145812     
   1933305702.9073751     
   2060180632.5547159     
   2181721782.9008341     
   2297929153.9457297     
   2408802745.6894021     
   1970867478.4463379     
   2088262786.7590604     
   2202876654.7324853     
   2314633890.7261329     
   2423482306.4737597     
   2103102636.6540284     
   2207072507.8861427     
   2311005798.4655313     
   2414665841.6017623     
   2517885813.3743038     
   2320841582.4265046     
   2408056808.8451228     
   2497751830.2553368     
   2589536227.9327016     
   2683134692.3806291     
   2609272359.5145812     
   2677314146.8099456     
   2749888067.3286138     
   2826484210.7591243     
   2906749917.0336494     
   2408802745.6894021     
   2444079161.0472264     
   2484130861.0496459     
   2528957845.6966605     
   2578560114.9882684     
   2423482306.4737597     
   2457170035.4457078     
   2494938567.7621007     
   2536790644.7178221     
   2582729663.2305031     
   2517885813.3743038     
   2547011118.7231960     
   2579507851.3660059     
   2615379150.8393703     
   2654631197.9132328     
   2683134692.3806291     
   2705974560.4613156     
   2731462033.3610110     
   2759589115.5160160     
   2790354941.0877304     
   2906749917.0336494     
   2922822607.5146313     
   2940817254.0201049     
   2960700066.1397886     
   2982449270.7916970     
   2578560114.9882684     
   2586029703.7609916     
   2597348439.9908500     
   2612516323.6778460     
   2631533354.8219790     
   2582729663.2305031     
   2587052367.0086632     
   2596879070.8405766     
   2612219028.9416289     
   2633088560.8632631     
   2654631197.9132328     
   2651622694.5816407     
   2655483617.4805117     
   2666260470.7329092     
   2684029945.2795553     
   2790354941.0877304     
   2775553849.8048754     
   2768636051.1620331     
   2769716100.3153701     
   2778980785.0221276     
   2982449270.7916970     
   2951608449.1660790     
   2929293363.7949529     
   2915702646.5312543     
   2911169730.1431828     
   2631533354.8219790     
   2613334596.8027077     
   2603381462.4970212     
   2601673951.9049163     
   2608212065.0263963     
   2633088560.8632631     
   2617982030.5338516     
   2610471587.1273494     
   2610569131.3039637     
   2618286945.9724722     
   2684029945.2795553     
   2669256969.8503962     
   2661426862.3239498     
   2660579815.0233026     
   2666757133.7831669     
   2778980785.0221276     
   2762287828.2134771     
   2751915752.7963881     
   2747937436.1010208     
   2750427827.4219141     
   2911169730.1431828     
   2890929062.7566023     
   2876440009.7812128     
   2867802696.0678434     
   2865120538.2293873     
   2608212065.0263963     
   2591474476.1509223     
   2586355647.2400265     
   2592855578.2937069     
   2610974269.3119664     
   2618286945.9724722     
   2601295913.1918001     
   2595040138.9326520     
   2599547032.0333443     
   2614843789.4784594     
   2666757133.7831669     
   2645587986.8071899     
   2634261679.7068810     
   2632873767.6217475     
   2641520452.7959528     
   2750427827.4219141     
   2721985095.5874977     
   2702461043.3484087     
   2692037618.6877007     
   2690901835.0069685     
   2865120538.2293873     
   2827245872.1482825     
   2797314468.1793356     
   2775592098.8525286     
   2762358639.1969957     
   2610974269.3119664     
   2609893659.8922501     
   2608996530.7967877     
   2608282882.0255780     
   2607752713.5786209     
   2614843789.4784594     
   2613248067.2174292     
   2614729124.0388618     
   2619301808.3527722     
   2626982931.8719110     
   2641520452.7959528     
   2637013818.0363808     
   2638427849.3998022     
   2645830661.9979076     
   2659298102.9205489     
   2690901835.0069685     
   2680018566.1174016     
   2677816236.8121367     
   2684476427.0533352     
   2700198816.2094936     
   2762358639.1969957     
   2740783307.7025971     
   2730548619.0193882     
   2732037919.8680992     
   2745670465.4303370     
   2607752713.5786209     
   2640404483.9011493     
   2695247099.1481647     
   2772280559.3196659     
   2871504864.4156656     
   2626982931.8719110     
   2658785661.2711654     
   2710582020.0664244     
   2783253396.2586856     
   2877961091.4801383     
   2659298102.9205489     
   2672156626.3521562     
   2704274925.0240173     
   2759265537.4656262     
   2841975445.1083474     
   2700198816.2094936     
   2678343081.4934778     
   2675977152.2288632     
   2701629039.8473415     
   2767013020.9217038     
   2745670465.4303370     
   2675828856.4771957     
   2626313068.5797348     
   2613307003.6887774     
   2659713036.8572335     
   1955314571.5365951     
   2119394632.8461466     
   2284881037.5130262     
   2448823900.9200950     
   2609272359.5145812     
   2298605059.7832026     
   2449213396.7824683     
   2604577149.5353589     
   2762779242.0504956     
   2922393628.2809463     
   2694443176.9778042     
   2830045903.4808235     
   2972974279.3232970     
   3122148028.7158885     
   3276657423.8120751     
   3137601496.9749336     
   3254931849.1427469     
   3381672433.0005517     
   3517352410.4759183     
   3661512414.8711658     
   3624578205.4774547     
   3719071187.8973904     
   3824788772.5728688     
   3941660709.1154761     
   4069588568.2367258     
   2609272359.5145812     
   2677314146.8099456     
   2749888067.3286138     
   2826484210.7591243     
   2906749917.0336494     
   2922393628.2809463     
   2975221066.7274494     
   3030289815.1330576     
   3086918155.7836094     
   3144573996.1278987     
   3276657423.8120751     
   3319646568.6026735     
   3362890307.2021222     
   3405568769.0652308     
   3447006095.0580597     
   3661512414.8711658     
   3700573907.4725699     
   3738263283.0075507     
   3773688050.1181254     
   3806103268.9721303     
   4069588568.2367258     
   4110626372.1771183     
   4149022601.0128665     
   4183889173.7701154     
   4214501328.0059371     
   2906749917.0336494     
   2922822607.5146313     
   2940817254.0201049     
   2960700066.1397886     
   2982449270.7916970     
   3144573996.1278987     
   3141528705.7303476     
   3142472607.0469093     
   3147323229.2665167     
   3156082917.4764314     
   3447006095.0580597     
   3420825104.7782021     
   3399925554.2631726     
   3384092399.4806118     
   3373328011.9772429     
   3806103268.9721303     
   3752570804.2787361     
   3705031108.7961464     
   3663016329.2029691     
   3626447318.0427427     
   4214501328.0059371     
   4129222019.1000891     
   4050287466.8982334     
   3976838999.4712334     
   3908590183.9835138     
   2982449270.7916970     
   2951608449.1660790     
   2929293363.7949529     
   2915702646.5312543     
   2911169730.1431828     
   3156082917.4764314     
   3107984715.7094469     
   3066679228.1194654     
   3032399189.5610723     
   3005455705.5175600     
   3373328011.9772429     
   3310351098.1680098     
   3252769111.2819638     
   3200809877.3983970     
   3154746340.3761816     
   3626447318.0427427     
   3551507356.7639179     
   3480938219.6650000     
   3414942442.0278058     
   3353757025.5689039     
   3908590183.9835138     
   3824738730.5836296     
   3744606723.4890399     
   3668364100.6588163     
   3596226248.0472207     
   2911169730.1431828     
   2890929062.7566023     
   2876440009.7812128     
   2867802696.0678434     
   2865120538.2293873     
   3005455705.5175600     
   2971958454.1271415     
   2944331324.0041628     
   2922778412.6430144     
   2907518798.3234291     
   3154746340.3761816     
   3106171202.1592793     
   3063220862.9059153     
   3026161928.3524184     
   2995304953.9628568     
   3353757025.5689039     
   3288793164.4038506     
   3228919515.3255057     
   3174404828.3483343     
   3125600939.5976343     
   3596226248.0472207     
   3513948603.1283765     
   3436039740.9684610     
   3362703984.0340447     
   3294269207.3958154     
   2865120538.2293873     
   2827245872.1482825     
   2797314468.1793356     
   2775592098.8525286     
   2762358639.1969957     
   2907518798.3234291     
   2855000406.8868423     
   2810164763.4782453     
   2773344066.8540983     
   2744894540.3847265     
   2995304953.9628568     
   2927751409.9934916     
   2867525280.4777470     
   2815016996.6268458     
   2770658194.4743824     
   3125600939.5976343     
   3043047602.7060604     
   2967409237.8394585     
   2899119102.4276075     
   2838673038.6269941     
   3294269207.3958154     
   3197031238.2873325     
   3106288233.1210966     
   3022500804.0189075     
   2946214539.7361755     
   2762358639.1969957     
   2740783307.7025971     
   2730548619.0193882     
   2732037919.8680992     
   2745670465.4303370     
   2744894540.3847265     
   2707474666.5775390     
   2678910560.8533607     
   2659534879.7455864     
   2649708035.7588348     
   2770658194.4743824     
   2719252238.2129421     
   2674491158.9377947     
   2636644346.6376591     
   2606003881.9611988     
   2838673038.6269941     
   2776298210.1398330     
   2718734823.2715340     
   2666194556.6085172     
   2618913714.0464759     
   2946214539.7361755     
   2876692433.7018085     
   2810627666.2600579     
   2748207807.2511492     
   2689661268.6096282     
   2745670465.4303370     
   2675828856.4771957     
   2626313068.5797348     
   2613307003.6887774     
   2659713036.8572335     
   2649708035.7588348     
   2516996500.2277017     
   2393909465.1919885     
   2285214528.2013979     
   2198444616.0398149     
   2606003881.9611988     
   2444756433.8970203     
   2292058579.4341545     
   2148475797.3147531     
   2014763182.0667605     
   2618913714.0464759     
   2460850941.7820215     
   2321648879.8164568     
   2208857512.9230628     
   2134294728.9083898     
   2689661268.6096282     
   2560045184.6192851     
   2468753070.9713430     
   2437202657.0220623     
   2494860866.8770137     
   3624578205.4774547     
   3719071187.8973904     
   3824788772.5728688     
   3941660709.1154761     
   4069588568.2367258     
   4133732970.0372696     
   4223793079.7212687     
   4319740114.3407860     
   4419914498.3379955     
   4522859644.6693010     
   4643117178.4083490     
   4755046161.5785780     
   4868066231.6738510     
   4979546629.7442417     
   5087566792.9731455     
   5151206063.4865618     
   5310998621.6413918     
   5467396390.7102222     
   5617515990.2581234     
   5759903954.1245289     
   5657732428.7026777     
   5890808472.9000053     
   6116227533.1988316     
   6331549956.8460522     
   6536571174.1340084     
   4069588568.2367258     
   4110626372.1771183     
   4149022601.0128665     
   4183889173.7701154     
   4214501328.0059371     
   4522859644.6693010     
   4537290487.9130774     
   4556384584.2314739     
   4577669016.7778711     
   4599425365.7631960     
   5087566792.9731455     
   5052565431.9709473     
   5028047315.3316269     
   5008806946.6059380     
   4991647174.4366341     
   5759903954.1245289     
   5651086795.6358891     
   5558222162.1374865     
   5472238240.9646282     
   5387595120.8330383     
   6536571174.1340084     
   6328229395.4927225     
   6142018792.4783335     
   5964004039.1083517     
   5785169803.7305727     
   4214501328.0059371     
   4129222019.1000891     
   4050287466.8982334     
   3976838999.4712334     
   3908590183.9835138     
   4599425365.7631960     
   4489982085.4208546     
   4384651924.2529631     
   4283113880.8584528     
   4185273848.6138544     
   4991647174.4366341     
   4863628948.0720472     
   4738754788.2259388     
   4616992118.4936237     
   4498376887.0223751     
   5387595120.8330383     
   5246155115.6447420     
   5107968131.4570456     
   4973074910.8572941     
   4841570323.9582195     
   5785169803.7305727     
   5634853990.5003538     
   5488858637.6436176     
   5347089671.8161612     
   5209601765.2986202     
   3908590183.9835138     
   3824738730.5836296     
   3744606723.4890399     
   3668364100.6588163     
   3596226248.0472207     
   4185273848.6138544     
   4091944763.7929950     
   4002152803.8000612     
   3916095862.4111590     
   3834017195.5554605     
   4498376887.0223751     
   4391748677.4334974     
   4288033330.9142876     
   4187437192.2286544     
   4090249795.8198037     
   4841570323.9582195     
   4718172767.7134371     
   4596726135.8230581     
   4477403176.3769741     
   4360523922.6491375     
   5209601765.2986202     
   5066291240.1080484     
   4923735065.3833494     
   4782014014.2461348     
   4641435587.8552942     
   3596226248.0472207     
   3513948603.1283765     
   3436039740.9684610     
   3362703984.0340447     
   3294269207.3958154     
   3834017195.5554605     
   3736988259.3636670     
   3643449345.6635256     
   3553630170.5278029     
   3467848871.2815661     
   4090249795.8198037     
   3979981485.8537035     
   3872610507.4148483     
   3768353753.0222268     
   3667491299.8421183     
   4360523922.6491375     
   4238512851.2085395     
   4119077691.7380209     
   4002395772.1891189     
   3888691817.1598501     
   4641435587.8552942     
   4509075919.4626589     
   4379221018.9317760     
   4251988571.8343315     
   4127536635.4898658     
   3294269207.3958154     
   3197031238.2873325     
   3106288233.1210966     
   3022500804.0189075     
   2946214539.7361755     
   3467848871.2815661     
   3357184640.0951319     
   3252033807.2942467     
   3152867349.0370979     
   3060254859.6572418     
   3667491299.8421183     
   3542843424.9429412     
   3422708719.5526090     
   3307541574.8791132     
   3197904217.1562171     
   3888691817.1598501     
   3749873240.6022749     
   3614585135.0359869     
   3483243666.9904380     
   3356376637.5084834     
   4127536635.4898658     
   3974625647.6001058     
   3824307782.9730077     
   3676946628.1862607     
   3533016260.0771880     
   2946214539.7361755     
   2876692433.7018085     
   2810627666.2600579     
   2748207807.2511492     
   2689661268.6096282     
   3060254859.6572418     
   2984623072.4558573     
   2912492859.1074128     
   2844052207.4471502     
   2779520641.4641800     
   3197904217.1562171     
   3113511985.1248302     
   3032516787.4158678     
   2955160278.3461785     
   2881726570.3311243     
   3356376637.5084834     
   3260766555.1811299     
   3168288637.7094345     
   3079272804.4287362     
   2994120780.1290765     
   3533016260.0771880     
   3423977745.3354144     
   3317647339.4784126     
   3214459627.4837584     
   3114966398.2033615     
   2689661268.6096282     
   2560045184.6192851     
   2468753070.9713430     
   2437202657.0220623     
   2494860866.8770137     
   2779520641.4641800     
   2663232114.8173633     
   2572135230.7674952     
   2513778876.8051481     
   2498735777.1210032     
   2881726570.3311243     
   2750967409.7892561     
   2638006730.2153172     
   2545949259.2295179     
   2478372585.7528362     
   2994120780.1290765     
   2825228584.1997132     
   2669169901.5189052     
   2532049392.1682100     
   2422604340.1364784     
   3114966398.2033615     
   2889483863.4714327     
   2672566537.3859901     
   2479936078.5922837     
   2339098300.6636391     
   5657732428.7026777     
   5890808472.9000053     
   6116227533.1988316     
   6331549956.8460522     
   6536571174.1340084     
   6491732553.2545910     
   6587065941.1657696     
   6757713215.2302074     
   6961585879.3823557     
   7172023213.7854843     
   7982527305.7052698     
   7735345284.6517105     
   7669724020.8932314     
   7670299319.5125875     
   7667131488.0260344     
   10130572800.003565     
   9322472183.7210140     
   8827059500.5044746     
   8444367390.3345242     
   8036553302.2056093     
   12935960592.257278     
   11341159701.238390     
   10210886416.097410     
   9273581322.3825893     
   8304714147.0425396     
   6536571174.1340084     
   6328229395.4927225     
   6142018792.4783335     
   5964004039.1083517     
   5785169803.7305727     
   7172023213.7854843     
   6911211548.7158308     
   6658294270.0643759     
   6409416520.0232601     
   6161432725.7790089     
   7667131488.0260344     
   7381923073.2301140     
   7102157167.6968708     
   6827922125.7822971     
   6559436837.1638079     
   8036553302.2056093     
   7748006538.9768314     
   7475259992.8482313     
   7216339714.0651360     
   6971275170.7858829     
   8304714147.0425396     
   8022013857.5941353     
   7781689824.7609730     
   7572973432.7162600     
   7390901446.8133831     
   5785169803.7305727     
   5634853990.5003538     
   5488858637.6436176     
   5347089671.8161612     
   5209601765.2986202     
   6161432725.7790089     
   6013283377.7828474     
   5866480785.2754841     
   5721061213.5744791     
   5577078021.9151497     
   6559436837.1638079     
   6410096961.9135399     
   6258997893.3961802     
   6106104836.4783297     
   5951448389.6260166     
   6971275170.7858829     
   6818811698.3965349     
   6661442509.0227194     
   6498872226.0306711     
   6331063371.1295090     
   7390901446.8133831     
   7234419412.4301147     
   7069968438.5885048     
   6896823137.5437164     
   6714825809.8676376     
   5209601765.2986202     
   5066291240.1080484     
   4923735065.3833494     
   4782014014.2461348     
   4641435587.8552942     
   5577078021.9151497     
   5413508344.2893419     
   5250768334.5086842     
   5088903447.4224920     
   4928032934.9739504     
   5951448389.6260166     
   5773825280.8395061     
   5597783505.3906307     
   5423342509.1415501     
   5250553196.6855497     
   6331063371.1295090     
   6144856568.0526743     
   5961567963.1495180     
   5781157175.8367434     
   5603659238.3019819     
   6714825809.8676376     
   6524772885.5597649     
   6339506105.4624872     
   6158851306.2615252     
   5982817832.4475746     
   4641435587.8552942     
   4509075919.4626589     
   4379221018.9317760     
   4251988571.8343315     
   4127536635.4898658     
   4928032934.9739504     
   4786590940.5797329     
   4646418613.3885689     
   4507621114.9539204     
   4370341558.2188206     
   5250553196.6855497     
   5099972219.7566404     
   4949420586.9801769     
   4798937552.2547941     
   4648606987.8680620     
   5603659238.3019819     
   5443981140.1165485     
   5283156027.6470118     
   5121115961.1353159     
   4957851745.7203226     
   5982817832.4475746     
   5814122393.9921513     
   5643221248.3535490     
   5469908929.5508766     
   5294059533.8006344     
   4127536635.4898658     
   3974625647.6001058     
   3824307782.9730077     
   3676946628.1862607     
   3533016260.0771880     
   4370341558.2188206     
   4201953138.3894730     
   4035629129.2083278     
   3871596043.2656326     
   3710169646.2395210     
   4648606987.8680620     
   4466554528.0959988     
   4286283931.8233843     
   4107921913.5204768     
   3931673326.6715159     
   4957851745.7203226     
   4763420943.1544113     
   4570688337.8176365     
   4379717731.7682495     
   4190651645.3785334     
   5294059533.8006344     
   5088044056.0296040     
   4883788461.7701445     
   4681324216.9977455     
   4480772535.3988199     
   3533016260.0771880     
   3423977745.3354144     
   3317647339.4784126     
   3214459627.4837584     
   3114966398.2033615     
   3710169646.2395210     
   3588149448.9120450     
   3466824640.4948354     
   3346371563.7630849     
   3227027816.2085876     
   3931673326.6715159     
   3802990922.1526656     
   3673844354.9704113     
   3544263016.4940400     
   3414297698.1655307     
   4190651645.3785334     
   4061357563.2373204     
   3931214796.7937312     
   3800235535.4122572     
   3668445109.9371285     
   4480772535.3988199     
   4356394581.2431784     
   4231389321.9623032     
   4105850860.3366194     
   3979902835.4194880     
   3114966398.2033615     
   2889483863.4714327     
   2672566537.3859901     
   2479936078.5922837     
   2339098300.6636391     
   3227027816.2085876     
   2959619411.1598268     
   2692134503.0707765     
   2424797917.4939923     
   2158060935.8749304     
   3414297698.1655307     
   3162193211.5009928     
   2922743598.4681888     
   2703459187.9385519     
   2517894312.9156137     
   3668445109.9371285     
   3471016882.7575812     
   3308377212.0533409     
   3203195247.0105076     
   3192697344.1379280     
   3979902835.4194880     
   3861569727.2500997     
   3803009341.1158867     
   3839298836.2644520     
   4025133331.3395414     
 </DataArray>
 <DataArray  type="Float64" Name="strain" NumberOfComponents="3" format="ascii">
  0.20349016109683762        0.0000000000000000       0.12541221084192861     
  0.18666285388233123       -2.7337089706613492E-002   7.4350779116475932E-002
  0.16983554666782480       -4.4691934795641174E-002   3.5123202597932959E-002
  0.15300823945331840       -5.2064535267083004E-002   7.7294812862997234E-003
  0.13618093223881200       -4.9454891120939037E-002  -7.8303848184237829E-003
  0.15986274212605744        0.0000000000000000        9.6441317079409949E-002
  0.15318756175516257       -2.1853236657729321E-002   6.2680544727571286E-002
  0.14651238138426767       -3.6185795611655421E-002   3.7390170856045964E-002
  0.13983720101337280       -4.2997676861778321E-002   2.0570195464833987E-002
  0.13316202064247792       -4.2288880408098008E-002   1.2220618553935331E-002
  0.12646624973149492        0.0000000000000000        7.4185059822666766E-002
  0.12657973947761519       -1.6369383608845146E-002   5.5263379930659495E-002
  0.12669322922373549       -2.7679656427669692E-002   4.1448641792369220E-002
  0.12680671896985576       -3.3930818456473624E-002   3.2740845407795940E-002
  0.12692020871597606       -3.5122869695256964E-002   2.9139990776939628E-002
  0.10330068391315009        0.0000000000000000        5.8643439071699055E-002
  0.10683938704968916       -1.0885530559960974E-002   5.2099284725740609E-002
  0.11037809018622824       -1.9173517243683956E-002   4.7298615406902729E-002
  0.11391679332276730       -2.4863960051168931E-002   4.4241431115185470E-002
  0.11745549645930639       -2.7956858982415927E-002   4.2927731850588860E-002
   9.0366044671022938E-002   0.0000000000000000        4.9816454826506817E-002
   9.3966504471384438E-002  -5.4016775110768030E-003   5.3188259112814537E-002
   9.7566964271745937E-002  -1.0667378059698220E-002   5.4940091699646511E-002
  0.10116742407210745       -1.5797101645864245E-002   5.5071952587002718E-002
  0.10476788387246894       -2.0790848269574891E-002   5.3583841774883165E-002
  0.13618093223881200       -4.9454891120939037E-002  -7.8303848184237829E-003
  0.13298785208953273       -4.2910590693118519E-002  -3.3948462318984518E-003
  0.12979477194025352       -3.8479222319530763E-002  -3.8018216532602692E-004
  0.12660169179097430       -3.6160786000175776E-002   1.2136073812936896E-003
  0.12340861164169503       -3.5955281735053551E-002   1.3865224079604166E-003
  0.13316202064247792       -4.2288880408098008E-002   1.2220618553935331E-002
  0.12893671057519326       -3.8416074653897125E-002   1.2169105833742987E-002
  0.12471140050790860       -3.5735928002458277E-002   1.1474007797492598E-002
  0.12048609044062394       -3.4248440453781538E-002   1.0135324445184193E-002
  0.11626078037333926       -3.3953612007866785E-002   8.1530557768177414E-003
  0.12692020871597606       -3.5122869695256964E-002   2.9139990776939628E-002
  0.12243995793458085       -3.3921558614675697E-002   2.5521699701500110E-002
  0.11795970715318566       -3.2992633685385742E-002   2.2037112513897564E-002
  0.11347945637179042       -3.2336094907387217E-002   1.8686229214131787E-002
  0.10899920559039522       -3.1951942280680004E-002   1.5469049802203073E-002
  0.11745549645930639       -2.7956858982415927E-002   4.2927731850588860E-002
  0.11349759416769550       -2.9427042575454251E-002   3.6662935371372968E-002
  0.10953969187608464       -3.0249339368313241E-002   3.1309131983888933E-002
  0.10558178958447376       -3.0423749360992916E-002   2.6866321688136598E-002
  0.10162388729286290       -2.9950272553493244E-002   2.3334504484116052E-002
  0.10476788387246894       -2.0790848269574891E-002   5.3583841774883165E-002
  0.10210961927453725       -2.4932526536232839E-002   4.5592812843361655E-002
   9.9451354676605583E-002  -2.7506045051240720E-002   3.9290066207466723E-002
   9.6793090078673913E-002  -2.8511403814598595E-002   3.4675601867198480E-002
   9.4134825480742215E-002  -2.7948602826306457E-002   3.1749419822556843E-002
  0.12340861164169503       -3.5955281735053551E-002   1.3865224079604166E-003
  0.12049968422334648       -3.6481471829616113E-002   6.1141942322967546E-004
  0.11759075680499792       -3.6358118589315612E-002   3.1127398728389433E-005
  0.11468182938664936       -3.5585222014151922E-002  -3.5435366554298353E-004
  0.11177290196830081       -3.4162782104125156E-002  -5.4502376958470711E-004
  0.11626078037333926       -3.3953612007866785E-002   8.1530557768177414E-003
  0.11353116756964675       -3.4047618499792917E-002   7.7809792128967492E-003
  0.11080155476595421       -3.3726635764638829E-002   7.5727209180578223E-003
  0.10807194196226168       -3.2990663802404320E-002   7.5282808923015504E-003
  0.10534232915856917       -3.1839702613089549E-002   7.6476591356272328E-003
  0.10899920559039522       -3.1951942280680004E-002   1.5469049802203073E-002
  0.10641791471021134       -3.1613765169969707E-002   1.5265445551308765E-002
  0.10383662383002744       -3.1095152939961967E-002   1.5194666878349531E-002
  0.10125533294984360       -3.0396105590656638E-002   1.5256713783325269E-002
   9.8674042069659712E-002  -2.9516623122053831E-002   1.5451586266235925E-002
  0.10162388729286290       -2.9950272553493244E-002   2.3334504484116052E-002
   9.9159925645040281E-002  -2.9179911840146532E-002   2.3064818438465938E-002
   9.6695963997217638E-002  -2.8463670115285104E-002   2.2896965279603467E-002
   9.4232002349395036E-002  -2.7801547378909049E-002   2.2830945007528535E-002
   9.1768040701572379E-002  -2.7193543631018197E-002   2.2866757622241284E-002
   9.4134825480742215E-002  -2.7948602826306457E-002   3.1749419822556843E-002
   9.1757200374133513E-002  -2.6746058510323356E-002   3.1179097874368109E-002
   8.9379575267524797E-002  -2.5832187290608308E-002   3.0679616121819533E-002
   8.7001950160916094E-002  -2.5206989167161468E-002   3.0250974564911194E-002
   8.4624325054307392E-002  -2.4870464139982562E-002   2.9893173203643070E-002
  0.11177290196830081       -3.4162782104125156E-002  -5.4502376958470711E-004
  0.10875377070247966       -3.2591295051757202E-002  -2.1609969282460062E-004
  0.10573463943665856       -3.1371257049570292E-002   5.4015809206775511E-005
  0.10271550817083744       -3.0502668097564179E-002   2.6532273651004579E-004
   9.9696376905016315E-002  -2.9985528195739131E-002   4.1782108908455795E-004
  0.10534232915856917       -3.1839702613089549E-002   7.6476591356272328E-003
  0.10231551677603826       -3.0587782807153810E-002   7.5077358692185042E-003
   9.9288704393507371E-002  -2.9548934995056647E-002   7.4112589441188287E-003
   9.6261892010976471E-002  -2.8723159176797818E-002   7.3582283603281645E-003
   9.3235079628445572E-002  -2.8110455352377550E-002   7.3486441178464146E-003
   9.8674042069659712E-002  -2.9516623122053831E-002   1.5451586266235925E-002
   9.5741803486456473E-002  -2.8584270562550265E-002   1.4981192713000940E-002
   9.2809564903253275E-002  -2.7726612940542829E-002   1.4656500417112479E-002
   8.9877326320050077E-002  -2.6943650256031397E-002   1.4477509378570310E-002
   8.6945087736846893E-002  -2.6235382509015942E-002   1.4444219597374616E-002
   9.1768040701572379E-002  -2.7193543631018197E-002   2.2866757622241284E-002
   8.9032630833734389E-002  -2.6580758317946852E-002   2.2204270838522368E-002
   8.6297220965896343E-002  -2.5904290886029042E-002   2.1789740228187360E-002
   8.3561811098058297E-002  -2.5164141335264883E-002   2.1623165791236323E-002
   8.0826401230220279E-002  -2.4360309665654320E-002   2.1704547527669076E-002
   8.4624325054307392E-002  -2.4870464139982562E-002   2.9893173203643070E-002
   8.2187998817871949E-002  -2.4577246073343301E-002   2.9176970245782793E-002
   7.9751672581436533E-002  -2.4081968831515248E-002   2.8810978377343879E-002
   7.7315346345001090E-002  -2.3384632414498382E-002   2.8795197598326279E-002
   7.4879020108565675E-002  -2.2485236822292670E-002   2.9129627908729999E-002
   9.9696376905016315E-002  -2.9985528195739131E-002   4.1782108908455795E-004
   9.6786467449549274E-002  -2.9553326602211827E-002  -5.1620483964520680E-004
   9.3876557994082177E-002  -2.8939552575099350E-002  -1.2262453186042410E-003
   9.0966648538615080E-002  -2.8144206114401066E-002  -1.7123003477925169E-003
   8.8056739083148039E-002  -2.7167287220117187E-002  -1.9743699272096737E-003
   9.3235079628445572E-002  -2.8110455352377550E-002   7.3486441178464146E-003
   9.0537374164846252E-002  -2.7544559317801781E-002   6.7246565400527480E-003
   8.7839668701246931E-002  -2.6859206869076446E-002   6.3010914962242787E-003
   8.5141963237647639E-002  -2.6054398006201837E-002   6.0779489863599934E-003
   8.2444257774048346E-002  -2.5130132729177523E-002   6.0552290104608497E-003
   8.6945087736846893E-002  -2.6235382509015942E-002   1.4444219597374616E-002
   8.4436023349309178E-002  -2.5535792033391819E-002   1.4068154351081608E-002
   8.1926958961771462E-002  -2.4778861163053979E-002   1.3868948722947243E-002
   7.9417894574233747E-002  -2.3964589898002771E-002   1.3846602712971157E-002
   7.6908830186696059E-002  -2.3092978238237971E-002   1.4001116321153861E-002
   8.0826401230220279E-002  -2.4360309665654320E-002   2.1704547527669076E-002
   7.8482415002938025E-002  -2.3527024748981676E-002   2.1514288593440664E-002
   7.6138428775655742E-002  -2.2698515457031460E-002   2.1477326361564665E-002
   7.3794442548373446E-002  -2.1874781789803680E-002   2.1593660832040923E-002
   7.1450456321091191E-002  -2.1055823747298363E-002   2.1863292004869639E-002
   7.4879020108565675E-002  -2.2485236822292670E-002   2.9129627908729999E-002
   7.2676549125732709E-002  -2.1518257464571700E-002   2.9063059267130098E-002
   7.0474078142899715E-002  -2.0618169751008920E-002   2.9126224412076671E-002
   6.8271607160066722E-002  -1.9784973681604624E-002   2.9319123343569183E-002
   6.6069136177233784E-002  -1.9018669256358700E-002   2.9641756061608182E-002
   8.8056739083148039E-002  -2.7167287220117187E-002  -1.9743699272096737E-003
   8.4612067964370208E-002  -2.6167692975585688E-002  -2.2339259562471070E-003
   8.1167396845592432E-002  -2.5304320464143659E-002  -2.2917871209512941E-003
   7.7722725726814601E-002  -2.4577169685791322E-002  -2.1479534213225127E-003
   7.4278054608036825E-002  -2.3986240640528345E-002  -1.8024248573608181E-003
   8.2444257774048346E-002  -2.5130132729177523E-002   6.0552290104608497E-003
   7.9201245804048553E-002  -2.4194250185604449E-002   5.7564691805455648E-003
   7.5958233834048705E-002  -2.3354589523082059E-002   5.6593327838537488E-003
   7.2715221864048954E-002  -2.2611150741611283E-002   5.7638198203843888E-003
   6.9472209894049064E-002  -2.1963933841191663E-002   6.0699302901386365E-003
   7.6908830186696059E-002  -2.3092978238237971E-002   1.4001116321153861E-002
   7.3867405934364347E-002  -2.2220807395622849E-002   1.3703152542399094E-002
   7.0825981682032552E-002  -2.1404858582020569E-002   1.3606740765757547E-002
   6.7784557429700826E-002  -2.0645131797431243E-002   1.3711880991228782E-002
   6.4743133177369072E-002  -1.9941627041855037E-002   1.4018573218813390E-002
   7.1450456321091191E-002  -2.1055823747298363E-002   2.1863292004869639E-002
   6.8610548355317588E-002  -2.0247364605641319E-002   2.1606124129313703E-002
   6.5770640389543972E-002  -1.9455127640959080E-002   2.1550436824760752E-002
   6.2930732423770341E-002  -1.8679112853251426E-002   2.1696230091210949E-002
   6.0090824457996746E-002  -1.7919320242518383E-002   2.2043503928664318E-002
   6.6069136177233784E-002  -1.9018669256358700E-002   2.9641756061608182E-002
   6.3430673066908361E-002  -1.8273921815659983E-002   2.9465383941289197E-002
   6.0792209956582896E-002  -1.7505396699897521E-002   2.9490420960863239E-002
   5.8153746846257466E-002  -1.6713093909071396E-002   2.9716867120330531E-002
   5.5515283735932008E-002  -1.5897013443181729E-002   3.0144722419691183E-002
   7.4278054608036825E-002  -2.3986240640528345E-002  -1.8024248573608181E-003
   7.2175991808732354E-002  -2.3429120718233498E-002  -2.5895219734364261E-003
   7.0073929009427882E-002  -2.2803397308785500E-002  -3.4455422137553704E-003
   6.7971866210123383E-002  -2.2109070412184503E-002  -4.3704855783174568E-003
   6.5869803410818939E-002  -2.1346140028430161E-002  -5.3643520671229350E-003
   6.9472209894049064E-002  -2.1963933841191663E-002   6.0699302901386365E-003
   6.7334151013100862E-002  -2.1332191367322284E-002   5.4594664715219010E-003
   6.5196092132152744E-002  -2.0635175865502231E-002   4.8459336138609588E-003
   6.3058033251204557E-002  -1.9872887335731365E-002   4.2293317171560596E-003
   6.0919974370256369E-002  -1.9045325778009881E-002   3.6096607814066761E-003
   6.4743133177369072E-002  -1.9941627041855037E-002   1.4018573218813390E-002
   6.2634932299976187E-002  -1.9235262016410987E-002   1.3581412238453633E-002
   6.0526731422583260E-002  -1.8466954422218879E-002   1.3207036304248451E-002
   5.8418530545190327E-002  -1.7636704259278456E-002   1.2895445416198040E-002
   5.6310329667797421E-002  -1.6744511527589989E-002   1.2646639574302426E-002
   6.0090824457996746E-002  -1.7919320242518383E-002   2.2043503928664318E-002
   5.8078335669358147E-002  -1.7138332665499731E-002   2.1776315327358672E-002
   5.6065846880719555E-002  -1.6298732978935568E-002   2.1637765857406524E-002
   5.4053358092080929E-002  -1.5400521182825432E-002   2.1627855518808328E-002
   5.2040869303442434E-002  -1.4443697277169792E-002   2.1746584311564128E-002
   5.5515283735932008E-002  -1.5897013443181729E-002   3.0144722419691183E-002
   5.3664361121246840E-002  -1.5041403314588475E-002   3.0044175738237200E-002
   5.1813438506561560E-002  -1.4130511535652091E-002   3.0138122273335621E-002
   4.9962515891876322E-002  -1.3164338106372311E-002   3.0426562024987197E-002
   4.8111593277191111E-002  -1.2142883026749485E-002   3.0909494993191844E-002
   6.5869803410818939E-002  -2.1346140028430161E-002  -5.3643520671229350E-003
   6.3581334392403988E-002  -2.2058092498159265E-002  -4.1594508729563273E-003
   6.1292865373989036E-002  -2.5788414162007361E-002  -4.5077819859686286E-003
   5.9004396355574112E-002  -3.2537105019973776E-002  -6.4093454061603383E-003
   5.6715927337159133E-002  -4.2304165072060140E-002  -9.8641411335305129E-003
   6.0919974370256369E-002  -1.9045325778009881E-002   3.6096607814066761E-003
   5.7355768318175238E-002  -1.9168709042481802E-002   2.9394756539626865E-003
   5.3791562266094245E-002  -2.1259254979288988E-002   1.2710487663655234E-003
   5.0227356214013100E-002  -2.5316963588433120E-002  -1.3956198813855347E-003
   4.6663150161932121E-002  -3.1341834869913043E-002  -5.0605302892887671E-003
   5.6310329667797421E-002  -1.6744511527589989E-002   1.2646639574302426E-002
   5.2025377129076261E-002  -1.6279325586803894E-002   1.1152574647030594E-002
   4.7740424590355116E-002  -1.6730095796571517E-002   9.2152585066311438E-003
   4.3455472051633838E-002  -1.8096822156892300E-002   6.8346911531047203E-003
   3.9170519512912727E-002  -2.0379504667766168E-002   4.0108725864510530E-003
   5.2040869303442434E-002  -1.4443697277169792E-002   2.1746584311564128E-002
   4.7590160825107100E-002  -1.3389942131126542E-002   2.0479846106246868E-002
   4.3139452346771773E-002  -1.2200936613853484E-002   1.9324847234828354E-002
   3.8688743868436536E-002  -1.0876680725350895E-002   1.8281587697309129E-002
   3.4238035390101187E-002  -9.4171744656189604E-003   1.7350067493688670E-002
   4.8111593277191111E-002  -1.2142883026749485E-002   3.0909494993191844E-002
   4.4050119406267685E-002  -1.0500558675448746E-002   3.0921290031612259E-002
   3.9988645535344286E-002  -7.6717774311357845E-003   3.1599814950957650E-002
   3.5927171664421012E-002  -3.6565392938100183E-003   3.2945069751227740E-002
   3.1865697793497461E-002   1.5451557365280255E-003   3.4957054432423140E-002
   9.0366044671022938E-002   0.0000000000000000        4.9816454826506817E-002
   9.3966504471384438E-002  -5.4016775110768030E-003   5.3188259112814537E-002
   9.7566964271745937E-002  -1.0667378059698220E-002   5.4940091699646511E-002
  0.10116742407210745       -1.5797101645864245E-002   5.5071952587002718E-002
  0.10476788387246894       -2.0790848269574891E-002   5.3583841774883165E-002
   8.2425393639041611E-002   0.0000000000000000        4.4768569577080967E-002
   8.4634962067979547E-002  -4.5711160562082178E-003   4.8249480967081537E-002
   8.6844530496917482E-002  -9.0322552117384804E-003   5.0568581313710725E-002
   8.9054098925855418E-002  -1.3383417466590782E-002   5.1725870616968532E-002
   9.1263667354793354E-002  -1.7624602820765119E-002   5.1721348876854985E-002
   7.4241792451134270E-002   0.0000000000000000        4.0564245813412420E-002
   7.5518630164753020E-002  -3.7405546013396344E-003   4.4128264245328411E-002
   7.6795467878371770E-002  -7.3971323637787387E-003   4.6988632289977406E-002
   7.8072305591990507E-002  -1.0969733287317311E-002   4.9145349947359411E-002
   7.9349143305609271E-002  -1.4458357371955350E-002   5.0598417217474399E-002
   6.5815241107300901E-002   0.0000000000000000        3.7203483535501167E-002
   6.6617508761704858E-002  -2.9099931464710510E-003   4.0824608947555144E-002
   6.7419776416108801E-002  -5.7620095158189989E-003   4.4200244628446503E-002
   6.8222044070512744E-002  -8.5560491080438408E-003   4.7330390578175265E-002
   6.9024311724916687E-002  -1.1292111923145581E-002   5.0215046796741387E-002
   5.7145739607541525E-002   0.0000000000000000        3.4686282743347216E-002
   5.7931597858835046E-002  -2.0794316916024659E-003   3.8338515073761750E-002
   5.8717456110128574E-002  -4.1268866678592590E-003   4.2203418329118045E-002
   5.9503314361422102E-002  -6.1423649287703792E-003   4.6280992509416127E-002
   6.0289172612715630E-002  -8.1258664743358109E-003   5.0571237614655984E-002
  0.10476788387246894       -2.0790848269574891E-002   5.3583841774883165E-002
  0.10210961927453725       -2.4932526536232839E-002   4.5592812843361655E-002
   9.9451354676605583E-002  -2.7506045051240720E-002   3.9290066207466723E-002
   9.6793090078673913E-002  -2.8511403814598595E-002   3.4675601867198480E-002
   9.4134825480742215E-002  -2.7948602826306457E-002   3.1749419822556843E-002
   9.1263667354793354E-002  -1.7624602820765119E-002   5.1721348876854985E-002
   9.0056074131821900E-002  -2.1198743821591294E-002   4.6478537271992734E-002
   8.8848480908850433E-002  -2.3548773016399089E-002   4.2448786121424331E-002
   8.7640887685878993E-002  -2.4674690405188559E-002   3.9632095425149734E-002
   8.6433294462907512E-002  -2.4576495987959607E-002   3.8028465183168936E-002
   7.9349143305609271E-002  -1.4458357371955350E-002   5.0598417217474399E-002
   7.9116999616265227E-002  -1.7464961106949773E-002   4.7759774993639807E-002
   7.8884855926921182E-002  -1.9591500981557489E-002   4.5658971382766193E-002
   7.8652712237577097E-002  -2.0837976995778492E-002   4.4296006384853592E-002
   7.8420568548233066E-002  -2.1204389149612785E-002   4.3670879999901942E-002
   6.9024311724916687E-002  -1.1292111923145581E-002   5.0215046796741387E-002
   6.9292395727867231E-002  -1.3731178392308243E-002   4.9436526008302763E-002
   6.9560479730817748E-002  -1.5634228946715865E-002   4.8920621991492309E-002
   6.9828563733768265E-002  -1.7001263586368429E-002   4.8667334746310069E-002
   7.0096647736718809E-002  -1.7832282311265955E-002   4.8676664272755923E-002
   6.0289172612715630E-002  -8.1258664743358109E-003   5.0571237614655984E-002
   6.0582262466627915E-002  -9.9973956776667067E-003   5.1508790315981677E-002
   6.0875352320540199E-002  -1.1676956911874245E-002   5.2233737947602707E-002
   6.1168442174452484E-002  -1.3164550176958376E-002   5.2746080509519101E-002
   6.1461532028364761E-002  -1.4460175472919112E-002   5.3045818001730805E-002
   9.4134825480742215E-002  -2.7948602826306457E-002   3.1749419822556843E-002
   9.1757200374133513E-002  -2.6746058510323356E-002   3.1179097874368109E-002
   8.9379575267524797E-002  -2.5832187290608308E-002   3.0679616121819533E-002
   8.7001950160916094E-002  -2.5206989167161468E-002   3.0250974564911194E-002
   8.4624325054307392E-002  -2.4870464139982562E-002   2.9893173203643070E-002
   8.6433294462907512E-002  -2.4576495987959607E-002   3.8028465183168936E-002
   8.4173700205126156E-002  -2.3924845257627596E-002   3.6991202853287400E-002
   8.1914105947344787E-002  -2.3390393707107587E-002   3.6119162025420384E-002
   7.9654511689563418E-002  -2.2973141336399733E-002   3.5412342699567764E-002
   7.7394917431782076E-002  -2.2673088145503922E-002   3.4870744875729637E-002
   7.8420568548233066E-002  -2.1204389149612785E-002   4.3670879999901942E-002
   7.6373386445653293E-002  -2.1103632004931774E-002   4.2338151204783667E-002
   7.4326204343073479E-002  -2.0948600123606838E-002   4.1265025218054155E-002
   7.2279022240493707E-002  -2.0739293505638023E-002   4.0451502039713247E-002
   7.0231840137913906E-002  -2.0475712151025283E-002   3.9897581669761158E-002
   7.0096647736718809E-002  -1.7832282311265955E-002   4.8676664272755923E-002
   6.8356259095714855E-002  -1.8282418752235997E-002   4.7219942928856874E-002
   6.6615870454710888E-002  -1.8506806540106110E-002   4.6117205699720866E-002
   6.4875481813706934E-002  -1.8505445674876303E-002   4.5368452585347788E-002
   6.3135093172703022E-002  -1.8278336156546615E-002   4.4973683585737570E-002
   6.1461532028364761E-002  -1.4460175472919112E-002   5.3045818001730805E-002
   6.0122318155310890E-002  -1.5461205499540207E-002   5.1636578025507036E-002
   5.8783104282257012E-002  -1.6065012956605389E-002   5.0675703470420511E-002
   5.7443890409203127E-002  -1.6271597844114610E-002   5.0163194336471199E-002
   5.6104676536149256E-002  -1.6080960162068003E-002   5.0099050623659019E-002
   8.4624325054307392E-002  -2.4870464139982562E-002   2.9893173203643070E-002
   8.2187998817871949E-002  -2.4577246073343301E-002   2.9176970245782793E-002
   7.9751672581436533E-002  -2.4081968831515248E-002   2.8810978377343879E-002
   7.7315346345001090E-002  -2.3384632414498382E-002   2.8795197598326279E-002
   7.4879020108565675E-002  -2.2485236822292670E-002   2.9129627908729999E-002
   7.7394917431782076E-002  -2.2673088145503922E-002   3.4870744875729637E-002
   7.5279060475721499E-002  -2.2367883200809492E-002   3.4355911368779156E-002
   7.3163203519660963E-002  -2.1935175568705646E-002   3.4131805333157156E-002
   7.1047346563600414E-002  -2.1374965249192510E-002   3.4198426768863567E-002
   6.8931489607539823E-002  -2.0687252242269971E-002   3.4555775675898293E-002
   7.0231840137913906E-002  -2.0475712151025283E-002   3.9897581669761158E-002
   6.8376968844135286E-002  -2.0158520328275600E-002   3.9509561125941083E-002
   6.6522097550356721E-002  -1.9788382305896076E-002   3.9352784435356475E-002
   6.4667226256578128E-002  -1.9365298083886547E-002   3.9427251598007397E-002
   6.2812354962799535E-002  -1.8889267662247175E-002   3.9732962613893689E-002
   6.3135093172703022E-002  -1.8278336156546615E-002   4.4973683585737570E-002
   6.1481723923113393E-002  -1.7949157455741722E-002   4.4637919517268393E-002
   5.9828354673523799E-002  -1.7641589043086478E-002   4.4473915683941871E-002
   5.8174985423934206E-002  -1.7355630918580615E-002   4.4481672085757727E-002
   5.6521616174344563E-002  -1.7091283082224400E-002   4.4661188722716148E-002
   5.6104676536149256E-002  -1.6080960162068003E-002   5.0099050623659019E-002
   5.4593325712655738E-002  -1.5739794583207872E-002   4.9740986542761240E-002
   5.3081974889162220E-002  -1.5494795780276877E-002   4.9495199078913199E-002
   5.1570624065668709E-002  -1.5345963753274759E-002   4.9361688232114662E-002
   5.0059273242175156E-002  -1.5293298502201680E-002   4.9340454002365836E-002
   7.4879020108565675E-002  -2.2485236822292670E-002   2.9129627908729999E-002
   7.2676549125732709E-002  -2.1518257464571700E-002   2.9063059267130098E-002
   7.0474078142899715E-002  -2.0618169751008920E-002   2.9126224412076671E-002
   6.8271607160066722E-002  -1.9784973681604624E-002   2.9319123343569183E-002
   6.6069136177233784E-002  -1.9018669256358700E-002   2.9641756061608182E-002
   6.8931489607539823E-002  -2.0687252242269971E-002   3.4555775675898293E-002
   6.6872488640530192E-002  -1.9946682020130807E-002   3.4286999169293758E-002
   6.4813487673520492E-002  -1.9227900054967828E-002   3.4175428907789795E-002
   6.2754486706510876E-002  -1.8530906346781145E-002   3.4221064891386127E-002
   6.0695485739501148E-002  -1.7855700895570703E-002   3.4423907120082947E-002
   6.2812354962799535E-002  -1.8889267662247175E-002   3.9732962613893689E-002
   6.0924296470167366E-002  -1.8375106575689859E-002   3.9307081629466584E-002
   5.9036237977535246E-002  -1.7837630358926704E-002   3.9065879348694113E-002
   5.7148179484903069E-002  -1.7276839011957663E-002   3.9009355771576416E-002
   5.5260120992270977E-002  -1.6692732534782789E-002   3.9137510898113070E-002
   5.6521616174344563E-002  -1.7091283082224400E-002   4.4661188722716148E-002
   5.4831972614644217E-002  -1.6803531131248939E-002   4.4123306647648519E-002
   5.3142329054943802E-002  -1.6447360662885539E-002   4.3797575734789838E-002
   5.1452685495243435E-002  -1.6022771677134239E-002   4.3683995984139946E-002
   4.9763041935542977E-002  -1.5529764173994806E-002   4.3782567395698857E-002
   5.0059273242175156E-002  -1.5293298502201680E-002   4.9340454002365836E-002
   4.8595517073960731E-002  -1.5231955686808032E-002   4.8735674223839731E-002
   4.7131760905746292E-002  -1.5057090966844447E-002   4.8370518066076812E-002
   4.5668004737531860E-002  -1.4768704342310691E-002   4.8244985529076981E-002
   4.4204248569317428E-002  -1.4366795813206934E-002   4.8359076612840113E-002
   6.6069136177233784E-002  -1.9018669256358700E-002   2.9641756061608182E-002
   6.3430673066908361E-002  -1.8273921815659983E-002   2.9465383941289197E-002
   6.0792209956582896E-002  -1.7505396699897521E-002   2.9490420960863239E-002
   5.8153746846257466E-002  -1.6713093909071396E-002   2.9716867120330531E-002
   5.5515283735932008E-002  -1.5897013443181729E-002   3.0144722419691183E-002
   6.0695485739501148E-002  -1.7855700895570703E-002   3.4423907120082947E-002
   5.8259664432604996E-002  -1.7188115518408861E-002   3.4202216245773534E-002
   5.5823843125708900E-002  -1.6513982032367786E-002   3.4184399838429677E-002
   5.3388021818812768E-002  -1.5833300437447607E-002   3.4370457898050995E-002
   5.0952200511916595E-002  -1.5146070733648209E-002   3.4760390424637966E-002
   5.5260120992270977E-002  -1.6692732534782789E-002   3.9137510898113070E-002
   5.3029406815876173E-002  -1.6102309221157671E-002   3.8853271703629025E-002
   5.0798692639481433E-002  -1.5522567364837946E-002   3.8775372303182558E-002
   4.8567978463086699E-002  -1.4953506965823654E-002   3.8903812696773454E-002
   4.6337264286691937E-002  -1.4395128024114801E-002   3.9238592884401652E-002
   4.9763041935542977E-002  -1.5529764173994806E-002   4.3782567395698857E-002
   4.7739900216721767E-002  -1.5016502923906487E-002   4.3418550314855461E-002
   4.5716758497900536E-002  -1.4531152697308213E-002   4.3263338355121694E-002
   4.3693616779079292E-002  -1.4073713494199728E-002   4.3316931516497521E-002
   4.1670475060258033E-002  -1.3644185314581420E-002   4.3579329798982880E-002
   4.4204248569317428E-002  -1.4366795813206934E-002   4.8359076612840113E-002
   4.2391144635141792E-002  -1.3930696626655387E-002   4.7898052079452830E-002
   4.0578040700966170E-002  -1.3539738029778342E-002   4.7648297994247385E-002
   3.8764936766790561E-002  -1.3193920022575766E-002   4.7609814357223473E-002
   3.6951832832614911E-002  -1.2893242605047928E-002   4.7782601168381234E-002
   5.5515283735932008E-002  -1.5897013443181729E-002   3.0144722419691183E-002
   5.3664361121246840E-002  -1.5041403314588475E-002   3.0044175738237200E-002
   5.1813438506561560E-002  -1.4130511535652091E-002   3.0138122273335621E-002
   4.9962515891876322E-002  -1.3164338106372311E-002   3.0426562024987197E-002
   4.8111593277191111E-002  -1.2142883026749485E-002   3.0909494993191844E-002
   5.0952200511916595E-002  -1.5146070733648209E-002   3.4760390424637966E-002
   4.9280029084944818E-002  -1.4445783008714186E-002   3.4629673505001790E-002
   4.7607857657973124E-002  -1.3725927350389952E-002   3.4661965744239909E-002
   4.5935686231001430E-002  -1.2986503758675366E-002   3.4857267142352266E-002
   4.4263514804029652E-002  -1.2227512233570548E-002   3.5215577699338807E-002
   4.6337264286691937E-002  -1.4395128024114801E-002   3.9238592884401652E-002
   4.4812359989754996E-002  -1.3850162702839952E-002   3.9041992009630891E-002
   4.3287455692818048E-002  -1.3321343165127980E-002   3.8976916236055537E-002
   4.1762551395881142E-002  -1.2808669410978531E-002   3.9043365563675519E-002
   4.0237647098944160E-002  -1.2312141440391888E-002   3.9241339992490937E-002
   4.1670475060258033E-002  -1.3644185314581420E-002   4.3579329798982880E-002
   4.0261353835677173E-002  -1.3254542396965802E-002   4.3281131252124211E-002
   3.8852232611096361E-002  -1.2916758979865786E-002   4.3082973748782401E-002
   3.7443111386515536E-002  -1.2630835063281529E-002   4.2984857288957234E-002
   3.6033990161934648E-002  -1.2396770647213146E-002   4.2986781872648747E-002
   3.6951832832614911E-002  -1.2893242605047928E-002   4.7782601168381234E-002
   3.5627010622711452E-002  -1.2658922091091401E-002   4.7347091232481986E-002
   3.4302188412808007E-002  -1.2512174794603911E-002   4.6980138282420592E-002
   3.2977366202904528E-002  -1.2453000715584649E-002   4.6681742318197314E-002
   3.1652543993001075E-002  -1.2481399854034292E-002   4.6451903339811973E-002
   4.8111593277191111E-002  -1.2142883026749485E-002   3.0909494993191844E-002
   4.4050119406267685E-002  -1.0500558675448746E-002   3.0921290031612259E-002
   3.9988645535344286E-002  -7.6717774311357845E-003   3.1599814950957650E-002
   3.5927171664421012E-002  -3.6565392938100183E-003   3.2945069751227740E-002
   3.1865697793497461E-002   1.5451557365280255E-003   3.4957054432423140E-002
   4.4263514804029652E-002  -1.2227512233570548E-002   3.5215577699338807E-002
   4.0805063409128400E-002  -1.1211753486010945E-002   3.5826087803198486E-002
   3.7346612014227190E-002  -9.7020282269315306E-003   3.6975912978177761E-002
   3.3888160619325890E-002  -7.6983364563322151E-003   3.8665053224276269E-002
   3.0429709224424673E-002  -5.2006781742133246E-003   4.0893508541494206E-002
   4.0237647098944160E-002  -1.2312141440391888E-002   3.9241339992490937E-002
   3.7254803370259604E-002  -1.1922948296573144E-002   3.9758074780297498E-002
   3.4271959641574999E-002  -1.1732279022727388E-002   4.0686709829417828E-002
   3.1289115912890422E-002  -1.1740133618854551E-002   4.2027245139851954E-002
   2.8306272184205894E-002  -1.1946512084954786E-002   4.3779680711600377E-002
   3.6033990161934648E-002  -1.2396770647213146E-002   4.2986781872648747E-002
   3.3399339289661246E-002  -1.2634143107135287E-002   4.2717250962909022E-002
   3.0764688417387852E-002  -1.3762529818523189E-002   4.2732205504677698E-002
   2.8130037545114398E-002  -1.5781930781376817E-002   4.3031645497954692E-002
   2.5495386672841014E-002  -1.8692345995696136E-002   4.3615570942740281E-002
   3.1652543993001075E-002  -1.2481399854034292E-002   4.6451903339811973E-002
   2.9238671167333335E-002  -1.3345337917697597E-002   4.4703616351033371E-002
   2.6824798341665568E-002  -1.5792780614319074E-002   4.3112400003957718E-002
   2.4410925515997856E-002  -1.9823727943899049E-002   4.1678254298584932E-002
   2.1997052690330088E-002  -2.5438179906437597E-002   4.0401179234915041E-002
   5.7145739607541525E-002   0.0000000000000000        3.4686282743347216E-002
   5.7931597858835046E-002  -2.0794316916024659E-003   3.8338515073761750E-002
   5.8717456110128574E-002  -4.1268866678592590E-003   4.2203418329118045E-002
   5.9503314361422102E-002  -6.1423649287703792E-003   4.6280992509416127E-002
   6.0289172612715630E-002  -8.1258664743358109E-003   5.0571237614655984E-002
   4.8644917954330499E-002   0.0000000000000000        3.2789546667134434E-002
   4.9578608963540327E-002  -1.7047217765936715E-003   3.6966569363775667E-002
   5.0512299972750162E-002  -3.4227829000741776E-003   4.1226586651307739E-002
   5.1445990981960003E-002  -5.1541833704415226E-003   4.5569598529730651E-002
   5.2379681991169831E-002  -6.8989231876956953E-003   4.9995604999044430E-002
   4.0724406150142209E-002   0.0000000000000000        3.1290178537046708E-002
   4.1676253583217422E-002  -1.3300118615848771E-003   3.5946675537682118E-002
   4.2628101016292642E-002  -2.7186791322890988E-003   4.0556490795157454E-002
   4.3579948449367863E-002  -4.1660018121126687E-003   4.5119624309472701E-002
   4.4531795882443076E-002  -5.6719799010555788E-003   4.9636076080627874E-002
   3.3384204194976654E-002   0.0000000000000000        3.0188178353084023E-002
   3.4224531717866331E-002  -9.5530194657608225E-004   3.5278833595481111E-002
   3.5064859240756009E-002  -2.0145753645040214E-003   4.0193130760667189E-002
   3.5905186763645687E-002  -3.1778202537838134E-003   4.4931069848642272E-002
   3.6745514286535365E-002  -4.4450366144154641E-003   4.9492650859406351E-002
   2.6624312088833833E-002   0.0000000000000000        2.9483546115246395E-002
   2.7223443367487048E-002  -5.8059203156728741E-004   3.4963043537172639E-002
   2.7822574646140262E-002  -1.3104715967189404E-003   4.0136506547836952E-002
   2.8421705924793473E-002  -2.1896386954549617E-003   4.5003935147239355E-002
   2.9020837203446691E-002  -3.2180933277753442E-003   4.9565329335379819E-002
   6.0289172612715630E-002  -8.1258664743358109E-003   5.0571237614655984E-002
   6.0582262466627915E-002  -9.9973956776667067E-003   5.1508790315981677E-002
   6.0875352320540199E-002  -1.1676956911874245E-002   5.2233737947602707E-002
   6.1168442174452484E-002  -1.3164550176958376E-002   5.2746080509519101E-002
   6.1461532028364761E-002  -1.4460175472919112E-002   5.3045818001730805E-002
   5.2379681991169831E-002  -6.8989231876956953E-003   4.9995604999044430E-002
   5.2499211369242654E-002  -8.5568008387490249E-003   5.1223322631260303E-002
   5.2618740747315484E-002  -1.0027614810513848E-002   5.2316524381501923E-002
   5.2738270125388315E-002  -1.1311365102990127E-002   5.3275210249769292E-002
   5.2857799503461131E-002  -1.2408051716177891E-002   5.4099380236062353E-002
   4.4531795882443076E-002  -5.6719799010555788E-003   4.9636076080627874E-002
   4.4555853972406835E-002  -7.1162059998313362E-003   5.1149054353899083E-002
   4.4579912062370594E-002  -8.3782727091534365E-003   5.2605605932926423E-002
   4.4603970152334360E-002  -9.4581800290218926E-003   5.4005730817709853E-002
   4.4628028242298119E-002  -1.0355927959436670E-002   5.5349429008249469E-002
   3.6745514286535365E-002  -4.4450366144154641E-003   4.9492650859406351E-002
   3.6752190276120450E-002  -5.6756111609136493E-003   5.1285985483898011E-002
   3.6758866265705528E-002  -6.7289306077930322E-003   5.3100982601876200E-002
   3.6765542255290620E-002  -7.6049949550536407E-003   5.4937642213340895E-002
   3.6772218244875698E-002  -8.3038042026954625E-003   5.6795964318292147E-002
   2.9020837203446691E-002  -3.2180933277753442E-003   4.9565329335379819E-002
   2.9088220280383489E-002  -4.2350163219959484E-003   5.1634116021257066E-002
   2.9155603357320280E-002  -5.0795885064326323E-003   5.3802654388351252E-002
   2.9222986434257085E-002  -5.7518098810854104E-003   5.6070944436662294E-002
   2.9290369511193876E-002  -6.2516804459542274E-003   5.8438986166190282E-002
   6.1461532028364761E-002  -1.4460175472919112E-002   5.3045818001730805E-002
   6.0122318155310890E-002  -1.5461205499540207E-002   5.1636578025507036E-002
   5.8783104282257012E-002  -1.6065012956605389E-002   5.0675703470420511E-002
   5.7443890409203127E-002  -1.6271597844114610E-002   5.0163194336471199E-002
   5.6104676536149256E-002  -1.6080960162068003E-002   5.0099050623659019E-002
   5.2857799503461131E-002  -1.2408051716177891E-002   5.4099380236062353E-002
   5.1917266061462033E-002  -1.3255328988762204E-002   5.3368905319233939E-002
   5.0976732619462929E-002  -1.3790851259428050E-002   5.2987425843377893E-002
   5.0036199177463825E-002  -1.4014618528175459E-002   5.2954941808494166E-002
   4.9095665735464727E-002  -1.3926630795004447E-002   5.3271453214582820E-002
   4.4628028242298119E-002  -1.0355927959436670E-002   5.5349429008249469E-002
   4.3986805251188928E-002  -1.1049452477984174E-002   5.5212251583178919E-002
   4.3345582260079743E-002  -1.1516689562250711E-002   5.5324699618915854E-002
   4.2704359268970558E-002  -1.1757639212236257E-002   5.5686773115460282E-002
   4.2063136277861367E-002  -1.1772301427940918E-002   5.6298472072812203E-002
   3.6772218244875698E-002  -8.3038042026954625E-003   5.6795964318292147E-002
   3.6330935724491566E-002  -8.8435759672061444E-003   5.7166616817341968E-002
   3.5889653204107440E-002  -9.2425278650733449E-003   5.7687524797034435E-002
   3.5448370683723300E-002  -9.5006598962971249E-003   5.8358688257369520E-002
   3.5007088163339181E-002  -9.6179720608773889E-003   5.9180107198347272E-002
   2.9290369511193876E-002  -6.2516804459542274E-003   5.8438986166190282E-002
   2.8949657481369948E-002  -6.6376994564281491E-003   5.9232001021723053E-002
   2.8608945451546023E-002  -6.9683661678960410E-003   6.0075901377733595E-002
   2.8268233421722098E-002  -7.2436805803579255E-003   6.0970687234221825E-002
   2.7927521391898170E-002  -7.4636426938138600E-003   6.1916358591187964E-002
   5.6104676536149256E-002  -1.6080960162068003E-002   5.0099050623659019E-002
   5.4593325712655738E-002  -1.5739794583207872E-002   4.9740986542761240E-002
   5.3081974889162220E-002  -1.5494795780276877E-002   4.9495199078913199E-002
   5.1570624065668709E-002  -1.5345963753274759E-002   4.9361688232114662E-002
   5.0059273242175156E-002  -1.5293298502201680E-002   4.9340454002365836E-002
   4.9095665735464727E-002  -1.3926630795004447E-002   5.3271453214582820E-002
   4.7716750630283633E-002  -1.3699439130355304E-002   5.2845272620583486E-002
   4.6337835525102566E-002  -1.3505594604668360E-002   5.2571686846159468E-002
   4.4958920419921493E-002  -1.3345097217943637E-002   5.2450695891310746E-002
   4.3580005314740392E-002  -1.3217946970181110E-002   5.2482299756037368E-002
   4.2063136277861367E-002  -1.1772301427940918E-002   5.6298472072812203E-002
   4.0856975093518412E-002  -1.1659083677502749E-002   5.5866994602678154E-002
   3.9650813909175436E-002  -1.1516393429060010E-002   5.5628430154645039E-002
   3.8444652724832468E-002  -1.1344230682612613E-002   5.5582778728712902E-002
   3.7238491540489534E-002  -1.1142595438160569E-002   5.5730040324881741E-002
   3.5007088163339181E-002  -9.6179720608773889E-003   5.9180107198347272E-002
   3.4013999102360006E-002  -9.6187282246501735E-003   5.8806152489045221E-002
   3.3020910041380851E-002  -9.5271922534516038E-003   5.8665429004369801E-002
   3.2027820980401682E-002  -9.3433641472815392E-003   5.8757936744321074E-002
   3.1034731919422513E-002  -9.0672439061399990E-003   5.9083675708898956E-002
   2.7927521391898170E-002  -7.4636426938138600E-003   6.1916358591187964E-002
   2.7187822656808476E-002  -7.5783727717976396E-003   6.1662746279684752E-002
   2.6448123921718785E-002  -7.5379910778431564E-003   6.1682683395333893E-002
   2.5708425186629101E-002  -7.3424976119505110E-003   6.1976169938135373E-002
   2.4968726451539400E-002  -6.9918923741194849E-003   6.2543205908089122E-002
   5.0059273242175156E-002  -1.5293298502201680E-002   4.9340454002365836E-002
   4.8595517073960731E-002  -1.5231955686808032E-002   4.8735674223839731E-002
   4.7131760905746292E-002  -1.5057090966844447E-002   4.8370518066076812E-002
   4.5668004737531860E-002  -1.4768704342310691E-002   4.8244985529076981E-002
   4.4204248569317428E-002  -1.4366795813206934E-002   4.8359076612840113E-002
   4.3580005314740392E-002  -1.3217946970181110E-002   5.2482299756037368E-002
   4.2343792391369463E-002  -1.3068706291827589E-002   5.2098718707132771E-002
   4.1107579467998513E-002  -1.2841937613329663E-002   5.1930600527152170E-002
   3.9871366544627584E-002  -1.2537640934687615E-002   5.1977945216095431E-002
   3.8635153621256635E-002  -1.2155816255901147E-002   5.2240752773962618E-002
   3.7238491540489534E-002  -1.1142595438160569E-002   5.5730040324881741E-002
   3.6205661110122925E-002  -1.0905456896847000E-002   5.5531664101172828E-002
   3.5172830679756309E-002  -1.0626784259814927E-002   5.5524589994548783E-002
   3.4140000249389707E-002  -1.0306577527064426E-002   5.5708818005009389E-002
   3.3107169819023091E-002  -9.9448366985953884E-003   5.6084348132554862E-002
   3.1034731919422513E-002  -9.0672439061399990E-003   5.9083675708898956E-002
   3.0181123230221124E-002  -8.7422075018665536E-003   5.9034510405960063E-002
   2.9327514541019721E-002  -8.4116309063002222E-003   5.9152486468266756E-002
   2.8473905851818321E-002  -8.0755141194412648E-003   5.9437603895819001E-002
   2.7620297162616950E-002  -7.7338571412896434E-003   5.9889862688617006E-002
   2.4968726451539400E-002  -6.9918923741194849E-003   6.2543205908089122E-002
   2.4270178751664040E-002  -6.5789581068859543E-003   6.2607257621494272E-002
   2.3571631051788701E-002  -6.1964775527854274E-003   6.2814289948305915E-002
   2.2873083351913358E-002  -5.8444507118181662E-003   6.3164302888524065E-002
   2.2174535652038002E-002  -5.5228775839838429E-003   6.3657296442148625E-002
   4.4204248569317428E-002  -1.4366795813206934E-002   4.8359076612840113E-002
   4.2391144635141792E-002  -1.3930696626655387E-002   4.7898052079452830E-002
   4.0578040700966170E-002  -1.3539738029778342E-002   4.7648297994247385E-002
   3.8764936766790561E-002  -1.3193920022575766E-002   4.7609814357223473E-002
   3.6951832832614911E-002  -1.2893242605047928E-002   4.7782601168381234E-002
   3.8635153621256635E-002  -1.2155816255901147E-002   5.2240752773962618E-002
   3.7032198668762242E-002  -1.1746990900693602E-002   5.1785384301413953E-002
   3.5429243716267850E-002  -1.1361692192788493E-002   5.1539043344045951E-002
   3.3826288763773450E-002  -1.0999920132185483E-002   5.1501729901858716E-002
   3.2223333811279065E-002  -1.0661674718884795E-002   5.1673443974852323E-002
   3.3107169819023091E-002  -9.9448366985953884E-003   5.6084348132554862E-002
   3.1712120915209065E-002  -9.5632851747320530E-003   5.5656249663216896E-002
   3.0317072011394997E-002  -9.1836463557986997E-003   5.5434935776058819E-002
   2.8922023107580956E-002  -8.8059202417952002E-003   5.5420406471080534E-002
   2.7526974203766895E-002  -8.4301068327216899E-003   5.5612661748282180E-002
   2.7620297162616950E-002  -7.7338571412896434E-003   5.9889862688617006E-002
   2.6430911374482301E-002  -7.3795794487703306E-003   5.9510648164862068E-002
   2.5241525586347680E-002  -7.0056005188088508E-003   5.9335975290286044E-002
   2.4052139798213065E-002  -6.6119203514049176E-003   5.9365844064889130E-002
   2.2862754010078437E-002  -6.1985389465586821E-003   5.9600254488671137E-002
   2.2174535652038002E-002  -5.5228775839838429E-003   6.3657296442148625E-002
   2.1188570046581923E-002  -5.1958737228087470E-003   6.3348579806349115E-002
   2.0202604441125843E-002  -4.8275546818190157E-003   6.3242161886727627E-002
   1.9216638835669750E-002  -4.4179204610146246E-003   6.3338042683284287E-002
   1.8230673230213670E-002  -3.9669710603954522E-003   6.3636222196018943E-002
   3.6951832832614911E-002  -1.2893242605047928E-002   4.7782601168381234E-002
   3.5627010622711452E-002  -1.2658922091091401E-002   4.7347091232481986E-002
   3.4302188412808007E-002  -1.2512174794603911E-002   4.6980138282420592E-002
   3.2977366202904528E-002  -1.2453000715584649E-002   4.6681742318197314E-002
   3.1652543993001075E-002  -1.2481399854034292E-002   4.6451903339811973E-002
   3.2223333811279065E-002  -1.0661674718884795E-002   5.1673443974852323E-002
   3.0995327946045689E-002  -1.0356458795931334E-002   5.1233280036178164E-002
   2.9767322080812300E-002  -1.0093775206370587E-002   5.0918191801006166E-002
   2.8539316215578911E-002  -9.8736239502020609E-003   5.0728179269336308E-002
   2.7311310350345563E-002  -9.6960050274260690E-003   5.0663242441168543E-002
   2.7526974203766895E-002  -8.4301068327216899E-003   5.5612661748282180E-002
   2.6452303400867704E-002  -8.0539955007712799E-003   5.5212884690909458E-002
   2.5377632597968543E-002  -7.6753756181372687E-003   5.4994702054702964E-002
   2.4302961795069362E-002  -7.2942471848194742E-003   5.4958113839662578E-002
   2.3228290992170192E-002  -6.9106102008180681E-003   5.5103120045788517E-002
   2.2862754010078437E-002  -6.1985389465586821E-003   5.9600254488671137E-002
   2.1997936987177589E-002  -5.7515322056111082E-003   5.9285905196675849E-002
   2.1133119964276706E-002  -5.2569760299038641E-003   5.9209669043510903E-002
   2.0268302941375830E-002  -4.7148704194367756E-003   5.9371546029176325E-002
   1.9403485918475002E-002  -4.1252153742100117E-003   5.9771536153672152E-002
   1.8230673230213670E-002  -3.9669710603954522E-003   6.3636222196018943E-002
   1.7632228704975245E-002  -3.4490689104511307E-003   6.3452341553477343E-002
   1.7033784179736812E-002  -2.8385764416707510E-003   6.3563092767430163E-002
   1.6435339654498369E-002  -2.1354936540542470E-003   6.3968475837877500E-002
   1.5836895129259954E-002  -1.3398205476017888E-003   6.4668490764819231E-002
   3.1652543993001075E-002  -1.2481399854034292E-002   4.6451903339811973E-002
   2.9238671167333335E-002  -1.3345337917697597E-002   4.4703616351033371E-002
   2.6824798341665568E-002  -1.5792780614319074E-002   4.3112400003957718E-002
   2.4410925515997856E-002  -1.9823727943899049E-002   4.1678254298584932E-002
   2.1997052690330088E-002  -2.5438179906437597E-002   4.0401179234915041E-002
   2.7311310350345563E-002  -9.6960050274260690E-003   5.0663242441168543E-002
   2.5065792077458626E-002  -9.9602239273360038E-003   4.7972129675479230E-002
   2.2820273804571675E-002  -1.1065586139225092E-002   4.5460655373648379E-002
   2.0574755531684724E-002  -1.3012091663093264E-002   4.3128819535676627E-002
   1.8329237258797759E-002  -1.5799740498940396E-002   4.0976622161563170E-002
   2.3228290992170192E-002  -6.9106102008180681E-003   5.5103120045788517E-002
   2.1173695094219860E-002  -6.5751099369747712E-003   5.2211542824167900E-002
   1.9119099196269529E-002  -6.3383916641311239E-003   4.9522171888561589E-002
   1.7064503298319163E-002  -6.2004553822871782E-003   4.7035007238969813E-002
   1.5009907400368852E-002  -6.1613010914430832E-003   4.4750048875392689E-002
   1.9403485918475002E-002  -4.1252153742100117E-003   5.9771536153672152E-002
   1.7562380217617024E-002  -3.1899959466134137E-003   5.7421855797099408E-002
   1.5721274516759066E-002  -1.6111971890370932E-003   5.5296949548696891E-002
   1.3880168815901083E-002   6.1118089851870151E-004   5.3396817408464838E-002
   1.2039063115043106E-002   3.4771383160541736E-003   5.1721459376402393E-002
   1.5836895129259954E-002  -1.3398205476017888E-003   6.4668490764819231E-002
   1.4231847447650131E-002   1.9511804374794384E-004   6.3603068594273948E-002
   1.2626799766040309E-002   3.1159972860568957E-003   6.2784988354054411E-002
   1.1021752084430528E-002   7.4228171793247651E-003   6.2214250044161326E-002
   9.4167044028207192E-003   1.3115577723551430E-002   6.1890853664593903E-002
   2.6624312088833833E-002   0.0000000000000000        2.9483546115246395E-002
   2.7223443367487048E-002  -5.8059203156728741E-004   3.4963043537172639E-002
   2.7822574646140262E-002  -1.3104715967189404E-003   4.0136506547836952E-002
   2.8421705924793473E-002  -2.1896386954549617E-003   4.5003935147239355E-002
   2.9020837203446691E-002  -3.2180933277753442E-003   4.9565329335379819E-002
   2.0107989697105158E-002   0.0000000000000000        2.9040841383538241E-002
   2.0440149462405070E-002  -4.3544402373131130E-004   3.4335604691296380E-002
   2.0772309227704979E-002  -9.8285369764283641E-004   3.9402459383609839E-002
   2.1104468993004891E-002  -1.6422290217345719E-003   4.4241405460478618E-002
   2.1436628758304804E-002  -2.4135699960065177E-003   4.8852442921902717E-002
   1.3498496885182044E-002   0.0000000000000000        2.8724623717963988E-002
   1.3641810932945898E-002  -2.9029601589533561E-004   3.3871974794958175E-002
   1.3785124980709754E-002  -6.5523579856672978E-004   3.8869543052324929E-002
   1.3928439028473606E-002  -1.0948193480141786E-003   4.3717328490064246E-002
   1.4071753076237464E-002  -1.6090466642376907E-003   4.8415331108176120E-002
   6.7958336530644916E-003   0.0000000000000000        2.8534893118523627E-002
   6.8284277791095345E-003  -1.4514800805936058E-004   3.3572153848158016E-002
   6.8610219051545782E-003  -3.2761789949062358E-004   3.8537757553982213E-002
   6.8936160311996219E-003  -5.4740967429378704E-004   4.3431704235996231E-002
   6.9262101572446647E-003  -8.0452333246886225E-004   4.8253993894200056E-002
   7.5249875775007524E-013   0.0000000000000000        2.8471649585217168E-002
   8.9597773644811696E-013  -2.2338381144848540E-013   3.3436141850895912E-002
   1.0394545467418137E-012  -4.1451911347856196E-013   3.8407102888581728E-002
   1.1829333085994209E-012  -5.7339723247284979E-013   4.3384532698274587E-002
   1.3264112030952901E-012  -7.0003378094263269E-013   4.8368431279974505E-002
   2.9020837203446691E-002  -3.2180933277753442E-003   4.9565329335379819E-002
   2.9088220280383489E-002  -4.2350163219959484E-003   5.1634116021257066E-002
   2.9155603357320280E-002  -5.0795885064326323E-003   5.3802654388351252E-002
   2.9222986434257085E-002  -5.7518098810854104E-003   5.6070944436662294E-002
   2.9290369511193876E-002  -6.2516804459542274E-003   5.8438986166190282E-002
   2.1436628758304804E-002  -2.4135699960065177E-003   4.8852442921902717E-002
   2.1574614153848204E-002  -3.1762622416957710E-003   5.1262219966808957E-002
   2.1712599549391604E-002  -3.8096913800394240E-003   5.3713449967711498E-002
   2.1850584944934998E-002  -4.3138574110374696E-003   5.6206132924610346E-002
   2.1988570340478401E-002  -4.6887603346899218E-003   5.8740268837505459E-002
   1.4071753076237464E-002  -1.6090466642376907E-003   4.8415331108176120E-002
   1.4222042065166845E-002  -2.1175081613955867E-003   5.1123010809673033E-002
   1.4372331054096228E-002  -2.5397942536462014E-003   5.3813844741945664E-002
   1.4522620043025611E-002  -2.8759049409895422E-003   5.6487832904993950E-002
   1.4672909031954994E-002  -3.1258402234256022E-003   5.9144975298817869E-002
   6.9262101572446647E-003  -8.0452333246886225E-004   4.8253993894200056E-002
   7.0305040143394167E-003  -1.0587540810954024E-003   5.1216488549849344E-002
   7.1347978714341662E-003  -1.2698971272529825E-003   5.4103838711053683E-002
   7.2390917285289156E-003  -1.4379524709416116E-003   5.6916044377813058E-002
   7.3433855856236668E-003  -1.5629201121612896E-003   5.9653105550127518E-002
   1.3264112030952901E-012  -7.0003378094263269E-013   4.8368431279974505E-002
   1.3659134587284960E-012  -7.9521892543121808E-013   5.1542653187337813E-002
   1.4054126785956189E-012  -8.5976625124883910E-013   5.4583431875035567E-002
   1.4449129826649143E-012  -8.9368334781070313E-013   5.7490767343067767E-002
   1.4844150214576857E-012  -8.9696305938247178E-013   6.0264659591434400E-002
   2.9290369511193876E-002  -6.2516804459542274E-003   5.8438986166190282E-002
   2.8949657481369948E-002  -6.6376994564281491E-003   5.9232001021723053E-002
   2.8608945451546023E-002  -6.9683661678960410E-003   6.0075901377733595E-002
   2.8268233421722098E-002  -7.2436805803579255E-003   6.0970687234221825E-002
   2.7927521391898170E-002  -7.4636426938138600E-003   6.1916358591187964E-002
   2.1988570340478401E-002  -4.6887603346899218E-003   5.8740268837505459E-002
   2.1707316937895516E-002  -4.9782745925574107E-003   5.9576427943608734E-002
   2.1426063535312633E-002  -5.2262746262005094E-003   6.0480618803716316E-002
   2.1144810132729751E-002  -5.4327604356192750E-003   6.1452841417828259E-002
   2.0863556730146868E-002  -5.5977320208136366E-003   6.2493095785944378E-002
   1.4672909031954994E-002  -3.1258402234256022E-003   5.9144975298817869E-002
   1.4468260510139698E-002  -3.3188497286866687E-003   6.0010440580710034E-002
   1.4263611988324397E-002  -3.4841830845050055E-003   6.0961083870133034E-002
   1.4058963466509098E-002  -3.6218402908806237E-003   6.1996905167086898E-002
   1.3854314944693800E-002  -3.7318213478134826E-003   6.3117904471571631E-002
   7.3433855856236668E-003  -1.5629201121612896E-003   5.9653105550127518E-002
   7.2324881981024932E-003  -1.6594248648159494E-003   6.0534038933026904E-002
   7.1215908105813136E-003  -1.7420915428094461E-003   6.1517296576983710E-002
   7.0106934230601400E-003  -1.8109201461419312E-003   6.2602878481997942E-002
   6.8997960355389638E-003  -1.8659106748133217E-003   6.3790784648069504E-002
   1.4844150214576857E-012  -8.9696305938247178E-013   6.0264659591434400E-002
   1.7839020191590116E-012  -9.4520224980243484E-013   6.1147223000559414E-002
   2.0833898842220755E-012  -1.1139700273332664E-012   6.2149256924268370E-002
   2.3828803513703534E-012  -1.4033080253383901E-012   6.3270761362561267E-002
   2.6823647469864653E-012  -1.8131190993031510E-012   6.4511736315438065E-002
   2.7927521391898170E-002  -7.4636426938138600E-003   6.1916358591187964E-002
   2.7187822656808476E-002  -7.5783727717976396E-003   6.1662746279684752E-002
   2.6448123921718785E-002  -7.5379910778431564E-003   6.1682683395333893E-002
   2.5708425186629101E-002  -7.3424976119505110E-003   6.1976169938135373E-002
   2.4968726451539400E-002  -6.9918923741194849E-003   6.2543205908089122E-002
   2.0863556730146868E-002  -5.5977320208136366E-003   6.2493095785944378E-002
   2.0375251236384975E-002  -5.6837795794456858E-003   6.2407772965334340E-002
   1.9886945742623077E-002  -5.6534933091772731E-003   6.2551687200227551E-002
   1.9398640248861187E-002  -5.5068732100084289E-003   6.2924838490624024E-002
   1.8910334755099303E-002  -5.2439192819390690E-003   6.3527226836523801E-002
   1.3854314944693800E-002  -3.7318213478134826E-003   6.3117904471571631E-002
   1.3573090320610692E-002  -3.7891863870937251E-003   6.3162093198816785E-002
   1.3291865696527592E-002  -3.7689955405113065E-003   6.3391206609916234E-002
   1.3010641072444498E-002  -3.6712488080663051E-003   6.3805244704869868E-002
   1.2729416448361387E-002  -3.4959461897586391E-003   6.4404207483677922E-002
   6.8997960355389638E-003  -1.8659106748133217E-003   6.3790784648069504E-002
   6.7813399094856334E-003  -1.8945931947417678E-003   6.3925706980132099E-002
   6.6628837834322996E-003  -1.8844977718453539E-003   6.4201241624399913E-002
   6.5444276573789709E-003  -1.8356244061242160E-003   6.4617388580873084E-002
   6.4259715313256362E-003  -1.7479730975782024E-003   6.5174147849551473E-002
   2.6823647469864653E-012  -1.8131190993031510E-012   6.4511736315438065E-002
   3.0097885989066597E-012  -2.3898175105507846E-012   6.4698614309280325E-002
   3.3372141855503301E-012  -3.1794532284745713E-012   6.4981792243678782E-002
   3.6646380374705245E-012  -4.1821121218865720E-012   6.5361270118633477E-002
   3.9920636241141949E-012  -5.3977655678494330E-012   6.5837047934144438E-002
   2.4968726451539400E-002  -6.9918923741194849E-003   6.2543205908089122E-002
   2.4270178751664040E-002  -6.5789581068859543E-003   6.2607257621494272E-002
   2.3571631051788701E-002  -6.1964775527854274E-003   6.2814289948305915E-002
   2.2873083351913358E-002  -5.8444507118181662E-003   6.3164302888524065E-002
   2.2174535652038002E-002  -5.5228775839838429E-003   6.3657296442148625E-002
   1.8910334755099303E-002  -5.2439192819390690E-003   6.3527226836523801E-002
   1.8362681746087441E-002  -4.9342185815674372E-003   6.3450019018373729E-002
   1.7815028737075581E-002  -4.6473581654914581E-003   6.3531619968544201E-002
   1.7267375728063715E-002  -4.3833380337112184E-003   6.3772029687035131E-002
   1.6719722719051866E-002  -4.1421581862268186E-003   6.4171248173846673E-002
   1.2729416448361387E-002  -3.4959461897586391E-003   6.4404207483677922E-002
   1.2348486285127028E-002  -3.2894790562488715E-003   6.4193353562810002E-002
   1.1967556121892665E-002  -3.0982387781974367E-003   6.4157136565176590E-002
   1.1586625958658298E-002  -2.9222253556043824E-003   6.4295556490777686E-002
   1.1205695795423944E-002  -2.7614387884696279E-003   6.4608613339613305E-002
   6.4259715313256362E-003  -1.7479730975782024E-003   6.5174147849551473E-002
   6.2275923687827913E-003  -1.6447395309303302E-003   6.4837261254803033E-002
   6.0292132062399438E-003  -1.5491193909034692E-003   6.4690839738203221E-002
   5.8308340436970911E-003  -1.4611126774975182E-003   6.4734883299751841E-002
   5.6324548811542505E-003  -1.3807193907126036E-003   6.4969391939449020E-002
   3.9920636241141949E-012  -5.3977655678494330E-012   6.5837047934144438E-002
  -2.9452586203237985E-012  -5.6117749336337397E-012   6.5381742094352907E-002
  -9.8825756605913639E-012  -3.6093975031015191E-012   6.5132729487623928E-002
  -1.6819891833497191E-011   6.0942743906888808E-013   6.5090010113957431E-002
  -2.3757214945296923E-011   7.0445871358515433E-012   6.5253583973353513E-002
   2.2174535652038002E-002  -5.5228775839838429E-003   6.3657296442148625E-002
   2.1188570046581923E-002  -5.1958737228087470E-003   6.3348579806349115E-002
   2.0202604441125843E-002  -4.8275546818190157E-003   6.3242161886727627E-002
   1.9216638835669750E-002  -4.4179204610146246E-003   6.3338042683284287E-002
   1.8230673230213670E-002  -3.9669710603954522E-003   6.3636222196018943E-002
   1.6719722719051866E-002  -4.1421581862268186E-003   6.4171248173846673E-002
   1.5947104000464764E-002  -3.8969052888688654E-003   6.3850516500024670E-002
   1.5174485281877668E-002  -3.6206660074688257E-003   6.3754179883762516E-002
   1.4401866563290573E-002  -3.3134403420263456E-003   6.3882238325060403E-002
   1.3629247844703485E-002  -2.9752282925415430E-003   6.4234691823918083E-002
   1.1205695795423944E-002  -2.7614387884696279E-003   6.4608613339613305E-002
   1.0668520305087623E-002  -2.5979368549291088E-003   6.4265537831996636E-002
   1.0131344814751319E-002  -2.4137773331186288E-003   6.4168953723321764E-002
   9.5941693244150118E-003  -2.2089602230381204E-003   6.4318861013588469E-002
   9.0569938340787047E-003  -1.9834855246876337E-003   6.4715259702796915E-002
   5.6324548811542505E-003  -1.3807193907126036E-003   6.4969391939449020E-002
   5.3528189604505234E-003  -1.2989684209893729E-003   6.4593643802265344E-002
   5.0731830397467989E-003  -1.2068886587684353E-003   6.4486483405405151E-002
   4.7935471190430744E-003  -1.1044801040498960E-003   6.4647910748868373E-002
   4.5139111983393482E-003  -9.9174275683380775E-004   6.5077925832655134E-002
  -2.3757214945296923E-011   7.0445871358515433E-012   6.5253583973353513E-002
  -3.3446558023175754E-011   1.2950474026496295E-011   6.4834834410830433E-002
  -4.3135895896884158E-011   1.5581744228221339E-011   6.4706768930012648E-002
  -5.2825234637954299E-011   1.4938241615913839E-011   6.4869387530900088E-002
  -6.2514576848471393E-011   1.1020184764731766E-011   6.5322690213492851E-002
   1.8230673230213670E-002  -3.9669710603954522E-003   6.3636222196018943E-002
   1.7632228704975245E-002  -3.4490689104511307E-003   6.3452341553477343E-002
   1.7033784179736812E-002  -2.8385764416707510E-003   6.3563092767430163E-002
   1.6435339654498369E-002  -2.1354936540542470E-003   6.3968475837877500E-002
   1.5836895129259954E-002  -1.3398205476017888E-003   6.4668490764819231E-002
   1.3629247844703485E-002  -2.9752282925415430E-003   6.4234691823918083E-002
   1.3289179994476805E-002  -2.5868016819791395E-003   6.4124743903253650E-002
   1.2949112144250124E-002  -2.1289323333039817E-003   6.4236917476118080E-002
   1.2609044294023451E-002  -1.6016202465161285E-003   6.4571212542511469E-002
   1.2268976443796778E-002  -1.0048654216152086E-003   6.5127629102433970E-002
   9.0569938340787047E-003  -1.9834855246876337E-003   6.4715259702796915E-002
   8.9027922958983298E-003  -1.7245344535074397E-003   6.4656096923286208E-002
   8.7485907577179532E-003  -1.4192882249374275E-003   6.4746545274339179E-002
   8.5943892195375765E-003  -1.0677468389778972E-003   6.4986604755955676E-002
   8.4401876813572085E-003  -6.6991029562876725E-004   6.5376275368135686E-002
   4.5139111983393482E-003  -9.9174275683380775E-004   6.5077925832655134E-002
   4.4730656092398340E-003  -8.6226722503548320E-004   6.5046400613575181E-002
   4.4322200201403032E-003  -7.0964411657087681E-004   6.5091976162093293E-002
   4.3913744310407855E-003  -5.3387343143983332E-004   6.5214652478209595E-002
   4.3505288419412591E-003  -3.3495516964231198E-004   6.5414429561924059E-002
  -6.2514576848471393E-011   1.1020184764731766E-011   6.5322690213492851E-002
  -6.5498703682997927E-011   3.4361957723660908E-012   6.5295654974120487E-002
  -6.8482830517524462E-011  -8.2041456961334802E-012   6.5273210139380755E-002
  -7.1466962556221425E-011  -2.3901641083012848E-011   6.5255355709273613E-002
  -7.4451084186577532E-011  -4.3655690173949324E-011   6.5242091683799075E-002
   1.5836895129259954E-002  -1.3398205476017888E-003   6.4668490764819231E-002
   1.4231847447650131E-002   1.9511804374794384E-004   6.3603068594273948E-002
   1.2626799766040309E-002   3.1159972860568957E-003   6.2784988354054411E-002
   1.1021752084430528E-002   7.4228171793247651E-003   6.2214250044161326E-002
   9.4167044028207192E-003   1.3115577723551430E-002   6.1890853664593903E-002
   1.2268976443796778E-002  -1.0048654216152086E-003   6.5127629102433970E-002
   1.0949750690296883E-002   1.4633850908205015E-004   6.5052514914915788E-002
   9.6305249367969817E-003   2.3369979132600305E-003   6.5301702653291549E-002
   8.3112991832970766E-003   5.5671127909186768E-003   6.5875192317560810E-002
   6.9920734297972131E-003   9.8366831420577672E-003   6.6772983907724348E-002
   8.4401876813572085E-003  -6.6991029562876725E-004   6.5376275368135686E-002
   7.4837438515349824E-003   9.7558974416156463E-005   6.5944983986166383E-002
   6.5273000217127702E-003   1.5579985404633803E-003   6.6914954525658654E-002
   5.5708561918905337E-003   3.7114084025126424E-003   6.8286186986612277E-002
   4.6144123620683319E-003   6.5577885605641040E-003   7.0058681369027542E-002
   4.3505288419412591E-003  -3.3495516964231198E-004   6.5414429561924059E-002
   3.8338269313644572E-003   4.8779439750262776E-005   6.6280475808025194E-002
   3.3171250207876500E-003   7.7899916766656710E-004   6.7624743971155588E-002
   2.8004231102108324E-003   1.8557040141067476E-003   6.9447234051315185E-002
   2.2837211996340409E-003   3.2788939790703853E-003   7.1747946048504180E-002
  -7.4451084186577532E-011  -4.3655690173949324E-011   6.5242091683799075E-002
  -7.0214722924788475E-011  -9.4915575399312502E-011   6.6058990380492344E-002
  -6.5978354724105515E-011  -2.0513023224477678E-010   6.7431070989782543E-002
  -6.1741995197039934E-011  -3.7429939356292685E-010   6.9358333511669604E-002
  -5.7505625261633497E-011  -6.0242322241776947E-010   7.1840777946153844E-002
   7.5249875775007524E-013   0.0000000000000000        2.8471649585217168E-002
   8.9597773644811696E-013  -2.2338381144848540E-013   3.3436141850895912E-002
   1.0394545467418137E-012  -4.1451911347856196E-013   3.8407102888581728E-002
   1.1829333085994209E-012  -5.7339723247284979E-013   4.3384532698274587E-002
   1.3264112030952901E-012  -7.0003378094263269E-013   4.8368431279974505E-002
  -6.7958336515838019E-003   0.0000000000000000        2.8534893118052615E-002
  -6.8284277773434047E-003   1.4514800762677974E-004   3.3572153847699550E-002
  -6.8610219031030031E-003   3.2761789868630906E-004   3.8537757553533274E-002
  -6.8936160288626033E-003   5.4740967317859230E-004   4.3431704235553772E-002
  -6.9262101546222051E-003   8.0452333110361731E-004   4.8253993893761067E-002
  -1.3498496883774283E-002   0.0000000000000000        2.8724623717037975E-002
  -1.3641810931257234E-002   2.9029601547694329E-004   3.3871974794053600E-002
  -1.3785124978740185E-002   6.5523579778713724E-004   3.8869543051435723E-002
  -1.3928439026223136E-002   1.0948193469305810E-003   4.3717328489184380E-002
  -1.4071753073706086E-002   1.6090466629072753E-003   4.8415331107299529E-002
  -2.0107989695818937E-002   0.0000000000000000        2.9040841382173253E-002
  -2.0440149460845516E-002   4.3544402332710815E-004   3.4335604689958062E-002
  -2.0772309225872091E-002   9.8285369688796281E-004   3.9402459382289104E-002
  -2.1104468990898663E-002   1.6422290206825701E-003   4.4241405459166383E-002
  -2.1436628755925242E-002   2.4135699947109247E-003   4.8852442920589920E-002
  -2.6624312087717775E-002   0.0000000000000000        2.9483546113458443E-002
  -2.7223443366108244E-002   5.8059203117727127E-004   3.4963043535412935E-002
  -2.7822574644498718E-002   1.3104715959887936E-003   4.0136506546093395E-002
  -2.8421705922889187E-002   2.1896386944345609E-003   4.5003935145499822E-002
  -2.9020837201279660E-002   3.2180933265145810E-003   4.9565329333632210E-002
   1.3264112030952901E-012  -7.0003378094263269E-013   4.8368431279974505E-002
   1.3659134587284960E-012  -7.9521892543121808E-013   5.1542653187337813E-002
   1.4054126785956189E-012  -8.5976625124883910E-013   5.4583431875035567E-002
   1.4449129826649143E-012  -8.9368334781070313E-013   5.7490767343067767E-002
   1.4844150214576857E-012  -8.9696305938247178E-013   6.0264659591434400E-002
  -6.9262101546222051E-003   8.0452333110361731E-004   4.8253993893761067E-002
  -7.0305040116365423E-003   1.0587540795458038E-003   5.1216488549416905E-002
  -7.1347978686508787E-003   1.2698971255894959E-003   5.4103838710630646E-002
  -7.2390917256652141E-003   1.4379524692347285E-003   5.6916044377402275E-002
  -7.3433855826795479E-003   1.5629201104814944E-003   5.9653105549731772E-002
  -1.4071753073706086E-002   1.6090466629072753E-003   4.8415331107299529E-002
  -1.4222042062550819E-002   2.1175081598868123E-003   5.1123010808818807E-002
  -1.4372331051395550E-002   2.5397942520387581E-003   5.3813844741119415E-002
  -1.4522620040240280E-002   2.8759049393631470E-003   5.6487832904201375E-002
  -1.4672909029085010E-002   3.1258402218599449E-003   5.9144975298064617E-002
  -2.1436628755925242E-002   2.4135699947109247E-003   4.8852442920589920E-002
  -2.1574614151376917E-002   3.1762622402278212E-003   5.1262219965543525E-002
  -2.1712599546828602E-002   3.8096913784880339E-003   5.3713449966501903E-002
  -2.1850584942280284E-002   4.3138574094915517E-003   5.6206132923465039E-002
  -2.1988570337731970E-002   4.6887603332383988E-003   5.8740268836432956E-002
  -2.9020837201279660E-002   3.2180933265145810E-003   4.9565329333632210E-002
  -2.9088220278114849E-002   4.2350163205688487E-003   5.1634116019591052E-002
  -2.9155603354950037E-002   5.0795885049372816E-003   5.3802654386778073E-002
  -2.9222986431785225E-002   5.7518098796199776E-003   5.6070944435193330E-002
  -2.9290369508620413E-002   6.2516804446168528E-003   5.8438986164836795E-002
   1.4844150214576857E-012  -8.9696305938247178E-013   6.0264659591434400E-002
   1.7839020191590116E-012  -9.4520224980243484E-013   6.1147223000559414E-002
   2.0833898842220755E-012  -1.1139700273332664E-012   6.2149256924268370E-002
   2.3828803513703534E-012  -1.4033080253383901E-012   6.3270761362561267E-002
   2.6823647469864653E-012  -1.8131190993031510E-012   6.4511736315438065E-002
  -7.3433855826795479E-003   1.5629201104814944E-003   5.9653105549731772E-002
  -7.2324881945847715E-003   1.6594248630990814E-003   6.0534038932336443E-002
  -7.1215908064899917E-003   1.7420915408567772E-003   6.1517296575947754E-002
  -7.0106934183952179E-003   1.8109201437546373E-003   6.2602878480565699E-002
  -6.8997960303004355E-003   1.8659106717925783E-003   6.3790784646190313E-002
  -1.4672909029085010E-002   3.1258402218599449E-003   5.9144975298064617E-002
  -1.4468260506772225E-002   3.3188497271433789E-003   6.0010440579409588E-002
  -1.4263611984459447E-002   3.4841830828275661E-003   6.0961083868183941E-002
  -1.4058963462146660E-002   3.6218402889125548E-003   6.1996905164387647E-002
  -1.3854314939833882E-002   3.7318213453983382E-003   6.3117904468020736E-002
  -2.1988570337731970E-002   4.6887603332383988E-003   5.8740268836432956E-002
  -2.1707316934778467E-002   4.9782745911876487E-003   5.9576427941778934E-002
  -2.1426063531824968E-002   5.2262746247983480E-003   6.0480618800976965E-002
  -2.1144810128871473E-002   5.4327604340704862E-003   6.1452841414027112E-002
  -2.0863556725917973E-002   5.5977320190040529E-003   6.2493095780929278E-002
  -2.9290369508620413E-002   6.2516804446168528E-003   5.8438986164836795E-002
  -2.8949657478603487E-002   6.6376994552319463E-003   5.9232001019444411E-002
  -2.8608945448586560E-002   6.9683661667691021E-003   6.0075901374326807E-002
  -2.8268233418569634E-002   7.2436805792284037E-003   6.0970687229483969E-002
  -2.7927521388552715E-002   7.4636426926098232E-003   6.1916358584915954E-002
   2.6823647469864653E-012  -1.8131190993031510E-012   6.4511736315438065E-002
   3.0097885989066597E-012  -2.3898175105507846E-012   6.4698614309280325E-002
   3.3372141855503301E-012  -3.1794532284745713E-012   6.4981792243678782E-002
   3.6646380374705245E-012  -4.1821121218865720E-012   6.5361270118633477E-002
   3.9920636241141949E-012  -5.3977655678494330E-012   6.5837047934144438E-002
  -6.8997960303004355E-003   1.8659106717925783E-003   6.3790784646190313E-002
  -6.7813399036468014E-003   1.8945931909146452E-003   6.3925706977659438E-002
  -6.6628837769931700E-003   1.8844977670649139E-003   6.4201241621224731E-002
  -6.5444276503395411E-003   1.8356244002432605E-003   6.4617388576886134E-002
  -6.4259715236859045E-003   1.7479730904497448E-003   6.5174147844643773E-002
  -1.3854314939833882E-002   3.7318213453983382E-003   6.3117904468020736E-002
  -1.3573090315314118E-002   3.7891863842191252E-003   6.3162093194357838E-002
  -1.3291865690794352E-002   3.7689955373092238E-003   6.3391206604331049E-002
  -1.3010641066274583E-002   3.6712488046685911E-003   6.3805244697940383E-002
  -1.2729416441754821E-002   3.4959461862972691E-003   6.4404207475185798E-002
  -2.0863556725917973E-002   5.5977320190040529E-003   6.2493095780929278E-002
  -2.0375251231992145E-002   5.6837795775235966E-003   6.2407772959375551E-002
  -1.9886945738066330E-002   5.6534933075535624E-003   6.2551687192997904E-002
  -1.9398640244140512E-002   5.5068732090939841E-003   6.2924838481796280E-002
  -1.8910334750214686E-002   5.2439192821448280E-003   6.3527226825770652E-002
  -2.7927521388552715E-002   7.4636426926098232E-003   6.1916358584915954E-002
  -2.7187822653680908E-002   7.5783727708280610E-003   6.1662746272712565E-002
  -2.6448123918809106E-002   7.5379910777978801E-003   6.1682683387225143E-002
  -2.5708425183937296E-002   7.3424976135192752E-003   6.1976169928453652E-002
  -2.4968726449065497E-002   6.9918923779923037E-003   6.2543205896398113E-002
   3.9920636241141949E-012  -5.3977655678494330E-012   6.5837047934144438E-002
  -2.9452586203237985E-012  -5.6117749336337397E-012   6.5381742094352907E-002
  -9.8825756605913639E-012  -3.6093975031015191E-012   6.5132729487623928E-002
  -1.6819891833497191E-011   6.0942743906888808E-013   6.5090010113957431E-002
  -2.3757214945296923E-011   7.0445871358515433E-012   6.5253583973353513E-002
  -6.4259715236859045E-003   1.7479730904497448E-003   6.5174147844643773E-002
  -6.2275923747202250E-003   1.6447395241415697E-003   6.4837261253381184E-002
  -6.0292132257545516E-003   1.5491193877757645E-003   6.4690839740861983E-002
  -5.8308340767888722E-003   1.4611126813523553E-003   6.4734883307086266E-002
  -5.6324549278231988E-003   1.3807194048714444E-003   6.4969391952054006E-002
  -1.2729416441754821E-002   3.4959461862972691E-003   6.4404207475185798E-002
  -1.2348486291205234E-002   3.2894790538948240E-003   6.4193353560178135E-002
  -1.1967556140655646E-002   3.0982387791608466E-003   6.4157136569594833E-002
  -1.1586625990106051E-002   2.9222253620953672E-003   6.4295556503435936E-002
  -1.1205695839556471E-002   2.7614388026983017E-003   6.4608613361701331E-002
  -1.8910334750214686E-002   5.2439192821448280E-003   6.3527226825770652E-002
  -1.8362681752400266E-002   4.9342185836481096E-003   6.3450019014743966E-002
  -1.7815028754585852E-002   4.6473581705459132E-003   6.3531619973822590E-002
  -1.7267375756771425E-002   4.3833380428383376E-003   6.3772029703006480E-002
  -1.6719722758957015E-002   4.1421582005252700E-003   6.4171248202295694E-002
  -2.4968726449065497E-002   6.9918923779923037E-003   6.2543205896398113E-002
  -2.4270178758305339E-002   6.5789581134013952E-003   6.2607257617078554E-002
  -2.3571631067545170E-002   6.1964775619310908E-003   6.2814289953545183E-002
  -2.2873083376785008E-002   5.8444507235812793E-003   6.3164302905797984E-002
  -2.2174535686024843E-002   5.5228775983520717E-003   6.3657296473837000E-002
  -2.3757214945296923E-011   7.0445871358515433E-012   6.5253583973353513E-002
  -3.3446558023175754E-011   1.2950474026496295E-011   6.4834834410830433E-002
  -4.3135895896884158E-011   1.5581744228221339E-011   6.4706768930012648E-002
  -5.2825234637954299E-011   1.4938241615913839E-011   6.4869387530900088E-002
  -6.2514576848471393E-011   1.1020184764731766E-011   6.5322690213492851E-002
  -5.6324549278231988E-003   1.3807194048714444E-003   6.4969391952054006E-002
  -5.3528190260605487E-003   1.2989684446197830E-003   6.4593643811231047E-002
  -5.0731831242979020E-003   1.2068886868842471E-003   6.4486483411606732E-002
  -4.7935472225352545E-003   1.1044801316648679E-003   6.4647910753181173E-002
  -4.5139113207726053E-003   9.9174277896169061E-004   6.5077925835954342E-002
  -1.1205695839556471E-002   2.7614388026983017E-003   6.4608613361701331E-002
  -1.0668520366848417E-002   2.5979368762890365E-003   6.4265537848369442E-002
  -1.0131344894140361E-002   2.4137773581867569E-003   6.4168953735729534E-002
  -9.5941694214323053E-003   2.2089602483914405E-003   6.4318861023781912E-002
  -9.0569939487242512E-003   1.9834855469031409E-003   6.4715259712526299E-002
  -1.6719722758957015E-002   4.1421582005252700E-003   6.4171248202295694E-002
  -1.5947104055810138E-002   3.8969053079582344E-003   6.3850516522245562E-002
  -1.5174485352663266E-002   3.6206660294892633E-003   6.3754179902380942E-002
  -1.4401866649516391E-002   3.3134403651179844E-003   6.3882238342701944E-002
  -1.3629247946369522E-002   2.9752283148446468E-003   6.4234691843208278E-002
  -2.2174535686024843E-002   5.5228775983520717E-003   6.3657296473837000E-002
  -2.1188570092945742E-002   5.1958737396276544E-003   6.3348579832859575E-002
  -2.0202604499866626E-002   4.8275547007917141E-003   6.3242161911561096E-002
  -1.9216638906787511E-002   4.4179204818445700E-003   6.3338042709941533E-002
  -1.8230673313708409E-002   3.9669710827860971E-003   6.3636222228000860E-002
  -6.2514576848471393E-011   1.1020184764731766E-011   6.5322690213492851E-002
  -6.5498703682997927E-011   3.4361957723660908E-012   6.5295654974120487E-002
  -6.8482830517524462E-011  -8.2041456961334802E-012   6.5273210139380755E-002
  -7.1466962556221425E-011  -2.3901641083012848E-011   6.5255355709273613E-002
  -7.4451084186577532E-011  -4.3655690173949324E-011   6.5242091683799075E-002
  -4.5139113207726053E-003   9.9174277896169061E-004   6.5077925835954342E-002
  -4.4730657375813346E-003   8.6226723475343880E-004   6.5046400613639754E-002
  -4.4322201543900638E-003   7.0964410501922481E-004   6.5091976159043191E-002
  -4.3913745711987836E-003   5.3387338975917353E-004   6.5214652472164750E-002
  -4.3505289880075224E-003   3.3495508897285475E-004   6.5414429553004583E-002
  -9.0569939487242512E-003   1.9834855469031409E-003   6.4715259712526299E-002
  -8.9027924162721241E-003   1.7245344660706541E-003   6.4656096925800016E-002
  -8.7485908838199986E-003   1.4192882182428659E-003   6.4746545269877387E-002
  -8.5943893513678628E-003   1.0677468034198754E-003   6.4986604744758453E-002
  -8.4401878189157460E-003   6.6991022160159397E-004   6.5376275350442783E-002
  -1.3629247946369522E-002   2.9752283148446468E-003   6.4234691843208278E-002
  -1.3289180101571079E-002   2.5868016973878277E-003   6.4124743910601412E-002
  -1.2949112256772633E-002   2.1289323314665383E-003   6.4236917471883509E-002
  -1.2609044411974185E-002   1.6016202170806891E-003   6.4571212527054597E-002
  -1.2268976567175734E-002   1.0048653542303471E-003   6.5127629076114787E-002
  -1.8230673313708409E-002   3.9669710827860971E-003   6.3636222228000860E-002
  -1.7632228793478179E-002   3.4490689287051124E-003   6.3452341568043913E-002
  -1.7033784273247969E-002   2.8385764446900025E-003   6.3563092765061335E-002
  -1.6435339753017746E-002   2.1354936307414786E-003   6.3968475819053308E-002
  -1.5836895232787529E-002   1.3398204868589336E-003   6.4668490730019623E-002
  -7.4451084186577532E-011  -4.3655690173949324E-011   6.5242091683799075E-002
  -7.0214722924788475E-011  -9.4915575399312502E-011   6.6058990380492344E-002
  -6.5978354724105515E-011  -2.0513023224477678E-010   6.7431070989782543E-002
  -6.1741995197039934E-011  -3.7429939356292685E-010   6.9358333511669604E-002
  -5.7505625261633497E-011  -6.0242322241776947E-010   7.1840777946153844E-002
  -4.3505289880075224E-003   3.3495508897285475E-004   6.5414429553004583E-002
  -3.8338270687287290E-003  -4.8779603821047512E-005   6.6280475706068931E-002
  -3.3171251494499461E-003  -7.7899949510486233E-004   6.7624743776621254E-002
  -2.8004232301711484E-003  -1.8557045848785238E-003   6.9447233764661179E-002
  -2.2837213108923698E-003  -3.2788948731417022E-003   7.1747945670188940E-002
  -8.4401878189157460E-003   6.6991022160159397E-004   6.5376275350442783E-002
  -7.4837439797037861E-003  -9.7559112726658404E-005   6.5944983820343681E-002
  -6.5273001404918245E-003  -1.5579987850798324E-003   6.6914954212622973E-002
  -5.5708563012798768E-003  -3.7114087954576835E-003   6.8286186527280857E-002
  -4.6144124620679031E-003  -6.5577891438602931E-003   7.0058680764317427E-002
  -1.2268976567175734E-002   1.0048653542303471E-003   6.5127629076114787E-002
  -1.0949750803139865E-002  -1.4633862163225542E-004   6.5052514723316884E-002
  -9.6305250391039918E-003  -2.3369980750547435E-003   6.5301702297788242E-002
  -8.3112992750681153E-003  -5.5671130060368284E-003   6.5875191799528596E-002
  -6.9920735110322336E-003  -9.8366834145787729E-003   6.6772983228538779E-002
  -1.5836895232787529E-002   1.3398204868589336E-003   6.4668490730019623E-002
  -1.4231847539036974E-002  -1.9511813053779692E-004   6.3603068414988029E-002
  -1.2626799845286439E-002  -3.1159973650296130E-003   6.2784988032116434E-002
  -1.1021752151535877E-002  -7.4228172166160462E-003   6.2214249581404882E-002
  -9.4167044577853493E-003  -1.3115577685297364E-002   6.1890853062853246E-002
  -2.6624312087717775E-002   0.0000000000000000        2.9483546113458443E-002
  -2.7223443366108244E-002   5.8059203117727127E-004   3.4963043535412935E-002
  -2.7822574644498718E-002   1.3104715959887936E-003   4.0136506546093395E-002
  -2.8421705922889187E-002   2.1896386944345609E-003   4.5003935145499822E-002
  -2.9020837201279660E-002   3.2180933265145810E-003   4.9565329333632210E-002
  -3.3384204194071183E-002   0.0000000000000000        3.0188178350906834E-002
  -3.4224531716715752E-002   9.5530194623196212E-004   3.5278833593338742E-002
  -3.5064859239360306E-002   2.0145753638545691E-003   4.0193130758536498E-002
  -3.5905186762004868E-002   3.1778202528678235E-003   4.4931069846500089E-002
  -3.6745514284649429E-002   4.4450366132717288E-003   4.9492650857229557E-002
  -4.0724406149479572E-002   0.0000000000000000        3.1290178534531719E-002
  -4.1676253582338355E-002   1.3300118612866508E-003   3.5946675535197425E-002
  -4.2628101015197109E-002   2.7186791317203463E-003   4.0556490792668876E-002
  -4.3579948448055884E-002   4.1660018113010852E-003   4.5119624306946056E-002
  -4.4531795880914653E-002   5.6719799000288767E-003   4.9636076078028966E-002
  -4.8644917953942948E-002   0.0000000000000000        3.2789546664333091E-002
  -4.9578608962976042E-002   1.7047217763413397E-003   3.6966569360989007E-002
  -5.0512299972009123E-002   3.4227828995861244E-003   4.1226586648490562E-002
  -5.1445990981042217E-002   5.1541833697343470E-003   4.5569598526837701E-002
  -5.2379681990075304E-002   6.8989231867860245E-003   4.9995604996030472E-002
  -5.7145739607461304E-002   0.0000000000000000        3.4686282740310950E-002
  -5.7931597858628829E-002   2.0794316913960286E-003   3.8338515070713480E-002
  -5.8717456109796354E-002   4.1268866674518991E-003   4.2203418326001510E-002
  -5.9503314360963892E-002   6.1423649281676079E-003   4.6280992506175039E-002
  -6.0289172612131424E-002   8.1258664735431724E-003   5.0571237611234075E-002
  -2.9020837201279660E-002   3.2180933265145810E-003   4.9565329333632210E-002
  -2.9088220278114849E-002   4.2350163205688487E-003   5.1634116019591052E-002
  -2.9155603354950037E-002   5.0795885049372816E-003   5.3802654386778073E-002
  -2.9222986431785225E-002   5.7518098796199776E-003   5.6070944435193330E-002
  -2.9290369508620413E-002   6.2516804446168528E-003   5.8438986164836795E-002
  -3.6745514284649429E-002   4.4450366132717288E-003   4.9492650857229557E-002
  -3.6752190274116803E-002   5.6756111596051803E-003   5.1285985481823879E-002
  -3.6758866263584170E-002   6.7289306064070636E-003   5.3100982599925628E-002
  -3.6765542253051536E-002   7.6049949536773995E-003   5.4937642211534798E-002
  -3.6772218242518917E-002   8.3038042014161872E-003   5.6795964316651418E-002
  -4.4531795880914653E-002   5.6719799000288767E-003   4.9636076078028966E-002
  -4.4555853970734978E-002   7.1162059986415198E-003   5.1149054351413016E-002
  -4.4579912060555310E-002   8.3782727078768465E-003   5.2605605930583693E-002
  -4.4603970150375656E-002   9.4581800277348353E-003   5.4005730815541046E-002
  -4.4628028240195974E-002   1.0355927958215508E-002   5.5349429006285006E-002
  -5.2379681990075304E-002   6.8989231867860245E-003   4.9995604996030472E-002
  -5.2499211367969395E-002   8.5568008376778592E-003   5.1223322628358485E-002
  -5.2618740745863479E-002   1.0027614809346608E-002   5.2316524378752352E-002
  -5.2738270123757550E-002   1.1311365101792264E-002   5.3275210247212046E-002
  -5.2857799501651648E-002   1.2408051715014828E-002   5.4099380233737636E-002
  -6.0289172612131424E-002   8.1258664735431724E-003   5.0571237611234075E-002
  -6.0582262465820033E-002   9.9973956767141960E-003   5.1508790312660237E-002
  -6.0875352319508635E-002   1.1676956910816404E-002   5.2233737944431508E-002
  -6.1168442173197252E-002   1.3164550175849684E-002   5.2746080506547811E-002
  -6.1461532026885868E-002   1.4460175471814149E-002   5.3045817999009245E-002
  -2.9290369508620413E-002   6.2516804446168528E-003   5.8438986164836795E-002
  -2.8949657478603487E-002   6.6376994552319463E-003   5.9232001019444411E-002
  -2.8608945448586560E-002   6.9683661667691021E-003   6.0075901374326807E-002
  -2.8268233418569634E-002   7.2436805792284037E-003   6.0970687229483969E-002
  -2.7927521388552715E-002   7.4636426926098232E-003   6.1916358584915954E-002
  -3.6772218242518917E-002   8.3038042014161872E-003   5.6795964316651418E-002
  -3.6330935722108049E-002   8.8435759660819326E-003   5.7166616814753407E-002
  -3.5889653201697187E-002   9.2425278641332376E-003   5.7687524793368507E-002
  -3.5448370681286333E-002   9.5006598955701717E-003   5.8358688252496696E-002
  -3.5007088160875457E-002   9.6179720603925545E-003   5.9180107192137905E-002
  -4.4628028240195974E-002   1.0355927958215508E-002   5.5349429006285006E-002
  -4.3986805249152876E-002   1.1049452476932002E-002   5.5212251580344832E-002
  -4.3345582258109784E-002   1.1516689561497456E-002   5.5324699615156084E-002
  -4.2704359267066692E-002   1.1757639211911912E-002   5.5686773110718679E-002
  -4.2063136276023601E-002   1.1772301428175300E-002   5.6298472067032666E-002
  -5.2857799501651648E-002   1.2408051715014828E-002   5.4099380233737636E-002
  -5.1917266059738010E-002   1.3255328987782030E-002   5.3368905316218712E-002
  -5.0976732617824379E-002   1.3790851258861675E-002   5.2987425839689468E-002
  -5.0036199175910741E-002   1.4014618528253638E-002   5.2954941804149933E-002
  -4.9095665733997103E-002   1.3926630795958010E-002   5.3271453209600070E-002
  -6.1461532026885868E-002   1.4460175471814149E-002   5.3045817999009245E-002
  -6.0122318153863395E-002   1.5461205498632058E-002   5.1636578022375021E-002
  -5.8783104280840923E-002   1.6065012956225814E-002   5.0675703466968765E-002
  -5.7443890407818450E-002   1.6271597844595413E-002   5.0163194332790484E-002
  -5.6104676534795991E-002   1.6080960163740804E-002   5.0099050619840213E-002
  -2.7927521388552715E-002   7.4636426926098232E-003   6.1916358584915954E-002
  -2.7187822653680908E-002   7.5783727708280610E-003   6.1662746272712565E-002
  -2.6448123918809106E-002   7.5379910777978801E-003   6.1682683387225143E-002
  -2.5708425183937296E-002   7.3424976135192752E-003   6.1976169928453652E-002
  -2.4968726449065497E-002   6.9918923779923037E-003   6.2543205896398113E-002
  -3.5007088160875457E-002   9.6179720603925545E-003   5.9180107192137905E-002
  -3.4013999100496177E-002   9.6187282246143965E-003   5.8806152482983202E-002
  -3.3020910040116855E-002   9.5271922542495835E-003   5.8665428998127517E-002
  -3.2027820979737567E-002   9.3433641492981223E-003   5.8757936737570890E-002
  -3.1034731919358259E-002   9.0672439097600477E-003   5.9083675701313260E-002
  -4.2063136276023601E-002   1.1772301428175300E-002   5.6298472067032666E-002
  -4.0856975092553691E-002   1.1659083678400736E-002   5.5866994597588343E-002
  -3.9650813909083808E-002   1.1516393430701283E-002   5.5628430150026165E-002
  -3.8444652725613926E-002   1.1344230685076995E-002   5.5582778724346089E-002
  -3.7238491542144016E-002   1.1142595441527792E-002   5.5730040320548221E-002
  -4.9095665733997103E-002   1.3926630795958010E-002   5.3271453209600070E-002
  -4.7716750629853526E-002   1.3699439132187073E-002   5.2845272616527932E-002
  -4.6337835525709921E-002   1.3505594607152999E-002   5.2571686842921003E-002
  -4.4958920421566316E-002   1.3345097220855787E-002   5.2450695888779368E-002
  -4.3580005317422725E-002   1.3217946973295508E-002   5.2482299754102957E-002
  -5.6104676534795991E-002   1.6080960163740804E-002   5.0099050619840213E-002
  -5.4593325712395627E-002   1.5739794585973424E-002   4.9740986539801996E-002
  -5.3081974889995213E-002   1.5494795783604694E-002   4.9495199076812144E-002
  -5.1570624067594828E-002   1.5345963756634719E-002   4.9361688230870622E-002
  -5.0059273245194449E-002   1.5293298505063280E-002   4.9340454001977507E-002
  -2.4968726449065497E-002   6.9918923779923037E-003   6.2543205896398113E-002
  -2.4270178758305339E-002   6.5789581134013952E-003   6.2607257617078554E-002
  -2.3571631067545170E-002   6.1964775619310908E-003   6.2814289953545183E-002
  -2.2873083376785008E-002   5.8444507235812793E-003   6.3164302905797984E-002
  -2.2174535686024843E-002   5.5228775983520717E-003   6.3657296473837000E-002
  -3.1034731919358259E-002   9.0672439097600477E-003   5.9083675701313260E-002
  -3.0181123237040464E-002   8.7422075073729510E-003   5.9034510406276774E-002
  -2.9327514554722666E-002   8.4116309138746181E-003   5.9152486478569397E-002
  -2.8473905872404871E-002   8.0755141292648616E-003   5.9437603918191077E-002
  -2.7620297190087073E-002   7.7338571535439105E-003   5.9889862725141851E-002
  -3.7238491542144016E-002   1.1142595441527792E-002   5.5730040320548221E-002
  -3.6205661116725706E-002   1.0905456901344576E-002   5.5531664105562956E-002
  -3.5172830691307409E-002   1.0626784265818090E-002   5.5524590009449606E-002
  -3.4140000265889106E-002   1.0306577534948444E-002   5.5708818032208160E-002
  -3.3107169840470796E-002   9.9448367087356104E-003   5.6084348173838727E-002
  -4.3580005317422725E-002   1.3217946973295508E-002   5.2482299754102957E-002
  -4.2343792397361066E-002   1.3068706295316194E-002   5.2098718714937022E-002
  -4.1107579477299365E-002   1.2841937617761617E-002   5.1930600546185819E-002
  -3.9871366557237671E-002   1.2537640940632110E-002   5.1977945247849440E-002
  -3.8635153637176005E-002   1.2155816263927352E-002   5.2240752819928002E-002
  -5.0059273245194449E-002   1.5293298505063280E-002   4.9340454001977507E-002
  -4.8595517078946507E-002   1.5231955689287813E-002   4.8735674234398924E-002
  -4.7131760912698571E-002   1.5057090969705117E-002   4.8370518088778042E-002
  -4.5668004746450636E-002   1.4768704346315671E-002   4.8244985565114848E-002
  -4.4204248580202707E-002   1.4366795819119094E-002   4.8359076663409328E-002
  -2.2174535686024843E-002   5.5228775983520717E-003   6.3657296473837000E-002
  -2.1188570092945742E-002   5.1958737396276544E-003   6.3348579832859575E-002
  -2.0202604499866626E-002   4.8275547007917141E-003   6.3242161911561096E-002
  -1.9216638906787511E-002   4.4179204818445700E-003   6.3338042709941533E-002
  -1.8230673313708409E-002   3.9669710827860971E-003   6.3636222228000860E-002
  -2.7620297190087073E-002   7.7338571535439105E-003   5.9889862725141851E-002
  -2.6430911410815165E-002   7.3795794632102174E-003   5.9510648195244042E-002
  -2.5241525631543270E-002   7.0056005347625822E-003   5.9335975318052930E-002
  -2.4052139852271361E-002   6.6119203682009943E-003   5.9365844093568432E-002
  -2.2862754072999467E-002   6.1985389635252353E-003   5.9600254521790685E-002
  -3.3107169840470796E-002   9.9448367087356104E-003   5.6084348173838727E-002
  -3.1712120941978388E-002   9.5632851867928637E-003   5.5656249697018059E-002
  -3.0317072043485972E-002   9.1836463687333947E-003   5.5434935805931632E-002
  -2.8922023144993581E-002   8.8059202545572521E-003   5.5420406500579639E-002
  -2.7526974246501142E-002   8.4301068442644289E-003   5.5612661780961983E-002
  -3.8635153637176005E-002   1.2155816263927352E-002   5.2240752819928002E-002
  -3.7032198686435390E-002   1.1746990910375413E-002   5.1785384338181611E-002
  -3.5429243735694789E-002   1.1361692202704318E-002   5.1539043375197227E-002
  -3.3826288784954181E-002   1.0999920140913427E-002   5.1501729930974918E-002
  -3.2223333834213580E-002   1.0661674725003623E-002   5.1673444005514740E-002
  -4.4204248580202707E-002   1.4366795819119094E-002   4.8359076663409328E-002
  -4.2391144644186196E-002   1.3930696633958101E-002   4.7898052118734602E-002
  -4.0578040708169678E-002   1.3539738036675061E-002   4.7648298025849717E-002
  -3.8764936772153161E-002   1.3193920027269875E-002   4.7609814384754506E-002
  -3.6951832836136650E-002   1.2893242605742816E-002   4.7782601195449081E-002
  -1.8230673313708409E-002   3.9669710827860971E-003   6.3636222228000860E-002
  -1.7632228793478179E-002   3.4490689287051124E-003   6.3452341568043913E-002
  -1.7033784273247969E-002   2.8385764446900025E-003   6.3563092765061335E-002
  -1.6435339753017746E-002   2.1354936307414786E-003   6.3968475819053308E-002
  -1.5836895232787529E-002   1.3398204868589336E-003   6.4668490730019623E-002
  -2.2862754072999467E-002   6.1985389635252353E-003   5.9600254521790685E-002
  -2.1997937054486660E-002   5.7515322193168461E-003   5.9285905203488337E-002
  -2.1133120035973861E-002   5.2569760341569099E-003   5.9209669024776618E-002
  -2.0268303017461093E-002   4.7148704080453956E-003   5.9371545985655527E-002
  -1.9403485998948287E-002   4.1252153409825354E-003   5.9771536086125177E-002
  -2.7526974246501142E-002   8.4301068442644289E-003   5.5612661780961983E-002
  -2.6452303447089674E-002   8.0539955099287464E-003   5.5212884693296646E-002
  -2.5377632647678176E-002   7.6753756236236995E-003   5.4994702027838120E-002
  -2.4302961848266684E-002   7.2942471853494773E-003   5.4958113784586274E-002
  -2.3228291048855210E-002   6.9106101951059984E-003   5.5103119963541350E-002
  -3.2223333834213580E-002   1.0661674725003623E-002   5.1673444005514740E-002
  -3.0995327971287255E-002   1.0356458800540563E-002   5.1233280037468770E-002
  -2.9767322108360927E-002   1.0093775213090437E-002   5.0918191774245510E-002
  -2.8539316245434605E-002   9.8736239626534758E-003   5.0728179215845319E-002
  -2.7311310382508273E-002   9.6960050492295863E-003   5.0663242362268018E-002
  -3.6951832836136650E-002   1.2893242605742816E-002   4.7782601195449081E-002
  -3.5627010627079361E-002   1.2658922091152353E-002   4.7347091236004613E-002
  -3.4302188418022087E-002   1.2512174802557396E-002   4.6980138263999216E-002
  -3.2977366208964798E-002   1.2453000739957448E-002   4.6681742279432725E-002
  -3.1652543999907509E-002   1.2481399903353008E-002   4.6451903282305473E-002
  -1.5836895232787529E-002   1.3398204868589336E-003   6.4668490730019623E-002
  -1.4231847539036974E-002  -1.9511813053779692E-004   6.3603068414988029E-002
  -1.2626799845286439E-002  -3.1159973650296130E-003   6.2784988032116434E-002
  -1.1021752151535877E-002  -7.4228172166160462E-003   6.2214249581404882E-002
  -9.4167044577853493E-003  -1.3115577685297364E-002   6.1890853062853246E-002
  -1.9403485998948287E-002   4.1252153409825354E-003   5.9771536086125177E-002
  -1.7562380286420837E-002   3.1899958920702520E-003   5.7421855604043115E-002
  -1.5721274573893371E-002   1.6111971204103015E-003   5.5296949227354897E-002
  -1.3880168861365928E-002  -6.1118097399644189E-004   5.3396816956060453E-002
  -1.2039063148838493E-002  -3.4771383911504916E-003   5.1721458790159658E-002
  -2.3228291048855210E-002   6.9106101951059984E-003   5.5103119963541350E-002
  -2.1173695144317089E-002   6.5751099146782177E-003   5.2211542608756489E-002
  -1.9119099239779010E-002   6.3383916058503895E-003   4.9522171532599212E-002
  -1.7064503335240924E-002   6.2004552686231919E-003   4.7035006735069329E-002
  -1.5009907430702858E-002   6.1613009029962695E-003   4.4750048216167015E-002
  -2.7311310382508273E-002   9.6960050492295863E-003   5.0663242362268018E-002
  -2.5065792112725822E-002   9.9602239372861140E-003   4.7972129429128055E-002
  -2.2820273842943356E-002   1.1065586091290446E-002   4.5460654947849198E-002
  -2.0574755573160887E-002   1.3012091511242978E-002   4.3128818918432087E-002
  -1.8329237303378432E-002   1.5799740197143086E-002   4.0976621340875360E-002
  -3.1652543999907509E-002   1.2481399903353008E-002   4.6451903282305473E-002
  -2.9238671191646956E-002   1.3345337959894232E-002   4.4703616065157770E-002
  -2.6824798383386382E-002   1.5792780576730406E-002   4.3112399473105217E-002
  -2.4410925575125784E-002   1.9823727753862350E-002   4.1678253506147553E-002
  -2.1997052766865255E-002   2.5438179491289903E-002   4.0401178164284790E-002
  -5.7145739607461304E-002   0.0000000000000000        3.4686282740310950E-002
  -5.7931597858628829E-002   2.0794316913960286E-003   3.8338515070713480E-002
  -5.8717456109796354E-002   4.1268866674518991E-003   4.2203418326001510E-002
  -5.9503314360963892E-002   6.1423649281676079E-003   4.6280992506175039E-002
  -6.0289172612131424E-002   8.1258664735431724E-003   5.0571237611234075E-002
  -6.5815241107553560E-002   0.0000000000000000        3.7203483532310691E-002
  -6.6617508761889349E-002   2.9099931463673458E-003   4.0824608944330529E-002
  -6.7419776416225138E-002   5.7620095156026684E-003   4.4200244625128352E-002
  -6.8222044070560914E-002   8.5560491077059566E-003   4.7330390574704152E-002
  -6.9024311724896717E-002   1.1292111922677234E-002   5.0215046793057917E-002
  -7.4241792451738647E-002   0.0000000000000000        4.0564245810177681E-002
  -7.5518630165350209E-002   3.7405546013386656E-003   4.4128264242022965E-002
  -7.6795467878961785E-002   7.3971323637534361E-003   4.6988632286538712E-002
  -7.8072305592573332E-002   1.0969733287244307E-002   4.9145349943724909E-002
  -7.9349143306184922E-002   1.4458357371811281E-002   5.0598417213581569E-002
  -8.2425393640016567E-002   0.0000000000000000        4.4768569573911912E-002
  -8.4634962069011430E-002   4.5711160563099845E-003   4.8249480963790781E-002
  -8.6844530498006306E-002   9.0322552119042037E-003   5.0568581310232570E-002
  -8.9054098927001168E-002   1.3383417466782656E-002   5.1725870613237308E-002
  -9.1263667355996031E-002   1.7624602820945325E-002   5.1721348872804974E-002
  -9.0366044672387305E-002   0.0000000000000000        4.9816454823513413E-002
  -9.3966504472872997E-002   5.4016775112813043E-003   5.3188259109633984E-002
  -9.7566964273358703E-002   1.0667378060054973E-002   5.4940091696209961E-002
 -0.10116742407384439        1.5797101646321001E-002   5.5071952583241358E-002
 -0.10476788387433009        2.0790848270079397E-002   5.3583841770728162E-002
  -6.0289172612131424E-002   8.1258664735431724E-003   5.0571237611234075E-002
  -6.0582262465820033E-002   9.9973956767141960E-003   5.1508790312660237E-002
  -6.0875352319508635E-002   1.1676956910816404E-002   5.2233737944431508E-002
  -6.1168442173197252E-002   1.3164550175849684E-002   5.2746080506547811E-002
  -6.1461532026885868E-002   1.4460175471814149E-002   5.3045817999009245E-002
  -6.9024311724896717E-002   1.1292111922677234E-002   5.0215046793057917E-002
  -6.9292395727599945E-002   1.3731178391708662E-002   4.9436526004693226E-002
  -6.9560479730303187E-002   1.5634228945992465E-002   4.8920621987954230E-002
  -6.9828563733006416E-002   1.7001263585528639E-002   4.8667334742840872E-002
  -7.0096647735709672E-002   1.7832282310317180E-002   4.8676664269353215E-002
  -7.9349143306184922E-002   1.4458357371811281E-002   5.0598417213581569E-002
  -7.9116999616622177E-002   1.7464961106703102E-002   4.7759774989747240E-002
  -7.8884855927059461E-002   1.9591500981168530E-002   4.5658971378819191E-002
  -7.8652712237496716E-002   2.0837976995207560E-002   4.4296006380797365E-002
  -7.8420568547934000E-002   2.1204389148820217E-002   4.3670879995681838E-002
  -9.1263667355996031E-002   1.7624602820945325E-002   5.1721348872804974E-002
  -9.0056074132886757E-002   2.1198743821697539E-002   4.6478537267822251E-002
  -8.8848480909777469E-002   2.3548773016344601E-002   4.2448786117026370E-002
  -8.7640887686668167E-002   2.4674690404886498E-002   3.9632095420417374E-002
  -8.6433294463558893E-002   2.4576495987323237E-002   3.8028465177995234E-002
 -0.10476788387433009        2.0790848270079397E-002   5.3583841770728162E-002
 -0.10210961927639366        2.4932526536692010E-002   4.5592812838918265E-002
  -9.9451354678457199E-002   2.7506045051520659E-002   3.9290066202575816E-002
  -9.6793090080520755E-002   2.8511403814565427E-002   3.4675601861700843E-002
  -9.4134825482584311E-002   2.7948602825826285E-002   3.1749419816293326E-002
  -6.1461532026885868E-002   1.4460175471814149E-002   5.3045817999009245E-002
  -6.0122318153863395E-002   1.5461205498632058E-002   5.1636578022375021E-002
  -5.8783104280840923E-002   1.6065012956225814E-002   5.0675703466968765E-002
  -5.7443890407818450E-002   1.6271597844595413E-002   5.0163194332790484E-002
  -5.6104676534795991E-002   1.6080960163740804E-002   5.0099050619840213E-002
  -7.0096647735709672E-002   1.7832282310317180E-002   4.8676664269353215E-002
  -6.8356259094653982E-002   1.8282418751371800E-002   4.7219942925151435E-002
  -6.6615870453598305E-002   1.8506806539706194E-002   4.6117205695788116E-002
  -6.4875481812542629E-002   1.8505445675320382E-002   4.5368452581263215E-002
  -6.3135093171486953E-002   1.8278336158214309E-002   4.4973683581576759E-002
  -7.8420568547934000E-002   2.1204389148820217E-002   4.3670879995681838E-002
  -7.6373386445234670E-002   2.1103632004111528E-002   4.2338151200416521E-002
  -7.4326204342535326E-002   2.0948600123186556E-002   4.1265025213600065E-002
  -7.2279022239835983E-002   2.0739293506045305E-002   4.0451502035232553E-002
  -7.0231840137136653E-002   2.0475712152687800E-002   3.9897581665313840E-002
  -8.6433294463558893E-002   2.4576495987323237E-002   3.8028465177995234E-002
  -8.4173700205605426E-002   2.3924845256851235E-002   3.6991202848170306E-002
  -8.1914105947651986E-002   2.3390393706666936E-002   3.6119162020404681E-002
  -7.9654511689698559E-002   2.2973141336770281E-002   3.5412342694698416E-002
  -7.7394917431745078E-002   2.2673088147161298E-002   3.4870744871051476E-002
  -9.4134825482584311E-002   2.7948602825826285E-002   3.1749419816293326E-002
  -9.1757200375766304E-002   2.6746058509591004E-002   3.1179097868412706E-002
  -8.9379575268948297E-002   2.5832187290147270E-002   3.0679616116201854E-002
  -8.7001950162130262E-002   2.5206989167495211E-002   3.0250974559660842E-002
  -8.4624325055312269E-002   2.4870464141634810E-002   2.9893173198789605E-002
  -5.6104676534795991E-002   1.6080960163740804E-002   5.0099050619840213E-002
  -5.4593325712395627E-002   1.5739794585973424E-002   4.9740986539801996E-002
  -5.3081974889995213E-002   1.5494795783604694E-002   4.9495199076812144E-002
  -5.1570624067594828E-002   1.5345963756634719E-002   4.9361688230870622E-002
  -5.0059273245194449E-002   1.5293298505063280E-002   4.9340454001977507E-002
  -6.3135093171486953E-002   1.8278336158214309E-002   4.4973683581576759E-002
  -6.1481723923036885E-002   1.7949157458839668E-002   4.4637919513372051E-002
  -5.9828354674586789E-002   1.7641589047648239E-002   4.4473915680218377E-002
  -5.8174985426136722E-002   1.7355630924639875E-002   4.4481672082115703E-002
  -5.6521616177686626E-002   1.7091283089814696E-002   4.4661188719064077E-002
  -7.0231840137136653E-002   2.0475712152687800E-002   3.9897581665313840E-002
  -6.8376968844634206E-002   2.0158520331705961E-002   3.9509561121727092E-002
  -6.6522097552131773E-002   1.9788382311691725E-002   3.9352784431194082E-002
  -6.4667226259629326E-002   1.9365298092645117E-002   3.9427251593714754E-002
  -6.2812354967126866E-002   1.8889267674566085E-002   3.9732962609289074E-002
  -7.7394917431745078E-002   2.2673088147161298E-002   3.4870744871051476E-002
  -7.5279060477187604E-002   2.2367883204572229E-002   3.4355911364867174E-002
  -7.3163203522630130E-002   2.1935175575735211E-002   3.4131805329739279E-002
  -7.1047346568072628E-002   2.1374965260650317E-002   3.4198426765667686E-002
  -6.8931489613515168E-002   2.0687252259317515E-002   3.4555775672652535E-002
  -8.4624325055312269E-002   2.4870464141634810E-002   2.9893173198789605E-002
  -8.2187998820697078E-002   2.4577246077438483E-002   2.9176970242792213E-002
  -7.9751672586081873E-002   2.4081968839778731E-002   2.8810978375853939E-002
  -7.7315346351466696E-002   2.3384632428655551E-002   2.8795197597974585E-002
  -7.4879020116851491E-002   2.2485236844068890E-002   2.9129627909154354E-002
  -5.0059273245194449E-002   1.5293298505063280E-002   4.9340454001977507E-002
  -4.8595517078946507E-002   1.5231955689287813E-002   4.8735674234398924E-002
  -4.7131760912698571E-002   1.5057090969705117E-002   4.8370518088778042E-002
  -4.5668004746450636E-002   1.4768704346315671E-002   4.8244985565114848E-002
  -4.4204248580202707E-002   1.4366795819119094E-002   4.8359076663409328E-002
  -5.6521616177686626E-002   1.7091283089814696E-002   4.4661188719064077E-002
  -5.4831972618757496E-002   1.6803531140061598E-002   4.4123306654337988E-002
  -5.3142329059828373E-002   1.6447360672269450E-002   4.3797575753016599E-002
  -5.1452685500899251E-002   1.6022771686438349E-002   4.3683996015099966E-002
  -4.9763041941970114E-002   1.5529764182568295E-002   4.3782567440588033E-002
  -6.2812354967126866E-002   1.8889267674566085E-002   3.9732962609289074E-002
  -6.0924296474069536E-002   1.8375106590835411E-002   3.9307081633183451E-002
  -5.9036237981012180E-002   1.7837630374833782E-002   3.9065879361929678E-002
  -5.7148179487954844E-002   1.7276839026561162E-002   3.9009355795527577E-002
  -5.5260120994897494E-002   1.6692732546017525E-002   3.9137510933977257E-002
  -6.8931489613515168E-002   2.0687252259317515E-002   3.4555775672652535E-002
  -6.6872488644882558E-002   1.9946682041609320E-002   3.4286999170935438E-002
  -6.4813487676249976E-002   1.9227900077398087E-002   3.4175428915517142E-002
  -6.2754486707617380E-002   1.8530906366683905E-002   3.4221064906397536E-002
  -6.0695485738984783E-002   1.7855700909466768E-002   3.4423907143576737E-002
  -7.4879020116851491E-002   2.2485236844068890E-002   2.9129627909154354E-002
  -7.2676549131196644E-002   2.1518257492383078E-002   2.9063059267593783E-002
  -7.0474078145541783E-002   2.0618169779962461E-002   2.9126224413779128E-002
  -6.8271607159886893E-002   1.9784973706806586E-002   2.9319123347710141E-002
  -6.6069136174232046E-002   1.9018669272915956E-002   2.9641756069386904E-002
  -4.4204248580202707E-002   1.4366795819119094E-002   4.8359076663409328E-002
  -4.2391144644186196E-002   1.3930696633958101E-002   4.7898052118734602E-002
  -4.0578040708169678E-002   1.3539738036675061E-002   4.7648298025849717E-002
  -3.8764936772153161E-002   1.3193920027269875E-002   4.7609814384754506E-002
  -3.6951832836136650E-002   1.2893242605742816E-002   4.7782601195449081E-002
  -4.9763041941970114E-002   1.5529764182568295E-002   4.3782567440588033E-002
  -4.7739900218283338E-002   1.5016502931170364E-002   4.3418550346064469E-002
  -4.5716758494596624E-002   1.4531152702755665E-002   4.3263338375091623E-002
  -4.3693616770909875E-002   1.4073713497324263E-002   4.3316931527669640E-002
  -4.1670475047223120E-002   1.3644185314875934E-002   4.3579329803798222E-002
  -5.5260120994897494E-002   1.6692732546017525E-002   3.9137510933977257E-002
  -5.3029406811779506E-002   1.6102309228382697E-002   3.8853271724710065E-002
  -5.0798692628661504E-002   1.5522567368836386E-002   3.8775372310754667E-002
  -4.8567978445543503E-002   1.4953506967378486E-002   3.8903812692110976E-002
  -4.6337264262425508E-002   1.4395128024009135E-002   3.9238592868779010E-002
  -6.0695485738984783E-002   1.7855700909466768E-002   3.4423907143576737E-002
  -5.8259664424674576E-002   1.7188115525595023E-002   3.4202216254671264E-002
  -5.5823843110364368E-002   1.6513982034917021E-002   3.4184399832838601E-002
  -5.3388021796054168E-002   1.5833300437432821E-002   3.4370457878078499E-002
  -5.0952200481744023E-002   1.5146070733142322E-002   3.4760390390391194E-002
  -6.6069136174232046E-002   1.9018669272915956E-002   2.9641756069386904E-002
  -6.3430673056968617E-002   1.8273921822807321E-002   2.9465383935948358E-002
  -6.0792209939705202E-002   1.7505396700997725E-002   2.9490420941343548E-002
  -5.8153746822441767E-002   1.6713093907487101E-002   2.9716867085572279E-002
  -5.5515283705178359E-002   1.5897013442275454E-002   3.0144722368634913E-002
  -3.6951832836136650E-002   1.2893242605742816E-002   4.7782601195449081E-002
  -3.5627010627079361E-002   1.2658922091152353E-002   4.7347091236004613E-002
  -3.4302188418022087E-002   1.2512174802557396E-002   4.6980138263999216E-002
  -3.2977366208964798E-002   1.2453000739957448E-002   4.6681742279432725E-002
  -3.1652543999907509E-002   1.2481399903353008E-002   4.6451903282305473E-002
  -4.1670475047223120E-002   1.3644185314875934E-002   4.3579329803798222E-002
  -4.0261353821433706E-002   1.3254542398440899E-002   4.3281131237050158E-002
  -3.8852232595644284E-002   1.2916758991048854E-002   4.3082973716327230E-002
  -3.7443111369854863E-002   1.2630835092699945E-002   4.2984857241629613E-002
  -3.6033990144065400E-002   1.2396770703394011E-002   4.2986781812956898E-002
  -4.6337264262425508E-002   1.4395128024009135E-002   3.9238592868779010E-002
  -4.4812359961317744E-002   1.3850162705729405E-002   3.9041991977774915E-002
  -4.3287455660210111E-002   1.3321343179540535E-002   3.8976916191382188E-002
  -4.1762551359102403E-002   1.2808669445442442E-002   3.9043365509600872E-002
  -4.0237647057994708E-002   1.2312141503435153E-002   3.9241339932430855E-002
  -5.0952200481744023E-002   1.5146070733142322E-002   3.4760390390391194E-002
  -4.9280029046731753E-002   1.4445783013017847E-002   3.4629673458178932E-002
  -4.7607857611719567E-002   1.3725927368032020E-002   3.4661965689164097E-002
  -4.5935686176707326E-002   1.2986503798184772E-002   3.4857267083347049E-002
  -4.4263514741695126E-002   1.2227512303476171E-002   3.5215577640727330E-002
  -5.5515283705178359E-002   1.5897013442275454E-002   3.0144722368634913E-002
  -5.3664361077675499E-002   1.5041403320306596E-002   3.0044175678262175E-002
  -5.1813438450172652E-002   1.4130511556523714E-002   3.0138122209673046E-002
  -4.9962515822669827E-002   1.3164338150927390E-002   3.0426561962867832E-002
  -4.8111593195166946E-002   1.2142883103517244E-002   3.0909494937846060E-002
  -3.1652543999907509E-002   1.2481399903353008E-002   4.6451903282305473E-002
  -2.9238671191646956E-002   1.3345337959894232E-002   4.4703616065157770E-002
  -2.6824798383386382E-002   1.5792780576730406E-002   4.3112399473105217E-002
  -2.4410925575125784E-002   1.9823727753862350E-002   4.1678253506147553E-002
  -2.1997052766865255E-002   2.5438179491289903E-002   4.0401178164284790E-002
  -3.6033990144065400E-002   1.2396770703394011E-002   4.2986781812956898E-002
  -3.3399339304090815E-002   1.2634143191633085E-002   4.2717250635828125E-002
  -3.0764688464116209E-002   1.3762529925918462E-002   4.2732204897032666E-002
  -2.8130037624141579E-002   1.5781930906250668E-002   4.3031644596570121E-002
  -2.5495386784166962E-002   1.8692346132629156E-002   4.3615569734440807E-002
  -4.0237647057994708E-002   1.2312141503435153E-002   3.9241339932430855E-002
  -3.7254803373067830E-002   1.1922948423372048E-002   3.9758074481072062E-002
  -3.4271959688140979E-002   1.1732279275106679E-002   4.0686709281284490E-002
  -3.1289116003214039E-002   1.1740134058638789E-002   4.2027244333068606E-002
  -2.8306272318287196E-002   1.1946512773968632E-002   4.3779679636423652E-002
  -4.4263514741695126E-002   1.2227512303476171E-002   3.5215577640727330E-002
  -4.0805063398577805E-002   1.1211753655111123E-002   3.5826087600889484E-002
  -3.7346612055460519E-002   9.7020286242946487E-003   3.6975912625861120E-002
  -3.3888160712343178E-002   7.6983372110268978E-003   3.8665052715642349E-002
  -3.0429709369225958E-002   5.2006794153080516E-003   4.0893507870233312E-002
  -4.8111593195166946E-002   1.2142883103517244E-002   3.0909494937846060E-002
  -4.4050119380621006E-002   1.0500558886850087E-002   3.0921289995280210E-002
  -3.9988645566074982E-002   7.6717779734827712E-003   3.1599814930762332E-002
  -3.5927171751528944E-002   3.6565403634150999E-003   3.2945069744292108E-002
  -3.1865697936983017E-002  -1.5451539433526396E-003   3.4957054435869495E-002
  -9.0366044672387305E-002   0.0000000000000000        4.9816454823513413E-002
  -9.3966504472872997E-002   5.4016775112813043E-003   5.3188259109633984E-002
  -9.7566964273358703E-002   1.0667378060054973E-002   5.4940091696209961E-002
 -0.10116742407384439        1.5797101646321001E-002   5.5071952583241358E-002
 -0.10476788387433009        2.0790848270079397E-002   5.3583841770728162E-002
 -0.10330068391477221        0.0000000000000000        5.8643439068961224E-002
 -0.10683938705152363        1.0885530560215875E-002   5.2099284723026745E-002
 -0.11037809018827505        1.9173517244142513E-002   4.7298615404105397E-002
 -0.11391679332502648        2.4863960051779911E-002   4.4241431112197180E-002
 -0.11745549646177790        2.7956858983128080E-002   4.2927731847302086E-002
 -0.12646624973309256        0.0000000000000000        7.4185059820234392E-002
 -0.12657973947955198        1.6369383609150440E-002   5.5263379928463287E-002
 -0.12669322922601145        2.7679656428230053E-002   4.1448641790263016E-002
 -0.12680671897247087        3.3930818457238811E-002   3.2740845405633587E-002
 -0.12692020871893031        3.5122869696176770E-002   2.9139990774575009E-002
 -0.15986274212734838        0.0000000000000000        9.6441317077332930E-002
 -0.15318756175695811        2.1853236658085012E-002   6.2680544725943588E-002
 -0.14651238138656786        3.6185795612317585E-002   3.7390170854682797E-002
 -0.13983720101617758        4.2997676862697717E-002   2.0570195463550545E-002
 -0.13316202064578736        4.2288880409225453E-002   1.2220618552546924E-002
 -0.20349016109753965        0.0000000000000000       0.12541221084025683     
 -0.18666285388374199        2.7337089707019573E-002   7.4350779115467669E-002
 -0.16983554666994430        4.4691934796405132E-002   3.5123202597364740E-002
 -0.15300823945614661        5.2064535268156631E-002   7.7294812859481088E-003
 -0.13618093224234895        4.9454891122274150E-002  -7.8303848187822322E-003
 -0.10476788387433009        2.0790848270079397E-002   5.3583841770728162E-002
 -0.10210961927639366        2.4932526536692010E-002   4.5592812838918265E-002
  -9.9451354678457199E-002   2.7506045051520659E-002   3.9290066202575816E-002
  -9.6793090080520755E-002   2.8511403814565427E-002   3.4675601861700843E-002
  -9.4134825482584311E-002   2.7948602825826285E-002   3.1749419816293326E-002
 -0.11745549646177790        2.7956858983128080E-002   4.2927731847302086E-002
 -0.11349759417032861        2.9427042576186512E-002   3.6662935367795892E-002
 -0.10953969187887934        3.0249339368954697E-002   3.1309131979847915E-002
 -0.10558178958743004        3.0423749361432651E-002   2.6866321683458195E-002
 -0.10162388729598076        2.9950272553620344E-002   2.3334504478626651E-002
 -0.12692020871893031        3.5122869696176770E-002   2.9139990774575009E-002
 -0.12243995793787743        3.3921558615680990E-002   2.5521699698866192E-002
 -0.11795970715682452        3.2992633686388689E-002   2.2037112510806384E-002
 -0.11347945637577166        3.2336094908299785E-002   1.8686229210395543E-002
 -0.10899920559471873        3.1951942281414361E-002   1.5469049797633680E-002
 -0.13316202064578736        4.2288880409225453E-002   1.2220618552546924E-002
 -0.12893671057904008        3.8416074655175533E-002   1.2169105832129150E-002
 -0.12471140051229282        3.5735928003822727E-002   1.1474007795451067E-002
 -0.12048609044554554        3.4248440455167062E-002   1.0135324442512951E-002
 -0.11626078037879824        3.3953612009208406E-002   8.1530557733144292E-003
 -0.13618093224234895        4.9454891122274150E-002  -7.8303848187822322E-003
 -0.13298785209381656        4.2910590694670014E-002  -3.3948462324152051E-003
 -0.12979477194528410        3.8479222321256674E-002  -3.8018216621776846E-004
 -0.12660169179675168        3.6160786002034158E-002   1.2136073798104108E-003
 -0.12340861164821929        3.5955281737002465E-002   1.3865224056688608E-003
  -9.4134825482584311E-002   2.7948602825826285E-002   3.1749419816293326E-002
  -9.1757200375766304E-002   2.6746058509591004E-002   3.1179097868412706E-002
  -8.9379575268948297E-002   2.5832187290147270E-002   3.0679616116201854E-002
  -8.7001950162130262E-002   2.5206989167495211E-002   3.0250974559660842E-002
  -8.4624325055312269E-002   2.4870464141634810E-002   2.9893173198789605E-002
 -0.10162388729598076        2.9950272553620344E-002   2.3334504478626651E-002
  -9.9159925648085859E-002   2.9179911840133608E-002   2.3064818433678112E-002
  -9.6695964000190968E-002   2.8463670115588213E-002   2.2896965275213597E-002
  -9.4232002352296104E-002   2.7801547379984231E-002   2.2830945003233023E-002
  -9.1768040704401199E-002   2.7193543633321590E-002   2.2866757617736433E-002
 -0.10899920559471873        3.1951942281414361E-002   1.5469049797633680E-002
 -0.10641791471493275        3.1613765170676211E-002   1.5265445547766997E-002
 -0.10383662383514680        3.1095152941029144E-002   1.5194666875198449E-002
 -0.10125533295536082        3.0396105592473251E-002   1.5256713779928058E-002
  -9.8674042075574828E-002   2.9516623125008336E-002   1.5451586261956012E-002
 -0.11626078037879824        3.3953612009208406E-002   8.1530557733144292E-003
 -0.11353116757630700        3.4047618501218846E-002   7.7809792106792027E-003
 -0.11080155477381573        3.3726635766470052E-002   7.5727209161565411E-003
 -0.10807194197132447        3.2990663804962198E-002   7.5282808897461570E-003
 -0.10534232916883322        3.1839702616695068E-002   7.6476591314481252E-003
 -0.12340861164821929        3.5955281737002465E-002   1.3865224056688608E-003
 -0.12049968423220853        3.6481471831761425E-002   6.1141942241493830E-004
 -0.11759075681619778        3.6358118591911084E-002   3.1127398087825442E-005
 -0.11468182940018704        3.5585222017451262E-002  -3.5435366731299302E-004
 -0.11177290198417628        3.4162782108381862E-002  -5.4502377378701228E-004
  -8.4624325055312269E-002   2.4870464141634810E-002   2.9893173198789605E-002
  -8.2187998820697078E-002   2.4577246077438483E-002   2.9176970242792213E-002
  -7.9751672586081873E-002   2.4081968839778731E-002   2.8810978375853939E-002
  -7.7315346351466696E-002   2.3384632428655551E-002   2.8795197597974585E-002
  -7.4879020116851491E-002   2.2485236844068890E-002   2.9129627909154354E-002
  -9.1768040704401199E-002   2.7193543633321590E-002   2.2866757617736433E-002
  -8.9032630838405291E-002   2.6580758322203850E-002   2.2204270836318450E-002
  -8.6297220972409355E-002   2.5904290893234452E-002   2.1789740228602986E-002
  -8.3561811106413378E-002   2.5164141346413454E-002   2.1623165794589828E-002
  -8.0826401240417511E-002   2.4360309681740855E-002   2.1704547534279181E-002
  -9.8674042075574828E-002   2.9516623125008336E-002   1.5451586261956012E-002
  -9.5741803493554795E-002   2.8584270566969210E-002   1.4981192710729310E-002
  -9.2809564911534748E-002   2.7726612946690168E-002   1.4656500417848351E-002
  -8.9877326329514687E-002   2.6943650264171410E-002   1.4477509383313256E-002
  -8.6945087747494654E-002   2.6235382519412709E-002   1.4444219607123943E-002
 -0.10534232916883322        3.1839702616695068E-002   7.6476591314481252E-003
 -0.10231551678614571        3.0587782811734490E-002   7.5077358660245131E-003
  -9.9288704403458161E-002   2.9548935000145889E-002   7.4112589435899878E-003
  -9.6261892020770595E-002   2.8723159181929147E-002   7.3582283641448025E-003
  -9.3235079638083057E-002   2.8110455357084535E-002   7.3486441276885694E-003
 -0.11177290198417628        3.4162782108381862E-002  -5.4502377378701228E-004
 -0.10875377071617792        3.2591295056499991E-002  -2.1609969779587401E-004
 -0.10573463944817951        3.1371257053601567E-002   5.4015805827881125E-005
 -0.10271550818018113        3.0502668099687300E-002   2.6532273708424273E-004
  -9.9696376912182749E-002   2.9985528194756472E-002   4.1782109597299222E-004
  -7.4879020116851491E-002   2.2485236844068890E-002   2.9129627909154354E-002
  -7.2676549131196644E-002   2.1518257492383078E-002   2.9063059267593783E-002
  -7.0474078145541783E-002   2.0618169779962461E-002   2.9126224413779128E-002
  -6.8271607159886893E-002   1.9784973706806586E-002   2.9319123347710141E-002
  -6.6069136174232046E-002   1.9018669272915956E-002   2.9641756069386904E-002
  -8.0826401240417511E-002   2.4360309681740855E-002   2.1704547534279181E-002
  -7.8482415009197254E-002   2.3527024768858276E-002   2.1514288597375461E-002
  -7.6138428777976982E-002   2.2698515477407338E-002   2.1477326363856526E-002
  -7.3794442546756753E-002   2.1874781807388242E-002   2.1593660833722553E-002
  -7.1450456315536454E-002   2.1055823758800829E-002   2.1863292006973678E-002
  -8.6945087747494654E-002   2.6235382519412709E-002   1.4444219607123943E-002
  -8.4436023355069889E-002   2.5535792045333329E-002   1.4068154357043595E-002
  -8.1926958962645124E-002   2.4778861174852375E-002   1.3868948725987311E-002
  -7.9417894570220374E-002   2.3964589907969812E-002   1.3846602713955075E-002
  -7.6908830177795595E-002   2.3092978244685647E-002   1.4001116320947027E-002
  -9.3235079638083057E-002   2.8110455357084535E-002   7.3486441276885694E-003
  -9.0537374168814619E-002   2.7544559321808455E-002   6.7246565465982188E-003
  -8.7839668699546153E-002   2.6859206872297359E-002   6.3010915001711458E-003
  -8.5141963230277659E-002   2.6054398008551315E-002   6.0779489884073565E-003
  -8.2444257761009165E-002   2.5130132730570465E-002   6.0552290113069576E-003
  -9.9696376912182749E-002   2.9985528194756472E-002   4.1782109597299222E-004
  -9.6786467450431402E-002   2.9553326598283636E-002  -5.1620483396053185E-004
  -9.3876557988680082E-002   2.8939552569742330E-002  -1.2262453135915286E-003
  -9.0966648526928748E-002   2.8144206109133010E-002  -1.7123003429203101E-003
  -8.8056739065177414E-002   2.7167287216455338E-002  -1.9743699219465505E-003
  -6.6069136174232046E-002   1.9018669272915956E-002   2.9641756069386904E-002
  -6.3430673056968617E-002   1.8273921822807321E-002   2.9465383935948358E-002
  -6.0792209939705202E-002   1.7505396700997725E-002   2.9490420941343548E-002
  -5.8153746822441767E-002   1.6713093907487101E-002   2.9716867085572279E-002
  -5.5515283705178359E-002   1.5897013442275454E-002   3.0144722368634913E-002
  -7.1450456315536454E-002   2.1055823758800829E-002   2.1863292006973678E-002
  -6.8610548343792377E-002   2.0247364610418678E-002   2.1606124121866493E-002
  -6.5770640372048231E-002   1.9455127641015493E-002   2.1550436806887077E-002
  -6.2930732400304126E-002   1.8679112850590988E-002   2.1696230062035353E-002
  -6.0090824428560008E-002   1.7919320239145220E-002   2.2043503887311439E-002
  -7.6908830177795595E-002   2.3092978244685647E-002   1.4001116320947027E-002
  -7.3867405920276671E-002   2.2220807398030021E-002   1.3703152534851007E-002
  -7.0825981662757817E-002   2.1404858581033033E-002   1.3606740750176809E-002
  -6.7784557405238879E-002   2.0645131793694760E-002   1.3711880966924453E-002
  -6.4743133147720011E-002   1.9941627036015153E-002   1.4018573185093794E-002
  -8.2444257761009165E-002   2.5130132730570465E-002   6.0552290113069576E-003
  -7.9201245786421529E-002   2.4194250185641343E-002   5.7564691749022283E-003
  -7.5958233811833809E-002   2.3354589521050770E-002   5.6593327712131068E-003
  -7.2715221837246130E-002   2.2611150736798563E-002   5.7638198002397676E-003
  -6.9472209862658410E-002   2.1963933832885169E-002   6.0699302619823745E-003
  -8.8056739065177414E-002   2.7167287216455338E-002  -1.9743699219465505E-003
  -8.4612067942226810E-002   2.6167692973252554E-002  -2.2339259579806092E-003
  -8.1167396819276316E-002   2.5304320461068397E-002  -2.2917871300045523E-003
  -7.7722725696325712E-002   2.4577169679902491E-002  -2.1479534380191567E-003
  -7.4278054573375218E-002   2.3986240629754851E-002  -1.8024248820234234E-003
  -5.5515283705178359E-002   1.5897013442275454E-002   3.0144722368634913E-002
  -5.3664361077675499E-002   1.5041403320306596E-002   3.0044175678262175E-002
  -5.1813438450172652E-002   1.4130511556523714E-002   3.0138122209673046E-002
  -4.9962515822669827E-002   1.3164338150927390E-002   3.0426561962867832E-002
  -4.8111593195166946E-002   1.2142883103517244E-002   3.0909494937846060E-002
  -6.0090824428560008E-002   1.7919320239145220E-002   2.2043503887311439E-002
  -5.8078335627047978E-002   1.7138332666793071E-002   2.1776315282082764E-002
  -5.6065846825535948E-002   1.6298732993648674E-002   2.1637765803088641E-002
  -5.4053358024023938E-002   1.5400521219712381E-002   2.1627855450329199E-002
  -5.2040869222511943E-002   1.4443697344983852E-002   2.1746584223804044E-002
  -6.4743133147720011E-002   1.9941627036015153E-002   1.4018573185093794E-002
  -6.2634932267747967E-002   1.9235262013279755E-002   1.3581412206030902E-002
  -6.0526731387775951E-002   1.8466954430773751E-002   1.3207036257653494E-002
  -5.8418530507803899E-002   1.7636704288497264E-002   1.2895445339961242E-002
  -5.6310329627831876E-002   1.6744511586450378E-002   1.2646639452954536E-002
  -6.9472209862658410E-002   2.1963933832885169E-002   6.0699302619823745E-003
  -6.7334150999775605E-002   2.1332191359766335E-002   5.4594664501065523E-003
  -6.5196092136892758E-002   2.0635175867898602E-002   4.8459335733674735E-003
  -6.3058033274009898E-002   1.9872887357282477E-002   4.2293316317643199E-003
  -6.0919974411127092E-002   1.9045325827917223E-002   3.6096606252976025E-003
  -7.4278054573375218E-002   2.3986240629754851E-002  -1.8024248820234234E-003
  -7.2175991823130670E-002   2.3429120706252970E-002  -2.5895219856900131E-003
  -7.0073929072886232E-002   2.2803397305023593E-002  -3.4455422497693400E-003
  -6.7971866322641683E-002   2.2109070426067336E-002  -4.3704856742617371E-003
  -6.5869803572397245E-002   2.1346140069383623E-002  -5.3643522591670934E-003
  -4.8111593195166946E-002   1.2142883103517244E-002   3.0909494937846060E-002
  -4.4050119380621006E-002   1.0500558886850087E-002   3.0921289995280210E-002
  -3.9988645566074982E-002   7.6717779734827712E-003   3.1599814930762332E-002
  -3.5927171751528944E-002   3.6565403634150999E-003   3.2945069744292108E-002
  -3.1865697936983017E-002  -1.5451539433526396E-003   3.4957054435869495E-002
  -5.2040869222511943E-002   1.4443697344983852E-002   2.1746584223804044E-002
  -4.7590160799721490E-002   1.3389942299139701E-002   2.0479846164390303E-002
  -4.3139452376930981E-002   1.2200937011856872E-002   1.9324847443417725E-002
  -3.8688743954140480E-002   1.0876681483134421E-002   1.8281588060886186E-002
  -3.4238035531350020E-002   9.4171757129731803E-003   1.7350068016796172E-002
  -5.6310329627831876E-002   1.6744511586450378E-002   1.2646639452954536E-002
  -5.2025377136403553E-002   1.6279325711429538E-002   1.1152574731954010E-002
  -4.7740424644975223E-002   1.6730096050230479E-002   9.2152588097879282E-003
  -4.3455472153546920E-002   1.8096822602853994E-002   6.8346916864564615E-003
  -3.9170519662118569E-002   2.0379505369299111E-002   4.0108733619596548E-003
  -6.0919974411127092E-002   1.9045325827917223E-002   3.6096606252976025E-003
  -5.7355768390667305E-002   1.9168709123719208E-002   2.9394756979711431E-003
  -5.3791562370207546E-002   2.1259255088604555E-002   1.2710490298732131E-003
  -5.0227356349747829E-002   2.5316963722573329E-002  -1.3956193789970966E-003
  -4.6663150329288014E-002   3.1341835025625042E-002  -5.0605295286391128E-003
  -6.5869803572397245E-002   2.1346140069383623E-002  -5.3643522591670934E-003
  -6.3581334562512692E-002   2.2058092536008989E-002  -4.1594509375580957E-003
  -6.1292865552628140E-002   2.5788414126978493E-002  -4.5077818963273342E-003
  -5.9004396542743642E-002   3.2537104842292462E-002  -6.4093451354752112E-003
  -5.6715927532859034E-002   4.2304164681950862E-002  -9.8641406550012967E-003
 </DataArray>
 </PointData>
 </Piece>
 <Piece  NumberOfPoints="          1600 "  NumberOfCells="         1024 ">
 <Points>
 <DataArray  type="Float64" NumberOfComponents="3"  format="ascii" >
  0.50000000000000000        0.0000000000000000        0.0000000000000000     
  0.53125000000000000        0.0000000000000000        0.0000000000000000     
  0.56250000000000000        0.0000000000000000        0.0000000000000000     
  0.59375000000000000        0.0000000000000000        0.0000000000000000     
  0.62500000000000000        0.0000000000000000        0.0000000000000000     
  0.50000000000000000        3.1250000000000000E-002   0.0000000000000000     
  0.53125000000000000        3.1250000000000000E-002   0.0000000000000000     
  0.56250000000000000        3.1250000000000000E-002   0.0000000000000000     
  0.59375000000000000        3.1250000000000000E-002   0.0000000000000000     
  0.62500000000000000        3.1250000000000000E-002   0.0000000000000000     
  0.50000000000000000        6.2500000000000000E-002   0.0000000000000000     
  0.53125000000000000        6.2500000000000000E-002   0.0000000000000000     
  0.56250000000000000        6.2500000000000000E-002   0.0000000000000000     
  0.59375000000000000        6.2500000000000000E-002   0.0000000000000000     
  0.62500000000000000        6.2500000000000000E-002   0.0000000000000000     
  0.50000000000000000        9.3750000000000000E-002   0.0000000000000000     
  0.53125000000000000        9.3750000000000000E-002   0.0000000000000000     
  0.56250000000000000        9.3750000000000000E-002   0.0000000000000000     
  0.59375000000000000        9.3750000000000000E-002   0.0000000000000000     
  0.62500000000000000        9.3750000000000000E-002   0.0000000000000000     
  0.50000000000000000       0.12500000000000000        0.0000000000000000     
  0.53125000000000000       0.12500000000000000        0.0000000000000000     
  0.56250000000000000       0.12500000000000000        0.0000000000000000     
  0.59375000000000000       0.12500000000000000        0.0000000000000000     
  0.62500000000000000       0.12500000000000000        0.0000000000000000     
  0.62500000000000000        0.0000000000000000        0.0000000000000000     
  0.65625000000000000        0.0000000000000000        0.0000000000000000     
  0.68750000000000000        0.0000000000000000        0.0000000000000000     
  0.71875000000000000        0.0000000000000000        0.0000000000000000     
  0.75000000000000000        0.0000000000000000        0.0000000000000000     
  0.62500000000000000        3.1250000000000000E-002   0.0000000000000000     
  0.65625000000000000        3.1250000000000000E-002   0.0000000000000000     
  0.68750000000000000        3.1250000000000000E-002   0.0000000000000000     
  0.71875000000000000        3.1250000000000000E-002   0.0000000000000000     
  0.75000000000000000        3.1250000000000000E-002   0.0000000000000000     
  0.62500000000000000        6.2500000000000000E-002   0.0000000000000000     
  0.65625000000000000        6.2500000000000000E-002   0.0000000000000000     
  0.68750000000000000        6.2500000000000000E-002   0.0000000000000000     
  0.71875000000000000        6.2500000000000000E-002   0.0000000000000000     
  0.75000000000000000        6.2500000000000000E-002   0.0000000000000000     
  0.62500000000000000        9.3750000000000000E-002   0.0000000000000000     
  0.65625000000000000        9.3750000000000000E-002   0.0000000000000000     
  0.68750000000000000        9.3750000000000000E-002   0.0000000000000000     
  0.71875000000000000        9.3750000000000000E-002   0.0000000000000000     
  0.75000000000000000        9.3750000000000000E-002   0.0000000000000000     
  0.62500000000000000       0.12500000000000000        0.0000000000000000     
  0.65625000000000000       0.12500000000000000        0.0000000000000000     
  0.68750000000000000       0.12500000000000000        0.0000000000000000     
  0.71875000000000000       0.12500000000000000        0.0000000000000000     
  0.75000000000000000       0.12500000000000000        0.0000000000000000     
  0.75000000000000000        0.0000000000000000        0.0000000000000000     
  0.78125000000000000        0.0000000000000000        0.0000000000000000     
  0.81250000000000000        0.0000000000000000        0.0000000000000000     
  0.84375000000000000        0.0000000000000000        0.0000000000000000     
  0.87500000000000000        0.0000000000000000        0.0000000000000000     
  0.75000000000000000        3.1250000000000000E-002   0.0000000000000000     
  0.78125000000000000        3.1250000000000000E-002   0.0000000000000000     
  0.81250000000000000        3.1250000000000000E-002   0.0000000000000000     
  0.84375000000000000        3.1250000000000000E-002   0.0000000000000000     
  0.87500000000000000        3.1250000000000000E-002   0.0000000000000000     
  0.75000000000000000        6.2500000000000000E-002   0.0000000000000000     
  0.78125000000000000        6.2500000000000000E-002   0.0000000000000000     
  0.81250000000000000        6.2500000000000000E-002   0.0000000000000000     
  0.84375000000000000        6.2500000000000000E-002   0.0000000000000000     
  0.87500000000000000        6.2500000000000000E-002   0.0000000000000000     
  0.75000000000000000        9.3750000000000000E-002   0.0000000000000000     
  0.78125000000000000        9.3750000000000000E-002   0.0000000000000000     
  0.81250000000000000        9.3750000000000000E-002   0.0000000000000000     
  0.84375000000000000        9.3750000000000000E-002   0.0000000000000000     
  0.87500000000000000        9.3750000000000000E-002   0.0000000000000000     
  0.75000000000000000       0.12500000000000000        0.0000000000000000     
  0.78125000000000000       0.12500000000000000        0.0000000000000000     
  0.81250000000000000       0.12500000000000000        0.0000000000000000     
  0.84375000000000000       0.12500000000000000        0.0000000000000000     
  0.87500000000000000       0.12500000000000000        0.0000000000000000     
  0.87500000000000000        0.0000000000000000        0.0000000000000000     
  0.90625000000000000        0.0000000000000000        0.0000000000000000     
  0.93750000000000000        0.0000000000000000        0.0000000000000000     
  0.96875000000000000        0.0000000000000000        0.0000000000000000     
   1.0000000000000000        0.0000000000000000        0.0000000000000000     
  0.87500000000000000        3.1250000000000000E-002   0.0000000000000000     
  0.90625000000000000        3.1250000000000000E-002   0.0000000000000000     
  0.93750000000000000        3.1250000000000000E-002   0.0000000000000000     
  0.96875000000000000        3.1250000000000000E-002   0.0000000000000000     
   1.0000000000000000        3.1250000000000000E-002   0.0000000000000000     
  0.87500000000000000        6.2500000000000000E-002   0.0000000000000000     
  0.90625000000000000        6.2500000000000000E-002   0.0000000000000000     
  0.93750000000000000        6.2500000000000000E-002   0.0000000000000000     
  0.96875000000000000        6.2500000000000000E-002   0.0000000000000000     
   1.0000000000000000        6.2500000000000000E-002   0.0000000000000000     
  0.87500000000000000        9.3750000000000000E-002   0.0000000000000000     
  0.90625000000000000        9.3750000000000000E-002   0.0000000000000000     
  0.93750000000000000        9.3750000000000000E-002   0.0000000000000000     
  0.96875000000000000        9.3750000000000000E-002   0.0000000000000000     
   1.0000000000000000        9.3750000000000000E-002   0.0000000000000000     
  0.87500000000000000       0.12500000000000000        0.0000000000000000     
  0.90625000000000000       0.12500000000000000        0.0000000000000000     
  0.93750000000000000       0.12500000000000000        0.0000000000000000     
  0.96875000000000000       0.12500000000000000        0.0000000000000000     
   1.0000000000000000       0.12500000000000000        0.0000000000000000     
   1.0000000000000000        0.0000000000000000        0.0000000000000000     
   1.0312500000000000        0.0000000000000000        0.0000000000000000     
   1.0625000000000000        0.0000000000000000        0.0000000000000000     
   1.0937500000000000        0.0000000000000000        0.0000000000000000     
   1.1250000000000000        0.0000000000000000        0.0000000000000000     
   1.0000000000000000        3.1250000000000000E-002   0.0000000000000000     
   1.0312500000000000        3.1250000000000000E-002   0.0000000000000000     
   1.0625000000000000        3.1250000000000000E-002   0.0000000000000000     
   1.0937500000000000        3.1250000000000000E-002   0.0000000000000000     
   1.1250000000000000        3.1250000000000000E-002   0.0000000000000000     
   1.0000000000000000        6.2500000000000000E-002   0.0000000000000000     
   1.0312500000000000        6.2500000000000000E-002   0.0000000000000000     
   1.0625000000000000        6.2500000000000000E-002   0.0000000000000000     
   1.0937500000000000        6.2500000000000000E-002   0.0000000000000000     
   1.1250000000000000        6.2500000000000000E-002   0.0000000000000000     
   1.0000000000000000        9.3750000000000000E-002   0.0000000000000000     
   1.0312500000000000        9.3750000000000000E-002   0.0000000000000000     
   1.0625000000000000        9.3750000000000000E-002   0.0000000000000000     
   1.0937500000000000        9.3750000000000000E-002   0.0000000000000000     
   1.1250000000000000        9.3750000000000000E-002   0.0000000000000000     
   1.0000000000000000       0.12500000000000000        0.0000000000000000     
   1.0312500000000000       0.12500000000000000        0.0000000000000000     
   1.0625000000000000       0.12500000000000000        0.0000000000000000     
   1.0937500000000000       0.12500000000000000        0.0000000000000000     
   1.1250000000000000       0.12500000000000000        0.0000000000000000     
   1.1250000000000000        0.0000000000000000        0.0000000000000000     
   1.1562500000000000        0.0000000000000000        0.0000000000000000     
   1.1875000000000000        0.0000000000000000        0.0000000000000000     
   1.2187500000000000        0.0000000000000000        0.0000000000000000     
   1.2500000000000000        0.0000000000000000        0.0000000000000000     
   1.1250000000000000        3.1250000000000000E-002   0.0000000000000000     
   1.1562500000000000        3.1250000000000000E-002   0.0000000000000000     
   1.1875000000000000        3.1250000000000000E-002   0.0000000000000000     
   1.2187500000000000        3.1250000000000000E-002   0.0000000000000000     
   1.2500000000000000        3.1250000000000000E-002   0.0000000000000000     
   1.1250000000000000        6.2500000000000000E-002   0.0000000000000000     
   1.1562500000000000        6.2500000000000000E-002   0.0000000000000000     
   1.1875000000000000        6.2500000000000000E-002   0.0000000000000000     
   1.2187500000000000        6.2500000000000000E-002   0.0000000000000000     
   1.2500000000000000        6.2500000000000000E-002   0.0000000000000000     
   1.1250000000000000        9.3750000000000000E-002   0.0000000000000000     
   1.1562500000000000        9.3750000000000000E-002   0.0000000000000000     
   1.1875000000000000        9.3750000000000000E-002   0.0000000000000000     
   1.2187500000000000        9.3750000000000000E-002   0.0000000000000000     
   1.2500000000000000        9.3750000000000000E-002   0.0000000000000000     
   1.1250000000000000       0.12500000000000000        0.0000000000000000     
   1.1562500000000000       0.12500000000000000        0.0000000000000000     
   1.1875000000000000       0.12500000000000000        0.0000000000000000     
   1.2187500000000000       0.12500000000000000        0.0000000000000000     
   1.2500000000000000       0.12500000000000000        0.0000000000000000     
   1.2500000000000000        0.0000000000000000        0.0000000000000000     
   1.2812500000000000        0.0000000000000000        0.0000000000000000     
   1.3125000000000000        0.0000000000000000        0.0000000000000000     
   1.3437500000000000        0.0000000000000000        0.0000000000000000     
   1.3750000000000000        0.0000000000000000        0.0000000000000000     
   1.2500000000000000        3.1250000000000000E-002   0.0000000000000000     
   1.2812500000000000        3.1250000000000000E-002   0.0000000000000000     
   1.3125000000000000        3.1250000000000000E-002   0.0000000000000000     
   1.3437500000000000        3.1250000000000000E-002   0.0000000000000000     
   1.3750000000000000        3.1250000000000000E-002   0.0000000000000000     
   1.2500000000000000        6.2500000000000000E-002   0.0000000000000000     
   1.2812500000000000        6.2500000000000000E-002   0.0000000000000000     
   1.3125000000000000        6.2500000000000000E-002   0.0000000000000000     
   1.3437500000000000        6.2500000000000000E-002   0.0000000000000000     
   1.3750000000000000        6.2500000000000000E-002   0.0000000000000000     
   1.2500000000000000        9.3750000000000000E-002   0.0000000000000000     
   1.2812500000000000        9.3750000000000000E-002   0.0000000000000000     
   1.3125000000000000        9.3750000000000000E-002   0.0000000000000000     
   1.3437500000000000        9.3750000000000000E-002   0.0000000000000000     
   1.3750000000000000        9.3750000000000000E-002   0.0000000000000000     
   1.2500000000000000       0.12500000000000000        0.0000000000000000     
   1.2812500000000000       0.12500000000000000        0.0000000000000000     
   1.3125000000000000       0.12500000000000000        0.0000000000000000     
   1.3437500000000000       0.12500000000000000        0.0000000000000000     
   1.3750000000000000       0.12500000000000000        0.0000000000000000     
   1.3750000000000000        0.0000000000000000        0.0000000000000000     
   1.4062500000000000        0.0000000000000000        0.0000000000000000     
   1.4375000000000000        0.0000000000000000        0.0000000000000000     
   1.4687500000000000        0.0000000000000000        0.0000000000000000     
   1.5000000000000000        0.0000000000000000        0.0000000000000000     
   1.3750000000000000        3.1250000000000000E-002   0.0000000000000000     
   1.4062500000000000        3.1250000000000000E-002   0.0000000000000000     
   1.4375000000000000        3.1250000000000000E-002   0.0000000000000000     
   1.4687500000000000        3.1250000000000000E-002   0.0000000000000000     
   1.5000000000000000        3.1250000000000000E-002   0.0000000000000000     
   1.3750000000000000        6.2500000000000000E-002   0.0000000000000000     
   1.4062500000000000        6.2500000000000000E-002   0.0000000000000000     
   1.4375000000000000        6.2500000000000000E-002   0.0000000000000000     
   1.4687500000000000        6.2500000000000000E-002   0.0000000000000000     
   1.5000000000000000        6.2500000000000000E-002   0.0000000000000000     
   1.3750000000000000        9.3750000000000000E-002   0.0000000000000000     
   1.4062500000000000        9.3750000000000000E-002   0.0000000000000000     
   1.4375000000000000        9.3750000000000000E-002   0.0000000000000000     
   1.4687500000000000        9.3750000000000000E-002   0.0000000000000000     
   1.5000000000000000        9.3750000000000000E-002   0.0000000000000000     
   1.3750000000000000       0.12500000000000000        0.0000000000000000     
   1.4062500000000000       0.12500000000000000        0.0000000000000000     
   1.4375000000000000       0.12500000000000000        0.0000000000000000     
   1.4687500000000000       0.12500000000000000        0.0000000000000000     
   1.5000000000000000       0.12500000000000000        0.0000000000000000     
  0.50000000000000000       0.12500000000000000        0.0000000000000000     
  0.53125000000000000       0.12500000000000000        0.0000000000000000     
  0.56250000000000000       0.12500000000000000        0.0000000000000000     
  0.59375000000000000       0.12500000000000000        0.0000000000000000     
  0.62500000000000000       0.12500000000000000        0.0000000000000000     
  0.50000000000000000       0.15625000000000000        0.0000000000000000     
  0.53125000000000000       0.15625000000000000        0.0000000000000000     
  0.56250000000000000       0.15625000000000000        0.0000000000000000     
  0.59375000000000000       0.15625000000000000        0.0000000000000000     
  0.62500000000000000       0.15625000000000000        0.0000000000000000     
  0.50000000000000000       0.18750000000000000        0.0000000000000000     
  0.53125000000000000       0.18750000000000000        0.0000000000000000     
  0.56250000000000000       0.18750000000000000        0.0000000000000000     
  0.59375000000000000       0.18750000000000000        0.0000000000000000     
  0.62500000000000000       0.18750000000000000        0.0000000000000000     
  0.50000000000000000       0.21875000000000000        0.0000000000000000     
  0.53125000000000000       0.21875000000000000        0.0000000000000000     
  0.56250000000000000       0.21875000000000000        0.0000000000000000     
  0.59375000000000000       0.21875000000000000        0.0000000000000000     
  0.62500000000000000       0.21875000000000000        0.0000000000000000     
  0.50000000000000000       0.25000000000000000        0.0000000000000000     
  0.53125000000000000       0.25000000000000000        0.0000000000000000     
  0.56250000000000000       0.25000000000000000        0.0000000000000000     
  0.59375000000000000       0.25000000000000000        0.0000000000000000     
  0.62500000000000000       0.25000000000000000        0.0000000000000000     
  0.62500000000000000       0.12500000000000000        0.0000000000000000     
  0.65625000000000000       0.12500000000000000        0.0000000000000000     
  0.68750000000000000       0.12500000000000000        0.0000000000000000     
  0.71875000000000000       0.12500000000000000        0.0000000000000000     
  0.75000000000000000       0.12500000000000000        0.0000000000000000     
  0.62500000000000000       0.15625000000000000        0.0000000000000000     
  0.65625000000000000       0.15625000000000000        0.0000000000000000     
  0.68750000000000000       0.15625000000000000        0.0000000000000000     
  0.71875000000000000       0.15625000000000000        0.0000000000000000     
  0.75000000000000000       0.15625000000000000        0.0000000000000000     
  0.62500000000000000       0.18750000000000000        0.0000000000000000     
  0.65625000000000000       0.18750000000000000        0.0000000000000000     
  0.68750000000000000       0.18750000000000000        0.0000000000000000     
  0.71875000000000000       0.18750000000000000        0.0000000000000000     
  0.75000000000000000       0.18750000000000000        0.0000000000000000     
  0.62500000000000000       0.21875000000000000        0.0000000000000000     
  0.65625000000000000       0.21875000000000000        0.0000000000000000     
  0.68750000000000000       0.21875000000000000        0.0000000000000000     
  0.71875000000000000       0.21875000000000000        0.0000000000000000     
  0.75000000000000000       0.21875000000000000        0.0000000000000000     
  0.62500000000000000       0.25000000000000000        0.0000000000000000     
  0.65625000000000000       0.25000000000000000        0.0000000000000000     
  0.68750000000000000       0.25000000000000000        0.0000000000000000     
  0.71875000000000000       0.25000000000000000        0.0000000000000000     
  0.75000000000000000       0.25000000000000000        0.0000000000000000     
  0.75000000000000000       0.12500000000000000        0.0000000000000000     
  0.78125000000000000       0.12500000000000000        0.0000000000000000     
  0.81250000000000000       0.12500000000000000        0.0000000000000000     
  0.84375000000000000       0.12500000000000000        0.0000000000000000     
  0.87500000000000000       0.12500000000000000        0.0000000000000000     
  0.75000000000000000       0.15625000000000000        0.0000000000000000     
  0.78125000000000000       0.15625000000000000        0.0000000000000000     
  0.81250000000000000       0.15625000000000000        0.0000000000000000     
  0.84375000000000000       0.15625000000000000        0.0000000000000000     
  0.87500000000000000       0.15625000000000000        0.0000000000000000     
  0.75000000000000000       0.18750000000000000        0.0000000000000000     
  0.78125000000000000       0.18750000000000000        0.0000000000000000     
  0.81250000000000000       0.18750000000000000        0.0000000000000000     
  0.84375000000000000       0.18750000000000000        0.0000000000000000     
  0.87500000000000000       0.18750000000000000        0.0000000000000000     
  0.75000000000000000       0.21875000000000000        0.0000000000000000     
  0.78125000000000000       0.21875000000000000        0.0000000000000000     
  0.81250000000000000       0.21875000000000000        0.0000000000000000     
  0.84375000000000000       0.21875000000000000        0.0000000000000000     
  0.87500000000000000       0.21875000000000000        0.0000000000000000     
  0.75000000000000000       0.25000000000000000        0.0000000000000000     
  0.78125000000000000       0.25000000000000000        0.0000000000000000     
  0.81250000000000000       0.25000000000000000        0.0000000000000000     
  0.84375000000000000       0.25000000000000000        0.0000000000000000     
  0.87500000000000000       0.25000000000000000        0.0000000000000000     
  0.87500000000000000       0.12500000000000000        0.0000000000000000     
  0.90625000000000000       0.12500000000000000        0.0000000000000000     
  0.93750000000000000       0.12500000000000000        0.0000000000000000     
  0.96875000000000000       0.12500000000000000        0.0000000000000000     
   1.0000000000000000       0.12500000000000000        0.0000000000000000     
  0.87500000000000000       0.15625000000000000        0.0000000000000000     
  0.90625000000000000       0.15625000000000000        0.0000000000000000     
  0.93750000000000000       0.15625000000000000        0.0000000000000000     
  0.96875000000000000       0.15625000000000000        0.0000000000000000     
   1.0000000000000000       0.15625000000000000        0.0000000000000000     
  0.87500000000000000       0.18750000000000000        0.0000000000000000     
  0.90625000000000000       0.18750000000000000        0.0000000000000000     
  0.93750000000000000       0.18750000000000000        0.0000000000000000     
  0.96875000000000000       0.18750000000000000        0.0000000000000000     
   1.0000000000000000       0.18750000000000000        0.0000000000000000     
  0.87500000000000000       0.21875000000000000        0.0000000000000000     
  0.90625000000000000       0.21875000000000000        0.0000000000000000     
  0.93750000000000000       0.21875000000000000        0.0000000000000000     
  0.96875000000000000       0.21875000000000000        0.0000000000000000     
   1.0000000000000000       0.21875000000000000        0.0000000000000000     
  0.87500000000000000       0.25000000000000000        0.0000000000000000     
  0.90625000000000000       0.25000000000000000        0.0000000000000000     
  0.93750000000000000       0.25000000000000000        0.0000000000000000     
  0.96875000000000000       0.25000000000000000        0.0000000000000000     
   1.0000000000000000       0.25000000000000000        0.0000000000000000     
   1.0000000000000000       0.12500000000000000        0.0000000000000000     
   1.0312500000000000       0.12500000000000000        0.0000000000000000     
   1.0625000000000000       0.12500000000000000        0.0000000000000000     
   1.0937500000000000       0.12500000000000000        0.0000000000000000     
   1.1250000000000000       0.12500000000000000        0.0000000000000000     
   1.0000000000000000       0.15625000000000000        0.0000000000000000     
   1.0312500000000000       0.15625000000000000        0.0000000000000000     
   1.0625000000000000       0.15625000000000000        0.0000000000000000     
   1.0937500000000000       0.15625000000000000        0.0000000000000000     
   1.1250000000000000       0.15625000000000000        0.0000000000000000     
   1.0000000000000000       0.18750000000000000        0.0000000000000000     
   1.0312500000000000       0.18750000000000000        0.0000000000000000     
   1.0625000000000000       0.18750000000000000        0.0000000000000000     
   1.0937500000000000       0.18750000000000000        0.0000000000000000     
   1.1250000000000000       0.18750000000000000        0.0000000000000000     
   1.0000000000000000       0.21875000000000000        0.0000000000000000     
   1.0312500000000000       0.21875000000000000        0.0000000000000000     
   1.0625000000000000       0.21875000000000000        0.0000000000000000     
   1.0937500000000000       0.21875000000000000        0.0000000000000000     
   1.1250000000000000       0.21875000000000000        0.0000000000000000     
   1.0000000000000000       0.25000000000000000        0.0000000000000000     
   1.0312500000000000       0.25000000000000000        0.0000000000000000     
   1.0625000000000000       0.25000000000000000        0.0000000000000000     
   1.0937500000000000       0.25000000000000000        0.0000000000000000     
   1.1250000000000000       0.25000000000000000        0.0000000000000000     
   1.1250000000000000       0.12500000000000000        0.0000000000000000     
   1.1562500000000000       0.12500000000000000        0.0000000000000000     
   1.1875000000000000       0.12500000000000000        0.0000000000000000     
   1.2187500000000000       0.12500000000000000        0.0000000000000000     
   1.2500000000000000       0.12500000000000000        0.0000000000000000     
   1.1250000000000000       0.15625000000000000        0.0000000000000000     
   1.1562500000000000       0.15625000000000000        0.0000000000000000     
   1.1875000000000000       0.15625000000000000        0.0000000000000000     
   1.2187500000000000       0.15625000000000000        0.0000000000000000     
   1.2500000000000000       0.15625000000000000        0.0000000000000000     
   1.1250000000000000       0.18750000000000000        0.0000000000000000     
   1.1562500000000000       0.18750000000000000        0.0000000000000000     
   1.1875000000000000       0.18750000000000000        0.0000000000000000     
   1.2187500000000000       0.18750000000000000        0.0000000000000000     
   1.2500000000000000       0.18750000000000000        0.0000000000000000     
   1.1250000000000000       0.21875000000000000        0.0000000000000000     
   1.1562500000000000       0.21875000000000000        0.0000000000000000     
   1.1875000000000000       0.21875000000000000        0.0000000000000000     
   1.2187500000000000       0.21875000000000000        0.0000000000000000     
   1.2500000000000000       0.21875000000000000        0.0000000000000000     
   1.1250000000000000       0.25000000000000000        0.0000000000000000     
   1.1562500000000000       0.25000000000000000        0.0000000000000000     
   1.1875000000000000       0.25000000000000000        0.0000000000000000     
   1.2187500000000000       0.25000000000000000        0.0000000000000000     
   1.2500000000000000       0.25000000000000000        0.0000000000000000     
   1.2500000000000000       0.12500000000000000        0.0000000000000000     
   1.2812500000000000       0.12500000000000000        0.0000000000000000     
   1.3125000000000000       0.12500000000000000        0.0000000000000000     
   1.3437500000000000       0.12500000000000000        0.0000000000000000     
   1.3750000000000000       0.12500000000000000        0.0000000000000000     
   1.2500000000000000       0.15625000000000000        0.0000000000000000     
   1.2812500000000000       0.15625000000000000        0.0000000000000000     
   1.3125000000000000       0.15625000000000000        0.0000000000000000     
   1.3437500000000000       0.15625000000000000        0.0000000000000000     
   1.3750000000000000       0.15625000000000000        0.0000000000000000     
   1.2500000000000000       0.18750000000000000        0.0000000000000000     
   1.2812500000000000       0.18750000000000000        0.0000000000000000     
   1.3125000000000000       0.18750000000000000        0.0000000000000000     
   1.3437500000000000       0.18750000000000000        0.0000000000000000     
   1.3750000000000000       0.18750000000000000        0.0000000000000000     
   1.2500000000000000       0.21875000000000000        0.0000000000000000     
   1.2812500000000000       0.21875000000000000        0.0000000000000000     
   1.3125000000000000       0.21875000000000000        0.0000000000000000     
   1.3437500000000000       0.21875000000000000        0.0000000000000000     
   1.3750000000000000       0.21875000000000000        0.0000000000000000     
   1.2500000000000000       0.25000000000000000        0.0000000000000000     
   1.2812500000000000       0.25000000000000000        0.0000000000000000     
   1.3125000000000000       0.25000000000000000        0.0000000000000000     
   1.3437500000000000       0.25000000000000000        0.0000000000000000     
   1.3750000000000000       0.25000000000000000        0.0000000000000000     
   1.3750000000000000       0.12500000000000000        0.0000000000000000     
   1.4062500000000000       0.12500000000000000        0.0000000000000000     
   1.4375000000000000       0.12500000000000000        0.0000000000000000     
   1.4687500000000000       0.12500000000000000        0.0000000000000000     
   1.5000000000000000       0.12500000000000000        0.0000000000000000     
   1.3750000000000000       0.15625000000000000        0.0000000000000000     
   1.4062500000000000       0.15625000000000000        0.0000000000000000     
   1.4375000000000000       0.15625000000000000        0.0000000000000000     
   1.4687500000000000       0.15625000000000000        0.0000000000000000     
   1.5000000000000000       0.15625000000000000        0.0000000000000000     
   1.3750000000000000       0.18750000000000000        0.0000000000000000     
   1.4062500000000000       0.18750000000000000        0.0000000000000000     
   1.4375000000000000       0.18750000000000000        0.0000000000000000     
   1.4687500000000000       0.18750000000000000        0.0000000000000000     
   1.5000000000000000       0.18750000000000000        0.0000000000000000     
   1.3750000000000000       0.21875000000000000        0.0000000000000000     
   1.4062500000000000       0.21875000000000000        0.0000000000000000     
   1.4375000000000000       0.21875000000000000        0.0000000000000000     
   1.4687500000000000       0.21875000000000000        0.0000000000000000     
   1.5000000000000000       0.21875000000000000        0.0000000000000000     
   1.3750000000000000       0.25000000000000000        0.0000000000000000     
   1.4062500000000000       0.25000000000000000        0.0000000000000000     
   1.4375000000000000       0.25000000000000000        0.0000000000000000     
   1.4687500000000000       0.25000000000000000        0.0000000000000000     
   1.5000000000000000       0.25000000000000000        0.0000000000000000     
  0.50000000000000000       0.25000000000000000        0.0000000000000000     
  0.53125000000000000       0.25000000000000000        0.0000000000000000     
  0.56250000000000000       0.25000000000000000        0.0000000000000000     
  0.59375000000000000       0.25000000000000000        0.0000000000000000     
  0.62500000000000000       0.25000000000000000        0.0000000000000000     
  0.50000000000000000       0.28125000000000000        0.0000000000000000     
  0.53125000000000000       0.28125000000000000        0.0000000000000000     
  0.56250000000000000       0.28125000000000000        0.0000000000000000     
  0.59375000000000000       0.28125000000000000        0.0000000000000000     
  0.62500000000000000       0.28125000000000000        0.0000000000000000     
  0.50000000000000000       0.31250000000000000        0.0000000000000000     
  0.53125000000000000       0.31250000000000000        0.0000000000000000     
  0.56250000000000000       0.31250000000000000        0.0000000000000000     
  0.59375000000000000       0.31250000000000000        0.0000000000000000     
  0.62500000000000000       0.31250000000000000        0.0000000000000000     
  0.50000000000000000       0.34375000000000000        0.0000000000000000     
  0.53125000000000000       0.34375000000000000        0.0000000000000000     
  0.56250000000000000       0.34375000000000000        0.0000000000000000     
  0.59375000000000000       0.34375000000000000        0.0000000000000000     
  0.62500000000000000       0.34375000000000000        0.0000000000000000     
  0.50000000000000000       0.37500000000000000        0.0000000000000000     
  0.53125000000000000       0.37500000000000000        0.0000000000000000     
  0.56250000000000000       0.37500000000000000        0.0000000000000000     
  0.59375000000000000       0.37500000000000000        0.0000000000000000     
  0.62500000000000000       0.37500000000000000        0.0000000000000000     
  0.62500000000000000       0.25000000000000000        0.0000000000000000     
  0.65625000000000000       0.25000000000000000        0.0000000000000000     
  0.68750000000000000       0.25000000000000000        0.0000000000000000     
  0.71875000000000000       0.25000000000000000        0.0000000000000000     
  0.75000000000000000       0.25000000000000000        0.0000000000000000     
  0.62500000000000000       0.28125000000000000        0.0000000000000000     
  0.65625000000000000       0.28125000000000000        0.0000000000000000     
  0.68750000000000000       0.28125000000000000        0.0000000000000000     
  0.71875000000000000       0.28125000000000000        0.0000000000000000     
  0.75000000000000000       0.28125000000000000        0.0000000000000000     
  0.62500000000000000       0.31250000000000000        0.0000000000000000     
  0.65625000000000000       0.31250000000000000        0.0000000000000000     
  0.68750000000000000       0.31250000000000000        0.0000000000000000     
  0.71875000000000000       0.31250000000000000        0.0000000000000000     
  0.75000000000000000       0.31250000000000000        0.0000000000000000     
  0.62500000000000000       0.34375000000000000        0.0000000000000000     
  0.65625000000000000       0.34375000000000000        0.0000000000000000     
  0.68750000000000000       0.34375000000000000        0.0000000000000000     
  0.71875000000000000       0.34375000000000000        0.0000000000000000     
  0.75000000000000000       0.34375000000000000        0.0000000000000000     
  0.62500000000000000       0.37500000000000000        0.0000000000000000     
  0.65625000000000000       0.37500000000000000        0.0000000000000000     
  0.68750000000000000       0.37500000000000000        0.0000000000000000     
  0.71875000000000000       0.37500000000000000        0.0000000000000000     
  0.75000000000000000       0.37500000000000000        0.0000000000000000     
  0.75000000000000000       0.25000000000000000        0.0000000000000000     
  0.78125000000000000       0.25000000000000000        0.0000000000000000     
  0.81250000000000000       0.25000000000000000        0.0000000000000000     
  0.84375000000000000       0.25000000000000000        0.0000000000000000     
  0.87500000000000000       0.25000000000000000        0.0000000000000000     
  0.75000000000000000       0.28125000000000000        0.0000000000000000     
  0.78125000000000000       0.28125000000000000        0.0000000000000000     
  0.81250000000000000       0.28125000000000000        0.0000000000000000     
  0.84375000000000000       0.28125000000000000        0.0000000000000000     
  0.87500000000000000       0.28125000000000000        0.0000000000000000     
  0.75000000000000000       0.31250000000000000        0.0000000000000000     
  0.78125000000000000       0.31250000000000000        0.0000000000000000     
  0.81250000000000000       0.31250000000000000        0.0000000000000000     
  0.84375000000000000       0.31250000000000000        0.0000000000000000     
  0.87500000000000000       0.31250000000000000        0.0000000000000000     
  0.75000000000000000       0.34375000000000000        0.0000000000000000     
  0.78125000000000000       0.34375000000000000        0.0000000000000000     
  0.81250000000000000       0.34375000000000000        0.0000000000000000     
  0.84375000000000000       0.34375000000000000        0.0000000000000000     
  0.87500000000000000       0.34375000000000000        0.0000000000000000     
  0.75000000000000000       0.37500000000000000        0.0000000000000000     
  0.78125000000000000       0.37500000000000000        0.0000000000000000     
  0.81250000000000000       0.37500000000000000        0.0000000000000000     
  0.84375000000000000       0.37500000000000000        0.0000000000000000     
  0.87500000000000000       0.37500000000000000        0.0000000000000000     
  0.87500000000000000       0.25000000000000000        0.0000000000000000     
  0.90625000000000000       0.25000000000000000        0.0000000000000000     
  0.93750000000000000       0.25000000000000000        0.0000000000000000     
  0.96875000000000000       0.25000000000000000        0.0000000000000000     
   1.0000000000000000       0.25000000000000000        0.0000000000000000     
  0.87500000000000000       0.28125000000000000        0.0000000000000000     
  0.90625000000000000       0.28125000000000000        0.0000000000000000     
  0.93750000000000000       0.28125000000000000        0.0000000000000000     
  0.96875000000000000       0.28125000000000000        0.0000000000000000     
   1.0000000000000000       0.28125000000000000        0.0000000000000000     
  0.87500000000000000       0.31250000000000000        0.0000000000000000     
  0.90625000000000000       0.31250000000000000        0.0000000000000000     
  0.93750000000000000       0.31250000000000000        0.0000000000000000     
  0.96875000000000000       0.31250000000000000        0.0000000000000000     
   1.0000000000000000       0.31250000000000000        0.0000000000000000     
  0.87500000000000000       0.34375000000000000        0.0000000000000000     
  0.90625000000000000       0.34375000000000000        0.0000000000000000     
  0.93750000000000000       0.34375000000000000        0.0000000000000000     
  0.96875000000000000       0.34375000000000000        0.0000000000000000     
   1.0000000000000000       0.34375000000000000        0.0000000000000000     
  0.87500000000000000       0.37500000000000000        0.0000000000000000     
  0.90625000000000000       0.37500000000000000        0.0000000000000000     
  0.93750000000000000       0.37500000000000000        0.0000000000000000     
  0.96875000000000000       0.37500000000000000        0.0000000000000000     
   1.0000000000000000       0.37500000000000000        0.0000000000000000     
   1.0000000000000000       0.25000000000000000        0.0000000000000000     
   1.0312500000000000       0.25000000000000000        0.0000000000000000     
   1.0625000000000000       0.25000000000000000        0.0000000000000000     
   1.0937500000000000       0.25000000000000000        0.0000000000000000     
   1.1250000000000000       0.25000000000000000        0.0000000000000000     
   1.0000000000000000       0.28125000000000000        0.0000000000000000     
   1.0312500000000000       0.28125000000000000        0.0000000000000000     
   1.0625000000000000       0.28125000000000000        0.0000000000000000     
   1.0937500000000000       0.28125000000000000        0.0000000000000000     
   1.1250000000000000       0.28125000000000000        0.0000000000000000     
   1.0000000000000000       0.31250000000000000        0.0000000000000000     
   1.0312500000000000       0.31250000000000000        0.0000000000000000     
   1.0625000000000000       0.31250000000000000        0.0000000000000000     
   1.0937500000000000       0.31250000000000000        0.0000000000000000     
   1.1250000000000000       0.31250000000000000        0.0000000000000000     
   1.0000000000000000       0.34375000000000000        0.0000000000000000     
   1.0312500000000000       0.34375000000000000        0.0000000000000000     
   1.0625000000000000       0.34375000000000000        0.0000000000000000     
   1.0937500000000000       0.34375000000000000        0.0000000000000000     
   1.1250000000000000       0.34375000000000000        0.0000000000000000     
   1.0000000000000000       0.37500000000000000        0.0000000000000000     
   1.0312500000000000       0.37500000000000000        0.0000000000000000     
   1.0625000000000000       0.37500000000000000        0.0000000000000000     
   1.0937500000000000       0.37500000000000000        0.0000000000000000     
   1.1250000000000000       0.37500000000000000        0.0000000000000000     
   1.1250000000000000       0.25000000000000000        0.0000000000000000     
   1.1562500000000000       0.25000000000000000        0.0000000000000000     
   1.1875000000000000       0.25000000000000000        0.0000000000000000     
   1.2187500000000000       0.25000000000000000        0.0000000000000000     
   1.2500000000000000       0.25000000000000000        0.0000000000000000     
   1.1250000000000000       0.28125000000000000        0.0000000000000000     
   1.1562500000000000       0.28125000000000000        0.0000000000000000     
   1.1875000000000000       0.28125000000000000        0.0000000000000000     
   1.2187500000000000       0.28125000000000000        0.0000000000000000     
   1.2500000000000000       0.28125000000000000        0.0000000000000000     
   1.1250000000000000       0.31250000000000000        0.0000000000000000     
   1.1562500000000000       0.31250000000000000        0.0000000000000000     
   1.1875000000000000       0.31250000000000000        0.0000000000000000     
   1.2187500000000000       0.31250000000000000        0.0000000000000000     
   1.2500000000000000       0.31250000000000000        0.0000000000000000     
   1.1250000000000000       0.34375000000000000        0.0000000000000000     
   1.1562500000000000       0.34375000000000000        0.0000000000000000     
   1.1875000000000000       0.34375000000000000        0.0000000000000000     
   1.2187500000000000       0.34375000000000000        0.0000000000000000     
   1.2500000000000000       0.34375000000000000        0.0000000000000000     
   1.1250000000000000       0.37500000000000000        0.0000000000000000     
   1.1562500000000000       0.37500000000000000        0.0000000000000000     
   1.1875000000000000       0.37500000000000000        0.0000000000000000     
   1.2187500000000000       0.37500000000000000        0.0000000000000000     
   1.2500000000000000       0.37500000000000000        0.0000000000000000     
   1.2500000000000000       0.25000000000000000        0.0000000000000000     
   1.2812500000000000       0.25000000000000000        0.0000000000000000     
   1.3125000000000000       0.25000000000000000        0.0000000000000000     
   1.3437500000000000       0.25000000000000000        0.0000000000000000     
   1.3750000000000000       0.25000000000000000        0.0000000000000000     
   1.2500000000000000       0.28125000000000000        0.0000000000000000     
   1.2812500000000000       0.28125000000000000        0.0000000000000000     
   1.3125000000000000       0.28125000000000000        0.0000000000000000     
   1.3437500000000000       0.28125000000000000        0.0000000000000000     
   1.3750000000000000       0.28125000000000000        0.0000000000000000     
   1.2500000000000000       0.31250000000000000        0.0000000000000000     
   1.2812500000000000       0.31250000000000000        0.0000000000000000     
   1.3125000000000000       0.31250000000000000        0.0000000000000000     
   1.3437500000000000       0.31250000000000000        0.0000000000000000     
   1.3750000000000000       0.31250000000000000        0.0000000000000000     
   1.2500000000000000       0.34375000000000000        0.0000000000000000     
   1.2812500000000000       0.34375000000000000        0.0000000000000000     
   1.3125000000000000       0.34375000000000000        0.0000000000000000     
   1.3437500000000000       0.34375000000000000        0.0000000000000000     
   1.3750000000000000       0.34375000000000000        0.0000000000000000     
   1.2500000000000000       0.37500000000000000        0.0000000000000000     
   1.2812500000000000       0.37500000000000000        0.0000000000000000     
   1.3125000000000000       0.37500000000000000        0.0000000000000000     
   1.3437500000000000       0.37500000000000000        0.0000000000000000     
   1.3750000000000000       0.37500000000000000        0.0000000000000000     
   1.3750000000000000       0.25000000000000000        0.0000000000000000     
   1.4062500000000000       0.25000000000000000        0.0000000000000000     
   1.4375000000000000       0.25000000000000000        0.0000000000000000     
   1.4687500000000000       0.25000000000000000        0.0000000000000000     
   1.5000000000000000       0.25000000000000000        0.0000000000000000     
   1.3750000000000000       0.28125000000000000        0.0000000000000000     
   1.4062500000000000       0.28125000000000000        0.0000000000000000     
   1.4375000000000000       0.28125000000000000        0.0000000000000000     
   1.4687500000000000       0.28125000000000000        0.0000000000000000     
   1.5000000000000000       0.28125000000000000        0.0000000000000000     
   1.3750000000000000       0.31250000000000000        0.0000000000000000     
   1.4062500000000000       0.31250000000000000        0.0000000000000000     
   1.4375000000000000       0.31250000000000000        0.0000000000000000     
   1.4687500000000000       0.31250000000000000        0.0000000000000000     
   1.5000000000000000       0.31250000000000000        0.0000000000000000     
   1.3750000000000000       0.34375000000000000        0.0000000000000000     
   1.4062500000000000       0.34375000000000000        0.0000000000000000     
   1.4375000000000000       0.34375000000000000        0.0000000000000000     
   1.4687500000000000       0.34375000000000000        0.0000000000000000     
   1.5000000000000000       0.34375000000000000        0.0000000000000000     
   1.3750000000000000       0.37500000000000000        0.0000000000000000     
   1.4062500000000000       0.37500000000000000        0.0000000000000000     
   1.4375000000000000       0.37500000000000000        0.0000000000000000     
   1.4687500000000000       0.37500000000000000        0.0000000000000000     
   1.5000000000000000       0.37500000000000000        0.0000000000000000     
  0.50000000000000000       0.37500000000000000        0.0000000000000000     
  0.53125000000000000       0.37500000000000000        0.0000000000000000     
  0.56250000000000000       0.37500000000000000        0.0000000000000000     
  0.59375000000000000       0.37500000000000000        0.0000000000000000     
  0.62500000000000000       0.37500000000000000        0.0000000000000000     
  0.50000000000000000       0.40625000000000000        0.0000000000000000     
  0.53125000000000000       0.40625000000000000        0.0000000000000000     
  0.56250000000000000       0.40625000000000000        0.0000000000000000     
  0.59375000000000000       0.40625000000000000        0.0000000000000000     
  0.62500000000000000       0.40625000000000000        0.0000000000000000     
  0.50000000000000000       0.43750000000000000        0.0000000000000000     
  0.53125000000000000       0.43750000000000000        0.0000000000000000     
  0.56250000000000000       0.43750000000000000        0.0000000000000000     
  0.59375000000000000       0.43750000000000000        0.0000000000000000     
  0.62500000000000000       0.43750000000000000        0.0000000000000000     
  0.50000000000000000       0.46875000000000000        0.0000000000000000     
  0.53125000000000000       0.46875000000000000        0.0000000000000000     
  0.56250000000000000       0.46875000000000000        0.0000000000000000     
  0.59375000000000000       0.46875000000000000        0.0000000000000000     
  0.62500000000000000       0.46875000000000000        0.0000000000000000     
  0.50000000000000000       0.50000000000000000        0.0000000000000000     
  0.53125000000000000       0.50000000000000000        0.0000000000000000     
  0.56250000000000000       0.50000000000000000        0.0000000000000000     
  0.59375000000000000       0.50000000000000000        0.0000000000000000     
  0.62500000000000000       0.50000000000000000        0.0000000000000000     
  0.62500000000000000       0.37500000000000000        0.0000000000000000     
  0.65625000000000000       0.37500000000000000        0.0000000000000000     
  0.68750000000000000       0.37500000000000000        0.0000000000000000     
  0.71875000000000000       0.37500000000000000        0.0000000000000000     
  0.75000000000000000       0.37500000000000000        0.0000000000000000     
  0.62500000000000000       0.40625000000000000        0.0000000000000000     
  0.65625000000000000       0.40625000000000000        0.0000000000000000     
  0.68750000000000000       0.40625000000000000        0.0000000000000000     
  0.71875000000000000       0.40625000000000000        0.0000000000000000     
  0.75000000000000000       0.40625000000000000        0.0000000000000000     
  0.62500000000000000       0.43750000000000000        0.0000000000000000     
  0.65625000000000000       0.43750000000000000        0.0000000000000000     
  0.68750000000000000       0.43750000000000000        0.0000000000000000     
  0.71875000000000000       0.43750000000000000        0.0000000000000000     
  0.75000000000000000       0.43750000000000000        0.0000000000000000     
  0.62500000000000000       0.46875000000000000        0.0000000000000000     
  0.65625000000000000       0.46875000000000000        0.0000000000000000     
  0.68750000000000000       0.46875000000000000        0.0000000000000000     
  0.71875000000000000       0.46875000000000000        0.0000000000000000     
  0.75000000000000000       0.46875000000000000        0.0000000000000000     
  0.62500000000000000       0.50000000000000000        0.0000000000000000     
  0.65625000000000000       0.50000000000000000        0.0000000000000000     
  0.68750000000000000       0.50000000000000000        0.0000000000000000     
  0.71875000000000000       0.50000000000000000        0.0000000000000000     
  0.75000000000000000       0.50000000000000000        0.0000000000000000     
  0.75000000000000000       0.37500000000000000        0.0000000000000000     
  0.78125000000000000       0.37500000000000000        0.0000000000000000     
  0.81250000000000000       0.37500000000000000        0.0000000000000000     
  0.84375000000000000       0.37500000000000000        0.0000000000000000     
  0.87500000000000000       0.37500000000000000        0.0000000000000000     
  0.75000000000000000       0.40625000000000000        0.0000000000000000     
  0.78125000000000000       0.40625000000000000        0.0000000000000000     
  0.81250000000000000       0.40625000000000000        0.0000000000000000     
  0.84375000000000000       0.40625000000000000        0.0000000000000000     
  0.87500000000000000       0.40625000000000000        0.0000000000000000     
  0.75000000000000000       0.43750000000000000        0.0000000000000000     
  0.78125000000000000       0.43750000000000000        0.0000000000000000     
  0.81250000000000000       0.43750000000000000        0.0000000000000000     
  0.84375000000000000       0.43750000000000000        0.0000000000000000     
  0.87500000000000000       0.43750000000000000        0.0000000000000000     
  0.75000000000000000       0.46875000000000000        0.0000000000000000     
  0.78125000000000000       0.46875000000000000        0.0000000000000000     
  0.81250000000000000       0.46875000000000000        0.0000000000000000     
  0.84375000000000000       0.46875000000000000        0.0000000000000000     
  0.87500000000000000       0.46875000000000000        0.0000000000000000     
  0.75000000000000000       0.50000000000000000        0.0000000000000000     
  0.78125000000000000       0.50000000000000000        0.0000000000000000     
  0.81250000000000000       0.50000000000000000        0.0000000000000000     
  0.84375000000000000       0.50000000000000000        0.0000000000000000     
  0.87500000000000000       0.50000000000000000        0.0000000000000000     
  0.87500000000000000       0.37500000000000000        0.0000000000000000     
  0.90625000000000000       0.37500000000000000        0.0000000000000000     
  0.93750000000000000       0.37500000000000000        0.0000000000000000     
  0.96875000000000000       0.37500000000000000        0.0000000000000000     
   1.0000000000000000       0.37500000000000000        0.0000000000000000     
  0.87500000000000000       0.40625000000000000        0.0000000000000000     
  0.90625000000000000       0.40625000000000000        0.0000000000000000     
  0.93750000000000000       0.40625000000000000        0.0000000000000000     
  0.96875000000000000       0.40625000000000000        0.0000000000000000     
   1.0000000000000000       0.40625000000000000        0.0000000000000000     
  0.87500000000000000       0.43750000000000000        0.0000000000000000     
  0.90625000000000000       0.43750000000000000        0.0000000000000000     
  0.93750000000000000       0.43750000000000000        0.0000000000000000     
  0.96875000000000000       0.43750000000000000        0.0000000000000000     
   1.0000000000000000       0.43750000000000000        0.0000000000000000     
  0.87500000000000000       0.46875000000000000        0.0000000000000000     
  0.90625000000000000       0.46875000000000000        0.0000000000000000     
  0.93750000000000000       0.46875000000000000        0.0000000000000000     
  0.96875000000000000       0.46875000000000000        0.0000000000000000     
   1.0000000000000000       0.46875000000000000        0.0000000000000000     
  0.87500000000000000       0.50000000000000000        0.0000000000000000     
  0.90625000000000000       0.50000000000000000        0.0000000000000000     
  0.93750000000000000       0.50000000000000000        0.0000000000000000     
  0.96875000000000000       0.50000000000000000        0.0000000000000000     
   1.0000000000000000       0.50000000000000000        0.0000000000000000     
   1.0000000000000000       0.37500000000000000        0.0000000000000000     
   1.0312500000000000       0.37500000000000000        0.0000000000000000     
   1.0625000000000000       0.37500000000000000        0.0000000000000000     
   1.0937500000000000       0.37500000000000000        0.0000000000000000     
   1.1250000000000000       0.37500000000000000        0.0000000000000000     
   1.0000000000000000       0.40625000000000000        0.0000000000000000     
   1.0312500000000000       0.40625000000000000        0.0000000000000000     
   1.0625000000000000       0.40625000000000000        0.0000000000000000     
   1.0937500000000000       0.40625000000000000        0.0000000000000000     
   1.1250000000000000       0.40625000000000000        0.0000000000000000     
   1.0000000000000000       0.43750000000000000        0.0000000000000000     
   1.0312500000000000       0.43750000000000000        0.0000000000000000     
   1.0625000000000000       0.43750000000000000        0.0000000000000000     
   1.0937500000000000       0.43750000000000000        0.0000000000000000     
   1.1250000000000000       0.43750000000000000        0.0000000000000000     
   1.0000000000000000       0.46875000000000000        0.0000000000000000     
   1.0312500000000000       0.46875000000000000        0.0000000000000000     
   1.0625000000000000       0.46875000000000000        0.0000000000000000     
   1.0937500000000000       0.46875000000000000        0.0000000000000000     
   1.1250000000000000       0.46875000000000000        0.0000000000000000     
   1.0000000000000000       0.50000000000000000        0.0000000000000000     
   1.0312500000000000       0.50000000000000000        0.0000000000000000     
   1.0625000000000000       0.50000000000000000        0.0000000000000000     
   1.0937500000000000       0.50000000000000000        0.0000000000000000     
   1.1250000000000000       0.50000000000000000        0.0000000000000000     
   1.1250000000000000       0.37500000000000000        0.0000000000000000     
   1.1562500000000000       0.37500000000000000        0.0000000000000000     
   1.1875000000000000       0.37500000000000000        0.0000000000000000     
   1.2187500000000000       0.37500000000000000        0.0000000000000000     
   1.2500000000000000       0.37500000000000000        0.0000000000000000     
   1.1250000000000000       0.40625000000000000        0.0000000000000000     
   1.1562500000000000       0.40625000000000000        0.0000000000000000     
   1.1875000000000000       0.40625000000000000        0.0000000000000000     
   1.2187500000000000       0.40625000000000000        0.0000000000000000     
   1.2500000000000000       0.40625000000000000        0.0000000000000000     
   1.1250000000000000       0.43750000000000000        0.0000000000000000     
   1.1562500000000000       0.43750000000000000        0.0000000000000000     
   1.1875000000000000       0.43750000000000000        0.0000000000000000     
   1.2187500000000000       0.43750000000000000        0.0000000000000000     
   1.2500000000000000       0.43750000000000000        0.0000000000000000     
   1.1250000000000000       0.46875000000000000        0.0000000000000000     
   1.1562500000000000       0.46875000000000000        0.0000000000000000     
   1.1875000000000000       0.46875000000000000        0.0000000000000000     
   1.2187500000000000       0.46875000000000000        0.0000000000000000     
   1.2500000000000000       0.46875000000000000        0.0000000000000000     
   1.1250000000000000       0.50000000000000000        0.0000000000000000     
   1.1562500000000000       0.50000000000000000        0.0000000000000000     
   1.1875000000000000       0.50000000000000000        0.0000000000000000     
   1.2187500000000000       0.50000000000000000        0.0000000000000000     
   1.2500000000000000       0.50000000000000000        0.0000000000000000     
   1.2500000000000000       0.37500000000000000        0.0000000000000000     
   1.2812500000000000       0.37500000000000000        0.0000000000000000     
   1.3125000000000000       0.37500000000000000        0.0000000000000000     
   1.3437500000000000       0.37500000000000000        0.0000000000000000     
   1.3750000000000000       0.37500000000000000        0.0000000000000000     
   1.2500000000000000       0.40625000000000000        0.0000000000000000     
   1.2812500000000000       0.40625000000000000        0.0000000000000000     
   1.3125000000000000       0.40625000000000000        0.0000000000000000     
   1.3437500000000000       0.40625000000000000        0.0000000000000000     
   1.3750000000000000       0.40625000000000000        0.0000000000000000     
   1.2500000000000000       0.43750000000000000        0.0000000000000000     
   1.2812500000000000       0.43750000000000000        0.0000000000000000     
   1.3125000000000000       0.43750000000000000        0.0000000000000000     
   1.3437500000000000       0.43750000000000000        0.0000000000000000     
   1.3750000000000000       0.43750000000000000        0.0000000000000000     
   1.2500000000000000       0.46875000000000000        0.0000000000000000     
   1.2812500000000000       0.46875000000000000        0.0000000000000000     
   1.3125000000000000       0.46875000000000000        0.0000000000000000     
   1.3437500000000000       0.46875000000000000        0.0000000000000000     
   1.3750000000000000       0.46875000000000000        0.0000000000000000     
   1.2500000000000000       0.50000000000000000        0.0000000000000000     
   1.2812500000000000       0.50000000000000000        0.0000000000000000     
   1.3125000000000000       0.50000000000000000        0.0000000000000000     
   1.3437500000000000       0.50000000000000000        0.0000000000000000     
   1.3750000000000000       0.50000000000000000        0.0000000000000000     
   1.3750000000000000       0.37500000000000000        0.0000000000000000     
   1.4062500000000000       0.37500000000000000        0.0000000000000000     
   1.4375000000000000       0.37500000000000000        0.0000000000000000     
   1.4687500000000000       0.37500000000000000        0.0000000000000000     
   1.5000000000000000       0.37500000000000000        0.0000000000000000     
   1.3750000000000000       0.40625000000000000        0.0000000000000000     
   1.4062500000000000       0.40625000000000000        0.0000000000000000     
   1.4375000000000000       0.40625000000000000        0.0000000000000000     
   1.4687500000000000       0.40625000000000000        0.0000000000000000     
   1.5000000000000000       0.40625000000000000        0.0000000000000000     
   1.3750000000000000       0.43750000000000000        0.0000000000000000     
   1.4062500000000000       0.43750000000000000        0.0000000000000000     
   1.4375000000000000       0.43750000000000000        0.0000000000000000     
   1.4687500000000000       0.43750000000000000        0.0000000000000000     
   1.5000000000000000       0.43750000000000000        0.0000000000000000     
   1.3750000000000000       0.46875000000000000        0.0000000000000000     
   1.4062500000000000       0.46875000000000000        0.0000000000000000     
   1.4375000000000000       0.46875000000000000        0.0000000000000000     
   1.4687500000000000       0.46875000000000000        0.0000000000000000     
   1.5000000000000000       0.46875000000000000        0.0000000000000000     
   1.3750000000000000       0.50000000000000000        0.0000000000000000     
   1.4062500000000000       0.50000000000000000        0.0000000000000000     
   1.4375000000000000       0.50000000000000000        0.0000000000000000     
   1.4687500000000000       0.50000000000000000        0.0000000000000000     
   1.5000000000000000       0.50000000000000000        0.0000000000000000     
  0.50000000000000000       0.50000000000000000        0.0000000000000000     
  0.53125000000000000       0.50000000000000000        0.0000000000000000     
  0.56250000000000000       0.50000000000000000        0.0000000000000000     
  0.59375000000000000       0.50000000000000000        0.0000000000000000     
  0.62500000000000000       0.50000000000000000        0.0000000000000000     
  0.50000000000000000       0.53125000000000000        0.0000000000000000     
  0.53125000000000000       0.53125000000000000        0.0000000000000000     
  0.56250000000000000       0.53125000000000000        0.0000000000000000     
  0.59375000000000000       0.53125000000000000        0.0000000000000000     
  0.62500000000000000       0.53125000000000000        0.0000000000000000     
  0.50000000000000000       0.56250000000000000        0.0000000000000000     
  0.53125000000000000       0.56250000000000000        0.0000000000000000     
  0.56250000000000000       0.56250000000000000        0.0000000000000000     
  0.59375000000000000       0.56250000000000000        0.0000000000000000     
  0.62500000000000000       0.56250000000000000        0.0000000000000000     
  0.50000000000000000       0.59375000000000000        0.0000000000000000     
  0.53125000000000000       0.59375000000000000        0.0000000000000000     
  0.56250000000000000       0.59375000000000000        0.0000000000000000     
  0.59375000000000000       0.59375000000000000        0.0000000000000000     
  0.62500000000000000       0.59375000000000000        0.0000000000000000     
  0.50000000000000000       0.62500000000000000        0.0000000000000000     
  0.53125000000000000       0.62500000000000000        0.0000000000000000     
  0.56250000000000000       0.62500000000000000        0.0000000000000000     
  0.59375000000000000       0.62500000000000000        0.0000000000000000     
  0.62500000000000000       0.62500000000000000        0.0000000000000000     
  0.62500000000000000       0.50000000000000000        0.0000000000000000     
  0.65625000000000000       0.50000000000000000        0.0000000000000000     
  0.68750000000000000       0.50000000000000000        0.0000000000000000     
  0.71875000000000000       0.50000000000000000        0.0000000000000000     
  0.75000000000000000       0.50000000000000000        0.0000000000000000     
  0.62500000000000000       0.53125000000000000        0.0000000000000000     
  0.65625000000000000       0.53125000000000000        0.0000000000000000     
  0.68750000000000000       0.53125000000000000        0.0000000000000000     
  0.71875000000000000       0.53125000000000000        0.0000000000000000     
  0.75000000000000000       0.53125000000000000        0.0000000000000000     
  0.62500000000000000       0.56250000000000000        0.0000000000000000     
  0.65625000000000000       0.56250000000000000        0.0000000000000000     
  0.68750000000000000       0.56250000000000000        0.0000000000000000     
  0.71875000000000000       0.56250000000000000        0.0000000000000000     
  0.75000000000000000       0.56250000000000000        0.0000000000000000     
  0.62500000000000000       0.59375000000000000        0.0000000000000000     
  0.65625000000000000       0.59375000000000000        0.0000000000000000     
  0.68750000000000000       0.59375000000000000        0.0000000000000000     
  0.71875000000000000       0.59375000000000000        0.0000000000000000     
  0.75000000000000000       0.59375000000000000        0.0000000000000000     
  0.62500000000000000       0.62500000000000000        0.0000000000000000     
  0.65625000000000000       0.62500000000000000        0.0000000000000000     
  0.68750000000000000       0.62500000000000000        0.0000000000000000     
  0.71875000000000000       0.62500000000000000        0.0000000000000000     
  0.75000000000000000       0.62500000000000000        0.0000000000000000     
  0.75000000000000000       0.50000000000000000        0.0000000000000000     
  0.78125000000000000       0.50000000000000000        0.0000000000000000     
  0.81250000000000000       0.50000000000000000        0.0000000000000000     
  0.84375000000000000       0.50000000000000000        0.0000000000000000     
  0.87500000000000000       0.50000000000000000        0.0000000000000000     
  0.75000000000000000       0.53125000000000000        0.0000000000000000     
  0.78125000000000000       0.53125000000000000        0.0000000000000000     
  0.81250000000000000       0.53125000000000000        0.0000000000000000     
  0.84375000000000000       0.53125000000000000        0.0000000000000000     
  0.87500000000000000       0.53125000000000000        0.0000000000000000     
  0.75000000000000000       0.56250000000000000        0.0000000000000000     
  0.78125000000000000       0.56250000000000000        0.0000000000000000     
  0.81250000000000000       0.56250000000000000        0.0000000000000000     
  0.84375000000000000       0.56250000000000000        0.0000000000000000     
  0.87500000000000000       0.56250000000000000        0.0000000000000000     
  0.75000000000000000       0.59375000000000000        0.0000000000000000     
  0.78125000000000000       0.59375000000000000        0.0000000000000000     
  0.81250000000000000       0.59375000000000000        0.0000000000000000     
  0.84375000000000000       0.59375000000000000        0.0000000000000000     
  0.87500000000000000       0.59375000000000000        0.0000000000000000     
  0.75000000000000000       0.62500000000000000        0.0000000000000000     
  0.78125000000000000       0.62500000000000000        0.0000000000000000     
  0.81250000000000000       0.62500000000000000        0.0000000000000000     
  0.84375000000000000       0.62500000000000000        0.0000000000000000     
  0.87500000000000000       0.62500000000000000        0.0000000000000000     
  0.87500000000000000       0.50000000000000000        0.0000000000000000     
  0.90625000000000000       0.50000000000000000        0.0000000000000000     
  0.93750000000000000       0.50000000000000000        0.0000000000000000     
  0.96875000000000000       0.50000000000000000        0.0000000000000000     
   1.0000000000000000       0.50000000000000000        0.0000000000000000     
  0.87500000000000000       0.53125000000000000        0.0000000000000000     
  0.90625000000000000       0.53125000000000000        0.0000000000000000     
  0.93750000000000000       0.53125000000000000        0.0000000000000000     
  0.96875000000000000       0.53125000000000000        0.0000000000000000     
   1.0000000000000000       0.53125000000000000        0.0000000000000000     
  0.87500000000000000       0.56250000000000000        0.0000000000000000     
  0.90625000000000000       0.56250000000000000        0.0000000000000000     
  0.93750000000000000       0.56250000000000000        0.0000000000000000     
  0.96875000000000000       0.56250000000000000        0.0000000000000000     
   1.0000000000000000       0.56250000000000000        0.0000000000000000     
  0.87500000000000000       0.59375000000000000        0.0000000000000000     
  0.90625000000000000       0.59375000000000000        0.0000000000000000     
  0.93750000000000000       0.59375000000000000        0.0000000000000000     
  0.96875000000000000       0.59375000000000000        0.0000000000000000     
   1.0000000000000000       0.59375000000000000        0.0000000000000000     
  0.87500000000000000       0.62500000000000000        0.0000000000000000     
  0.90625000000000000       0.62500000000000000        0.0000000000000000     
  0.93750000000000000       0.62500000000000000        0.0000000000000000     
  0.96875000000000000       0.62500000000000000        0.0000000000000000     
   1.0000000000000000       0.62500000000000000        0.0000000000000000     
   1.0000000000000000       0.50000000000000000        0.0000000000000000     
   1.0312500000000000       0.50000000000000000        0.0000000000000000     
   1.0625000000000000       0.50000000000000000        0.0000000000000000     
   1.0937500000000000       0.50000000000000000        0.0000000000000000     
   1.1250000000000000       0.50000000000000000        0.0000000000000000     
   1.0000000000000000       0.53125000000000000        0.0000000000000000     
   1.0312500000000000       0.53125000000000000        0.0000000000000000     
   1.0625000000000000       0.53125000000000000        0.0000000000000000     
   1.0937500000000000       0.53125000000000000        0.0000000000000000     
   1.1250000000000000       0.53125000000000000        0.0000000000000000     
   1.0000000000000000       0.56250000000000000        0.0000000000000000     
   1.0312500000000000       0.56250000000000000        0.0000000000000000     
   1.0625000000000000       0.56250000000000000        0.0000000000000000     
   1.0937500000000000       0.56250000000000000        0.0000000000000000     
   1.1250000000000000       0.56250000000000000        0.0000000000000000     
   1.0000000000000000       0.59375000000000000        0.0000000000000000     
   1.0312500000000000       0.59375000000000000        0.0000000000000000     
   1.0625000000000000       0.59375000000000000        0.0000000000000000     
   1.0937500000000000       0.59375000000000000        0.0000000000000000     
   1.1250000000000000       0.59375000000000000        0.0000000000000000     
   1.0000000000000000       0.62500000000000000        0.0000000000000000     
   1.0312500000000000       0.62500000000000000        0.0000000000000000     
   1.0625000000000000       0.62500000000000000        0.0000000000000000     
   1.0937500000000000       0.62500000000000000        0.0000000000000000     
   1.1250000000000000       0.62500000000000000        0.0000000000000000     
   1.1250000000000000       0.50000000000000000        0.0000000000000000     
   1.1562500000000000       0.50000000000000000        0.0000000000000000     
   1.1875000000000000       0.50000000000000000        0.0000000000000000     
   1.2187500000000000       0.50000000000000000        0.0000000000000000     
   1.2500000000000000       0.50000000000000000        0.0000000000000000     
   1.1250000000000000       0.53125000000000000        0.0000000000000000     
   1.1562500000000000       0.53125000000000000        0.0000000000000000     
   1.1875000000000000       0.53125000000000000        0.0000000000000000     
   1.2187500000000000       0.53125000000000000        0.0000000000000000     
   1.2500000000000000       0.53125000000000000        0.0000000000000000     
   1.1250000000000000       0.56250000000000000        0.0000000000000000     
   1.1562500000000000       0.56250000000000000        0.0000000000000000     
   1.1875000000000000       0.56250000000000000        0.0000000000000000     
   1.2187500000000000       0.56250000000000000        0.0000000000000000     
   1.2500000000000000       0.56250000000000000        0.0000000000000000     
   1.1250000000000000       0.59375000000000000        0.0000000000000000     
   1.1562500000000000       0.59375000000000000        0.0000000000000000     
   1.1875000000000000       0.59375000000000000        0.0000000000000000     
   1.2187500000000000       0.59375000000000000        0.0000000000000000     
   1.2500000000000000       0.59375000000000000        0.0000000000000000     
   1.1250000000000000       0.62500000000000000        0.0000000000000000     
   1.1562500000000000       0.62500000000000000        0.0000000000000000     
   1.1875000000000000       0.62500000000000000        0.0000000000000000     
   1.2187500000000000       0.62500000000000000        0.0000000000000000     
   1.2500000000000000       0.62500000000000000        0.0000000000000000     
   1.2500000000000000       0.50000000000000000        0.0000000000000000     
   1.2812500000000000       0.50000000000000000        0.0000000000000000     
   1.3125000000000000       0.50000000000000000        0.0000000000000000     
   1.3437500000000000       0.50000000000000000        0.0000000000000000     
   1.3750000000000000       0.50000000000000000        0.0000000000000000     
   1.2500000000000000       0.53125000000000000        0.0000000000000000     
   1.2812500000000000       0.53125000000000000        0.0000000000000000     
   1.3125000000000000       0.53125000000000000        0.0000000000000000     
   1.3437500000000000       0.53125000000000000        0.0000000000000000     
   1.3750000000000000       0.53125000000000000        0.0000000000000000     
   1.2500000000000000       0.56250000000000000        0.0000000000000000     
   1.2812500000000000       0.56250000000000000        0.0000000000000000     
   1.3125000000000000       0.56250000000000000        0.0000000000000000     
   1.3437500000000000       0.56250000000000000        0.0000000000000000     
   1.3750000000000000       0.56250000000000000        0.0000000000000000     
   1.2500000000000000       0.59375000000000000        0.0000000000000000     
   1.2812500000000000       0.59375000000000000        0.0000000000000000     
   1.3125000000000000       0.59375000000000000        0.0000000000000000     
   1.3437500000000000       0.59375000000000000        0.0000000000000000     
   1.3750000000000000       0.59375000000000000        0.0000000000000000     
   1.2500000000000000       0.62500000000000000        0.0000000000000000     
   1.2812500000000000       0.62500000000000000        0.0000000000000000     
   1.3125000000000000       0.62500000000000000        0.0000000000000000     
   1.3437500000000000       0.62500000000000000        0.0000000000000000     
   1.3750000000000000       0.62500000000000000        0.0000000000000000     
   1.3750000000000000       0.50000000000000000        0.0000000000000000     
   1.4062500000000000       0.50000000000000000        0.0000000000000000     
   1.4375000000000000       0.50000000000000000        0.0000000000000000     
   1.4687500000000000       0.50000000000000000        0.0000000000000000     
   1.5000000000000000       0.50000000000000000        0.0000000000000000     
   1.3750000000000000       0.53125000000000000        0.0000000000000000     
   1.4062500000000000       0.53125000000000000        0.0000000000000000     
   1.4375000000000000       0.53125000000000000        0.0000000000000000     
   1.4687500000000000       0.53125000000000000        0.0000000000000000     
   1.5000000000000000       0.53125000000000000        0.0000000000000000     
   1.3750000000000000       0.56250000000000000        0.0000000000000000     
   1.4062500000000000       0.56250000000000000        0.0000000000000000     
   1.4375000000000000       0.56250000000000000        0.0000000000000000     
   1.4687500000000000       0.56250000000000000        0.0000000000000000     
   1.5000000000000000       0.56250000000000000        0.0000000000000000     
   1.3750000000000000       0.59375000000000000        0.0000000000000000     
   1.4062500000000000       0.59375000000000000        0.0000000000000000     
   1.4375000000000000       0.59375000000000000        0.0000000000000000     
   1.4687500000000000       0.59375000000000000        0.0000000000000000     
   1.5000000000000000       0.59375000000000000        0.0000000000000000     
   1.3750000000000000       0.62500000000000000        0.0000000000000000     
   1.4062500000000000       0.62500000000000000        0.0000000000000000     
   1.4375000000000000       0.62500000000000000        0.0000000000000000     
   1.4687500000000000       0.62500000000000000        0.0000000000000000     
   1.5000000000000000       0.62500000000000000        0.0000000000000000     
  0.50000000000000000       0.62500000000000000        0.0000000000000000     
  0.53125000000000000       0.62500000000000000        0.0000000000000000     
  0.56250000000000000       0.62500000000000000        0.0000000000000000     
  0.59375000000000000       0.62500000000000000        0.0000000000000000     
  0.62500000000000000       0.62500000000000000        0.0000000000000000     
  0.50000000000000000       0.65625000000000000        0.0000000000000000     
  0.53125000000000000       0.65625000000000000        0.0000000000000000     
  0.56250000000000000       0.65625000000000000        0.0000000000000000     
  0.59375000000000000       0.65625000000000000        0.0000000000000000     
  0.62500000000000000       0.65625000000000000        0.0000000000000000     
  0.50000000000000000       0.68750000000000000        0.0000000000000000     
  0.53125000000000000       0.68750000000000000        0.0000000000000000     
  0.56250000000000000       0.68750000000000000        0.0000000000000000     
  0.59375000000000000       0.68750000000000000        0.0000000000000000     
  0.62500000000000000       0.68750000000000000        0.0000000000000000     
  0.50000000000000000       0.71875000000000000        0.0000000000000000     
  0.53125000000000000       0.71875000000000000        0.0000000000000000     
  0.56250000000000000       0.71875000000000000        0.0000000000000000     
  0.59375000000000000       0.71875000000000000        0.0000000000000000     
  0.62500000000000000       0.71875000000000000        0.0000000000000000     
  0.50000000000000000       0.75000000000000000        0.0000000000000000     
  0.53125000000000000       0.75000000000000000        0.0000000000000000     
  0.56250000000000000       0.75000000000000000        0.0000000000000000     
  0.59375000000000000       0.75000000000000000        0.0000000000000000     
  0.62500000000000000       0.75000000000000000        0.0000000000000000     
  0.62500000000000000       0.62500000000000000        0.0000000000000000     
  0.65625000000000000       0.62500000000000000        0.0000000000000000     
  0.68750000000000000       0.62500000000000000        0.0000000000000000     
  0.71875000000000000       0.62500000000000000        0.0000000000000000     
  0.75000000000000000       0.62500000000000000        0.0000000000000000     
  0.62500000000000000       0.65625000000000000        0.0000000000000000     
  0.65625000000000000       0.65625000000000000        0.0000000000000000     
  0.68750000000000000       0.65625000000000000        0.0000000000000000     
  0.71875000000000000       0.65625000000000000        0.0000000000000000     
  0.75000000000000000       0.65625000000000000        0.0000000000000000     
  0.62500000000000000       0.68750000000000000        0.0000000000000000     
  0.65625000000000000       0.68750000000000000        0.0000000000000000     
  0.68750000000000000       0.68750000000000000        0.0000000000000000     
  0.71875000000000000       0.68750000000000000        0.0000000000000000     
  0.75000000000000000       0.68750000000000000        0.0000000000000000     
  0.62500000000000000       0.71875000000000000        0.0000000000000000     
  0.65625000000000000       0.71875000000000000        0.0000000000000000     
  0.68750000000000000       0.71875000000000000        0.0000000000000000     
  0.71875000000000000       0.71875000000000000        0.0000000000000000     
  0.75000000000000000       0.71875000000000000        0.0000000000000000     
  0.62500000000000000       0.75000000000000000        0.0000000000000000     
  0.65625000000000000       0.75000000000000000        0.0000000000000000     
  0.68750000000000000       0.75000000000000000        0.0000000000000000     
  0.71875000000000000       0.75000000000000000        0.0000000000000000     
  0.75000000000000000       0.75000000000000000        0.0000000000000000     
  0.75000000000000000       0.62500000000000000        0.0000000000000000     
  0.78125000000000000       0.62500000000000000        0.0000000000000000     
  0.81250000000000000       0.62500000000000000        0.0000000000000000     
  0.84375000000000000       0.62500000000000000        0.0000000000000000     
  0.87500000000000000       0.62500000000000000        0.0000000000000000     
  0.75000000000000000       0.65625000000000000        0.0000000000000000     
  0.78125000000000000       0.65625000000000000        0.0000000000000000     
  0.81250000000000000       0.65625000000000000        0.0000000000000000     
  0.84375000000000000       0.65625000000000000        0.0000000000000000     
  0.87500000000000000       0.65625000000000000        0.0000000000000000     
  0.75000000000000000       0.68750000000000000        0.0000000000000000     
  0.78125000000000000       0.68750000000000000        0.0000000000000000     
  0.81250000000000000       0.68750000000000000        0.0000000000000000     
  0.84375000000000000       0.68750000000000000        0.0000000000000000     
  0.87500000000000000       0.68750000000000000        0.0000000000000000     
  0.75000000000000000       0.71875000000000000        0.0000000000000000     
  0.78125000000000000       0.71875000000000000        0.0000000000000000     
  0.81250000000000000       0.71875000000000000        0.0000000000000000     
  0.84375000000000000       0.71875000000000000        0.0000000000000000     
  0.87500000000000000       0.71875000000000000        0.0000000000000000     
  0.75000000000000000       0.75000000000000000        0.0000000000000000     
  0.78125000000000000       0.75000000000000000        0.0000000000000000     
  0.81250000000000000       0.75000000000000000        0.0000000000000000     
  0.84375000000000000       0.75000000000000000        0.0000000000000000     
  0.87500000000000000       0.75000000000000000        0.0000000000000000     
  0.87500000000000000       0.62500000000000000        0.0000000000000000     
  0.90625000000000000       0.62500000000000000        0.0000000000000000     
  0.93750000000000000       0.62500000000000000        0.0000000000000000     
  0.96875000000000000       0.62500000000000000        0.0000000000000000     
   1.0000000000000000       0.62500000000000000        0.0000000000000000     
  0.87500000000000000       0.65625000000000000        0.0000000000000000     
  0.90625000000000000       0.65625000000000000        0.0000000000000000     
  0.93750000000000000       0.65625000000000000        0.0000000000000000     
  0.96875000000000000       0.65625000000000000        0.0000000000000000     
   1.0000000000000000       0.65625000000000000        0.0000000000000000     
  0.87500000000000000       0.68750000000000000        0.0000000000000000     
  0.90625000000000000       0.68750000000000000        0.0000000000000000     
  0.93750000000000000       0.68750000000000000        0.0000000000000000     
  0.96875000000000000       0.68750000000000000        0.0000000000000000     
   1.0000000000000000       0.68750000000000000        0.0000000000000000     
  0.87500000000000000       0.71875000000000000        0.0000000000000000     
  0.90625000000000000       0.71875000000000000        0.0000000000000000     
  0.93750000000000000       0.71875000000000000        0.0000000000000000     
  0.96875000000000000       0.71875000000000000        0.0000000000000000     
   1.0000000000000000       0.71875000000000000        0.0000000000000000     
  0.87500000000000000       0.75000000000000000        0.0000000000000000     
  0.90625000000000000       0.75000000000000000        0.0000000000000000     
  0.93750000000000000       0.75000000000000000        0.0000000000000000     
  0.96875000000000000       0.75000000000000000        0.0000000000000000     
   1.0000000000000000       0.75000000000000000        0.0000000000000000     
   1.0000000000000000       0.62500000000000000        0.0000000000000000     
   1.0312500000000000       0.62500000000000000        0.0000000000000000     
   1.0625000000000000       0.62500000000000000        0.0000000000000000     
   1.0937500000000000       0.62500000000000000        0.0000000000000000     
   1.1250000000000000       0.62500000000000000        0.0000000000000000     
   1.0000000000000000       0.65625000000000000        0.0000000000000000     
   1.0312500000000000       0.65625000000000000        0.0000000000000000     
   1.0625000000000000       0.65625000000000000        0.0000000000000000     
   1.0937500000000000       0.65625000000000000        0.0000000000000000     
   1.1250000000000000       0.65625000000000000        0.0000000000000000     
   1.0000000000000000       0.68750000000000000        0.0000000000000000     
   1.0312500000000000       0.68750000000000000        0.0000000000000000     
   1.0625000000000000       0.68750000000000000        0.0000000000000000     
   1.0937500000000000       0.68750000000000000        0.0000000000000000     
   1.1250000000000000       0.68750000000000000        0.0000000000000000     
   1.0000000000000000       0.71875000000000000        0.0000000000000000     
   1.0312500000000000       0.71875000000000000        0.0000000000000000     
   1.0625000000000000       0.71875000000000000        0.0000000000000000     
   1.0937500000000000       0.71875000000000000        0.0000000000000000     
   1.1250000000000000       0.71875000000000000        0.0000000000000000     
   1.0000000000000000       0.75000000000000000        0.0000000000000000     
   1.0312500000000000       0.75000000000000000        0.0000000000000000     
   1.0625000000000000       0.75000000000000000        0.0000000000000000     
   1.0937500000000000       0.75000000000000000        0.0000000000000000     
   1.1250000000000000       0.75000000000000000        0.0000000000000000     
   1.1250000000000000       0.62500000000000000        0.0000000000000000     
   1.1562500000000000       0.62500000000000000        0.0000000000000000     
   1.1875000000000000       0.62500000000000000        0.0000000000000000     
   1.2187500000000000       0.62500000000000000        0.0000000000000000     
   1.2500000000000000       0.62500000000000000        0.0000000000000000     
   1.1250000000000000       0.65625000000000000        0.0000000000000000     
   1.1562500000000000       0.65625000000000000        0.0000000000000000     
   1.1875000000000000       0.65625000000000000        0.0000000000000000     
   1.2187500000000000       0.65625000000000000        0.0000000000000000     
   1.2500000000000000       0.65625000000000000        0.0000000000000000     
   1.1250000000000000       0.68750000000000000        0.0000000000000000     
   1.1562500000000000       0.68750000000000000        0.0000000000000000     
   1.1875000000000000       0.68750000000000000        0.0000000000000000     
   1.2187500000000000       0.68750000000000000        0.0000000000000000     
   1.2500000000000000       0.68750000000000000        0.0000000000000000     
   1.1250000000000000       0.71875000000000000        0.0000000000000000     
   1.1562500000000000       0.71875000000000000        0.0000000000000000     
   1.1875000000000000       0.71875000000000000        0.0000000000000000     
   1.2187500000000000       0.71875000000000000        0.0000000000000000     
   1.2500000000000000       0.71875000000000000        0.0000000000000000     
   1.1250000000000000       0.75000000000000000        0.0000000000000000     
   1.1562500000000000       0.75000000000000000        0.0000000000000000     
   1.1875000000000000       0.75000000000000000        0.0000000000000000     
   1.2187500000000000       0.75000000000000000        0.0000000000000000     
   1.2500000000000000       0.75000000000000000        0.0000000000000000     
   1.2500000000000000       0.62500000000000000        0.0000000000000000     
   1.2812500000000000       0.62500000000000000        0.0000000000000000     
   1.3125000000000000       0.62500000000000000        0.0000000000000000     
   1.3437500000000000       0.62500000000000000        0.0000000000000000     
   1.3750000000000000       0.62500000000000000        0.0000000000000000     
   1.2500000000000000       0.65625000000000000        0.0000000000000000     
   1.2812500000000000       0.65625000000000000        0.0000000000000000     
   1.3125000000000000       0.65625000000000000        0.0000000000000000     
   1.3437500000000000       0.65625000000000000        0.0000000000000000     
   1.3750000000000000       0.65625000000000000        0.0000000000000000     
   1.2500000000000000       0.68750000000000000        0.0000000000000000     
   1.2812500000000000       0.68750000000000000        0.0000000000000000     
   1.3125000000000000       0.68750000000000000        0.0000000000000000     
   1.3437500000000000       0.68750000000000000        0.0000000000000000     
   1.3750000000000000       0.68750000000000000        0.0000000000000000     
   1.2500000000000000       0.71875000000000000        0.0000000000000000     
   1.2812500000000000       0.71875000000000000        0.0000000000000000     
   1.3125000000000000       0.71875000000000000        0.0000000000000000     
   1.3437500000000000       0.71875000000000000        0.0000000000000000     
   1.3750000000000000       0.71875000000000000        0.0000000000000000     
   1.2500000000000000       0.75000000000000000        0.0000000000000000     
   1.2812500000000000       0.75000000000000000        0.0000000000000000     
   1.3125000000000000       0.75000000000000000        0.0000000000000000     
   1.3437500000000000       0.75000000000000000        0.0000000000000000     
   1.3750000000000000       0.75000000000000000        0.0000000000000000     
   1.3750000000000000       0.62500000000000000        0.0000000000000000     
   1.4062500000000000       0.62500000000000000        0.0000000000000000     
   1.4375000000000000       0.62500000000000000        0.0000000000000000     
   1.4687500000000000       0.62500000000000000        0.0000000000000000     
   1.5000000000000000       0.62500000000000000        0.0000000000000000     
   1.3750000000000000       0.65625000000000000        0.0000000000000000     
   1.4062500000000000       0.65625000000000000        0.0000000000000000     
   1.4375000000000000       0.65625000000000000        0.0000000000000000     
   1.4687500000000000       0.65625000000000000        0.0000000000000000     
   1.5000000000000000       0.65625000000000000        0.0000000000000000     
   1.3750000000000000       0.68750000000000000        0.0000000000000000     
   1.4062500000000000       0.68750000000000000        0.0000000000000000     
   1.4375000000000000       0.68750000000000000        0.0000000000000000     
   1.4687500000000000       0.68750000000000000        0.0000000000000000     
   1.5000000000000000       0.68750000000000000        0.0000000000000000     
   1.3750000000000000       0.71875000000000000        0.0000000000000000     
   1.4062500000000000       0.71875000000000000        0.0000000000000000     
   1.4375000000000000       0.71875000000000000        0.0000000000000000     
   1.4687500000000000       0.71875000000000000        0.0000000000000000     
   1.5000000000000000       0.71875000000000000        0.0000000000000000     
   1.3750000000000000       0.75000000000000000        0.0000000000000000     
   1.4062500000000000       0.75000000000000000        0.0000000000000000     
   1.4375000000000000       0.75000000000000000        0.0000000000000000     
   1.4687500000000000       0.75000000000000000        0.0000000000000000     
   1.5000000000000000       0.75000000000000000        0.0000000000000000     
  0.50000000000000000       0.75000000000000000        0.0000000000000000     
  0.53125000000000000       0.75000000000000000        0.0000000000000000     
  0.56250000000000000       0.75000000000000000        0.0000000000000000     
  0.59375000000000000       0.75000000000000000        0.0000000000000000     
  0.62500000000000000       0.75000000000000000        0.0000000000000000     
  0.50000000000000000       0.78125000000000000        0.0000000000000000     
  0.53125000000000000       0.78125000000000000        0.0000000000000000     
  0.56250000000000000       0.78125000000000000        0.0000000000000000     
  0.59375000000000000       0.78125000000000000        0.0000000000000000     
  0.62500000000000000       0.78125000000000000        0.0000000000000000     
  0.50000000000000000       0.81250000000000000        0.0000000000000000     
  0.53125000000000000       0.81250000000000000        0.0000000000000000     
  0.56250000000000000       0.81250000000000000        0.0000000000000000     
  0.59375000000000000       0.81250000000000000        0.0000000000000000     
  0.62500000000000000       0.81250000000000000        0.0000000000000000     
  0.50000000000000000       0.84375000000000000        0.0000000000000000     
  0.53125000000000000       0.84375000000000000        0.0000000000000000     
  0.56250000000000000       0.84375000000000000        0.0000000000000000     
  0.59375000000000000       0.84375000000000000        0.0000000000000000     
  0.62500000000000000       0.84375000000000000        0.0000000000000000     
  0.50000000000000000       0.87500000000000000        0.0000000000000000     
  0.53125000000000000       0.87500000000000000        0.0000000000000000     
  0.56250000000000000       0.87500000000000000        0.0000000000000000     
  0.59375000000000000       0.87500000000000000        0.0000000000000000     
  0.62500000000000000       0.87500000000000000        0.0000000000000000     
  0.62500000000000000       0.75000000000000000        0.0000000000000000     
  0.65625000000000000       0.75000000000000000        0.0000000000000000     
  0.68750000000000000       0.75000000000000000        0.0000000000000000     
  0.71875000000000000       0.75000000000000000        0.0000000000000000     
  0.75000000000000000       0.75000000000000000        0.0000000000000000     
  0.62500000000000000       0.78125000000000000        0.0000000000000000     
  0.65625000000000000       0.78125000000000000        0.0000000000000000     
  0.68750000000000000       0.78125000000000000        0.0000000000000000     
  0.71875000000000000       0.78125000000000000        0.0000000000000000     
  0.75000000000000000       0.78125000000000000        0.0000000000000000     
  0.62500000000000000       0.81250000000000000        0.0000000000000000     
  0.65625000000000000       0.81250000000000000        0.0000000000000000     
  0.68750000000000000       0.81250000000000000        0.0000000000000000     
  0.71875000000000000       0.81250000000000000        0.0000000000000000     
  0.75000000000000000       0.81250000000000000        0.0000000000000000     
  0.62500000000000000       0.84375000000000000        0.0000000000000000     
  0.65625000000000000       0.84375000000000000        0.0000000000000000     
  0.68750000000000000       0.84375000000000000        0.0000000000000000     
  0.71875000000000000       0.84375000000000000        0.0000000000000000     
  0.75000000000000000       0.84375000000000000        0.0000000000000000     
  0.62500000000000000       0.87500000000000000        0.0000000000000000     
  0.65625000000000000       0.87500000000000000        0.0000000000000000     
  0.68750000000000000       0.87500000000000000        0.0000000000000000     
  0.71875000000000000       0.87500000000000000        0.0000000000000000     
  0.75000000000000000       0.87500000000000000        0.0000000000000000     
  0.75000000000000000       0.75000000000000000        0.0000000000000000     
  0.78125000000000000       0.75000000000000000        0.0000000000000000     
  0.81250000000000000       0.75000000000000000        0.0000000000000000     
  0.84375000000000000       0.75000000000000000        0.0000000000000000     
  0.87500000000000000       0.75000000000000000        0.0000000000000000     
  0.75000000000000000       0.78125000000000000        0.0000000000000000     
  0.78125000000000000       0.78125000000000000        0.0000000000000000     
  0.81250000000000000       0.78125000000000000        0.0000000000000000     
  0.84375000000000000       0.78125000000000000        0.0000000000000000     
  0.87500000000000000       0.78125000000000000        0.0000000000000000     
  0.75000000000000000       0.81250000000000000        0.0000000000000000     
  0.78125000000000000       0.81250000000000000        0.0000000000000000     
  0.81250000000000000       0.81250000000000000        0.0000000000000000     
  0.84375000000000000       0.81250000000000000        0.0000000000000000     
  0.87500000000000000       0.81250000000000000        0.0000000000000000     
  0.75000000000000000       0.84375000000000000        0.0000000000000000     
  0.78125000000000000       0.84375000000000000        0.0000000000000000     
  0.81250000000000000       0.84375000000000000        0.0000000000000000     
  0.84375000000000000       0.84375000000000000        0.0000000000000000     
  0.87500000000000000       0.84375000000000000        0.0000000000000000     
  0.75000000000000000       0.87500000000000000        0.0000000000000000     
  0.78125000000000000       0.87500000000000000        0.0000000000000000     
  0.81250000000000000       0.87500000000000000        0.0000000000000000     
  0.84375000000000000       0.87500000000000000        0.0000000000000000     
  0.87500000000000000       0.87500000000000000        0.0000000000000000     
  0.87500000000000000       0.75000000000000000        0.0000000000000000     
  0.90625000000000000       0.75000000000000000        0.0000000000000000     
  0.93750000000000000       0.75000000000000000        0.0000000000000000     
  0.96875000000000000       0.75000000000000000        0.0000000000000000     
   1.0000000000000000       0.75000000000000000        0.0000000000000000     
  0.87500000000000000       0.78125000000000000        0.0000000000000000     
  0.90625000000000000       0.78125000000000000        0.0000000000000000     
  0.93750000000000000       0.78125000000000000        0.0000000000000000     
  0.96875000000000000       0.78125000000000000        0.0000000000000000     
   1.0000000000000000       0.78125000000000000        0.0000000000000000     
  0.87500000000000000       0.81250000000000000        0.0000000000000000     
  0.90625000000000000       0.81250000000000000        0.0000000000000000     
  0.93750000000000000       0.81250000000000000        0.0000000000000000     
  0.96875000000000000       0.81250000000000000        0.0000000000000000     
   1.0000000000000000       0.81250000000000000        0.0000000000000000     
  0.87500000000000000       0.84375000000000000        0.0000000000000000     
  0.90625000000000000       0.84375000000000000        0.0000000000000000     
  0.93750000000000000       0.84375000000000000        0.0000000000000000     
  0.96875000000000000       0.84375000000000000        0.0000000000000000     
   1.0000000000000000       0.84375000000000000        0.0000000000000000     
  0.87500000000000000       0.87500000000000000        0.0000000000000000     
  0.90625000000000000       0.87500000000000000        0.0000000000000000     
  0.93750000000000000       0.87500000000000000        0.0000000000000000     
  0.96875000000000000       0.87500000000000000        0.0000000000000000     
   1.0000000000000000       0.87500000000000000        0.0000000000000000     
   1.0000000000000000       0.75000000000000000        0.0000000000000000     
   1.0312500000000000       0.75000000000000000        0.0000000000000000     
   1.0625000000000000       0.75000000000000000        0.0000000000000000     
   1.0937500000000000       0.75000000000000000        0.0000000000000000     
   1.1250000000000000       0.75000000000000000        0.0000000000000000     
   1.0000000000000000       0.78125000000000000        0.0000000000000000     
   1.0312500000000000       0.78125000000000000        0.0000000000000000     
   1.0625000000000000       0.78125000000000000        0.0000000000000000     
   1.0937500000000000       0.78125000000000000        0.0000000000000000     
   1.1250000000000000       0.78125000000000000        0.0000000000000000     
   1.0000000000000000       0.81250000000000000        0.0000000000000000     
   1.0312500000000000       0.81250000000000000        0.0000000000000000     
   1.0625000000000000       0.81250000000000000        0.0000000000000000     
   1.0937500000000000       0.81250000000000000        0.0000000000000000     
   1.1250000000000000       0.81250000000000000        0.0000000000000000     
   1.0000000000000000       0.84375000000000000        0.0000000000000000     
   1.0312500000000000       0.84375000000000000        0.0000000000000000     
   1.0625000000000000       0.84375000000000000        0.0000000000000000     
   1.0937500000000000       0.84375000000000000        0.0000000000000000     
   1.1250000000000000       0.84375000000000000        0.0000000000000000     
   1.0000000000000000       0.87500000000000000        0.0000000000000000     
   1.0312500000000000       0.87500000000000000        0.0000000000000000     
   1.0625000000000000       0.87500000000000000        0.0000000000000000     
   1.0937500000000000       0.87500000000000000        0.0000000000000000     
   1.1250000000000000       0.87500000000000000        0.0000000000000000     
   1.1250000000000000       0.75000000000000000        0.0000000000000000     
   1.1562500000000000       0.75000000000000000        0.0000000000000000     
   1.1875000000000000       0.75000000000000000        0.0000000000000000     
   1.2187500000000000       0.75000000000000000        0.0000000000000000     
   1.2500000000000000       0.75000000000000000        0.0000000000000000     
   1.1250000000000000       0.78125000000000000        0.0000000000000000     
   1.1562500000000000       0.78125000000000000        0.0000000000000000     
   1.1875000000000000       0.78125000000000000        0.0000000000000000     
   1.2187500000000000       0.78125000000000000        0.0000000000000000     
   1.2500000000000000       0.78125000000000000        0.0000000000000000     
   1.1250000000000000       0.81250000000000000        0.0000000000000000     
   1.1562500000000000       0.81250000000000000        0.0000000000000000     
   1.1875000000000000       0.81250000000000000        0.0000000000000000     
   1.2187500000000000       0.81250000000000000        0.0000000000000000     
   1.2500000000000000       0.81250000000000000        0.0000000000000000     
   1.1250000000000000       0.84375000000000000        0.0000000000000000     
   1.1562500000000000       0.84375000000000000        0.0000000000000000     
   1.1875000000000000       0.84375000000000000        0.0000000000000000     
   1.2187500000000000       0.84375000000000000        0.0000000000000000     
   1.2500000000000000       0.84375000000000000        0.0000000000000000     
   1.1250000000000000       0.87500000000000000        0.0000000000000000     
   1.1562500000000000       0.87500000000000000        0.0000000000000000     
   1.1875000000000000       0.87500000000000000        0.0000000000000000     
   1.2187500000000000       0.87500000000000000        0.0000000000000000     
   1.2500000000000000       0.87500000000000000        0.0000000000000000     
   1.2500000000000000       0.75000000000000000        0.0000000000000000     
   1.2812500000000000       0.75000000000000000        0.0000000000000000     
   1.3125000000000000       0.75000000000000000        0.0000000000000000     
   1.3437500000000000       0.75000000000000000        0.0000000000000000     
   1.3750000000000000       0.75000000000000000        0.0000000000000000     
   1.2500000000000000       0.78125000000000000        0.0000000000000000     
   1.2812500000000000       0.78125000000000000        0.0000000000000000     
   1.3125000000000000       0.78125000000000000        0.0000000000000000     
   1.3437500000000000       0.78125000000000000        0.0000000000000000     
   1.3750000000000000       0.78125000000000000        0.0000000000000000     
   1.2500000000000000       0.81250000000000000        0.0000000000000000     
   1.2812500000000000       0.81250000000000000        0.0000000000000000     
   1.3125000000000000       0.81250000000000000        0.0000000000000000     
   1.3437500000000000       0.81250000000000000        0.0000000000000000     
   1.3750000000000000       0.81250000000000000        0.0000000000000000     
   1.2500000000000000       0.84375000000000000        0.0000000000000000     
   1.2812500000000000       0.84375000000000000        0.0000000000000000     
   1.3125000000000000       0.84375000000000000        0.0000000000000000     
   1.3437500000000000       0.84375000000000000        0.0000000000000000     
   1.3750000000000000       0.84375000000000000        0.0000000000000000     
   1.2500000000000000       0.87500000000000000        0.0000000000000000     
   1.2812500000000000       0.87500000000000000        0.0000000000000000     
   1.3125000000000000       0.87500000000000000        0.0000000000000000     
   1.3437500000000000       0.87500000000000000        0.0000000000000000     
   1.3750000000000000       0.87500000000000000        0.0000000000000000     
   1.3750000000000000       0.75000000000000000        0.0000000000000000     
   1.4062500000000000       0.75000000000000000        0.0000000000000000     
   1.4375000000000000       0.75000000000000000        0.0000000000000000     
   1.4687500000000000       0.75000000000000000        0.0000000000000000     
   1.5000000000000000       0.75000000000000000        0.0000000000000000     
   1.3750000000000000       0.78125000000000000        0.0000000000000000     
   1.4062500000000000       0.78125000000000000        0.0000000000000000     
   1.4375000000000000       0.78125000000000000        0.0000000000000000     
   1.4687500000000000       0.78125000000000000        0.0000000000000000     
   1.5000000000000000       0.78125000000000000        0.0000000000000000     
   1.3750000000000000       0.81250000000000000        0.0000000000000000     
   1.4062500000000000       0.81250000000000000        0.0000000000000000     
   1.4375000000000000       0.81250000000000000        0.0000000000000000     
   1.4687500000000000       0.81250000000000000        0.0000000000000000     
   1.5000000000000000       0.81250000000000000        0.0000000000000000     
   1.3750000000000000       0.84375000000000000        0.0000000000000000     
   1.4062500000000000       0.84375000000000000        0.0000000000000000     
   1.4375000000000000       0.84375000000000000        0.0000000000000000     
   1.4687500000000000       0.84375000000000000        0.0000000000000000     
   1.5000000000000000       0.84375000000000000        0.0000000000000000     
   1.3750000000000000       0.87500000000000000        0.0000000000000000     
   1.4062500000000000       0.87500000000000000        0.0000000000000000     
   1.4375000000000000       0.87500000000000000        0.0000000000000000     
   1.4687500000000000       0.87500000000000000        0.0000000000000000     
   1.5000000000000000       0.87500000000000000        0.0000000000000000     
  0.50000000000000000       0.87500000000000000        0.0000000000000000     
  0.53125000000000000       0.87500000000000000        0.0000000000000000     
  0.56250000000000000       0.87500000000000000        0.0000000000000000     
  0.59375000000000000       0.87500000000000000        0.0000000000000000     
  0.62500000000000000       0.87500000000000000        0.0000000000000000     
  0.50000000000000000       0.90625000000000000        0.0000000000000000     
  0.53125000000000000       0.90625000000000000        0.0000000000000000     
  0.56250000000000000       0.90625000000000000        0.0000000000000000     
  0.59375000000000000       0.90625000000000000        0.0000000000000000     
  0.62500000000000000       0.90625000000000000        0.0000000000000000     
  0.50000000000000000       0.93750000000000000        0.0000000000000000     
  0.53125000000000000       0.93750000000000000        0.0000000000000000     
  0.56250000000000000       0.93750000000000000        0.0000000000000000     
  0.59375000000000000       0.93750000000000000        0.0000000000000000     
  0.62500000000000000       0.93750000000000000        0.0000000000000000     
  0.50000000000000000       0.96875000000000000        0.0000000000000000     
  0.53125000000000000       0.96875000000000000        0.0000000000000000     
  0.56250000000000000       0.96875000000000000        0.0000000000000000     
  0.59375000000000000       0.96875000000000000        0.0000000000000000     
  0.62500000000000000       0.96875000000000000        0.0000000000000000     
  0.50000000000000000        1.0000000000000000        0.0000000000000000     
  0.53125000000000000        1.0000000000000000        0.0000000000000000     
  0.56250000000000000        1.0000000000000000        0.0000000000000000     
  0.59375000000000000        1.0000000000000000        0.0000000000000000     
  0.62500000000000000        1.0000000000000000        0.0000000000000000     
  0.62500000000000000       0.87500000000000000        0.0000000000000000     
  0.65625000000000000       0.87500000000000000        0.0000000000000000     
  0.68750000000000000       0.87500000000000000        0.0000000000000000     
  0.71875000000000000       0.87500000000000000        0.0000000000000000     
  0.75000000000000000       0.87500000000000000        0.0000000000000000     
  0.62500000000000000       0.90625000000000000        0.0000000000000000     
  0.65625000000000000       0.90625000000000000        0.0000000000000000     
  0.68750000000000000       0.90625000000000000        0.0000000000000000     
  0.71875000000000000       0.90625000000000000        0.0000000000000000     
  0.75000000000000000       0.90625000000000000        0.0000000000000000     
  0.62500000000000000       0.93750000000000000        0.0000000000000000     
  0.65625000000000000       0.93750000000000000        0.0000000000000000     
  0.68750000000000000       0.93750000000000000        0.0000000000000000     
  0.71875000000000000       0.93750000000000000        0.0000000000000000     
  0.75000000000000000       0.93750000000000000        0.0000000000000000     
  0.62500000000000000       0.96875000000000000        0.0000000000000000     
  0.65625000000000000       0.96875000000000000        0.0000000000000000     
  0.68750000000000000       0.96875000000000000        0.0000000000000000     
  0.71875000000000000       0.96875000000000000        0.0000000000000000     
  0.75000000000000000       0.96875000000000000        0.0000000000000000     
  0.62500000000000000        1.0000000000000000        0.0000000000000000     
  0.65625000000000000        1.0000000000000000        0.0000000000000000     
  0.68750000000000000        1.0000000000000000        0.0000000000000000     
  0.71875000000000000        1.0000000000000000        0.0000000000000000     
  0.75000000000000000        1.0000000000000000        0.0000000000000000     
  0.75000000000000000       0.87500000000000000        0.0000000000000000     
  0.78125000000000000       0.87500000000000000        0.0000000000000000     
  0.81250000000000000       0.87500000000000000        0.0000000000000000     
  0.84375000000000000       0.87500000000000000        0.0000000000000000     
  0.87500000000000000       0.87500000000000000        0.0000000000000000     
  0.75000000000000000       0.90625000000000000        0.0000000000000000     
  0.78125000000000000       0.90625000000000000        0.0000000000000000     
  0.81250000000000000       0.90625000000000000        0.0000000000000000     
  0.84375000000000000       0.90625000000000000        0.0000000000000000     
  0.87500000000000000       0.90625000000000000        0.0000000000000000     
  0.75000000000000000       0.93750000000000000        0.0000000000000000     
  0.78125000000000000       0.93750000000000000        0.0000000000000000     
  0.81250000000000000       0.93750000000000000        0.0000000000000000     
  0.84375000000000000       0.93750000000000000        0.0000000000000000     
  0.87500000000000000       0.93750000000000000        0.0000000000000000     
  0.75000000000000000       0.96875000000000000        0.0000000000000000     
  0.78125000000000000       0.96875000000000000        0.0000000000000000     
  0.81250000000000000       0.96875000000000000        0.0000000000000000     
  0.84375000000000000       0.96875000000000000        0.0000000000000000     
  0.87500000000000000       0.96875000000000000        0.0000000000000000     
  0.75000000000000000        1.0000000000000000        0.0000000000000000     
  0.78125000000000000        1.0000000000000000        0.0000000000000000     
  0.81250000000000000        1.0000000000000000        0.0000000000000000     
  0.84375000000000000        1.0000000000000000        0.0000000000000000     
  0.87500000000000000        1.0000000000000000        0.0000000000000000     
  0.87500000000000000       0.87500000000000000        0.0000000000000000     
  0.90625000000000000       0.87500000000000000        0.0000000000000000     
  0.93750000000000000       0.87500000000000000        0.0000000000000000     
  0.96875000000000000       0.87500000000000000        0.0000000000000000     
   1.0000000000000000       0.87500000000000000        0.0000000000000000     
  0.87500000000000000       0.90625000000000000        0.0000000000000000     
  0.90625000000000000       0.90625000000000000        0.0000000000000000     
  0.93750000000000000       0.90625000000000000        0.0000000000000000     
  0.96875000000000000       0.90625000000000000        0.0000000000000000     
   1.0000000000000000       0.90625000000000000        0.0000000000000000     
  0.87500000000000000       0.93750000000000000        0.0000000000000000     
  0.90625000000000000       0.93750000000000000        0.0000000000000000     
  0.93750000000000000       0.93750000000000000        0.0000000000000000     
  0.96875000000000000       0.93750000000000000        0.0000000000000000     
   1.0000000000000000       0.93750000000000000        0.0000000000000000     
  0.87500000000000000       0.96875000000000000        0.0000000000000000     
  0.90625000000000000       0.96875000000000000        0.0000000000000000     
  0.93750000000000000       0.96875000000000000        0.0000000000000000     
  0.96875000000000000       0.96875000000000000        0.0000000000000000     
   1.0000000000000000       0.96875000000000000        0.0000000000000000     
  0.87500000000000000        1.0000000000000000        0.0000000000000000     
  0.90625000000000000        1.0000000000000000        0.0000000000000000     
  0.93750000000000000        1.0000000000000000        0.0000000000000000     
  0.96875000000000000        1.0000000000000000        0.0000000000000000     
   1.0000000000000000        1.0000000000000000        0.0000000000000000     
   1.0000000000000000       0.87500000000000000        0.0000000000000000     
   1.0312500000000000       0.87500000000000000        0.0000000000000000     
   1.0625000000000000       0.87500000000000000        0.0000000000000000     
   1.0937500000000000       0.87500000000000000        0.0000000000000000     
   1.1250000000000000       0.87500000000000000        0.0000000000000000     
   1.0000000000000000       0.90625000000000000        0.0000000000000000     
   1.0312500000000000       0.90625000000000000        0.0000000000000000     
   1.0625000000000000       0.90625000000000000        0.0000000000000000     
   1.0937500000000000       0.90625000000000000        0.0000000000000000     
   1.1250000000000000       0.90625000000000000        0.0000000000000000     
   1.0000000000000000       0.93750000000000000        0.0000000000000000     
   1.0312500000000000       0.93750000000000000        0.0000000000000000     
   1.0625000000000000       0.93750000000000000        0.0000000000000000     
   1.0937500000000000       0.93750000000000000        0.0000000000000000     
   1.1250000000000000       0.93750000000000000        0.0000000000000000     
   1.0000000000000000       0.96875000000000000        0.0000000000000000     
   1.0312500000000000       0.96875000000000000        0.0000000000000000     
   1.0625000000000000       0.96875000000000000        0.0000000000000000     
   1.0937500000000000       0.96875000000000000        0.0000000000000000     
   1.1250000000000000       0.96875000000000000        0.0000000000000000     
   1.0000000000000000        1.0000000000000000        0.0000000000000000     
   1.0312500000000000        1.0000000000000000        0.0000000000000000     
   1.0625000000000000        1.0000000000000000        0.0000000000000000     
   1.0937500000000000        1.0000000000000000        0.0000000000000000     
   1.1250000000000000        1.0000000000000000        0.0000000000000000     
   1.1250000000000000       0.87500000000000000        0.0000000000000000     
   1.1562500000000000       0.87500000000000000        0.0000000000000000     
   1.1875000000000000       0.87500000000000000        0.0000000000000000     
   1.2187500000000000       0.87500000000000000        0.0000000000000000     
   1.2500000000000000       0.87500000000000000        0.0000000000000000     
   1.1250000000000000       0.90625000000000000        0.0000000000000000     
   1.1562500000000000       0.90625000000000000        0.0000000000000000     
   1.1875000000000000       0.90625000000000000        0.0000000000000000     
   1.2187500000000000       0.90625000000000000        0.0000000000000000     
   1.2500000000000000       0.90625000000000000        0.0000000000000000     
   1.1250000000000000       0.93750000000000000        0.0000000000000000     
   1.1562500000000000       0.93750000000000000        0.0000000000000000     
   1.1875000000000000       0.93750000000000000        0.0000000000000000     
   1.2187500000000000       0.93750000000000000        0.0000000000000000     
   1.2500000000000000       0.93750000000000000        0.0000000000000000     
   1.1250000000000000       0.96875000000000000        0.0000000000000000     
   1.1562500000000000       0.96875000000000000        0.0000000000000000     
   1.1875000000000000       0.96875000000000000        0.0000000000000000     
   1.2187500000000000       0.96875000000000000        0.0000000000000000     
   1.2500000000000000       0.96875000000000000        0.0000000000000000     
   1.1250000000000000        1.0000000000000000        0.0000000000000000     
   1.1562500000000000        1.0000000000000000        0.0000000000000000     
   1.1875000000000000        1.0000000000000000        0.0000000000000000     
   1.2187500000000000        1.0000000000000000        0.0000000000000000     
   1.2500000000000000        1.0000000000000000        0.0000000000000000     
   1.2500000000000000       0.87500000000000000        0.0000000000000000     
   1.2812500000000000       0.87500000000000000        0.0000000000000000     
   1.3125000000000000       0.87500000000000000        0.0000000000000000     
   1.3437500000000000       0.87500000000000000        0.0000000000000000     
   1.3750000000000000       0.87500000000000000        0.0000000000000000     
   1.2500000000000000       0.90625000000000000        0.0000000000000000     
   1.2812500000000000       0.90625000000000000        0.0000000000000000     
   1.3125000000000000       0.90625000000000000        0.0000000000000000     
   1.3437500000000000       0.90625000000000000        0.0000000000000000     
   1.3750000000000000       0.90625000000000000        0.0000000000000000     
   1.2500000000000000       0.93750000000000000        0.0000000000000000     
   1.2812500000000000       0.93750000000000000        0.0000000000000000     
   1.3125000000000000       0.93750000000000000        0.0000000000000000     
   1.3437500000000000       0.93750000000000000        0.0000000000000000     
   1.3750000000000000       0.93750000000000000        0.0000000000000000     
   1.2500000000000000       0.96875000000000000        0.0000000000000000     
   1.2812500000000000       0.96875000000000000        0.0000000000000000     
   1.3125000000000000       0.96875000000000000        0.0000000000000000     
   1.3437500000000000       0.96875000000000000        0.0000000000000000     
   1.3750000000000000       0.96875000000000000        0.0000000000000000     
   1.2500000000000000        1.0000000000000000        0.0000000000000000     
   1.2812500000000000        1.0000000000000000        0.0000000000000000     
   1.3125000000000000        1.0000000000000000        0.0000000000000000     
   1.3437500000000000        1.0000000000000000        0.0000000000000000     
   1.3750000000000000        1.0000000000000000        0.0000000000000000     
   1.3750000000000000       0.87500000000000000        0.0000000000000000     
   1.4062500000000000       0.87500000000000000        0.0000000000000000     
   1.4375000000000000       0.87500000000000000        0.0000000000000000     
   1.4687500000000000       0.87500000000000000        0.0000000000000000     
   1.5000000000000000       0.87500000000000000        0.0000000000000000     
   1.3750000000000000       0.90625000000000000        0.0000000000000000     
   1.4062500000000000       0.90625000000000000        0.0000000000000000     
   1.4375000000000000       0.90625000000000000        0.0000000000000000     
   1.4687500000000000       0.90625000000000000        0.0000000000000000     
   1.5000000000000000       0.90625000000000000        0.0000000000000000     
   1.3750000000000000       0.93750000000000000        0.0000000000000000     
   1.4062500000000000       0.93750000000000000        0.0000000000000000     
   1.4375000000000000       0.93750000000000000        0.0000000000000000     
   1.4687500000000000       0.93750000000000000        0.0000000000000000     
   1.5000000000000000       0.93750000000000000        0.0000000000000000     
   1.3750000000000000       0.96875000000000000        0.0000000000000000     
   1.4062500000000000       0.96875000000000000        0.0000000000000000     
   1.4375000000000000       0.96875000000000000        0.0000000000000000     
   1.4687500000000000       0.96875000000000000        0.0000000000000000     
   1.5000000000000000       0.96875000000000000        0.0000000000000000     
   1.3750000000000000        1.0000000000000000        0.0000000000000000     
   1.4062500000000000        1.0000000000000000        0.0000000000000000     
   1.4375000000000000        1.0000000000000000        0.0000000000000000     
   1.4687500000000000        1.0000000000000000        0.0000000000000000     
   1.5000000000000000        1.0000000000000000        0.0000000000000000     
 </DataArray>
 </Points>
 <Cells>
 <DataArray  type="Int32"  Name="connectivity"  format="ascii">
           0           1           6           5
           1           2           7           6
           2           3           8           7
           3           4           9           8
           5           6          11          10
           6           7          12          11
           7           8          13          12
           8           9          14          13
          10          11          16          15
          11          12          17          16
          12          13          18          17
          13          14          19          18
          15          16          21          20
          16          17          22          21
          17          18          23          22
          18          19          24          23
          25          26          31          30
          26          27          32          31
          27          28          33          32
          28          29          34          33
          30          31          36          35
          31          32          37          36
          32          33          38          37
          33          34          39          38
          35          36          41          40
          36          37          42          41
          37          38          43          42
          38          39          44          43
          40          41          46          45
          41          42          47          46
          42          43          48          47
          43          44          49          48
          50          51          56          55
          51          52          57          56
          52          53          58          57
          53          54          59          58
          55          56          61          60
          56          57          62          61
          57          58          63          62
          58          59          64          63
          60          61          66          65
          61          62          67          66
          62          63          68          67
          63          64          69          68
          65          66          71          70
          66          67          72          71
          67          68          73          72
          68          69          74          73
          75          76          81          80
          76          77          82          81
          77          78          83          82
          78          79          84          83
          80          81          86          85
          81          82          87          86
          82          83          88          87
          83          84          89          88
          85          86          91          90
          86          87          92          91
          87          88          93          92
          88          89          94          93
          90          91          96          95
          91          92          97          96
          92          93          98          97
          93          94          99          98
         100         101         106         105
         101         102         107         106
         102         103         108         107
         103         104         109         108
         105         106         111         110
         106         107         112         111
         107         108         113         112
         108         109         114         113
         110         111         116         115
         111         112         117         116
         112         113         118         117
         113         114         119         118
         115         116         121         120
         116         117         122         121
         117         118         123         122
         118         119         124         123
         125         126         131         130
         126         127         132         131
         127         128         133         132
         128         129         134         133
         130         131         136         135
         131         132         137         136
         132         133         138         137
         133         134         139         138
         135         136         141         140
         136         137         142         141
         137         138         143         142
         138         139         144         143
         140         141         146         145
         141         142         147         146
         142         143         148         147
         143         144         149         148
         150         151         156         155
         151         152         157         156
         152         153         158         157
         153         154         159         158
         155         156         161         160
         156         157         162         161
         157         158         163         162
         158         159         164         163
         160         161         166         165
         161         162         167         166
         162         163         168         167
         163         164         169         168
         165         166         171         170
         166         167         172         171
         167         168         173         172
         168         169         174         173
         175         176         181         180
         176         177         182         181
         177         178         183         182
         178         179         184         183
         180         181         186         185
         181         182         187         186
         182         183         188         187
         183         184         189         188
         185         186         191         190
         186         187         192         191
         187         188         193         192
         188         189         194         193
         190         191         196         195
         191         192         197         196
         192         193         198         197
         193         194         199         198
         200         201         206         205
         201         202         207         206
         202         203         208         207
         203         204         209         208
         205         206         211         210
         206         207         212         211
         207         208         213         212
         208         209         214         213
         210         211         216         215
         211         212         217         216
         212         213         218         217
         213         214         219         218
         215         216         221         220
         216         217         222         221
         217         218         223         222
         218         219         224         223
         225         226         231         230
         226         227         232         231
         227         228         233         232
         228         229         234         233
         230         231         236         235
         231         232         237         236
         232         233         238         237
         233         234         239         238
         235         236         241         240
         236         237         242         241
         237         238         243         242
         238         239         244         243
         240         241         246         245
         241         242         247         246
         242         243         248         247
         243         244         249         248
         250         251         256         255
         251         252         257         256
         252         253         258         257
         253         254         259         258
         255         256         261         260
         256         257         262         261
         257         258         263         262
         258         259         264         263
         260         261         266         265
         261         262         267         266
         262         263         268         267
         263         264         269         268
         265         266         271         270
         266         267         272         271
         267         268         273         272
         268         269         274         273
         275         276         281         280
         276         277         282         281
         277         278         283         282
         278         279         284         283
         280         281         286         285
         281         282         287         286
         282         283         288         287
         283         284         289         288
         285         286         291         290
         286         287         292         291
         287         288         293         292
         288         289         294         293
         290         291         296         295
         291         292         297         296
         292         293         298         297
         293         294         299         298
         300         301         306         305
         301         302         307         306
         302         303         308         307
         303         304         309         308
         305         306         311         310
         306         307         312         311
         307         308         313         312
         308         309         314         313
         310         311         316         315
         311         312         317         316
         312         313         318         317
         313         314         319         318
         315         316         321         320
         316         317         322         321
         317         318         323         322
         318         319         324         323
         325         326         331         330
         326         327         332         331
         327         328         333         332
         328         329         334         333
         330         331         336         335
         331         332         337         336
         332         333         338         337
         333         334         339         338
         335         336         341         340
         336         337         342         341
         337         338         343         342
         338         339         344         343
         340         341         346         345
         341         342         347         346
         342         343         348         347
         343         344         349         348
         350         351         356         355
         351         352         357         356
         352         353         358         357
         353         354         359         358
         355         356         361         360
         356         357         362         361
         357         358         363         362
         358         359         364         363
         360         361         366         365
         361         362         367         366
         362         363         368         367
         363         364         369         368
         365         366         371         370
         366         367         372         371
         367         368         373         372
         368         369         374         373
         375         376         381         380
         376         377         382         381
         377         378         383         382
         378         379         384         383
         380         381         386         385
         381         382         387         386
         382         383         388         387
         383         384         389         388
         385         386         391         390
         386         387         392         391
         387         388         393         392
         388         389         394         393
         390         391         396         395
         391         392         397         396
         392         393         398         397
         393         394         399         398
         400         401         406         405
         401         402         407         406
         402         403         408         407
         403         404         409         408
         405         406         411         410
         406         407         412         411
         407         408         413         412
         408         409         414         413
         410         411         416         415
         411         412         417         416
         412         413         418         417
         413         414         419         418
         415         416         421         420
         416         417         422         421
         417         418         423         422
         418         419         424         423
         425         426         431         430
         426         427         432         431
         427         428         433         432
         428         429         434         433
         430         431         436         435
         431         432         437         436
         432         433         438         437
         433         434         439         438
         435         436         441         440
         436         437         442         441
         437         438         443         442
         438         439         444         443
         440         441         446         445
         441         442         447         446
         442         443         448         447
         443         444         449         448
         450         451         456         455
         451         452         457         456
         452         453         458         457
         453         454         459         458
         455         456         461         460
         456         457         462         461
         457         458         463         462
         458         459         464         463
         460         461         466         465
         461         462         467         466
         462         463         468         467
         463         464         469         468
         465         466         471         470
         466         467         472         471
         467         468         473         472
         468         469         474         473
         475         476         481         480
         476         477         482         481
         477         478         483         482
         478         479         484         483
         480         481         486         485
         481         482         487         486
         482         483         488         487
         483         484         489         488
         485         486         491         490
         486         487         492         491
         487         488         493         492
         488         489         494         493
         490         491         496         495
         491         492         497         496
         492         493         498         497
         493         494         499         498
         500         501         506         505
         501         502         507         506
         502         503         508         507
         503         504         509         508
         505         506         511         510
         506         507         512         511
         507         508         513         512
         508         509         514         513
         510         511         516         515
         511         512         517         516
         512         513         518         517
         513         514         519         518
         515         516         521         520
         516         517         522         521
         517         518         523         522
         518         519         524         523
         525         526         531         530
         526         527         532         531
         527         528         533         532
         528         529         534         533
         530         531         536         535
         531         532         537         536
         532         533         538         537
         533         534         539         538
         535         536         541         540
         536         537         542         541
         537         538         543         542
         538         539         544         543
         540         541         546         545
         541         542         547         546
         542         543         548         547
         543         544         549         548
         550         551         556         555
         551         552         557         556
         552         553         558         557
         553         554         559         558
         555         556         561         560
         556         557         562         561
         557         558         563         562
         558         559         564         563
         560         561         566         565
         561         562         567         566
         562         563         568         567
         563         564         569         568
         565         566         571         570
         566         567         572         571
         567         568         573         572
         568         569         574         573
         575         576         581         580
         576         577         582         581
         577         578         583         582
         578         579         584         583
         580         581         586         585
         581         582         587         586
         582         583         588         587
         583         584         589         588
         585         586         591         590
         586         587         592         591
         587         588         593         592
         588         589         594         593
         590         591         596         595
         591         592         597         596
         592         593         598         597
         593         594         599         598
         600         601         606         605
         601         602         607         606
         602         603         608         607
         603         604         609         608
         605         606         611         610
         606         607         612         611
         607         608         613         612
         608         609         614         613
         610         611         616         615
         611         612         617         616
         612         613         618         617
         613         614         619         618
         615         616         621         620
         616         617         622         621
         617         618         623         622
         618         619         624         623
         625         626         631         630
         626         627         632         631
         627         628         633         632
         628         629         634         633
         630         631         636         635
         631         632         637         636
         632         633         638         637
         633         634         639         638
         635         636         641         640
         636         637         642         641
         637         638         643         642
         638         639         644         643
         640         641         646         645
         641         642         647         646
         642         643         648         647
         643         644         649         648
         650         651         656         655
         651         652         657         656
         652         653         658         657
         653         654         659         658
         655         656         661         660
         656         657         662         661
         657         658         663         662
         658         659         664         663
         660         661         666         665
         661         662         667         666
         662         663         668         667
         663         664         669         668
         665         666         671         670
         666         667         672         671
         667         668         673         672
         668         669         674         673
         675         676         681         680
         676         677         682         681
         677         678         683         682
         678         679         684         683
         680         681         686         685
         681         682         687         686
         682         683         688         687
         683         684         689         688
         685         686         691         690
         686         687         692         691
         687         688         693         692
         688         689         694         693
         690         691         696         695
         691         692         697         696
         692         693         698         697
         693         694         699         698
         700         701         706         705
         701         702         707         706
         702         703         708         707
         703         704         709         708
         705         706         711         710
         706         707         712         711
         707         708         713         712
         708         709         714         713
         710         711         716         715
         711         712         717         716
         712         713         718         717
         713         714         719         718
         715         716         721         720
         716         717         722         721
         717         718         723         722
         718         719         724         723
         725         726         731         730
         726         727         732         731
         727         728         733         732
         728         729         734         733
         730         731         736         735
         731         732         737         736
         732         733         738         737
         733         734         739         738
         735         736         741         740
         736         737         742         741
         737         738         743         742
         738         739         744         743
         740         741         746         745
         741         742         747         746
         742         743         748         747
         743         744         749         748
         750         751         756         755
         751         752         757         756
         752         753         758         757
         753         754         759         758
         755         756         761         760
         756         757         762         761
         757         758         763         762
         758         759         764         763
         760         761         766         765
         761         762         767         766
         762         763         768         767
         763         764         769         768
         765         766         771         770
         766         767         772         771
         767         768         773         772
         768         769         774         773
         775         776         781         780
         776         777         782         781
         777         778         783         782
         778         779         784         783
         780         781         786         785
         781         782         787         786
         782         783         788         787
         783         784         789         788
         785         786         791         790
         786         787         792         791
         787         788         793         792
         788         789         794         793
         790         791         796         795
         791         792         797         796
         792         793         798         797
         793         794         799         798
         800         801         806         805
         801         802         807         806
         802         803         808         807
         803         804         809         808
         805         806         811         810
         806         807         812         811
         807         808         813         812
         808         809         814         813
         810         811         816         815
         811         812         817         816
         812         813         818         817
         813         814         819         818
         815         816         821         820
         816         817         822         821
         817         818         823         822
         818         819         824         823
         825         826         831         830
         826         827         832         831
         827         828         833         832
         828         829         834         833
         830         831         836         835
         831         832         837         836
         832         833         838         837
         833         834         839         838
         835         836         841         840
         836         837         842         841
         837         838         843         842
         838         839         844         843
         840         841         846         845
         841         842         847         846
         842         843         848         847
         843         844         849         848
         850         851         856         855
         851         852         857         856
         852         853         858         857
         853         854         859         858
         855         856         861         860
         856         857         862         861
         857         858         863         862
         858         859         864         863
         860         861         866         865
         861         862         867         866
         862         863         868         867
         863         864         869         868
         865         866         871         870
         866         867         872         871
         867         868         873         872
         868         869         874         873
         875         876         881         880
         876         877         882         881
         877         878         883         882
         878         879         884         883
         880         881         886         885
         881         882         887         886
         882         883         888         887
         883         884         889         888
         885         886         891         890
         886         887         892         891
         887         888         893         892
         888         889         894         893
         890         891         896         895
         891         892         897         896
         892         893         898         897
         893         894         899         898
         900         901         906         905
         901         902         907         906
         902         903         908         907
         903         904         909         908
         905         906         911         910
         906         907         912         911
         907         908         913         912
         908         909         914         913
         910         911         916         915
         911         912         917         916
         912         913         918         917
         913         914         919         918
         915         916         921         920
         916         917         922         921
         917         918         923         922
         918         919         924         923
         925         926         931         930
         926         927         932         931
         927         928         933         932
         928         929         934         933
         930         931         936         935
         931         932         937         936
         932         933         938         937
         933         934         939         938
         935         936         941         940
         936         937         942         941
         937         938         943         942
         938         939         944         943
         940         941         946         945
         941         942         947         946
         942         943         948         947
         943         944         949         948
         950         951         956         955
         951         952         957         956
         952         953         958         957
         953         954         959         958
         955         956         961         960
         956         957         962         961
         957         958         963         962
         958         959         964         963
         960         961         966         965
         961         962         967         966
         962         963         968         967
         963         964         969         968
         965         966         971         970
         966         967         972         971
         967         968         973         972
         968         969         974         973
         975         976         981         980
         976         977         982         981
         977         978         983         982
         978         979         984         983
         980         981         986         985
         981         982         987         986
         982         983         988         987
         983         984         989         988
         985         986         991         990
         986         987         992         991
         987         988         993         992
         988         989         994         993
         990         991         996         995
         991         992         997         996
         992         993         998         997
         993         994         999         998
        1000        1001        1006        1005
        1001        1002        1007        1006
        1002        1003        1008        1007
        1003        1004        1009        1008
        1005        1006        1011        1010
        1006        1007        1012        1011
        1007        1008        1013        1012
        1008        1009        1014        1013
        1010        1011        1016        1015
        1011        1012        1017        1016
        1012        1013        1018        1017
        1013        1014        1019        1018
        1015        1016        1021        1020
        1016        1017        1022        1021
        1017        1018        1023        1022
        1018        1019        1024        1023
        1025        1026        1031        1030
        1026        1027        1032        1031
        1027        1028        1033        1032
        1028        1029        1034        1033
        1030        1031        1036        1035
        1031        1032        1037        1036
        1032        1033        1038        1037
        1033        1034        1039        1038
        1035        1036        1041        1040
        1036        1037        1042        1041
        1037        1038        1043        1042
        1038        1039        1044        1043
        1040        1041        1046        1045
        1041        1042        1047        1046
        1042        1043        1048        1047
        1043        1044        1049        1048
        1050        1051        1056        1055
        1051        1052        1057        1056
        1052        1053        1058        1057
        1053        1054        1059        1058
        1055        1056        1061        1060
        1056        1057        1062        1061
        1057        1058        1063        1062
        1058        1059        1064        1063
        1060        1061        1066        1065
        1061        1062        1067        1066
        1062        1063        1068        1067
        1063        1064        1069        1068
        1065        1066        1071        1070
        1066        1067        1072        1071
        1067        1068        1073        1072
        1068        1069        1074        1073
        1075        1076        1081        1080
        1076        1077        1082        1081
        1077        1078        1083        1082
        1078        1079        1084        1083
        1080        1081        1086        1085
        1081        1082        1087        1086
        1082        1083        1088        1087
        1083        1084        1089        1088
        1085        1086        1091        1090
        1086        1087        1092        1091
        1087        1088        1093        1092
        1088        1089        1094        1093
        1090        1091        1096        1095
        1091        1092        1097        1096
        1092        1093        1098        1097
        1093        1094        1099        1098
        1100        1101        1106        1105
        1101        1102        1107        1106
        1102        1103        1108        1107
        1103        1104        1109        1108
        1105        1106        1111        1110
        1106        1107        1112        1111
        1107        1108        1113        1112
        1108        1109        1114        1113
        1110        1111        1116        1115
        1111        1112        1117        1116
        1112        1113        1118        1117
        1113        1114        1119        1118
        1115        1116        1121        1120
        1116        1117        1122        1121
        1117        1118        1123        1122
        1118        1119        1124        1123
        1125        1126        1131        1130
        1126        1127        1132        1131
        1127        1128        1133        1132
        1128        1129        1134        1133
        1130        1131        1136        1135
        1131        1132        1137        1136
        1132        1133        1138        1137
        1133        1134        1139        1138
        1135        1136        1141        1140
        1136        1137        1142        1141
        1137        1138        1143        1142
        1138        1139        1144        1143
        1140        1141        1146        1145
        1141        1142        1147        1146
        1142        1143        1148        1147
        1143        1144        1149        1148
        1150        1151        1156        1155
        1151        1152        1157        1156
        1152        1153        1158        1157
        1153        1154        1159        1158
        1155        1156        1161        1160
        1156        1157        1162        1161
        1157        1158        1163        1162
        1158        1159        1164        1163
        1160        1161        1166        1165
        1161        1162        1167        1166
        1162        1163        1168        1167
        1163        1164        1169        1168
        1165        1166        1171        1170
        1166        1167        1172        1171
        1167        1168        1173        1172
        1168        1169        1174        1173
        1175        1176        1181        1180
        1176        1177        1182        1181
        1177        1178        1183        1182
        1178        1179        1184        1183
        1180        1181        1186        1185
        1181        1182        1187        1186
        1182        1183        1188        1187
        1183        1184        1189        1188
        1185        1186        1191        1190
        1186        1187        1192        1191
        1187        1188        1193        1192
        1188        1189        1194        1193
        1190        1191        1196        1195
        1191        1192        1197        1196
        1192        1193        1198        1197
        1193        1194        1199        1198
        1200        1201        1206        1205
        1201        1202        1207        1206
        1202        1203        1208        1207
        1203        1204        1209        1208
        1205        1206        1211        1210
        1206        1207        1212        1211
        1207        1208        1213        1212
        1208        1209        1214        1213
        1210        1211        1216        1215
        1211        1212        1217        1216
        1212        1213        1218        1217
        1213        1214        1219        1218
        1215        1216        1221        1220
        1216        1217        1222        1221
        1217        1218        1223        1222
        1218        1219        1224        1223
        1225        1226        1231        1230
        1226        1227        1232        1231
        1227        1228        1233        1232
        1228        1229        1234        1233
        1230        1231        1236        1235
        1231        1232        1237        1236
        1232        1233        1238        1237
        1233        1234        1239        1238
        1235        1236        1241        1240
        1236        1237        1242        1241
        1237        1238        1243        1242
        1238        1239        1244        1243
        1240        1241        1246        1245
        1241        1242        1247        1246
        1242        1243        1248        1247
        1243        1244        1249        1248
        1250        1251        1256        1255
        1251        1252        1257        1256
        1252        1253        1258        1257
        1253        1254        1259        1258
        1255        1256        1261        1260
        1256        1257        1262        1261
        1257        1258        1263        1262
        1258        1259        1264        1263
        1260        1261        1266        1265
        1261        1262        1267        1266
        1262        1263        1268        1267
        1263        1264        1269        1268
        1265        1266        1271        1270
        1266        1267        1272        1271
        1267        1268        1273        1272
        1268        1269        1274        1273
        1275        1276        1281        1280
        1276        1277        1282        1281
        1277        1278        1283        1282
        1278        1279        1284        1283
        1280        1281        1286        1285
        1281        1282        1287        1286
        1282        1283        1288        1287
        1283        1284        1289        1288
        1285        1286        1291        1290
        1286        1287        1292        1291
        1287        1288        1293        1292
        1288        1289        1294        1293
        1290        1291        1296        1295
        1291        1292        1297        1296
        1292        1293        1298        1297
        1293        1294        1299        1298
        1300        1301        1306        1305
        1301        1302        1307        1306
        1302        1303        1308        1307
        1303        1304        1309        1308
        1305        1306        1311        1310
        1306        1307        1312        1311
        1307        1308        1313        1312
        1308        1309        1314        1313
        1310        1311        1316        1315
        1311        1312        1317        1316
        1312        1313        1318        1317
        1313        1314        1319        1318
        1315        1316        1321        1320
        1316        1317        1322        1321
        1317        1318        1323        1322
        1318        1319        1324        1323
        1325        1326        1331        1330
        1326        1327        1332        1331
        1327        1328        1333        1332
        1328        1329        1334        1333
        1330        1331        1336        1335
        1331        1332        1337        1336
        1332        1333        1338        1337
        1333        1334        1339        1338
        1335        1336        1341        1340
        1336        1337        1342        1341
        1337        1338        1343        1342
        1338        1339        1344        1343
        1340        1341        1346        1345
        1341        1342        1347        1346
        1342        1343        1348        1347
        1343        1344        1349        1348
        1350        1351        1356        1355
        1351        1352        1357        1356
        1352        1353        1358        1357
        1353        1354        1359        1358
        1355        1356        1361        1360
        1356        1357        1362        1361
        1357        1358        1363        1362
        1358        1359        1364        1363
        1360        1361        1366        1365
        1361        1362        1367        1366
        1362        1363        1368        1367
        1363        1364        1369        1368
        1365        1366        1371        1370
        1366        1367        1372        1371
        1367        1368        1373        1372
        1368        1369        1374        1373
        1375        1376        1381        1380
        1376        1377        1382        1381
        1377        1378        1383        1382
        1378        1379        1384        1383
        1380        1381        1386        1385
        1381        1382        1387        1386
        1382        1383        1388        1387
        1383        1384        1389        1388
        1385        1386        1391        1390
        1386        1387        1392        1391
        1387        1388        1393        1392
        1388        1389        1394        1393
        1390        1391        1396        1395
        1391        1392        1397        1396
        1392        1393        1398        1397
        1393        1394        1399        1398
        1400        1401        1406        1405
        1401        1402        1407        1406
        1402        1403        1408        1407
        1403        1404        1409        1408
        1405        1406        1411        1410
        1406        1407        1412        1411
        1407        1408        1413        1412
        1408        1409        1414        1413
        1410        1411        1416        1415
        1411        1412        1417        1416
        1412        1413        1418        1417
        1413        1414        1419        1418
        1415        1416        1421        1420
        1416        1417        1422        1421
        1417        1418        1423        1422
        1418        1419        1424        1423
        1425        1426        1431        1430
        1426        1427        1432        1431
        1427        1428        1433        1432
        1428        1429        1434        1433
        1430        1431        1436        1435
        1431        1432        1437        1436
        1432        1433        1438        1437
        1433        1434        1439        1438
        1435        1436        1441        1440
        1436        1437        1442        1441
        1437        1438        1443        1442
        1438        1439        1444        1443
        1440        1441        1446        1445
        1441        1442        1447        1446
        1442        1443        1448        1447
        1443        1444        1449        1448
        1450        1451        1456        1455
        1451        1452        1457        1456
        1452        1453        1458        1457
        1453        1454        1459        1458
        1455        1456        1461        1460
        1456        1457        1462        1461
        1457        1458        1463        1462
        1458        1459        1464        1463
        1460        1461        1466        1465
        1461        1462        1467        1466
        1462        1463        1468        1467
        1463        1464        1469        1468
        1465        1466        1471        1470
        1466        1467        1472        1471
        1467        1468        1473        1472
        1468        1469        1474        1473
        1475        1476        1481        1480
        1476        1477        1482        1481
        1477        1478        1483        1482
        1478        1479        1484        1483
        1480        1481        1486        1485
        1481        1482        1487        1486
        1482        1483        1488        1487
        1483        1484        1489        1488
        1485        1486        1491        1490
        1486        1487        1492        1491
        1487        1488        1493        1492
        1488        1489        1494        1493
        1490        1491        1496        1495
        1491        1492        1497        1496
        1492        1493        1498        1497
        1493        1494        1499        1498
        1500        1501        1506        1505
        1501        1502        1507        1506
        1502        1503        1508        1507
        1503        1504        1509        1508
        1505        1506        1511        1510
        1506        1507        1512        1511
        1507        1508        1513        1512
        1508        1509        1514        1513
        1510        1511        1516        1515
        1511        1512        1517        1516
        1512        1513        1518        1517
        1513        1514        1519        1518
        1515        1516        1521        1520
        1516        1517        1522        1521
        1517        1518        1523        1522
        1518        1519        1524        1523
        1525        1526        1531        1530
        1526        1527        1532        1531
        1527        1528        1533        1532
        1528        1529        1534        1533
        1530        1531        1536        1535
        1531        1532        1537        1536
        1532        1533        1538        1537
        1533        1534        1539        1538
        1535        1536        1541        1540
        1536        1537        1542        1541
        1537        1538        1543        1542
        1538        1539        1544        1543
        1540        1541        1546        1545
        1541        1542        1547        1546
        1542        1543        1548        1547
        1543        1544        1549        1548
        1550        1551        1556        1555
        1551        1552        1557        1556
        1552        1553        1558        1557
        1553        1554        1559        1558
        1555        1556        1561        1560
        1556        1557        1562        1561
        1557        1558        1563        1562
        1558        1559        1564        1563
        1560        1561        1566        1565
        1561        1562        1567        1566
        1562        1563        1568        1567
        1563        1564        1569        1568
        1565        1566        1571        1570
        1566        1567        1572        1571
        1567        1568        1573        1572
        1568        1569        1574        1573
        1575        1576        1581        1580
        1576        1577        1582        1581
        1577        1578        1583        1582
        1578        1579        1584        1583
        1580        1581        1586        1585
        1581        1582        1587        1586
        1582        1583        1588        1587
        1583        1584        1589        1588
        1585        1586        1591        1590
        1586        1587        1592        1591
        1587        1588        1593        1592
        1588        1589        1594        1593
        1590        1591        1596        1595
        1591        1592        1597        1596
        1592        1593        1598        1597
        1593        1594        1599        1598
 </DataArray>
 <DataArray  type="Int32"  Name="offsets"  format="ascii"> 
           4
           8
          12
          16
          20
          24
          28
          32
          36
          40
          44
          48
          52
          56
          60
          64
          68
          72
          76
          80
          84
          88
          92
          96
         100
         104
         108
         112
         116
         120
         124
         128
         132
         136
         140
         144
         148
         152
         156
         160
         164
         168
         172
         176
         180
         184
         188
         192
         196
         200
         204
         208
         212
         216
         220
         224
         228
         232
         236
         240
         244
         248
         252
         256
         260
         264
         268
         272
         276
         280
         284
         288
         292
         296
         300
         304
         308
         312
         316
         320
         324
         328
         332
         336
         340
         344
         348
         352
         356
         360
         364
         368
         372
         376
         380
         384
         388
         392
         396
         400
         404
         408
         412
         416
         420
         424
         428
         432
         436
         440
         444
         448
         452
         456
         460
         464
         468
         472
         476
         480
         484
         488
         492
         496
         500
         504
         508
         512
         516
         520
         524
         528
         532
         536
         540
         544
         548
         552
         556
         560
         564
         568
         572
         576
         580
         584
         588
         592
         596
         600
         604
         608
         612
         616
         620
         624
         628
         632
         636
         640
         644
         648
         652
         656
         660
         664
         668
         672
         676
         680
         684
         688
         692
         696
         700
         704
         708
         712
         716
         720
         724
         728
         732
         736
         740
         744
         748
         752
         756
         760
         764
         768
         772
         776
         780
         784
         788
         792
         796
         800
         804
         808
         812
         816
         820
         824
         828
         832
         836
         840
         844
         848
         852
         856
         860
         864
         868
         872
         876
         880
         884
         888
         892
         896
         900
         904
         908
         912
         916
         920
         924
         928
         932
         936
         940
         944
         948
         952
         956
         960
         964
         968
         972
         976
         980
         984
         988
         992
         996
        1000
        1004
        1008
        1012
        1016
        1020
        1024
        1028
        1032
        1036
        1040
        1044
        1048
        1052
        1056
        1060
        1064
        1068
        1072
        1076
        1080
        1084
        1088
        1092
        1096
        1100
        1104
        1108
        1112
        1116
        1120
        1124
        1128
        1132
        1136
        1140
        1144
        1148
        1152
        1156
        1160
        1164
        1168
        1172
        1176
        1180
        1184
        1188
        1192
        1196
        1200
        1204
        1208
        1212
        1216
        1220
        1224
        1228
        1232
        1236
        1240
        1244
        1248
        1252
        1256
        1260
        1264
        1268
        1272
        1276
        1280
        1284
        1288
        1292
        1296
        1300
        1304
        1308
        1312
        1316
        1320
        1324
        1328
        1332
        1336
        1340
        1344
        1348
        1352
        1356
        1360
        1364
        1368
        1372
        1376
        1380
        1384
        1388
        1392
        1396
        1400
        1404
        1408
        1412
        1416
        1420
        1424
        1428
        1432
        1436
        1440
        1444
        1448
        1452
        1456
        1460
        1464
        1468
        1472
        1476
        1480
        1484
        1488
        1492
        1496
        1500
        1504
        1508
        1512
        1516
        1520
        1524
        1528
        1532
        1536
        1540
        1544
        1548
        1552
        1556
        1560
        1564
        1568
        1572
        1576
        1580
        1584
        1588
        1592
        1596
        1600
        1604
        1608
        1612
        1616
        1620
        1624
        1628
        1632
        1636
        1640
        1644
        1648
        1652
        1656
        1660
        1664
        1668
        1672
        1676
        1680
        1684
        1688
        1692
        1696
        1700
        1704
        1708
        1712
        1716
        1720
        1724
        1728
        1732
        1736
        1740
        1744
        1748
        1752
        1756
        1760
        1764
        1768
        1772
        1776
        1780
        1784
        1788
        1792
        1796
        1800
        1804
        1808
        1812
        1816
        1820
        1824
        1828
        1832
        1836
        1840
        1844
        1848
        1852
        1856
        1860
        1864
        1868
        1872
        1876
        1880
        1884
        1888
        1892
        1896
        1900
        1904
        1908
        1912
        1916
        1920
        1924
        1928
        1932
        1936
        1940
        1944
        1948
        1952
        1956
        1960
        1964
        1968
        1972
        1976
        1980
        1984
        1988
        1992
        1996
        2000
        2004
        2008
        2012
        2016
        2020
        2024
        2028
        2032
        2036
        2040
        2044
        2048
        2052
        2056
        2060
        2064
        2068
        2072
        2076
        2080
        2084
        2088
        2092
        2096
        2100
        2104
        2108
        2112
        2116
        2120
        2124
        2128
        2132
        2136
        2140
        2144
        2148
        2152
        2156
        2160
        2164
        2168
        2172
        2176
        2180
        2184
        2188
        2192
        2196
        2200
        2204
        2208
        2212
        2216
        2220
        2224
        2228
        2232
        2236
        2240
        2244
        2248
        2252
        2256
        2260
        2264
        2268
        2272
        2276
        2280
        2284
        2288
        2292
        2296
        2300
        2304
        2308
        2312
        2316
        2320
        2324
        2328
        2332
        2336
        2340
        2344
        2348
        2352
        2356
        2360
        2364
        2368
        2372
        2376
        2380
        2384
        2388
        2392
        2396
        2400
        2404
        2408
        2412
        2416
        2420
        2424
        2428
        2432
        2436
        2440
        2444
        2448
        2452
        2456
        2460
        2464
        2468
        2472
        2476
        2480
        2484
        2488
        2492
        2496
        2500
        2504
        2508
        2512
        2516
        2520
        2524
        2528
        2532
        2536
        2540
        2544
        2548
        2552
        2556
        2560
        2564
        2568
        2572
        2576
        2580
        2584
        2588
        2592
        2596
        2600
        2604
        2608
        2612
        2616
        2620
        2624
        2628
        2632
        2636
        2640
        2644
        2648
        2652
        2656
        2660
        2664
        2668
        2672
        2676
        2680
        2684
        2688
        2692
        2696
        2700
        2704
        2708
        2712
        2716
        2720
        2724
        2728
        2732
        2736
        2740
        2744
        2748
        2752
        2756
        2760
        2764
        2768
        2772
        2776
        2780
        2784
        2788
        2792
        2796
        2800
        2804
        2808
        2812
        2816
        2820
        2824
        2828
        2832
        2836
        2840
        2844
        2848
        2852
        2856
        2860
        2864
        2868
        2872
        2876
        2880
        2884
        2888
        2892
        2896
        2900
        2904
        2908
        2912
        2916
        2920
        2924
        2928
        2932
        2936
        2940
        2944
        2948
        2952
        2956
        2960
        2964
        2968
        2972
        2976
        2980
        2984
        2988
        2992
        2996
        3000
        3004
        3008
        3012
        3016
        3020
        3024
        3028
        3032
        3036
        3040
        3044
        3048
        3052
        3056
        3060
        3064
        3068
        3072
        3076
        3080
        3084
        3088
        3092
        3096
        3100
        3104
        3108
        3112
        3116
        3120
        3124
        3128
        3132
        3136
        3140
        3144
        3148
        3152
        3156
        3160
        3164
        3168
        3172
        3176
        3180
        3184
        3188
        3192
        3196
        3200
        3204
        3208
        3212
        3216
        3220
        3224
        3228
        3232
        3236
        3240
        3244
        3248
        3252
        3256
        3260
        3264
        3268
        3272
        3276
        3280
        3284
        3288
        3292
        3296
        3300
        3304
        3308
        3312
        3316
        3320
        3324
        3328
        3332
        3336
        3340
        3344
        3348
        3352
        3356
        3360
        3364
        3368
        3372
        3376
        3380
        3384
        3388
        3392
        3396
        3400
        3404
        3408
        3412
        3416
        3420
        3424
        3428
        3432
        3436
        3440
        3444
        3448
        3452
        3456
        3460
        3464
        3468
        3472
        3476
        3480
        3484
        3488
        3492
        3496
        3500
        3504
        3508
        3512
        3516
        3520
        3524
        3528
        3532
        3536
        3540
        3544
        3548
        3552
        3556
        3560
        3564
        3568
        3572
        3576
        3580
        3584
        3588
        3592
        3596
        3600
        3604
        3608
        3612
        3616
        3620
        3624
        3628
        3632
        3636
        3640
        3644
        3648
        3652
        3656
        3660
        3664
        3668
        3672
        3676
        3680
        3684
        3688
        3692
        3696
        3700
        3704
        3708
        3712
        3716
        3720
        3724
        3728
        3732
        3736
        3740
        3744
        3748
        3752
        3756
        3760
        3764
        3768
        3772
        3776
        3780
        3784
        3788
        3792
        3796
        3800
        3804
        3808
        3812
        3816
        3820
        3824
        3828
        3832
        3836
        3840
        3844
        3848
        3852
        3856
        3860
        3864
        3868
        3872
        3876
        3880
        3884
        3888
        3892
        3896
        3900
        3904
        3908
        3912
        3916
        3920
        3924
        3928
        3932
        3936
        3940
        3944
        3948
        3952
        3956
        3960
        3964
        3968
        3972
        3976
        3980
        3984
        3988
        3992
        3996
        4000
        4004
        4008
        4012
        4016
        4020
        4024
        4028
        4032
        4036
        4040
        4044
        4048
        4052
        4056
        4060
        4064
        4068
        4072
        4076
        4080
        4084
        4088
        4092
        4096
 </DataArray>
 <DataArray  type="UInt8"  Name="types"  format="ascii">
 9
 9
 9
 9
 9
 9
 9
 9
 9
 9
 9
 9
 9
 9
 9
 9
 9
 9
 9
 9
 9
 9
 9
 9
 9
 9
 9
 9
 9
 9
 9
 9
 9
 9
 9
 9
 9
 9
 9
 9
 9
 9
 9
 9
 9
 9
 9
 9
 9
 9
 9
 9
 9
 9
 9
 9
 9
 9
 9
 9
 9
 9
 9
 9
 9
 9
 9
 9
 9
 9
 9
 9
 9
 9
 9
 9
 9
 9
 9
 9
 9
 9
 9
 9
 9
 9
 9
 9
 9
 9
 9
 9
 9
 9
 9
 9
 9
 9
 9
 9
 9
 9
 9
 9
 9
 9
 9
 9
 9
 9
 9
 9
 9
 9
 9
 9
 9
 9
 9
 9
 9
 9
 9
 9
 9
 9
 9
 9
 9
 9
 9
 9
 9
 9
 9
 9
 9
 9
 9
 9
 9
 9
 9
 9
 9
 9
 9
 9
 9
 9
 9
 9
 9
 9
 9
 9
 9
 9
 9
 9
 9
 9
 9
 9
 9
 9
 9
 9
 9
 9
 9
 9
 9
 9
 9
 9
 9
 9
 9
 9
 9
 9
 9
 9
 9
 9
 9
 9
 9
 9
 9
 9
 9
 9
 9
 9
 9
 9
 9
 9
 9
 9
 9
 9
 9
 9
 9
 9
 9
 9
 9
 9
 9
 9
 9
 9
 9
 9
 9
 9
 9
 9
 9
 9
 9
 9
 9
 9
 9
 9
 9
 9
 9
 9
 9
 9
 9
 9
 9
 9
 9
 9
 9
 9
 9
 9
 9
 9
 9
 9
 9
 9
 9
 9
 9
 9
 9
 9
 9
 9
 9
 9
 9
 9
 9
 9
 9
 9
 9
 9
 9
 9
 9
 9
 9
 9
 9
 9
 9
 9
 9
 9
 9
 9
 9
 9
 9
 9
 9
 9
 9
 9
 9
 9
 9
 9
 9
 9
 9
 9
 9
 9
 9
 9
 9
 9
 9
 9
 9
 9
 9
 9
 9
 9
 9
 9
 9
 9
 9
 9
 9
 9
 9
 9
 9
 9
 9
 9
 9
 9
 9
 9
 9
 9
 9
 9
 9
 9
 9
 9
 9
 9
 9
 9
 9
 9
 9
 9
 9
 9
 9
 9
 9
 9
 9
 9
 9
 9
 9
 9
 9
 9
 9
 9
 9
 9
 9
 9
 9
 9
 9
 9
 9
 9
 9
 9
 9
 9
 9
 9
 9
 9
 9
 9
 9
 9
 9
 9
 9
 9
 9
 9
 9
 9
 9
 9
 9
 9
 9
 9
 9
 9
 9
 9
 9
 9
 9
 9
 9
 9
 9
 9
 9
 9
 9
 9
 9
 9
 9
 9
 9
 9
 9
 9
 9
 9
 9
 9
 9
 9
 9
 9
 9
 9
 9
 9
 9
 9
 9
 9
 9
 9
 9
 9
 9
 9
 9
 9
 9
 9
 9
 9
 9
 9
 9
 9
 9
 9
 9
 9
 9
 9
 9
 9
 9
 9
 9
 9
 9
 9
 9
 9
 9
 9
 9
 9
 9
 9
 9
 9
 9
 9
 9
 9
 9
 9
 9
 9
 9
 9
 9
 9
 9
 9
 9
 9
 9
 9
 9
 9
 9
 9
 9
 9
 9
 9
 9
 9
 9
 9
 9
 9
 9
 9
 9
 9
 9
 9
 9
 9
 9
 9
 9
 9
 9
 9
 9
 9
 9
 9
 9
 9
 9
 9
 9
 9
 9
 9
 9
 9
 9
 9
 9
 9
 9
 9
 9
 9
 9
 9
 9
 9
 9
 9
 9
 9
 9
 9
 9
 9
 9
 9
 9
 9
 9
 9
 9
 9
 9
 9
 9
 9
 9
 9
 9
 9
 9
 9
 9
 9
 9
 9
 9
 9
 9
 9
 9
 9
 9
 9
 9
 9
 9
 9
 9
 9
 9
 9
 9
 9
 9
 9
 9
 9
 9
 9
 9
 9
 9
 9
 9
 9
 9
 9
 9
 9
 9
 9
 9
 9
 9
 9
 9
 9
 9
 9
 9
 9
 9
 9
 9
 9
 9
 9
 9
 9
 9
 9
 9
 9
 9
 9
 9
 9
 9
 9
 9
 9
 9
 9
 9
 9
 9
 9
 9
 9
 9
 9
 9
 9
 9
 9
 9
 9
 9
 9
 9
 9
 9
 9
 9
 9
 9
 9
 9
 9
 9
 9
 9
 9
 9
 9
 9
 9
 9
 9
 9
 9
 9
 9
 9
 9
 9
 9
 9
 9
 9
 9
 9
 9
 9
 9
 9
 9
 9
 9
 9
 9
 9
 9
 9
 9
 9
 9
 9
 9
 9
 9
 9
 9
 9
 9
 9
 9
 9
 9
 9
 9
 9
 9
 9
 9
 9
 9
 9
 9
 9
 9
 9
 9
 9
 9
 9
 9
 9
 9
 9
 9
 9
 9
 9
 9
 9
 9
 9
 9
 9
 9
 9
 9
 9
 9
 9
 9
 9
 9
 9
 9
 9
 9
 9
 9
 9
 9
 9
 9
 9
 9
 9
 9
 9
 9
 9
 9
 9
 9
 9
 9
 9
 9
 9
 9
 9
 9
 9
 9
 9
 9
 9
 9
 9
 9
 9
 9
 9
 9
 9
 9
 9
 9
 9
 9
 9
 9
 9
 9
 9
 9
 9
 9
 9
 9
 9
 9
 9
 9
 9
 9
 9
 9
 9
 9
 9
 9
 9
 9
 9
 9
 9
 9
 9
 9
 9
 9
 9
 9
 9
 9
 9
 9
 9
 9
 9
 9
 9
 9
 9
 9
 9
 9
 9
 9
 9
 9
 9
 9
 9
 9
 9
 9
 9
 9
 9
 9
 9
 9
 9
 9
 9
 9
 9
 9
 9
 9
 9
 9
 9
 9
 9
 9
 9
 9
 9
 9
 9
 9
 9
 9
 9
 9
 9
 9
 9
 9
 9
 9
 9
 9
 9
 9
 9
 9
 9
 9
 9
 9
 9
 9
 9
 9
 9
 9
 9
 9
 9
 9
 9
 9
 9
 9
 9
 9
 9
 9
 9
 9
 9
 9
 9
 9
 9
 9
 9
 9
 9
 9
 9
 9
 9
 9
 9
 9
 9
 9
 9
 9
 9
 9
 9
 9
 9
 9
 9
 9
 9
 9
 9
 9
 9
 9
 9
 9
 9
 9
 9
 9
 9
 9
 9
 9
 9
 9
 9
 9
 9
 9
 9
 9
 9
 9
 9
 9
 9
 9
 9
 9
 9
 9
 9
 9
 9
 9
 9
 9
 9
 9
 9
 9
 9
 9
 9
 9
 9
 9
 9
 9
 9
 9
 9
 9
 9
 9
 9
 9
 </DataArray>
 </Cells> 
 <PointData>
 <DataArray  type="Float64" Name="disp" NumberOfComponents="3" format="ascii">
   6.4162655863292450E-002   6.2576425188095391E-002   0.0000000000000000     
   6.7625001744310242E-002   6.8013990598150803E-002   0.0000000000000000     
   7.0878338886413761E-002   7.3622655648636071E-002   0.0000000000000000     
   7.3922667289602964E-002   7.9402420339551194E-002   0.0000000000000000     
   7.6757986953877894E-002   8.5353284670896173E-002   0.0000000000000000     
   5.9755467984518348E-002   6.1868040021728826E-002   0.0000000000000000     
   6.2812922075123762E-002   6.7281978839383194E-002   0.0000000000000000     
   6.5716865410519881E-002   7.2878978727922983E-002   0.0000000000000000     
   6.8467297990706694E-002   7.8659039687348220E-002   0.0000000000000000     
   7.1064219815684199E-002   8.4622161717658920E-002   0.0000000000000000     
   5.5231802045140374E-002   6.1079414846807879E-002   0.0000000000000000     
   5.7967064070785251E-002   6.6509841497258235E-002   0.0000000000000000     
   6.0586170448022933E-002   7.2124797780505623E-002   0.0000000000000000     
   6.3089121176853419E-002   7.7924283696550065E-002   0.0000000000000000     
   6.5475916257276709E-002   8.3908299245391574E-002   0.0000000000000000     
   5.0591658045158527E-002   6.0210549663332537E-002   0.0000000000000000     
   5.3087427731294705E-002   6.5697578571775939E-002   0.0000000000000000     
   5.5486253998922916E-002   7.1360112806384018E-002   0.0000000000000000     
   5.7788136848043133E-002   7.7198152367156742E-002   0.0000000000000000     
   5.9993076278655383E-002   8.3211697254094150E-002   0.0000000000000000     
   4.5835035984572822E-002   5.9261444471302806E-002   0.0000000000000000     
   4.8174013056652129E-002   6.4845190062936306E-002   0.0000000000000000     
   5.0417116063219802E-002   7.0584923805558128E-002   0.0000000000000000     
   5.2564345004275849E-002   7.6480645699168223E-002   0.0000000000000000     
   5.4615699879820262E-002   8.2532355743766633E-002   0.0000000000000000     
   7.6757986953877894E-002   8.5353284670896173E-002   0.0000000000000000     
   7.9446979701797454E-002   9.1466845280440606E-002   0.0000000000000000     
   8.2052327355920496E-002   9.7734698805954090E-002   0.0000000000000000     
   8.4574029916247073E-002  0.10415684524743664        0.0000000000000000     
   8.7012087382777159E-002  0.11073328460488824        0.0000000000000000     
   7.1064219815684199E-002   8.4622161717658920E-002   0.0000000000000000     
   7.3548557113727764E-002   9.0754494301305777E-002   0.0000000000000000     
   7.5961236113112757E-002   9.7042186920739557E-002   0.0000000000000000     
   7.8302256813839177E-002  0.10348523957596023        0.0000000000000000     
   8.0571619215907025E-002  0.11008365226696784        0.0000000000000000     
   6.5475916257276709E-002   8.3908299245391574E-002   0.0000000000000000     
   6.7773138935443358E-002   9.0062524807084168E-002   0.0000000000000000     
   7.0007372457504005E-002   9.6372640761681880E-002   0.0000000000000000     
   7.2178616823458608E-002  0.10283864710918472        0.0000000000000000     
   7.4286872033307194E-002  0.10946054384959271        0.0000000000000000     
   5.9993076278655383E-002   8.3211697254094150E-002   0.0000000000000000     
   6.2120725166944224E-002   8.9390936797775739E-002   0.0000000000000000     
   6.4190736389094213E-002   9.5726060328781074E-002   0.0000000000000000     
   6.6203109945105365E-002  0.10221706784711010        0.0000000000000000     
   6.8157845834977665E-002  0.10886395935276287        0.0000000000000000     
   5.4615699879820262E-002   8.2532355743766633E-002   0.0000000000000000     
   5.6591315808230333E-002   8.8739730273380543E-002   0.0000000000000000     
   5.8511327907883395E-002   9.5102445622037124E-002   0.0000000000000000     
   6.0375736178779428E-002  0.10162050178973636        0.0000000000000000     
   6.2184540620918459E-002  0.10829389877647828        0.0000000000000000     
   8.7012087382777159E-002  0.11073328460488824        0.0000000000000000     
   8.9352255261374844E-002  0.11745349370093279        0.0000000000000000     
   9.1580289057904204E-002  0.12430694935819421        0.0000000000000000     
   9.3696188772365255E-002  0.13129365157667250        0.0000000000000000     
   9.5699954404757967E-002  0.13841360035636763        0.0000000000000000     
   8.0571619215907025E-002  0.11008365226696784        0.0000000000000000     
   8.2753654744763178E-002  0.11682720354977327        0.0000000000000000     
   8.4832694825854524E-002  0.12370567198038745        0.0000000000000000     
   8.6808739459181078E-002  0.13071905755881036        0.0000000000000000     
   8.8681788644742840E-002  0.13786736028504204        0.0000000000000000     
   7.4286872033307194E-002  0.10946054384959271        0.0000000000000000     
   7.6316189071297960E-002  0.11622828109671537        0.0000000000000000     
   7.8250618921679102E-002  0.12313180896436221        0.0000000000000000     
   8.0090161584450661E-002  0.13017112745253326        0.0000000000000000     
   8.1834817059612597E-002  0.13734623656122849        0.0000000000000000     
   6.8157845834977665E-002  0.10886395935276287        0.0000000000000000     
   7.0039858240979178E-002  0.11565672634175911        0.0000000000000000     
   7.1834061345377939E-002  0.12258536031011855        0.0000000000000000     
   7.3540455148173950E-002  0.12964986125784120        0.0000000000000000     
   7.5159039649367210E-002  0.13685022918492706        0.0000000000000000     
   6.2184540620918459E-002  0.10829389877647828        0.0000000000000000     
   6.3924662253806858E-002  0.11511253928490446        0.0000000000000000     
   6.5583022096951035E-002  0.12206632601765638        0.0000000000000000     
   6.7159620150350985E-002  0.12915525897473412        0.0000000000000000     
   6.8654456414006707E-002  0.13637933815613767        0.0000000000000000     
   9.5699954404757967E-002  0.13841360035636763        0.0000000000000000     
   9.7604755824331133E-002  0.14565537562521391        0.0000000000000000     
   9.9423762900333515E-002  0.15300755731114565        0.0000000000000000     
  0.10115697563276510       0.16047014541416288        0.0000000000000000     
  0.10280439402162590       0.16804313993426556        0.0000000000000000     
   8.8681788644742840E-002  0.13786736028504204        0.0000000000000000     
   9.0462669431519094E-002  0.14513683259363844        0.0000000000000000     
   9.2162208868489165E-002  0.15251372691915555        0.0000000000000000     
   9.3780406955652998E-002  0.15999804326159336        0.0000000000000000     
   9.5317263693010648E-002  0.16758978162095187        0.0000000000000000     
   8.1834817059612597E-002  0.13734623656122849        0.0000000000000000     
   8.3493517611953852E-002  0.14464220470328321        0.0000000000000000     
   8.5075195506263288E-002  0.15204410029153262        0.0000000000000000     
   8.6579850742540959E-002  0.15955192332597673        0.0000000000000000     
   8.8007483320786825E-002  0.16716567380661559        0.0000000000000000     
   7.5159039649367210E-002  0.13685022918492706        0.0000000000000000     
   7.6697300365635337E-002  0.14417149195414827        0.0000000000000000     
   7.8162722813655910E-002  0.15159867742827693        0.0000000000000000     
   7.9555306993428984E-002  0.15913178560731309        0.0000000000000000     
   8.0875052904954475E-002  0.16677081649125669        0.0000000000000000     
   6.8654456414006707E-002  0.13637933815613767        0.0000000000000000     
   7.0074017692563592E-002  0.14372469434623358        0.0000000000000000     
   7.1424790790667048E-002  0.15117745832938845        0.0000000000000000     
   7.2706775708317017E-002  0.15873763010560230        0.0000000000000000     
   7.3919972445513571E-002  0.16640520967487513        0.0000000000000000     
  0.10280439402162590       0.16804313993426556        0.0000000000000000     
  0.10436409488664088       0.17571514409650554        0.0000000000000000     
  0.10583415504753500       0.18347476112593472        0.0000000000000000     
  0.10721457450430825       0.19132199102255304        0.0000000000000000     
  0.10850535325696067       0.19925683378636050        0.0000000000000000     
   9.5317263693010648E-002  0.16758978162095187        0.0000000000000000     
   9.6770596806856402E-002  0.17528056054339472        0.0000000000000000     
   9.8138224023484599E-002  0.18306199857508540        0.0000000000000000     
   9.9420145342895228E-002  0.19093409571602390        0.0000000000000000     
  0.10061636076508829       0.19889685196621038        0.0000000000000000     
   8.8007483320786825E-002  0.16716567380661559        0.0000000000000000     
   8.9355565774067391E-002  0.17487839073781605        0.0000000000000000     
   9.0621570635449053E-002  0.18268311312394514        0.0000000000000000     
   9.1805497904931865E-002  0.19057984096500280        0.0000000000000000     
   9.2907347582515815E-002  0.19856857426098912        0.0000000000000000     
   8.0875052904954475E-002  0.16677081649125669        0.0000000000000000     
   8.2119001788273832E-002  0.17450863467976963        0.0000000000000000     
   8.3284194883428392E-002  0.18233810477251397        0.0000000000000000     
   8.4370632190418224E-002  0.19025922676948964        0.0000000000000000     
   8.5378313709243259E-002  0.19827200067069667        0.0000000000000000     
   7.3919972445513571E-002  0.16640520967487513        0.0000000000000000     
   7.5060904849475751E-002  0.17417129236925544        0.0000000000000000     
   7.6126096767422630E-002  0.18202697352079192        0.0000000000000000     
   7.7115548199354275E-002  0.18997225312948443        0.0000000000000000     
   7.8029259145270605E-002  0.19800713119533311        0.0000000000000000     
  0.10850535325696067       0.19925683378636050        0.0000000000000000     
  0.10971362454534836       0.20727658043843819        0.0000000000000000     
  0.11084652160932745       0.21537852199986718        0.0000000000000000     
  0.11190404444889794       0.22356265847064744        0.0000000000000000     
  0.11288619306405986       0.23182898985077893        0.0000000000000000     
  0.10061636076508829       0.19889685196621038        0.0000000000000000     
  0.10173322900121395       0.20694362128957453        0.0000000000000000     
  0.10277710876242235       0.21506775765004621        0.0000000000000000     
  0.10374800004871353       0.22326926104762543        0.0000000000000000     
  0.10464590286008744       0.23154813148231221        0.0000000000000000     
   9.2907347582515815E-002  0.19856857426098912        0.0000000000000000     
   9.3932271350127799E-002  0.20664061470133060        0.0000000000000000     
   9.4885420889694760E-002  0.21478726397545400        0.0000000000000000     
   9.5766796201216656E-002  0.22300852208335922        0.0000000000000000     
   9.6576397284693541E-002  0.23130438902504641        0.0000000000000000     
   8.5378313709243259E-002  0.19827200067069667        0.0000000000000000     
   8.6310751592089924E-002  0.20636756067370648        0.0000000000000000     
   8.7171457991144646E-002  0.21453704097609053        0.0000000000000000     
   8.7960432906407371E-002  0.22278044157784888        0.0000000000000000     
   8.8677676337878167E-002  0.23109776247898142        0.0000000000000000     
   7.8029259145270605E-002  0.19800713119533311        0.0000000000000000     
   7.8868669727100313E-002  0.20612445920670217        0.0000000000000000     
   7.9635220066771983E-002  0.21431708865195587        0.0000000000000000     
   8.0328910164285672E-002  0.22258501953109427        0.0000000000000000     
   8.0949740019641309E-002  0.23092825184411739        0.0000000000000000     
  0.11288619306405986       0.23182898985077893        0.0000000000000000     
  0.11382112547976227       0.24019365720003216        0.0000000000000000     
  0.11473699972095426       0.24867280157817745        0.0000000000000000     
  0.11563381578763583       0.25726642298521479        0.0000000000000000     
  0.11651157367980700       0.26597452142114425        0.0000000000000000     
  0.10464590286008744       0.23154813148231221        0.0000000000000000     
  0.10547569673197585       0.23992788327998488        0.0000000000000000     
  0.10624226119981046       0.24843203076652182        0.0000000000000000     
  0.10694559626359129       0.25706057394192300        0.0000000000000000     
  0.10758570192331834       0.26581351280618848        0.0000000000000000     
   9.6576397284693541E-002  0.23130438902504641        0.0000000000000000     
   9.7304833079281949E-002  0.23970158069191461        0.0000000000000000     
   9.7942712524138359E-002  0.24822681297536328        0.0000000000000000     
   9.8490035619262853E-002  0.25688008587539241        0.0000000000000000     
   9.8946802364655417E-002  0.26566139939200184        0.0000000000000000     
   8.8677676337878167E-002  0.23109776247898142        0.0000000000000000     
   8.9308534521680527E-002  0.23951474943582138        0.0000000000000000     
   8.9838353693937972E-002  0.24805714820470187        0.0000000000000000     
   9.0267133854650516E-002  0.25672495878562290        0.0000000000000000     
   9.0594875003818201E-002  0.26551818117858450        0.0000000000000000     
   8.0949740019641309E-002  0.23092825184411739        0.0000000000000000     
   8.1486801059171637E-002  0.23936738951170516        0.0000000000000000     
   8.1929184709209291E-002  0.24792303645453759        0.0000000000000000     
   8.2276890969754310E-002  0.25659519267261466        0.0000000000000000     
   8.2529919840806654E-002  0.26538385816593635        0.0000000000000000     
  0.11651157367980700       0.26597452142114425        0.0000000000000000     
  0.11731062244151300       0.27496199256463072        0.0000000000000000     
  0.11797131111679907       0.28439373209433916        0.0000000000000000     
  0.11849363970566523       0.29426974001026956        0.0000000000000000     
  0.11887760820811147       0.30459001631242189        0.0000000000000000     
  0.10758570192331834       0.26581351280618848        0.0000000000000000     
  0.10814363885758529       0.27482304947192082        0.0000000000000000     
  0.10860046774498576       0.28422138605172292        0.0000000000000000     
  0.10895618858551978       0.29400852254559467        0.0000000000000000     
  0.10921080137918734       0.30418445895353602        0.0000000000000000     
   9.8946802364655417E-002  0.26566139939200184        0.0000000000000000     
   9.9324102471250883E-002  0.27466896808807129        0.0000000000000000     
   9.9633025649984205E-002  0.28400100652647997        0.0000000000000000     
   9.9873571900855315E-002  0.29365751470722806        0.0000000000000000     
  0.10004574122386423       0.30363849263031550        0.0000000000000000     
   9.0594875003818201E-002  0.26551818117858450        0.0000000000000000     
   9.0852013282509830E-002  0.27449974841308189        0.0000000000000000     
   9.1068984831794375E-002  0.28373259351861024        0.0000000000000000     
   9.1245789651671821E-002  0.29321671649516978        0.0000000000000000     
   9.1382427742142155E-002  0.30295211734276023        0.0000000000000000     
   8.2529919840806654E-002  0.26538385816593635        0.0000000000000000     
   8.2727371291362081E-002  0.27431539044695274        0.0000000000000000     
   8.2908345290416297E-002  0.28341614702811385        0.0000000000000000     
   8.3072841837969300E-002  0.29268612790941972        0.0000000000000000     
   8.3220860934021090E-002  0.30212533309087025        0.0000000000000000     
   4.5835035984572822E-002   5.9261444471302806E-002   0.0000000000000000     
   4.8174013056652129E-002   6.4845190062936306E-002   0.0000000000000000     
   5.0417116063219802E-002   7.0584923805558128E-002   0.0000000000000000     
   5.2564345004275849E-002   7.6480645699168223E-002   0.0000000000000000     
   5.4615699879820262E-002   8.2532355743766633E-002   0.0000000000000000     
   4.1177016950330846E-002   5.8410058604429355E-002   0.0000000000000000     
   4.3380361871302849E-002   6.4073288720668142E-002   0.0000000000000000     
   4.5483920327227166E-002   6.9877232614204823E-002   0.0000000000000000     
   4.7487692318103798E-002   7.5821890285039412E-002   0.0000000000000000     
   4.9391677843932752E-002   8.1907261733171907E-002   0.0000000000000000     
   3.6832682029380212E-002   5.7834351396422852E-002   0.0000000000000000     
   3.8860015999692188E-002   6.3502487294900226E-002   0.0000000000000000     
   4.0791830477258512E-002   6.9315041068501018E-002   0.0000000000000000     
   4.2628125462079225E-002   7.5272012717225195E-002   0.0000000000000000     
   4.4368900954154321E-002   8.1373402241072812E-002   0.0000000000000000     
   3.2802031221720922E-002   5.7534322847283277E-002   0.0000000000000000     
   3.4612975441820133E-002   6.3132785785632556E-002   0.0000000000000000     
   3.6340846513313881E-002   6.8898349168446671E-002   0.0000000000000000     
   3.7985644436202136E-002   7.4831012995725601E-002   0.0000000000000000     
   3.9547369210484934E-002   8.0930777267469320E-002   0.0000000000000000     
   2.9085064527352968E-002   5.7509972957010672E-002   0.0000000000000000     
   3.0639240197686702E-002   6.2964184192865175E-002   0.0000000000000000     
   3.2130968435393224E-002   6.8627156914041823E-002   0.0000000000000000     
   3.3560249240472538E-002   7.4498891120540589E-002   0.0000000000000000     
   3.4927082612924626E-002   8.0579386812361473E-002   0.0000000000000000     
   5.4615699879820262E-002   8.2532355743766633E-002   0.0000000000000000     
   5.6591315808230333E-002   8.8739730273380543E-002   0.0000000000000000     
   5.8511327907883395E-002   9.5102445622037124E-002   0.0000000000000000     
   6.0375736178779428E-002  0.10162050178973636        0.0000000000000000     
   6.2184540620918459E-002  0.10829389877647828        0.0000000000000000     
   4.9391677843932752E-002   8.1907261733171907E-002   0.0000000000000000     
   5.1218625417028568E-002   8.8140485323144294E-002   0.0000000000000000     
   5.2991283549705781E-002   9.4528699419498610E-002   0.0000000000000000     
   5.4709652241964390E-002  0.10107190402223483        0.0000000000000000     
   5.6373731493804403E-002  0.10777009913135298        0.0000000000000000     
   4.4368900954154321E-002   8.1373402241072812E-002   0.0000000000000000     
   4.6036368551065771E-002   8.7624782036312771E-002   0.0000000000000000     
   4.7652739850395587E-002   9.4031724499214098E-002   0.0000000000000000     
   4.9218014852143770E-002  0.10059422962977679        0.0000000000000000     
   5.0732193556310333E-002  0.10731229742800087        0.0000000000000000     
   3.9547369210484934E-002   8.0930777267469320E-002   0.0000000000000000     
   4.1044545210341940E-002   8.7192620412885960E-002   0.0000000000000000     
   4.2495696809952827E-002   9.3611520861183600E-002   0.0000000000000000     
   4.3900824009317607E-002  0.10018747861236227        0.0000000000000000     
   4.5259926808436261E-002  0.10692049366642196        0.0000000000000000     
   3.4927082612924626E-002   8.0579386812361473E-002   0.0000000000000000     
   3.6243155394857084E-002   8.6844000452863876E-002   0.0000000000000000     
   3.7520154428377493E-002   9.3268088505407132E-002   0.0000000000000000     
   3.8758079713485862E-002   9.9851650969991282E-002   0.0000000000000000     
   3.9956931250182189E-002  0.10659468784661630        0.0000000000000000     
   6.2184540620918459E-002  0.10829389877647828        0.0000000000000000     
   6.3924662253806858E-002  0.11511253928490446        0.0000000000000000     
   6.5583022096951035E-002  0.12206632601765638        0.0000000000000000     
   6.7159620150350985E-002  0.12915525897473412        0.0000000000000000     
   6.8654456414006707E-002  0.13637933815613767        0.0000000000000000     
   5.6373731493804403E-002  0.10777009913135298        0.0000000000000000     
   5.7972687228504988E-002  0.11461296523432772        0.0000000000000000     
   5.9495685369345297E-002  0.12159018281863385        0.0000000000000000     
   6.0942725916325373E-002  0.12870175188427135        0.0000000000000000     
   6.2313808869445174E-002  0.13594767243124015        0.0000000000000000     
   5.0732193556310333E-002  0.10731229742800087        0.0000000000000000     
   5.2186019283797534E-002  0.11417524949820523        0.0000000000000000     
   5.3570235355507659E-002  0.12117240744470895        0.0000000000000000     
   5.4884841771440727E-002  0.12830377126751197        0.0000000000000000     
   5.6129838531596712E-002  0.13556934096661433        0.0000000000000000     
   4.5259926808436261E-002  0.10692049366642196        0.0000000000000000     
   4.6564658419684539E-002  0.11379939207653698        0.0000000000000000     
   4.7806672055438128E-002  0.12081299989588171        0.0000000000000000     
   4.8985967715697062E-002  0.12796131712445610        0.0000000000000000     
   5.0102545400461322E-002  0.13524434376226019        0.0000000000000000     
   3.9956931250182189E-002  0.10659468784661630        0.0000000000000000     
   4.1108604636165960E-002  0.11348539296932297        0.0000000000000000     
   4.2204995469136690E-002  0.12051196017215211        0.0000000000000000     
   4.3246103749094371E-002  0.12767438945510368        0.0000000000000000     
   4.4231929476038989E-002  0.13497268081817770        0.0000000000000000     
   6.8654456414006707E-002  0.13637933815613767        0.0000000000000000     
   7.0074017692563592E-002  0.14372469434623358        0.0000000000000000     
   7.1424790790667048E-002  0.15117745832938845        0.0000000000000000     
   7.2706775708317017E-002  0.15873763010560230        0.0000000000000000     
   7.3919972445513571E-002  0.16640520967487513        0.0000000000000000     
   6.2313808869445174E-002  0.13594767243124015        0.0000000000000000     
   6.3614609886738741E-002  0.14331536793083932        0.0000000000000000     
   6.4850804626240127E-002  0.15079226185436781        0.0000000000000000     
   6.6022393087949272E-002  0.15837835420182558        0.0000000000000000     
   6.7129375271866229E-002  0.16607364497321270        0.0000000000000000     
   5.6129838531596712E-002  0.13556934096661433        0.0000000000000000     
   5.7310017242160914E-002  0.14295706875926564        0.0000000000000000     
   5.8430169509318626E-002  0.15045490686271557        0.0000000000000000     
   5.9490295333069862E-002  0.15806285527696404        0.0000000000000000     
   6.0490394713414601E-002  0.16578091400201117        0.0000000000000000     
   5.0102545400461322E-002  0.13524434376226019        0.0000000000000000     
   5.1160239758830092E-002  0.14264979683151252        0.0000000000000000     
   5.2162885439902586E-002  0.15016539335443171        0.0000000000000000     
   5.3110482443678768E-002  0.15779113333101771        0.0000000000000000     
   5.4003030770158673E-002  0.16552701676127055        0.0000000000000000     
   4.4231929476038989E-002  0.13497268081817770        0.0000000000000000     
   4.5165277436746289E-002  0.14239355214757998        0.0000000000000000     
   4.6048952417991965E-002  0.14992372132951623        0.0000000000000000     
   4.6882954419776010E-002  0.15756318836398650        0.0000000000000000     
   4.7667283442098446E-002  0.16531195325099077        0.0000000000000000     
   7.3919972445513571E-002  0.16640520967487513        0.0000000000000000     
   7.5060904849475751E-002  0.17417129236925544        0.0000000000000000     
   7.6126096767422630E-002  0.18202697352079192        0.0000000000000000     
   7.7115548199354275E-002  0.18997225312948443        0.0000000000000000     
   7.8029259145270605E-002  0.19800713119533311        0.0000000000000000     
   6.7129375271866229E-002  0.16607364497321270        0.0000000000000000     
   6.8167846206482696E-002  0.17386723816032315        0.0000000000000000     
   6.9133900920290425E-002  0.18174823775495089        0.0000000000000000     
   7.0027539413289402E-002  0.18971664375709607        0.0000000000000000     
   7.0848761685479628E-002  0.19777245616675851        0.0000000000000000     
   6.0490394713414601E-002  0.16578091400201117        0.0000000000000000     
   6.1426397108104311E-002  0.17359734640702237        0.0000000000000000     
   6.2294231974890465E-002  0.18150041586116308        0.0000000000000000     
   6.3093899313773058E-002  0.18949012236443330        0.0000000000000000     
   6.3825399124752075E-002  0.19756646591683308        0.0000000000000000     
   5.4003030770158673E-002  0.16552701676127055        0.0000000000000000     
   5.4836557554340574E-002  0.17336161710935311        0.0000000000000000     
   5.5607089931222743E-002  0.18128350783942834        0.0000000000000000     
   5.6314627900805200E-002  0.18929268895149623        0.0000000000000000     
   5.6959171463087939E-002  0.19738916044555674        0.0000000000000000     
   4.7667283442098446E-002  0.16531195325099077        0.0000000000000000     
   4.8398327545191459E-002  0.17316005026731540        0.0000000000000000     
   4.9072474789287258E-002  0.18109751368974678        0.0000000000000000     
   4.9689725174385857E-002  0.18912434351828480        0.0000000000000000     
   5.0250078700487227E-002  0.19724053975292960        0.0000000000000000     
   7.8029259145270605E-002  0.19800713119533311        0.0000000000000000     
   7.8868669727100313E-002  0.20612445920670217        0.0000000000000000     
   7.9635220066771983E-002  0.21431708865195587        0.0000000000000000     
   8.0328910164285672E-002  0.22258501953109427        0.0000000000000000     
   8.0949740019641309E-002  0.23092825184411739        0.0000000000000000     
   7.0848761685479628E-002  0.19777245616675851        0.0000000000000000     
   7.1597089419639701E-002  0.20591042031305976        0.0000000000000000     
   7.2272044298548221E-002  0.21412528152512125        0.0000000000000000     
   7.2873626322205190E-002  0.22241703980294306        0.0000000000000000     
   7.3401835490610620E-002  0.23078569514652503        0.0000000000000000     
   6.3825399124752075E-002  0.19756646591683308        0.0000000000000000     
   6.4487074334188849E-002  0.20572455400552159        0.0000000000000000     
   6.5077267868444741E-002  0.21395949411765811        0.0000000000000000     
   6.5595979727519710E-002  0.22227128625324261        0.0000000000000000     
   6.6043209911413756E-002  0.23065993041227512        0.0000000000000000     
   5.6959171463087939E-002  0.19738916044555674        0.0000000000000000     
   5.7538624470747771E-002  0.20556686028408758        0.0000000000000000     
   5.8050890776461507E-002  0.21381972642956634        0.0000000000000000     
   5.8495970380229155E-002  0.22214775888199301        0.0000000000000000     
   5.8873863282050708E-002  0.23055095764136760        0.0000000000000000     
   5.0250078700487227E-002  0.19724053975292960        0.0000000000000000     
   5.0751739829316446E-002  0.20543733914875772        0.0000000000000000     
   5.1192913022598555E-002  0.21370597846084596        0.0000000000000000     
   5.1573598280333560E-002  0.22204645768919420        0.0000000000000000     
   5.1893795602521470E-002  0.23045877683380253        0.0000000000000000     
   8.0949740019641309E-002  0.23092825184411739        0.0000000000000000     
   8.1486801059171637E-002  0.23936738951170516        0.0000000000000000     
   8.1929184709209291E-002  0.24792303645453759        0.0000000000000000     
   8.2276890969754310E-002  0.25659519267261466        0.0000000000000000     
   8.2529919840806654E-002  0.26538385816593635        0.0000000000000000     
   7.3401835490610620E-002  0.23078569514652503        0.0000000000000000     
   7.3853135683363852E-002  0.23924461144301132        0.0000000000000000     
   7.4223990780064183E-002  0.24780715257954605        0.0000000000000000     
   7.4514400780711670E-002  0.25647331855612909        0.0000000000000000     
   7.4724365685306285E-002  0.26524310937276074        0.0000000000000000     
   6.6043209911413756E-002  0.23065993041227512        0.0000000000000000     
   6.6421041385865756E-002  0.23913152575318530        0.0000000000000000     
   6.6731557116614562E-002  0.24769217143440300        0.0000000000000000     
   6.6974757103660160E-002  0.25634186745592819        0.0000000000000000     
   6.7150641347002535E-002  0.26508061381776082        0.0000000000000000     
   5.8873863282050708E-002  0.23055095764136760        0.0000000000000000     
   5.9190518166677371E-002  0.23902813244222709        0.0000000000000000     
   5.9451883718860378E-002  0.24757809301910846        0.0000000000000000     
   5.9657959938599722E-002  0.25620083937201160        0.0000000000000000     
   5.9808746825895383E-002  0.26489637150093670        0.0000000000000000     
   5.1893795602521470E-002  0.23045877683380253        0.0000000000000000     
   5.2161566025798703E-002  0.23893443151013666        0.0000000000000000     
   5.2384970586801666E-002  0.24746491733366233        0.0000000000000000     
   5.2564009285530386E-002  0.25605023430437962        0.0000000000000000     
   5.2698682121984849E-002  0.26469038242228837        0.0000000000000000     
   8.2529919840806654E-002  0.26538385816593635        0.0000000000000000     
   8.2727371291362081E-002  0.27431539044695274        0.0000000000000000     
   8.2908345290416297E-002  0.28341614702811385        0.0000000000000000     
   8.3072841837969300E-002  0.29268612790941972        0.0000000000000000     
   8.3220860934021090E-002  0.30212533309087025        0.0000000000000000     
   7.4724365685306285E-002  0.26524310937276074        0.0000000000000000     
   7.4894958617145707E-002  0.27411024239923426        0.0000000000000000     
   7.5067252699527576E-002  0.28306843500534346        0.0000000000000000     
   7.5241247932451905E-002  0.29211768719108833        0.0000000000000000     
   7.5416944315918680E-002  0.30125799895646888        0.0000000000000000     
   6.7150641347002535E-002  0.26508061381776082        0.0000000000000000     
   6.7299557379198752E-002  0.27387865247947679        0.0000000000000000     
   6.7461852732805819E-002  0.28270622540065182        0.0000000000000000     
   6.7637527407823750E-002  0.29156333258128603        0.0000000000000000     
   6.7826581404252545E-002  0.30044997402137935        0.0000000000000000     
   5.9808746825895383E-002  0.26489637150093670        0.0000000000000000     
   5.9941167577521222E-002  0.27362062068768034        0.0000000000000000     
   6.0092145390251046E-002  0.28232951821403895        0.0000000000000000     
   6.0261680264084877E-002  0.29102306408001283        0.0000000000000000     
   6.0449772199022693E-002  0.29970125828560173        0.0000000000000000     
   5.2698682121984849E-002  0.26469038242228837        0.0000000000000000     
   5.2819789212113111E-002  0.27333614702384484        0.0000000000000000     
   5.2958130671863245E-002  0.28193831344550480        0.0000000000000000     
   5.3113706501235251E-002  0.29049688168726862        0.0000000000000000     
   5.3286516700229124E-002  0.29901185174913597        0.0000000000000000     
   2.9085064527352968E-002   5.7509972957010672E-002   0.0000000000000000     
   3.0639240197686702E-002   6.2964184192865175E-002   0.0000000000000000     
   3.2130968435393224E-002   6.8627156914041823E-002   0.0000000000000000     
   3.3560249240472538E-002   7.4498891120540589E-002   0.0000000000000000     
   3.4927082612924626E-002   8.0579386812361473E-002   0.0000000000000000     
   2.5487502919129875E-002   5.7518039172202121E-002   0.0000000000000000     
   2.6784288898221719E-002   6.2834813642278095E-002   0.0000000000000000     
   2.8039055155857220E-002   6.8399861417389282E-002   0.0000000000000000     
   2.9251801692036380E-002   7.4213182497535710E-002   0.0000000000000000     
   3.0422528506759194E-002   8.0274776882717391E-002   0.0000000000000000     
   2.1815067369905166E-002   5.7315258939454772E-002   0.0000000000000000     
   2.2893600174355006E-002   6.2582805259551344E-002   0.0000000000000000     
   2.3941965587066509E-002   6.8114859790591911E-002   0.0000000000000000     
   2.4960163608039664E-002   7.3911422532576529E-002   0.0000000000000000     
   2.5948194237274493E-002   7.9972493485505156E-002   0.0000000000000000     
   1.8067757879678840E-002   5.6901632258768618E-002   0.0000000000000000     
   1.8967174026086567E-002   6.2208159044684921E-002   0.0000000000000000     
   1.9839699729021085E-002   6.7772152033649710E-002   0.0000000000000000     
   2.0685334988482400E-002   7.3593611225663005E-002   0.0000000000000000     
   2.1504079804470506E-002   7.9672536620724793E-002   0.0000000000000000     
   1.4245574448450893E-002   5.6277159130143653E-002   0.0000000000000000     
   1.5005010453416397E-002   6.1710874997678841E-002   0.0000000000000000     
   1.5732257581720956E-002   6.7371738146562679E-002   0.0000000000000000     
   1.6427315833364570E-002   7.3259748576795153E-002   0.0000000000000000     
   1.7090185208347236E-002   7.9374906288376262E-002   0.0000000000000000     
   3.4927082612924626E-002   8.0579386812361473E-002   0.0000000000000000     
   3.6243155394857084E-002   8.6844000452863876E-002   0.0000000000000000     
   3.7520154428377493E-002   9.3268088505407132E-002   0.0000000000000000     
   3.8758079713485862E-002   9.9851650969991282E-002   0.0000000000000000     
   3.9956931250182189E-002  0.10659468784661630        0.0000000000000000     
   3.0422528506759194E-002   8.0274776882717391E-002   0.0000000000000000     
   3.1556438954984660E-002   8.6541344801265296E-002   0.0000000000000000     
   3.2658736391671744E-002   9.2969586481510394E-002   0.0000000000000000     
   3.3729420816820468E-002   9.9559501923452767E-002   0.0000000000000000     
   3.4768492230430811E-002  0.10631109112709235        0.0000000000000000     
   2.5948194237274493E-002   7.9972493485505156E-002   0.0000000000000000     
   2.6908635741098128E-002   8.6247076103108958E-002   0.0000000000000000     
   2.7844066385837724E-002   9.2684173839119158E-002   0.0000000000000000     
   2.8754486171493288E-002   9.9283786693535686E-002   0.0000000000000000     
   2.9639895098064820E-002  0.10604591466635858        0.0000000000000000     
   2.1504079804470506E-002   7.9672536620724793E-002   0.0000000000000000     
   2.2299745753197490E-002   8.5961194358394943E-002   0.0000000000000000     
   2.3076144410875434E-002   9.2411850578233354E-002   0.0000000000000000     
   2.3833275777504350E-002   9.9024505280240066E-002   0.0000000000000000     
   2.4571139853084227E-002  0.10579915846441501        0.0000000000000000     
   1.7090185208347236E-002   7.9374906288376262E-002   0.0000000000000000     
   1.7729768991282747E-002   8.5683699567123184E-002   0.0000000000000000     
   1.8354970466784876E-002   9.2152616698853052E-002   0.0000000000000000     
   1.8965789634853639E-002   9.8781657683565879E-002   0.0000000000000000     
   1.9562226495489020E-002  0.10557082252126165        0.0000000000000000     
   3.9956931250182189E-002  0.10659468784661630        0.0000000000000000     
   4.1108604636165960E-002  0.11348539296932297        0.0000000000000000     
   4.2204995469136690E-002  0.12051196017215211        0.0000000000000000     
   4.3246103749094371E-002  0.12767438945510368        0.0000000000000000     
   4.4231929476038989E-002  0.13497268081817770        0.0000000000000000     
   3.4768492230430811E-002  0.10631109112709235        0.0000000000000000     
   3.5767801426011617E-002  0.11321205614852205        0.0000000000000000     
   3.6719199197071721E-002  0.12025009904383480        0.0000000000000000     
   3.7622685543611131E-002  0.12742521981303057        0.0000000000000000     
   3.8478260465629834E-002  0.13473741845610940        0.0000000000000000     
   2.9639895098064820E-002  0.10604591466635858        0.0000000000000000     
   3.0492192281991272E-002  0.11295818558609308        0.0000000000000000     
   3.1303276839711604E-002  0.12000822728124445        0.0000000000000000     
   3.2073148771225815E-002  0.12719603975181268        0.0000000000000000     
   3.2801808076533906E-002  0.13452162299779771        0.0000000000000000     
   2.4571139853084227E-002  0.10579915846441501        0.0000000000000000     
   2.5281777204104926E-002  0.11272378128203606        0.0000000000000000     
   2.5957228397056324E-002  0.11978634488438102        0.0000000000000000     
   2.6597493431938426E-002  0.12698684927144990        0.0000000000000000     
   2.7202572308751220E-002  0.13432529444324265        0.0000000000000000     
   1.9562226495489020E-002  0.10557082252126165        0.0000000000000000     
   2.0136556192352592E-002  0.11250884323635099        0.0000000000000000     
   2.0681053869105903E-002  0.11958445185324455        0.0000000000000000     
   2.1195719525748967E-002  0.12679764837194227        0.0000000000000000     
   2.1680553162281770E-002  0.13414843279244426        0.0000000000000000     
   4.4231929476038989E-002  0.13497268081817770        0.0000000000000000     
   4.5165277436746289E-002  0.14239355214757998        0.0000000000000000     
   4.6048952417991965E-002  0.14992372132951623        0.0000000000000000     
   4.6882954419776010E-002  0.15756318836398650        0.0000000000000000     
   4.7667283442098446E-002  0.16531195325099077        0.0000000000000000     
   3.8478260465629834E-002  0.13473741845610940        0.0000000000000000     
   3.9287868751313015E-002  0.14217234357129363        0.0000000000000000     
   4.0053455188845871E-002  0.14971564375680574        0.0000000000000000     
   4.0775019778228394E-002  0.15736731901264575        0.0000000000000000     
   4.1452562519460591E-002  0.16512736933881353        0.0000000000000000     
   3.2801808076533906E-002  0.13452162299779771        0.0000000000000000     
   3.3490752177933791E-002  0.14197017996647926        0.0000000000000000     
   3.4141478497723407E-002  0.14952691360513690        0.0000000000000000     
   3.4753987035902739E-002  0.15719182391377065        0.0000000000000000     
   3.5328277792471781E-002  0.16496491089238052        0.0000000000000000     
   2.7202572308751220E-002  0.13432529444324265        0.0000000000000000     
   2.7773927716608620E-002  0.14178706133313679        0.0000000000000000     
   2.8313022344624558E-002  0.14935753087450965        0.0000000000000000     
   2.8819856192799025E-002  0.15703670306736126        0.0000000000000000     
   2.9294429261132029E-002  0.16482457791169161        0.0000000000000000     
   2.1680553162281770E-002  0.13414843279244426        0.0000000000000000     
   2.2137395367337501E-002  0.14162298767126622        0.0000000000000000     
   2.2568086729549335E-002  0.14920749556492399        0.0000000000000000     
   2.2972627248917271E-002  0.15690195647341756        0.0000000000000000     
   2.3351016925441309E-002  0.16470637039674690        0.0000000000000000     
   4.7667283442098446E-002  0.16531195325099077        0.0000000000000000     
   4.8398327545191459E-002  0.17316005026731540        0.0000000000000000     
   4.9072474789287258E-002  0.18109751368974678        0.0000000000000000     
   4.9689725174385857E-002  0.18912434351828480        0.0000000000000000     
   5.0250078700487227E-002  0.19724053975292960        0.0000000000000000     
   4.1452562519460591E-002  0.16512736933881353        0.0000000000000000     
   4.2082925520692469E-002  0.17298733867147753        0.0000000000000000     
   4.2662950890074020E-002  0.18093877094680599        0.0000000000000000     
   4.3192638627605258E-002  0.18898166616479892        0.0000000000000000     
   4.3671988733286177E-002  0.19711602432545633        0.0000000000000000     
   3.5328277792471781E-002  0.16496491089238052        0.0000000000000000     
   3.5861569920879049E-002  0.17283817511240776        0.0000000000000000     
   3.6351082574573014E-002  0.18080361714529372        0.0000000000000000     
   3.6796815753553667E-002  0.18886123699103838        0.0000000000000000     
   3.7198769457821031E-002  0.19701103464964179        0.0000000000000000     
   2.9294429261132029E-002  0.16482457791169161        0.0000000000000000     
   2.9734260745751213E-002  0.17271255959010606        0.0000000000000000     
   3.0136869842784231E-002  0.18069205228520996        0.0000000000000000     
   3.0502256552231100E-002  0.18876305599700324        0.0000000000000000     
   3.0830420874091803E-002  0.19692557072548592        0.0000000000000000     
   2.3351016925441309E-002  0.16470637039674690        0.0000000000000000     
   2.3700997995308955E-002  0.17261049210457249        0.0000000000000000     
   2.4020312694707693E-002  0.18060407636655468        0.0000000000000000     
   2.4308961023637533E-002  0.18868712318269340        0.0000000000000000     
   2.4566942982098470E-002  0.19685963255298872        0.0000000000000000     
   5.0250078700487227E-002  0.19724053975292960        0.0000000000000000     
   5.0751739829316446E-002  0.20543733914875772        0.0000000000000000     
   5.1192913022598555E-002  0.21370597846084596        0.0000000000000000     
   5.1573598280333560E-002  0.22204645768919420        0.0000000000000000     
   5.1893795602521470E-002  0.23045877683380253        0.0000000000000000     
   4.3671988733286177E-002  0.19711602432545633        0.0000000000000000     
   4.4099892539220205E-002  0.20533002050370486        0.0000000000000000     
   4.4475241377510785E-002  0.21361182977447105        0.0000000000000000     
   4.4798035248157904E-002  0.22196145213775498        0.0000000000000000     
   4.5068274151161561E-002  0.23037888759355657        0.0000000000000000     
   3.7198769457821031E-002  0.19701103464964179        0.0000000000000000     
   3.7556554729784405E-002  0.20523893425310161        0.0000000000000000     
   3.7869782611853101E-002  0.21353085993341567        0.0000000000000000     
   3.8138453104027130E-002  0.22188681169058400        0.0000000000000000     
   3.8362566206306466E-002  0.23030678952460640        0.0000000000000000     
   3.0830420874091803E-002  0.19692557072548592        0.0000000000000000     
   3.1121726401009037E-002  0.20516408039694806        0.0000000000000000     
   3.1376536725625521E-002  0.21346306893767980        0.0000000000000000     
   3.1594851847941231E-002  0.22182253634768109        0.0000000000000000     
   3.1776671767956191E-002  0.23024248262695202        0.0000000000000000     
   2.4566942982098470E-002  0.19685963255298872        0.0000000000000000     
   2.4795407552894101E-002  0.20510545893524423        0.0000000000000000     
   2.4995503718828024E-002  0.21340845678726350        0.0000000000000000     
   2.5167231479900236E-002  0.22176862610904649        0.0000000000000000     
   2.5310590836110737E-002  0.23018596690059334        0.0000000000000000     
   5.1893795602521470E-002  0.23045877683380253        0.0000000000000000     
   5.2161566025798703E-002  0.23893443151013666        0.0000000000000000     
   5.2384970586801666E-002  0.24746491733366233        0.0000000000000000     
   5.2564009285530386E-002  0.25605023430437962        0.0000000000000000     
   5.2698682121984849E-002  0.26469038242228837        0.0000000000000000     
   4.5068274151161561E-002  0.23037888759355657        0.0000000000000000     
   4.5294813722409608E-002  0.23884896313571891        0.0000000000000000     
   4.5486509597789895E-002  0.24735650575808502        0.0000000000000000     
   4.5643361777302410E-002  0.25590151546065482        0.0000000000000000     
   4.5765370260947166E-002  0.26448399224342833        0.0000000000000000     
   3.8362566206306466E-002  0.23030678952460640        0.0000000000000000     
   3.8550890015689974E-002  0.23877026749777874        0.0000000000000000     
   3.8712192629176502E-002  0.24725671967239662        0.0000000000000000     
   3.8846474046766069E-002  0.25576614604846010        0.0000000000000000     
   3.8953734268458641E-002  0.26429854662596902        0.0000000000000000     
   3.1776671767956191E-002  0.23024248262695202        0.0000000000000000     
   3.1929794905639811E-002  0.23869834459631611        0.0000000000000000     
   3.2062019680961534E-002  0.24716555907659726        0.0000000000000000     
   3.2173346093921334E-002  0.25564412606779541        0.0000000000000000     
   3.2263774144519232E-002  0.26413404556991055        0.0000000000000000     
   2.5310590836110737E-002  0.23018596690059334        0.0000000000000000     
   2.5431528392259109E-002  0.23863319443133105        0.0000000000000000     
   2.5535990753144940E-002  0.24708302397068688        0.0000000000000000     
   2.5623977918768227E-002  0.25553545551866080        0.0000000000000000     
   2.5695489889128967E-002  0.26399048907525274        0.0000000000000000     
   5.2698682121984849E-002  0.26469038242228837        0.0000000000000000     
   5.2819789212113111E-002  0.27333614702384484        0.0000000000000000     
   5.2958130671863245E-002  0.28193831344550480        0.0000000000000000     
   5.3113706501235251E-002  0.29049688168726862        0.0000000000000000     
   5.3286516700229124E-002  0.29901185174913597        0.0000000000000000     
   4.5765370260947166E-002  0.26448399224342833        0.0000000000000000     
   4.5876567294020371E-002  0.27305392410863571        0.0000000000000000     
   4.6000985121818237E-002  0.28156129905850730        0.0000000000000000     
   4.6138623744340759E-002  0.29000611709304280        0.0000000000000000     
   4.6289483161587923E-002  0.29838837821224246        0.0000000000000000     
   3.8953734268458641E-002  0.26429854662596902        0.0000000000000000     
   3.9052646834288982E-002  0.27280264456271869        0.0000000000000000     
   3.9161885284291861E-002  0.28122716301650391        0.0000000000000000     
   3.9281449618467267E-002  0.28957210198732491        0.0000000000000000     
   3.9411339836815190E-002  0.29783746147518148        0.0000000000000000     
   3.2263774144519232E-002  0.26413404556991055        0.0000000000000000     
   3.2348027832918923E-002  0.27258230838609332        0.0000000000000000     
   3.2440831159284103E-002  0.28093590531949475        0.0000000000000000     
   3.2542184123614773E-002  0.28919483637011467        0.0000000000000000     
   3.2652086725910912E-002  0.29735910153795309        0.0000000000000000     
   2.5695489889128967E-002  0.26399048907525274        0.0000000000000000     
   2.5762710289910198E-002  0.27239291557876005        0.0000000000000000     
   2.5837822746794969E-002  0.28068752596747992        0.0000000000000000     
   2.5920827259783275E-002  0.28887432024141230        0.0000000000000000     
   2.6011723828875108E-002  0.29695329840055729        0.0000000000000000     
   1.4245574448450893E-002   5.6277159130143653E-002   0.0000000000000000     
   1.5005010453416397E-002   6.1710874997678841E-002   0.0000000000000000     
   1.5732257581720956E-002   6.7371738146562679E-002   0.0000000000000000     
   1.6427315833364570E-002   7.3259748576795153E-002   0.0000000000000000     
   1.7090185208347236E-002   7.9374906288376262E-002   0.0000000000000000     
   1.0460510742421644E-002   5.5638499823221832E-002   0.0000000000000000     
   1.1082173084932808E-002   6.1222097405947334E-002   0.0000000000000000     
   1.1666468762624066E-002   6.6996129563912016E-002   0.0000000000000000     
   1.2213397775495419E-002   7.2960596297115932E-002   0.0000000000000000     
   1.2722960123546867E-002   7.9115497605559013E-002   0.0000000000000000     
   6.8245604277914077E-003   5.5182314607645111E-002   0.0000000000000000     
   7.2737255492241054E-003   6.0872970556904604E-002   0.0000000000000000     
   7.6891628891883656E-003   6.6727837720279001E-002   0.0000000000000000     
   8.0708724476841864E-003   7.2746916097768274E-002   0.0000000000000000     
   8.4188542247115705E-003   7.8930205689372437E-002   0.0000000000000000     
   3.3377235045601826E-003   5.4908603483413469E-002   0.0000000000000000     
   3.5796678462902895E-003   6.0663494450550672E-002   0.0000000000000000     
   3.8003399614138533E-003   6.6566862615663580E-002   0.0000000000000000     
   3.9997398499308726E-003   7.2618707978752209E-002   0.0000000000000000     
   4.1778675118413497E-003   7.8819030539816509E-002   0.0000000000000000     
  -2.7272031421360365E-011   5.4817366450526928E-002   0.0000000000000000     
  -2.3868639703605865E-011   6.0593669086885522E-002   0.0000000000000000     
  -2.0699469373795798E-011   6.6513204250065780E-002   0.0000000000000000     
  -1.7764522573229455E-011   7.2575971940067679E-002   0.0000000000000000     
  -1.5063797214817654E-011   7.8781972156891256E-002   0.0000000000000000     
   1.7090185208347236E-002   7.9374906288376262E-002   0.0000000000000000     
   1.7729768991282747E-002   8.5683699567123184E-002   0.0000000000000000     
   1.8354970466784876E-002   9.2152616698853052E-002   0.0000000000000000     
   1.8965789634853639E-002   9.8781657683565879E-002   0.0000000000000000     
   1.9562226495489020E-002  0.10557082252126165        0.0000000000000000     
   1.2722960123546867E-002   7.9115497605559013E-002   0.0000000000000000     
   1.3208768316850998E-002   8.5444560916893911E-002   0.0000000000000000     
   1.3684434865480403E-002   9.1931513658773140E-002   0.0000000000000000     
   1.4149959769435078E-002   9.8576355831196755E-002   0.0000000000000000     
   1.4605343028715028E-002  0.10537908743416473        0.0000000000000000     
   8.4188542247115705E-003   7.8930205689372437E-002   0.0000000000000000     
   8.7468065913993507E-003   8.5273747595307259E-002   0.0000000000000000     
   9.0684279188763574E-003   9.1773582915788562E-002   0.0000000000000000     
   9.3837182071425957E-003   9.8429711650816279E-002   0.0000000000000000     
   9.6926774561980622E-003  0.10524213380039046        0.0000000000000000     
   4.1778675118413497E-003   7.8819030539816509E-002   0.0000000000000000     
   4.3438838149278012E-003   8.5171259602363297E-002   0.0000000000000000     
   4.5069496269727477E-003   9.1678824469899278E-002   0.0000000000000000     
   4.6670649479761874E-003   9.8341725142424494E-002   0.0000000000000000     
   4.8242297779381230E-003  0.10515996161993890        0.0000000000000000     
  -1.5063797214817654E-011   7.8781972156891256E-002   0.0000000000000000     
  -1.2563649122790399E-011   8.5137096938061971E-002   0.0000000000000000     
  -1.0230431898763243E-011   9.1647238321105370E-002   0.0000000000000000     
  -8.0641443907713758E-012   9.8312396306021371E-002   0.0000000000000000     
  -6.0647897294485720E-012  0.10513257089281001        0.0000000000000000     
   1.9562226495489020E-002  0.10557082252126165        0.0000000000000000     
   2.0136556192352592E-002  0.11250884323635099        0.0000000000000000     
   2.0681053869105903E-002  0.11958445185324455        0.0000000000000000     
   2.1195719525748967E-002  0.12679764837194227        0.0000000000000000     
   2.1680553162281770E-002  0.13414843279244426        0.0000000000000000     
   1.4605343028715028E-002  0.10537908743416473        0.0000000000000000     
   1.5043553446046975E-002  0.11232928893435938        0.0000000000000000     
   1.5457559824157646E-002  0.11941654079846312        0.0000000000000000     
   1.5847362163047045E-002  0.12664084302647585        0.0000000000000000     
   1.6212960462715170E-002  0.13400219561839768        0.0000000000000000     
   9.6926774561980622E-003  0.10524213380039046        0.0000000000000000     
   9.9897931645008074E-003  0.11220103586138275        0.0000000000000000     
   1.0269552830508885E-002  0.11929660433066479        0.0000000000000000     
   1.0531956454222290E-002  0.12652883920823660        0.0000000000000000     
   1.0777004035641028E-002  0.13389774049409811        0.0000000000000000     
   4.8242297779381230E-003  0.10515996161993890        0.0000000000000000     
   4.9752753477140853E-003  0.11212408401742108        0.0000000000000000     
   5.1170328881596098E-003  0.11922464244984959        0.0000000000000000     
   5.2495023992746954E-003  0.12646163691722442        0.0000000000000000     
   5.3726838810593423E-003  0.13383506741954562        0.0000000000000000     
  -6.0647897294485720E-012  0.10513257089281001        0.0000000000000000     
  -4.3131899961357245E-012  0.11209843340247437        0.0000000000000000     
  -2.8901737773867620E-012  0.11920065515601751        0.0000000000000000     
  -1.7957392300579911E-012  0.12643923615343944        0.0000000000000000     
  -1.0298871130909326E-012  0.13381417639474011        0.0000000000000000     
   2.1680553162281770E-002  0.13414843279244426        0.0000000000000000     
   2.2137395367337501E-002  0.14162298767126622        0.0000000000000000     
   2.2568086729549335E-002  0.14920749556492399        0.0000000000000000     
   2.2972627248917271E-002  0.15690195647341756        0.0000000000000000     
   2.3351016925441309E-002  0.16470637039674690        0.0000000000000000     
   1.6212960462715170E-002  0.13400219561839768        0.0000000000000000     
   1.6556518436913345E-002  0.14148775539218522        0.0000000000000000     
   1.6880199799392891E-002  0.14908467916579521        0.0000000000000000     
   1.7184004550153814E-002  0.15679296693922765        0.0000000000000000     
   1.7467932689196108E-002  0.16461261871248251        0.0000000000000000     
   1.0777004035641028E-002  0.13389774049409811        0.0000000000000000     
   1.1006660232129071E-002  0.14139116090721146        0.0000000000000000     
   1.1222889701050398E-002  0.14899695316653863        0.0000000000000000     
   1.1425692442405001E-002  0.15671511727207962        0.0000000000000000     
   1.1615068456192888E-002  0.16454565322383446        0.0000000000000000     
   5.3726838810593423E-003  0.13383506741954562        0.0000000000000000     
   5.4878207529846816E-003  0.14133320421634493        0.0000000000000000     
   5.5961564345218462E-003  0.14894431756715423        0.0000000000000000     
   5.6976909256708360E-003  0.15666840747197350        0.0000000000000000     
   5.7924242264316477E-003  0.16450547393080278        0.0000000000000000     
  -1.0298871130909326E-012  0.13381417639474011        0.0000000000000000     
  -5.1982441788556155E-013  0.14131388531958561        0.0000000000000000     
  -1.9275911162380810E-013  0.14892677236764201        0.0000000000000000     
  -4.8688077224426363E-014  0.15665283753890935        0.0000000000000000     
  -8.7612642835077637E-014  0.16449208083338751        0.0000000000000000     
   2.3351016925441309E-002  0.16470637039674690        0.0000000000000000     
   2.3700997995308955E-002  0.17261049210457249        0.0000000000000000     
   2.4020312694707693E-002  0.18060407636655468        0.0000000000000000     
   2.4308961023637533E-002  0.18868712318269340        0.0000000000000000     
   2.4566942982098470E-002  0.19685963255298872        0.0000000000000000     
   1.7467932689196108E-002  0.16461261871248251        0.0000000000000000     
   1.7730005967014850E-002  0.17253148532085288        0.0000000000000000     
   1.7968246134105102E-002  0.18053741759963191        0.0000000000000000     
   1.8182653190466865E-002  0.18863041554881946        0.0000000000000000     
   1.8373227136100151E-002  0.19681047916841565        0.0000000000000000     
   1.1615068456192888E-002  0.16454565322383446        0.0000000000000000     
   1.1789508958331476E-002  0.17247505190399309        0.0000000000000000     
   1.1947505164738175E-002  0.18048980419474564        0.0000000000000000     
   1.2089057075412997E-002  0.18858991009609194        0.0000000000000000     
   1.2214164690355935E-002  0.19677536960803213        0.0000000000000000     
   5.7924242264316477E-003  0.16450547393080278        0.0000000000000000     
   5.8795069692588291E-003  0.17244119185399320        0.0000000000000000     
   5.9580897866069191E-003  0.18046123615189585        0.0000000000000000     
   6.0281726784759196E-003  0.18856560682451082        0.0000000000000000     
   6.0897556448658297E-003  0.19675430387183804        0.0000000000000000     
  -8.7612642835077637E-014  0.16449208083338751        0.0000000000000000     
  -2.0308906466259824E-013  0.17242990517085310        0.0000000000000000     
  -2.8867370733404174E-013  0.18045171347108263        0.0000000000000000     
  -3.4436735689598319E-013  0.18855750573407612        0.0000000000000000     
  -3.7016743836826294E-013  0.19674728195983349        0.0000000000000000     
   2.4566942982098470E-002  0.19685963255298872        0.0000000000000000     
   2.4795407552894101E-002  0.20510545893524423        0.0000000000000000     
   2.4995503718828024E-002  0.21340845678726350        0.0000000000000000     
   2.5167231479900236E-002  0.22176862610904649        0.0000000000000000     
   2.5310590836110737E-002  0.23018596690059334        0.0000000000000000     
   1.8373227136100151E-002  0.19681047916841565        0.0000000000000000     
   1.8541646499976094E-002  0.20506126682883205        0.0000000000000000     
   1.8689589811065849E-002  0.21336643690048029        0.0000000000000000     
   1.8817057069369415E-002  0.22172598938336038        0.0000000000000000     
   1.8924048274886800E-002  0.23013992427747232        0.0000000000000000     
   1.2214164690355935E-002  0.19677536960803213        0.0000000000000000     
   1.2324491556791502E-002  0.20502970103855356        0.0000000000000000     
   1.2421701221944213E-002  0.21333642269564382        0.0000000000000000     
   1.2505793685814068E-002  0.22169553457930288        0.0000000000000000     
   1.2576768948401066E-002  0.23010703668953075        0.0000000000000000     
   6.0897556448658297E-003  0.19675430387183804        0.0000000000000000     
   6.1439427233403359E-003  0.20501076156440873        0.0000000000000000     
   6.1918379514631239E-003  0.21331841417275407        0.0000000000000000     
   6.2334413292341921E-003  0.22167726169687405        0.0000000000000000     
   6.2687528566535431E-003  0.23008730413676870        0.0000000000000000     
  -3.7016743836826294E-013  0.19674728195983349        0.0000000000000000     
  -3.7740969204003161E-013  0.20500444840639759        0.0000000000000000     
  -3.7742443718957741E-013  0.21331241133181106        0.0000000000000000     
  -3.7021010172375024E-013  0.22167117073607390        0.0000000000000000     
  -3.5577140192200041E-013  0.23008072661918610        0.0000000000000000     
   2.5310590836110737E-002  0.23018596690059334        0.0000000000000000     
   2.5431528392259109E-002  0.23863319443133105        0.0000000000000000     
   2.5535990753144940E-002  0.24708302397068688        0.0000000000000000     
   2.5623977918768227E-002  0.25553545551866080        0.0000000000000000     
   2.5695489889128967E-002  0.26399048907525274        0.0000000000000000     
   1.8924048274886800E-002  0.23013992427747232        0.0000000000000000     
   1.9014418706437219E-002  0.23857915110917866        0.0000000000000000     
   1.9092023642839916E-002  0.24701457940484198        0.0000000000000000     
   1.9156863084094877E-002  0.25544620916446231        0.0000000000000000     
   1.9208937030202114E-002  0.26387404038803963        0.0000000000000000     
   1.2576768948401066E-002  0.23010703668953075        0.0000000000000000     
   1.2636794079063488E-002  0.23854054873621400        0.0000000000000000     
   1.2688036147159607E-002  0.24696569042923910        0.0000000000000000     
   1.2730495152689434E-002  0.25538246176860613        0.0000000000000000     
   1.2764171095652962E-002  0.26379086275431507        0.0000000000000000     
   6.2687528566535431E-003  0.23008730413676870        0.0000000000000000     
   6.2986545101379084E-003  0.23851738731243707        0.0000000000000000     
   6.3240282661040257E-003  0.24693635704387820        0.0000000000000000     
   6.3448741245518917E-003  0.25534421333109225        0.0000000000000000     
   6.3611920854815089E-003  0.26374095617407906        0.0000000000000000     
  -3.5577140192200041E-013  0.23008072661918610        0.0000000000000000     
  -3.3951032089862831E-013  0.23850966683784791        0.0000000000000000     
  -3.2683599750227277E-013  0.24692657924875941        0.0000000000000000     
  -3.1774783542173890E-013  0.25533146385192068        0.0000000000000000     
  -3.1224415414365936E-013  0.26372432064733170        0.0000000000000000     
   2.5695489889128967E-002  0.26399048907525274        0.0000000000000000     
   2.5762710289910198E-002  0.27239291557876005        0.0000000000000000     
   2.5837822746794969E-002  0.28068752596747992        0.0000000000000000     
   2.5920827259783275E-002  0.28887432024141230        0.0000000000000000     
   2.6011723828875108E-002  0.29695329840055729        0.0000000000000000     
   1.9208937030202114E-002  0.26387404038803963        0.0000000000000000     
   1.9258290786400501E-002  0.27224073459640774        0.0000000000000000     
   1.9314969657928917E-002  0.28048895331040058        0.0000000000000000     
   1.9378973644787367E-002  0.28861869653001804        0.0000000000000000     
   1.9450302746975852E-002  0.29662996425526011        0.0000000000000000     
   1.2764171095652962E-002  0.26379086275431507        0.0000000000000000     
   1.2796365903527512E-002  0.27213203389472579        0.0000000000000000     
   1.2834381503790406E-002  0.28034711569819815        0.0000000000000000     
   1.2878217896441642E-002  0.28843610816473214        0.0000000000000000     
   1.2927875081481228E-002  0.29639901129432766        0.0000000000000000     
   6.3611920854815089E-003  0.26374095617407906        0.0000000000000000     
   6.3769356412912348E-003  0.27206681347371409        0.0000000000000000     
   6.3960582843794319E-003  0.28026201313087257        0.0000000000000000     
   6.4185600147460969E-003  0.28832655514555455        0.0000000000000000     
   6.4444408323912333E-003  0.29626043951775999        0.0000000000000000     
  -3.1224415414365936E-013  0.26372432064733170        0.0000000000000000     
  -3.0832823273707621E-013  0.27204507333337269        0.0000000000000000     
  -3.0400410921255228E-013  0.28023364560842390        0.0000000000000000     
  -2.9927229856611948E-013  0.28829003747248533        0.0000000000000000     
  -2.9412930424577155E-013  0.29621424892555698        0.0000000000000000     
  -2.7272031421360365E-011   5.4817366450526928E-002   0.0000000000000000     
  -2.3868639703605865E-011   6.0593669086885522E-002   0.0000000000000000     
  -2.0699469373795798E-011   6.6513204250065780E-002   0.0000000000000000     
  -1.7764522573229455E-011   7.2575971940067679E-002   0.0000000000000000     
  -1.5063797214817654E-011   7.8781972156891256E-002   0.0000000000000000     
  -3.3377235579208882E-003   5.4908603505535197E-002   0.0000000000000000     
  -3.5796678930400910E-003   6.0663494463972720E-002   0.0000000000000000     
  -3.8003400019961148E-003   6.6566862622628398E-002   0.0000000000000000     
  -3.9997398847889604E-003   7.2618707981502217E-002   0.0000000000000000     
  -4.1778675414186287E-003   7.8819030540594151E-002   0.0000000000000000     
  -6.8245604776020433E-003   5.5182314644987983E-002   0.0000000000000000     
  -7.2737255930114750E-003   6.0872970579875840E-002   0.0000000000000000     
  -7.6891629273205947E-003   6.6727837732494230E-002   0.0000000000000000     
  -8.0708724805294025E-003   7.2746916102843201E-002   0.0000000000000000     
  -8.4188542526379018E-003   7.8930205690922711E-002   0.0000000000000000     
  -1.0460510786315496E-002   5.5638499868885305E-002   0.0000000000000000     
  -1.1082173123782789E-002   6.1222097434594856E-002   0.0000000000000000     
  -1.1666468796672904E-002   6.6996129579663305E-002   0.0000000000000000     
  -1.2213397804985848E-002   7.2960596304090672E-002   0.0000000000000000     
  -1.2722960148721619E-002   7.9115497607876908E-002   0.0000000000000000     
  -1.4245574484061246E-002   5.6277159177227150E-002   0.0000000000000000     
  -1.5005010485354034E-002   6.1710875028129802E-002   0.0000000000000000     
  -1.5732257610053049E-002   6.7371738164135622E-002   0.0000000000000000     
  -1.6427315858158296E-002   7.3259748585244616E-002   0.0000000000000000     
  -1.7090185229669777E-002   7.9374906291456743E-002   0.0000000000000000     
  -1.5063797214817654E-011   7.8781972156891256E-002   0.0000000000000000     
  -1.2563649122790399E-011   8.5137096938061971E-002   0.0000000000000000     
  -1.0230431898763243E-011   9.1647238321105370E-002   0.0000000000000000     
  -8.0641443907713758E-012   9.8312396306021371E-002   0.0000000000000000     
  -6.0647897294485720E-012  0.10513257089281001        0.0000000000000000     
  -4.1778675414186287E-003   7.8819030540594151E-002   0.0000000000000000     
  -4.3438838396087226E-003   8.5171259602396882E-002   0.0000000000000000     
  -4.5069496470828427E-003   9.1678824469402967E-002   0.0000000000000000     
  -4.6670649638409925E-003   9.8341725141612449E-002   0.0000000000000000     
  -4.8242297898831703E-003  0.10515996161902530        0.0000000000000000     
  -8.4188542526379018E-003   7.8930205690922711E-002   0.0000000000000000     
  -8.7468066147411375E-003   8.5273747595361521E-002   0.0000000000000000     
  -9.0684279379341527E-003   9.1773582914788404E-002   0.0000000000000000     
  -9.3837182222169420E-003   9.8429711649203305E-002   0.0000000000000000     
  -9.6926774675895160E-003  0.10524213379860627        0.0000000000000000     
  -1.2722960148721619E-002   7.9115497607876908E-002   0.0000000000000000     
  -1.3208768337960895E-002   8.5444560916955917E-002   0.0000000000000000     
  -1.3684434882784350E-002   9.1931513657261613E-002   0.0000000000000000     
  -1.4149959783191999E-002   9.8576355828793927E-002   0.0000000000000000     
  -1.4605343039183826E-002  0.10537908743155294        0.0000000000000000     
  -1.7090185229669777E-002   7.9374906291456743E-002   0.0000000000000000     
  -1.7729769009267989E-002   8.5683699567180069E-002   0.0000000000000000     
  -1.8354970481633450E-002   9.2152616696822620E-002   0.0000000000000000     
  -1.8965789646766151E-002   9.8781657680384341E-002   0.0000000000000000     
  -1.9562226504666103E-002  0.10557082251786529        0.0000000000000000     
  -6.0647897294485720E-012  0.10513257089281001        0.0000000000000000     
  -4.3131899961357245E-012  0.11209843340247437        0.0000000000000000     
  -2.8901737773867620E-012  0.11920065515601751        0.0000000000000000     
  -1.7957392300579911E-012  0.12643923615343944        0.0000000000000000     
  -1.0298871130909326E-012  0.13381417639474011        0.0000000000000000     
  -4.8242297898831703E-003  0.10515996161902530        0.0000000000000000     
  -4.9752753562236603E-003  0.11212408401657439        0.0000000000000000     
  -5.1170328938767535E-003  0.11922464244919261        0.0000000000000000     
  -5.2495024028424457E-003  0.12646163691687995        0.0000000000000000     
  -5.3726838831207385E-003  0.13383506741963641        0.0000000000000000     
  -9.6926774675895160E-003  0.10524213379860627        0.0000000000000000     
  -9.9897931726599751E-003  0.11220103585975297        0.0000000000000000     
  -1.0269552836036424E-002  0.11929660432939902        0.0000000000000000     
  -1.0531956457718863E-002  0.12652883920754443        0.0000000000000000     
  -1.0777004037707292E-002  0.13389774049418920        0.0000000000000000     
  -1.4605343039183826E-002  0.10537908743155294        0.0000000000000000     
  -1.5043553453622125E-002  0.11232928893201004        0.0000000000000000     
  -1.5457559829369184E-002  0.11941654079663670        0.0000000000000000     
  -1.5847362166424989E-002  0.12664084302543288        0.0000000000000000     
  -1.6212960464789546E-002  0.13400219561839866        0.0000000000000000     
  -1.9562226504666103E-002  0.10557082251786529        0.0000000000000000     
  -2.0136556199110117E-002  0.11250884323334566        0.0000000000000000     
  -2.0681053873875022E-002  0.11958445185090566        0.0000000000000000     
  -2.1195719528960814E-002  0.12679764837054533        0.0000000000000000     
  -2.1680553164367497E-002  0.13414843279226457        0.0000000000000000     
  -1.0298871130909326E-012  0.13381417639474011        0.0000000000000000     
  -5.1982441788556155E-013  0.14131388531958561        0.0000000000000000     
  -1.9275911162380810E-013  0.14892677236764201        0.0000000000000000     
  -4.8688077224426363E-014  0.15665283753890935        0.0000000000000000     
  -8.7612642835077637E-014  0.16449208083338751        0.0000000000000000     
  -5.3726838831207385E-003  0.13383506741963641        0.0000000000000000     
  -5.4878207540405705E-003  0.14133320421684628        0.0000000000000000     
  -5.5961564349308783E-003  0.14894431756789395        0.0000000000000000     
  -5.6976909257916699E-003  0.15666840747277938        0.0000000000000000     
  -5.7924242266229357E-003  0.16450547393150261        0.0000000000000000     
  -1.0777004037707292E-002  0.13389774049418920        0.0000000000000000     
  -1.1006660233233673E-002  0.14139116090803966        0.0000000000000000     
  -1.1222889701529985E-002  0.14899695316780198        0.0000000000000000     
  -1.1425692442596213E-002  0.15671511727347612        0.0000000000000000     
  -1.1615068456432363E-002  0.16454565322506215        0.0000000000000000     
  -1.6212960464789546E-002  0.13400219561839866        0.0000000000000000     
  -1.6556518438099143E-002  0.14148775539316574        0.0000000000000000     
  -1.6880199799990073E-002  0.14908467916736604        0.0000000000000000     
  -1.7184004550462321E-002  0.15679296694099951        0.0000000000000000     
  -1.7467932689515898E-002  0.16461261871406618        0.0000000000000000     
  -2.1680553164367497E-002  0.13414843279226457        0.0000000000000000     
  -2.2137395368636972E-002  0.14162298767222453        0.0000000000000000     
  -2.2568086730311132E-002  0.14920749556658622        0.0000000000000000     
  -2.2972627249389990E-002  0.15690195647534960        0.0000000000000000     
  -2.3351016925873540E-002  0.16470637039851466        0.0000000000000000     
  -8.7612642835077637E-014  0.16449208083338751        0.0000000000000000     
  -2.0308906466259824E-013  0.17242990517085310        0.0000000000000000     
  -2.8867370733404174E-013  0.18045171347108263        0.0000000000000000     
  -3.4436735689598319E-013  0.18855750573407612        0.0000000000000000     
  -3.7016743836826294E-013  0.19674728195983349        0.0000000000000000     
  -5.7924242266229357E-003  0.16450547393150261        0.0000000000000000     
  -5.8795069696711338E-003  0.17244119185451570        0.0000000000000000     
  -5.9580897871827120E-003  0.18046123615227072        0.0000000000000000     
  -6.0281726791576746E-003  0.18856560682476770        0.0000000000000000     
  -6.0897556455960181E-003  0.19675430387200654        0.0000000000000000     
  -1.1615068456432363E-002  0.16454565322506215        0.0000000000000000     
  -1.1789508958762155E-002  0.17247505190492385        0.0000000000000000     
  -1.1947505165309307E-002  0.18048980419542493        0.0000000000000000     
  -1.2089057076073812E-002  0.18858991009656542        0.0000000000000000     
  -1.2214164691055679E-002  0.19677536960834524        0.0000000000000000     
  -1.7467932689515898E-002  0.16461261871406618        0.0000000000000000     
  -1.7730005967476165E-002  0.17253148532207763        0.0000000000000000     
  -1.7968246134668457E-002  0.18053741760054529        0.0000000000000000     
  -1.8182653191092787E-002  0.18863041554946930        0.0000000000000000     
  -1.8373227136749153E-002  0.19681047916884956        0.0000000000000000     
  -2.3351016925873540E-002  0.16470637039851466        0.0000000000000000     
  -2.3700997995813145E-002  0.17261049210597690        0.0000000000000000     
  -2.4020312695260164E-002  0.18060407636763184        0.0000000000000000     
  -2.4308961024214596E-002  0.18868712318347938        0.0000000000000000     
  -2.4566942982676448E-002  0.19685963255351954        0.0000000000000000     
  -3.7016743836826294E-013  0.19674728195983349        0.0000000000000000     
  -3.7740969204003161E-013  0.20500444840639759        0.0000000000000000     
  -3.7742443718957741E-013  0.21331241133181106        0.0000000000000000     
  -3.7021010172375024E-013  0.22167117073607390        0.0000000000000000     
  -3.5577140192200041E-013  0.23008072661918610        0.0000000000000000     
  -6.0897556455960181E-003  0.19675430387200654        0.0000000000000000     
  -6.1439427240833917E-003  0.20501076156451245        0.0000000000000000     
  -6.1918379522054494E-003  0.21331841417281036        0.0000000000000000     
  -6.2334413299621879E-003  0.22167726169690030        0.0000000000000000     
  -6.2687528573536046E-003  0.23008730413678219        0.0000000000000000     
  -1.2214164691055679E-002  0.19677536960834524        0.0000000000000000     
  -1.2324491557499278E-002  0.20502970103874560        0.0000000000000000     
  -1.2421701222648978E-002  0.21333642269574757        0.0000000000000000     
  -1.2505793686504780E-002  0.22169553457935112        0.0000000000000000     
  -1.2576768949066688E-002  0.23010703668955626        0.0000000000000000     
  -1.8373227136749153E-002  0.19681047916884956        0.0000000000000000     
  -1.8541646500625064E-002  0.20506126682909706        0.0000000000000000     
  -1.8689589811708009E-002  0.21336643690062268        0.0000000000000000     
  -1.8817057069997995E-002  0.22172598938342636        0.0000000000000000     
  -1.8924048275495018E-002  0.23013992427750818        0.0000000000000000     
  -2.4566942982676448E-002  0.19685963255351954        0.0000000000000000     
  -2.4795407553460751E-002  0.20510545893556681        0.0000000000000000     
  -2.4995503719382542E-002  0.21340845678743570        0.0000000000000000     
  -2.5167231480441820E-002  0.22176862610912607        0.0000000000000000     
  -2.5310590836638596E-002  0.23018596690063800        0.0000000000000000     
  -3.5577140192200041E-013  0.23008072661918610        0.0000000000000000     
  -3.3951032089862831E-013  0.23850966683784791        0.0000000000000000     
  -3.2683599750227277E-013  0.24692657924875941        0.0000000000000000     
  -3.1774783542173890E-013  0.25533146385192068        0.0000000000000000     
  -3.1224415414365936E-013  0.26372432064733170        0.0000000000000000     
  -6.2687528573536046E-003  0.23008730413678219        0.0000000000000000     
  -6.2986545108067119E-003  0.23851738731244643        0.0000000000000000     
  -6.3240282667485154E-003  0.24693635704388306        0.0000000000000000     
  -6.3448741251790107E-003  0.25534421333109214        0.0000000000000000     
  -6.3611920860982014E-003  0.26374095617407378        0.0000000000000000     
  -1.2576768949066688E-002  0.23010703668955626        0.0000000000000000     
  -1.2636794079701631E-002  0.23854054873623262        0.0000000000000000     
  -1.2688036147776539E-002  0.24696569042924973        0.0000000000000000     
  -1.2730495153291421E-002  0.25538246176860763        0.0000000000000000     
  -1.2764171096246266E-002  0.26379086275430630        0.0000000000000000     
  -1.8924048275495018E-002  0.23013992427750818        0.0000000000000000     
  -1.9014418707024264E-002  0.23857915110920641        0.0000000000000000     
  -1.9092023643410914E-002  0.24701457940485932        0.0000000000000000     
  -1.9156863084654974E-002  0.25544620916446698        0.0000000000000000     
  -1.9208937030756441E-002  0.26387404038802931        0.0000000000000000     
  -2.5310590836638596E-002  0.23018596690063800        0.0000000000000000     
  -2.5431528392774620E-002  0.23863319443136788        0.0000000000000000     
  -2.5535990753651643E-002  0.24708302397071194        0.0000000000000000     
  -2.5623977919269684E-002  0.25553545551867024        0.0000000000000000     
  -2.5695489889628723E-002  0.26399048907524281        0.0000000000000000     
  -3.1224415414365936E-013  0.26372432064733170        0.0000000000000000     
  -3.0832823273707621E-013  0.27204507333337269        0.0000000000000000     
  -3.0400410921255228E-013  0.28023364560842390        0.0000000000000000     
  -2.9927229856611948E-013  0.28829003747248533        0.0000000000000000     
  -2.9412930424577155E-013  0.29621424892555698        0.0000000000000000     
  -6.3611920860982014E-003  0.26374095617407378        0.0000000000000000     
  -6.3769356419005278E-003  0.27206681347370254        0.0000000000000000     
  -6.3960582849804321E-003  0.28026201313085330        0.0000000000000000     
  -6.4185600153379109E-003  0.28832655514552602        0.0000000000000000     
  -6.4444408329729693E-003  0.29626043951772063        0.0000000000000000     
  -1.2764171096246266E-002  0.26379086275430630        0.0000000000000000     
  -1.2796365904114709E-002  0.27213203389470475        0.0000000000000000     
  -1.2834381504370379E-002  0.28034711569816206        0.0000000000000000     
  -1.2878217897013274E-002  0.28843610816467807        0.0000000000000000     
  -1.2927875082043390E-002  0.29639901129425300        0.0000000000000000     
  -1.9208937030756441E-002  0.26387404038802931        0.0000000000000000     
  -1.9258290786950873E-002  0.27224073459637943        0.0000000000000000     
  -1.9314969658473843E-002  0.28048895331035018        0.0000000000000000     
  -1.9378973645325353E-002  0.28861869652994165        0.0000000000000000     
  -1.9450302747505397E-002  0.29662996425515387        0.0000000000000000     
  -2.5695489889628723E-002  0.26399048907524281        0.0000000000000000     
  -2.5762710290409024E-002  0.27239291557872630        0.0000000000000000     
  -2.5837822747290833E-002  0.28068752596741764        0.0000000000000000     
  -2.5920827260274153E-002  0.28887432024131671        0.0000000000000000     
  -2.6011723829358985E-002  0.29695329840042345        0.0000000000000000     
  -1.4245574484061246E-002   5.6277159177227150E-002   0.0000000000000000     
  -1.5005010485354034E-002   6.1710875028129802E-002   0.0000000000000000     
  -1.5732257610053049E-002   6.7371738164135622E-002   0.0000000000000000     
  -1.6427315858158296E-002   7.3259748585244616E-002   0.0000000000000000     
  -1.7090185229669777E-002   7.9374906291456743E-002   0.0000000000000000     
  -1.8067757906703084E-002   5.6901632304967968E-002   0.0000000000000000     
  -1.8967174050693373E-002   6.2208159075403793E-002   0.0000000000000000     
  -1.9839699751155095E-002   6.7772152052107792E-002   0.0000000000000000     
  -2.0685335008088262E-002   7.3593611235079973E-002   0.0000000000000000     
  -2.1504079821492855E-002   7.9672536624320320E-002   0.0000000000000000     
  -2.1815067390104814E-002   5.7315258987062204E-002   0.0000000000000000     
  -2.2893600192768971E-002   6.2582805291339971E-002   0.0000000000000000     
  -2.3941965603673111E-002   6.8114859809776496E-002   0.0000000000000000     
  -2.4960163622817229E-002   7.3911422542371749E-002   0.0000000000000000     
  -2.5948194250201333E-002   7.9972493489125718E-002   0.0000000000000000     
  -2.5487502934266420E-002   5.7518039223509863E-002   0.0000000000000000     
  -2.6784288911580831E-002   6.2834813675938336E-002   0.0000000000000000     
  -2.8039055167607092E-002   6.8399861437141690E-002   0.0000000000000000     
  -2.9251801702345231E-002   7.4213182507119876E-002   0.0000000000000000     
  -3.0422528515795216E-002   8.0274776885872909E-002   0.0000000000000000     
  -2.9085064539187910E-002   5.7509973014310919E-002   0.0000000000000000     
  -3.0639240207128941E-002   6.2964184229198916E-002   0.0000000000000000     
  -3.2130968442957056E-002   6.8627156934203404E-002   0.0000000000000000     
  -3.3560249246672232E-002   7.4498891129324424E-002   0.0000000000000000     
  -3.4927082618274499E-002   8.0579386814561949E-002   0.0000000000000000     
  -1.7090185229669777E-002   7.9374906291456743E-002   0.0000000000000000     
  -1.7729769009267989E-002   8.5683699567180069E-002   0.0000000000000000     
  -1.8354970481633450E-002   9.2152616696822620E-002   0.0000000000000000     
  -1.8965789646766151E-002   9.8781657680384341E-002   0.0000000000000000     
  -1.9562226504666103E-002  0.10557082251786529        0.0000000000000000     
  -2.1504079821492855E-002   7.9672536624320320E-002   0.0000000000000000     
  -2.2299745767678979E-002   8.5961194358351228E-002   0.0000000000000000     
  -2.3076144422956701E-002   9.2411850575695051E-002   0.0000000000000000     
  -2.3833275787326035E-002   9.9024505276351787E-002   0.0000000000000000     
  -2.4571139860786975E-002  0.10579915846032147        0.0000000000000000     
  -2.5948194250201333E-002   7.9972493489125718E-002   0.0000000000000000     
  -2.6908635752210384E-002   8.6247076102786591E-002   0.0000000000000000     
  -2.7844066395229357E-002   9.2684173836102557E-002   0.0000000000000000     
  -2.8754486179258250E-002   9.9283786689073533E-002   0.0000000000000000     
  -2.9639895104297063E-002  0.10604591466169960        0.0000000000000000     
  -3.0422528515795216E-002   8.0274776885872909E-002   0.0000000000000000     
  -3.1556438962862227E-002   8.6541344800486197E-002   0.0000000000000000     
  -3.2658736398451425E-002   9.2969586478045083E-002   0.0000000000000000     
  -3.3729420822562799E-002   9.9559501918549606E-002   0.0000000000000000     
  -3.4768492235196367E-002  0.10631109112199973        0.0000000000000000     
  -3.4927082618274499E-002   8.0579386814561949E-002   0.0000000000000000     
  -3.6243155399634491E-002   8.6844000451450035E-002   0.0000000000000000     
  -3.7520154432622896E-002   9.3268088501522711E-002   0.0000000000000000     
  -3.8758079717239699E-002   9.9851650964779964E-002   0.0000000000000000     
  -3.9956931253484908E-002  0.10659468784122181        0.0000000000000000     
  -1.9562226504666103E-002  0.10557082251786529        0.0000000000000000     
  -2.0136556199110117E-002  0.11250884323334566        0.0000000000000000     
  -2.0681053873875022E-002  0.11958445185090566        0.0000000000000000     
  -2.1195719528960814E-002  0.12679764837054533        0.0000000000000000     
  -2.1680553164367497E-002  0.13414843279226457        0.0000000000000000     
  -2.4571139860786975E-002  0.10579915846032147        0.0000000000000000     
  -2.5281777209918622E-002  0.11272378127844886        0.0000000000000000     
  -2.5957228401300082E-002  0.11978634488157876        0.0000000000000000     
  -2.6597493434931358E-002  0.12698684926971113        0.0000000000000000     
  -2.7202572310812440E-002  0.13432529444284605        0.0000000000000000     
  -2.9639895104297063E-002  0.10604591466169960        0.0000000000000000     
  -3.0492192286842305E-002  0.11295818558200872        0.0000000000000000     
  -3.1303276843390480E-002  0.12000822727802879        0.0000000000000000     
  -3.2073148773941608E-002  0.12719603974975988        0.0000000000000000     
  -3.2801808078495663E-002  0.13452162299720197        0.0000000000000000     
  -3.4768492235196367E-002  0.10631109112199973        0.0000000000000000     
  -3.5767801429881174E-002  0.11321205614402521        0.0000000000000000     
  -3.6719199200146227E-002  0.12025009904025583        0.0000000000000000     
  -3.7622685545991560E-002  0.12742521981069152        0.0000000000000000     
  -3.8478260467417154E-002  0.13473741845533238        0.0000000000000000     
  -3.9956931253484908E-002  0.10659468784122181        0.0000000000000000     
  -4.1108604639035214E-002  0.11348539296449837        0.0000000000000000     
  -4.2204995471567315E-002  0.12051196016825982        0.0000000000000000     
  -4.3246103751081226E-002  0.12767438945250612        0.0000000000000000     
  -4.4231929477576933E-002  0.13497268081723723        0.0000000000000000     
  -2.1680553164367497E-002  0.13414843279226457        0.0000000000000000     
  -2.2137395368636972E-002  0.14162298767222453        0.0000000000000000     
  -2.2568086730311132E-002  0.14920749556658622        0.0000000000000000     
  -2.2972627249389990E-002  0.15690195647534960        0.0000000000000000     
  -2.3351016925873540E-002  0.16470637039851466        0.0000000000000000     
  -2.7202572310812440E-002  0.13432529444284605        0.0000000000000000     
  -2.7773927717994362E-002  0.14178706133399147        0.0000000000000000     
  -2.8313022345528124E-002  0.14935753087615550        0.0000000000000000     
  -2.8819856193413741E-002  0.15703670306933804        0.0000000000000000     
  -2.9294429261651198E-002  0.16482457791353916        0.0000000000000000     
  -3.2801808078495663E-002  0.13452162299720197        0.0000000000000000     
  -3.3490752179318503E-002  0.14197017996724198        0.0000000000000000     
  -3.4141478498675971E-002  0.14952691360676690        0.0000000000000000     
  -3.4753987036568061E-002  0.15719182391577669        0.0000000000000000     
  -3.5328277792994793E-002  0.16496491089427137        0.0000000000000000     
  -3.8478260467417154E-002  0.13473741845533238        0.0000000000000000     
  -3.9287868752609409E-002  0.14217234357197608        0.0000000000000000     
  -4.0053455189754686E-002  0.14971564375842047        0.0000000000000000     
  -4.0775019778852978E-002  0.15736731901466547        0.0000000000000000     
  -4.1452562519904305E-002  0.16512736934071118        0.0000000000000000     
  -4.4231929477576933E-002  0.13497268081723723        0.0000000000000000     
  -4.5165277437867066E-002  0.14239355214819374        0.0000000000000000     
  -4.6048952418764250E-002  0.14992372133111614        0.0000000000000000     
  -4.6882954420268477E-002  0.15756318836600447        0.0000000000000000     
  -4.7667283442379749E-002  0.16531195325285869        0.0000000000000000     
  -2.3351016925873540E-002  0.16470637039851466        0.0000000000000000     
  -2.3700997995813145E-002  0.17261049210597690        0.0000000000000000     
  -2.4020312695260164E-002  0.18060407636763184        0.0000000000000000     
  -2.4308961024214596E-002  0.18868712318347938        0.0000000000000000     
  -2.4566942982676448E-002  0.19685963255351954        0.0000000000000000     
  -2.9294429261651198E-002  0.16482457791353916        0.0000000000000000     
  -2.9734260746268771E-002  0.17271255959160595        0.0000000000000000     
  -3.0136869843294705E-002  0.18069205228638552        0.0000000000000000     
  -3.0502256552729014E-002  0.18876305599787779        0.0000000000000000     
  -3.0830420874571676E-002  0.19692557072608285        0.0000000000000000     
  -3.5328277792994793E-002  0.16496491089427137        0.0000000000000000     
  -3.5861569921338696E-002  0.17283817511394894        0.0000000000000000     
  -3.6351082574982374E-002  0.18080361714650739        0.0000000000000000     
  -3.6796815753925793E-002  0.18886123699194685        0.0000000000000000     
  -3.7198769458168982E-002  0.19701103465026709        0.0000000000000000     
  -4.1452562519904305E-002  0.16512736934071118        0.0000000000000000     
  -4.2082925521022933E-002  0.17298733867300578        0.0000000000000000     
  -4.2662950890323147E-002  0.18093877094799754        0.0000000000000000     
  -4.3192638627804966E-002  0.18898166616568640        0.0000000000000000     
  -4.3671988733468350E-002  0.19711602432607236        0.0000000000000000     
  -4.7667283442379749E-002  0.16531195325285869        0.0000000000000000     
  -4.8398327545321473E-002  0.17316005026877657        0.0000000000000000     
  -4.9072474789317068E-002  0.18109751369085586        0.0000000000000000     
  -4.9689725174366504E-002  0.18912434351909654        0.0000000000000000     
  -5.0250078700469804E-002  0.19724053975349862        0.0000000000000000     
  -2.4566942982676448E-002  0.19685963255351954        0.0000000000000000     
  -2.4795407553460751E-002  0.20510545893556681        0.0000000000000000     
  -2.4995503719382542E-002  0.21340845678743570        0.0000000000000000     
  -2.5167231480441820E-002  0.22176862610912607        0.0000000000000000     
  -2.5310590836638596E-002  0.23018596690063800        0.0000000000000000     
  -3.0830420874571676E-002  0.19692557072608285        0.0000000000000000     
  -3.1121726401470470E-002  0.20516408039731174        0.0000000000000000     
  -3.1376536726073156E-002  0.21346306893787562        0.0000000000000000     
  -3.1594851848379728E-002  0.22182253634777441        0.0000000000000000     
  -3.1776671768390184E-002  0.23024248262700814        0.0000000000000000     
  -3.7198769458168982E-002  0.19701103465026709        0.0000000000000000     
  -3.7556554730118374E-002  0.20523893425348855        0.0000000000000000     
  -3.7869782612180429E-002  0.21353085993363133        0.0000000000000000     
  -3.8138453104355152E-002  0.22188681169069549        0.0000000000000000     
  -3.8362566206642530E-002  0.23030678952468092        0.0000000000000000     
  -4.3671988733468350E-002  0.19711602432607236        0.0000000000000000     
  -4.4099892539404446E-002  0.20533002050409732        0.0000000000000000     
  -4.4475241377704366E-002  0.21361182977470294        0.0000000000000000     
  -4.4798035248368104E-002  0.22196145213788929        0.0000000000000000     
  -4.5068274151395658E-002  0.23037888759365641        0.0000000000000000     
  -5.0250078700469804E-002  0.19724053975349862        0.0000000000000000     
  -5.0751739829328707E-002  0.20543733914913798        0.0000000000000000     
  -5.1192913022644969E-002  0.21370597846109041        0.0000000000000000     
  -5.1573598280418576E-002  0.22204645768935591        0.0000000000000000     
  -5.1893795602649548E-002  0.23045877683393451        0.0000000000000000     
  -2.5310590836638596E-002  0.23018596690063800        0.0000000000000000     
  -2.5431528392774620E-002  0.23863319443136788        0.0000000000000000     
  -2.5535990753651643E-002  0.24708302397071194        0.0000000000000000     
  -2.5623977919269684E-002  0.25553545551867024        0.0000000000000000     
  -2.5695489889628723E-002  0.26399048907524281        0.0000000000000000     
  -3.1776671768390184E-002  0.23024248262700814        0.0000000000000000     
  -3.1929794906072340E-002  0.23869834459636505        0.0000000000000000     
  -3.2062019681393973E-002  0.24716555907663329        0.0000000000000000     
  -3.2173346094355126E-002  0.25564412606781284        0.0000000000000000     
  -3.2263774144955772E-002  0.26413404556990383        0.0000000000000000     
  -3.8362566206642530E-002  0.23030678952468092        0.0000000000000000     
  -3.8550890016037051E-002  0.23877026749784608        0.0000000000000000     
  -3.8712192629533175E-002  0.24725671967244919        0.0000000000000000     
  -3.8846474047130902E-002  0.25576614604849029        0.0000000000000000     
  -3.8953734268830226E-002  0.26429854662596941        0.0000000000000000     
  -4.5068274151395658E-002  0.23037888759365641        0.0000000000000000     
  -4.5294813722668782E-002  0.23884896313581092        0.0000000000000000     
  -4.5486509598069234E-002  0.24735650575815962        0.0000000000000000     
  -4.5643361777597022E-002  0.25590151546070250        0.0000000000000000     
  -4.5765370261252117E-002  0.26448399224343960        0.0000000000000000     
  -5.1893795602649548E-002  0.23045877683393451        0.0000000000000000     
  -5.2161566025967519E-002  0.23893443151025964        0.0000000000000000     
  -5.2384970587002165E-002  0.24746491733376466        0.0000000000000000     
  -5.2564009285753464E-002  0.25605023430444956        0.0000000000000000     
  -5.2698682122221410E-002  0.26469038242231441        0.0000000000000000     
  -2.5695489889628723E-002  0.26399048907524281        0.0000000000000000     
  -2.5762710290409024E-002  0.27239291557872630        0.0000000000000000     
  -2.5837822747290833E-002  0.28068752596741764        0.0000000000000000     
  -2.5920827260274153E-002  0.28887432024131671        0.0000000000000000     
  -2.6011723829358985E-002  0.29695329840042345        0.0000000000000000     
  -3.2263774144955772E-002  0.26413404556990383        0.0000000000000000     
  -3.2348027833357648E-002  0.27258230838605707        0.0000000000000000     
  -3.2440831159722509E-002  0.28093590531942381        0.0000000000000000     
  -3.2542184124050348E-002  0.28919483637000393        0.0000000000000000     
  -3.2652086726341172E-002  0.29735910153779743        0.0000000000000000     
  -3.8953734268830226E-002  0.26429854662596941        0.0000000000000000     
  -3.9052646834665243E-002  0.27280264456268311        0.0000000000000000     
  -3.9161885284670045E-002  0.28122716301642808        0.0000000000000000     
  -3.9281449618844624E-002  0.28957210198720423        0.0000000000000000     
  -3.9411339837188981E-002  0.29783746147501156        0.0000000000000000     
  -4.5765370261252117E-002  0.26448399224343960        0.0000000000000000     
  -4.5876567294331830E-002  0.27305392410860435        0.0000000000000000     
  -4.6000985122133443E-002  0.28156129905843030        0.0000000000000000     
  -4.6138623744656986E-002  0.29000611709291751        0.0000000000000000     
  -4.6289483161902414E-002  0.29838837821206599        0.0000000000000000     
  -5.2698682122221410E-002  0.26469038242231441        0.0000000000000000     
  -5.2819789212357388E-002  0.27333614702382086        0.0000000000000000     
  -5.2958130672112712E-002  0.28193831344543074        0.0000000000000000     
  -5.3113706501487411E-002  0.29049688168714394        0.0000000000000000     
  -5.3286516700481470E-002  0.29901185174896056        0.0000000000000000     
  -2.9085064539187910E-002   5.7509973014310919E-002   0.0000000000000000     
  -3.0639240207128941E-002   6.2964184229198916E-002   0.0000000000000000     
  -3.2130968442957056E-002   6.8627156934203404E-002   0.0000000000000000     
  -3.3560249246672232E-002   7.4498891129324424E-002   0.0000000000000000     
  -3.4927082618274499E-002   8.0579386814561949E-002   0.0000000000000000     
  -3.2802031230413461E-002   5.7534322906870161E-002   0.0000000000000000     
  -3.4612975447538288E-002   6.3132785822295590E-002   0.0000000000000000     
  -3.6340846516904612E-002   6.8898349187701741E-002   0.0000000000000000     
  -3.7985644438512413E-002   7.4831013003088601E-002   0.0000000000000000     
  -3.9547369212361690E-002   8.0930777268456169E-002   0.0000000000000000     
  -3.6832682033487218E-002   5.7834351448592336E-002   0.0000000000000000     
  -3.8860016000933847E-002   6.3502487326402346E-002   0.0000000000000000     
  -4.0791830476631395E-002   6.9315041084376777E-002   0.0000000000000000     
  -4.2628125460579862E-002   7.5272012722515644E-002   0.0000000000000000     
  -4.4368900952779282E-002   8.1373402240818959E-002   0.0000000000000000     
  -4.1177016948409202E-002   5.8410058639477444E-002   0.0000000000000000     
  -4.3380361867315607E-002   6.4073288741519158E-002   0.0000000000000000     
  -4.5483920322137418E-002   6.9877232624228541E-002   0.0000000000000000     
  -4.7487692312874655E-002   7.5821890287605567E-002   0.0000000000000000     
  -4.9391677839527290E-002   8.1907261731650305E-002   0.0000000000000000     
  -4.5835035975179406E-002   5.9261444479525485E-002   0.0000000000000000     
  -4.8174013046683575E-002   6.4845190067646011E-002   0.0000000000000000     
  -5.0417116053422667E-002   7.0584923807256991E-002   0.0000000000000000     
  -5.2564344995396715E-002   7.6480645698358371E-002   0.0000000000000000     
  -5.4615699872605700E-002   8.2532355740950220E-002   0.0000000000000000     
  -3.4927082618274499E-002   8.0579386814561949E-002   0.0000000000000000     
  -3.6243155399634491E-002   8.6844000451450035E-002   0.0000000000000000     
  -3.7520154432622896E-002   9.3268088501522711E-002   0.0000000000000000     
  -3.8758079717239699E-002   9.9851650964779964E-002   0.0000000000000000     
  -3.9956931253484908E-002  0.10659468784122181        0.0000000000000000     
  -3.9547369212361690E-002   8.0930777268456169E-002   0.0000000000000000     
  -4.1044545212214130E-002   8.7192620410747296E-002   0.0000000000000000     
  -4.2495696811831435E-002   9.3611520856904828E-002   0.0000000000000000     
  -4.3900824011213591E-002  0.10018747860692877        0.0000000000000000     
  -4.5259926810360597E-002  0.10692049366081910        0.0000000000000000     
  -4.4368900952779282E-002   8.1373402240818959E-002   0.0000000000000000     
  -4.6036368550288059E-002   8.7624782033447202E-002   0.0000000000000000     
  -4.7652739850164667E-002   9.4031724494560959E-002   0.0000000000000000     
  -4.9218014852409113E-002  0.10059422962416016        0.0000000000000000     
  -5.0732193557021375E-002  0.10731229742224485        0.0000000000000000     
  -4.9391677839527290E-002   8.1907261731650305E-002   0.0000000000000000     
  -5.1218625413856286E-002   8.8140485319549752E-002   0.0000000000000000     
  -5.2991283547622614E-002   9.4528699414491033E-002   0.0000000000000000     
  -5.4709652240826287E-002  0.10107190401647412        0.0000000000000000     
  -5.6373731493467256E-002  0.10777009912549904        0.0000000000000000     
  -5.4615699872605700E-002   8.2532355740950220E-002   0.0000000000000000     
  -5.6591315802918811E-002   8.8739730269054976E-002   0.0000000000000000     
  -5.8511327904205275E-002   9.5102445616695133E-002   0.0000000000000000     
  -6.0375736176465078E-002  0.10162050178387071        0.0000000000000000     
  -6.2184540619698227E-002  0.10829389877058167        0.0000000000000000     
  -3.9956931253484908E-002  0.10659468784122181        0.0000000000000000     
  -4.1108604639035214E-002  0.11348539296449837        0.0000000000000000     
  -4.2204995471567315E-002  0.12051196016825982        0.0000000000000000     
  -4.3246103751081226E-002  0.12767438945250612        0.0000000000000000     
  -4.4231929477576933E-002  0.13497268081723723        0.0000000000000000     
  -4.5259926810360597E-002  0.10692049366081910        0.0000000000000000     
  -4.6564658421592804E-002  0.11379939207145159        0.0000000000000000     
  -4.7806672057230548E-002  0.12081299989170195        0.0000000000000000     
  -4.8985967717273850E-002  0.12796131712157013        0.0000000000000000     
  -5.0102545401722667E-002  0.13524434376105626        0.0000000000000000     
  -5.0732193557021375E-002  0.10731229742224485        0.0000000000000000     
  -5.2186019284842303E-002  0.11417524949290821        0.0000000000000000     
  -5.3570235356712743E-002  0.12117240744024335        0.0000000000000000     
  -5.4884841772632663E-002  0.12830377126425035        0.0000000000000000     
  -5.6129838532602082E-002  0.13556934096492912        0.0000000000000000     
  -5.6373731493467256E-002  0.10777009912549904        0.0000000000000000     
  -5.7972687228783737E-002  0.11461296522886819        0.0000000000000000     
  -5.9495685370013866E-002  0.12159018281388408        0.0000000000000000     
  -6.0942725917157665E-002  0.12870175188054658        0.0000000000000000     
  -6.2313808870215148E-002  0.13594767242885586        0.0000000000000000     
  -6.2184540619698227E-002  0.10829389877058167        0.0000000000000000     
  -6.3924662253417072E-002  0.11511253927933160        0.0000000000000000     
  -6.5583022097133958E-002  0.12206632601262404        0.0000000000000000     
  -6.7159620150848878E-002  0.12915525897045899        0.0000000000000000     
  -6.8654456414561860E-002  0.13637933815283648        0.0000000000000000     
  -4.4231929477576933E-002  0.13497268081723723        0.0000000000000000     
  -4.5165277437867066E-002  0.14239355214819374        0.0000000000000000     
  -4.6048952418764250E-002  0.14992372133111614        0.0000000000000000     
  -4.6882954420268477E-002  0.15756318836600447        0.0000000000000000     
  -4.7667283442379749E-002  0.16531195325285869        0.0000000000000000     
  -5.0102545401722667E-002  0.13524434376105626        0.0000000000000000     
  -5.1160239759745159E-002  0.14264979683189641        0.0000000000000000     
  -5.2162885440509413E-002  0.15016539335582677        0.0000000000000000     
  -5.3110482444015415E-002  0.15779113333284739        0.0000000000000000     
  -5.4003030770263166E-002  0.16552701676295822        0.0000000000000000     
  -5.6129838532602082E-002  0.13556934096492912        0.0000000000000000     
  -5.7310017242897367E-002  0.14295706875908548        0.0000000000000000     
  -5.8430169509794891E-002  0.15045490686352511        0.0000000000000000     
  -5.9490295333294634E-002  0.15806285527824798        0.0000000000000000     
  -6.0490394713396629E-002  0.16578091400325418        0.0000000000000000     
  -6.2313808870215148E-002  0.13594767242885586        0.0000000000000000     
  -6.3614609887323689E-002  0.14331536792976099        0.0000000000000000     
  -6.4850804626620684E-002  0.15079226185421113        0.0000000000000000     
  -6.6022393088106146E-002  0.15837835420220642        0.0000000000000000     
  -6.7129375271780076E-002  0.16607364497374666        0.0000000000000000     
  -6.8654456414561860E-002  0.13637933815283648        0.0000000000000000     
  -7.0074017693024099E-002  0.14372469434392293        0.0000000000000000     
  -7.1424790790986806E-002  0.15117745832788496        0.0000000000000000     
  -7.2706775708449953E-002  0.15873763010472242        0.0000000000000000     
  -7.3919972445413595E-002  0.16640520967443548        0.0000000000000000     
  -4.7667283442379749E-002  0.16531195325285869        0.0000000000000000     
  -4.8398327545321473E-002  0.17316005026877657        0.0000000000000000     
  -4.9072474789317068E-002  0.18109751369085586        0.0000000000000000     
  -4.9689725174366504E-002  0.18912434351909654        0.0000000000000000     
  -5.0250078700469804E-002  0.19724053975349862        0.0000000000000000     
  -5.4003030770263166E-002  0.16552701676295822        0.0000000000000000     
  -5.4836557554266141E-002  0.17336161711064429        0.0000000000000000     
  -5.5607089931037766E-002  0.18128350784039055        0.0000000000000000     
  -5.6314627900578049E-002  0.18929268895219692        0.0000000000000000     
  -5.6959171462886975E-002  0.19738916044606350        0.0000000000000000     
  -6.0490394713396629E-002  0.16578091400325418        0.0000000000000000     
  -6.1426397107888754E-002  0.17359734640799199        0.0000000000000000     
  -6.2294231974558946E-002  0.18150041586190968        0.0000000000000000     
  -6.3093899313407226E-002  0.18949012236500723        0.0000000000000000     
  -6.3825399124433538E-002  0.19756646591728466        0.0000000000000000     
  -6.7129375271780076E-002  0.16607364497374666        0.0000000000000000     
  -6.8167846206189306E-002  0.17386723816081967        0.0000000000000000     
  -6.9133900919880628E-002  0.18174823775541327        0.0000000000000000     
  -7.0027539412854028E-002  0.18971664375752739        0.0000000000000000     
  -7.0848761685109507E-002  0.19777245616716208        0.0000000000000000     
  -7.3919972445413595E-002  0.16640520967443548        0.0000000000000000     
  -7.5060904849167817E-002  0.17417129236912732        0.0000000000000000     
  -7.6126096767002757E-002  0.18202697352090130        0.0000000000000000     
  -7.7115548198918443E-002  0.18997225312975749        0.0000000000000000     
  -7.8029259144914861E-002  0.19800713119569580        0.0000000000000000     
  -5.0250078700469804E-002  0.19724053975349862        0.0000000000000000     
  -5.0751739829328707E-002  0.20543733914913798        0.0000000000000000     
  -5.1192913022644969E-002  0.21370597846109041        0.0000000000000000     
  -5.1573598280418576E-002  0.22204645768935591        0.0000000000000000     
  -5.1893795602649548E-002  0.23045877683393451        0.0000000000000000     
  -5.6959171462886975E-002  0.19738916044606350        0.0000000000000000     
  -5.7538624470606932E-002  0.20556686028445317        0.0000000000000000     
  -5.8050890776380308E-002  0.21381972642982888        0.0000000000000000     
  -5.8495970380207069E-002  0.22214775888219065        0.0000000000000000     
  -5.8873863282087234E-002  0.23055095764153843        0.0000000000000000     
  -6.3825399124433538E-002  0.19756646591728466        0.0000000000000000     
  -6.4487074333954966E-002  0.20572455400588557        0.0000000000000000     
  -6.5077267868288463E-002  0.21395949411795370        0.0000000000000000     
  -6.5595979727434070E-002  0.22227128625348888        0.0000000000000000     
  -6.6043209911391745E-002  0.23065993041249128        0.0000000000000000     
  -7.0848761685109507E-002  0.19777245616716208        0.0000000000000000     
  -7.1597089419372775E-002  0.20591042031343523        0.0000000000000000     
  -7.2272044298369434E-002  0.21412528152546476        0.0000000000000000     
  -7.2873626322099566E-002  0.22241703980325067        0.0000000000000000     
  -7.3401835490563103E-002  0.23078569514679304        0.0000000000000000     
  -7.8029259144914861E-002  0.19800713119569580        0.0000000000000000     
  -7.8868669726860338E-002  0.20612445920710207        0.0000000000000000     
  -7.9635220066623255E-002  0.21431708865236213        0.0000000000000000     
  -8.0328910164203557E-002  0.22258501953147600        0.0000000000000000     
  -8.0949740019601285E-002  0.23092825184444371        0.0000000000000000     
  -5.1893795602649548E-002  0.23045877683393451        0.0000000000000000     
  -5.2161566025967519E-002  0.23893443151025964        0.0000000000000000     
  -5.2384970587002165E-002  0.24746491733376466        0.0000000000000000     
  -5.2564009285753464E-002  0.25605023430444956        0.0000000000000000     
  -5.2698682122221410E-002  0.26469038242231441        0.0000000000000000     
  -5.8873863282087234E-002  0.23055095764153843        0.0000000000000000     
  -5.9190518166766098E-002  0.23902813244238397        0.0000000000000000     
  -5.9451883718988935E-002  0.24757809301923905        0.0000000000000000     
  -5.9657959938755729E-002  0.25620083937210369        0.0000000000000000     
  -5.9808746826066517E-002  0.26489637150097778        0.0000000000000000     
  -6.6043209911391745E-002  0.23065993041249128        0.0000000000000000     
  -6.6421041385897314E-002  0.23913152575337585        0.0000000000000000     
  -6.6731557116686505E-002  0.24769217143455785        0.0000000000000000     
  -6.6974757103759316E-002  0.25634186745603715        0.0000000000000000     
  -6.7150641347115778E-002  0.26508061381781378        0.0000000000000000     
  -7.3401835490563103E-002  0.23078569514679304        0.0000000000000000     
  -7.3853135683361187E-002  0.23924461144323525        0.0000000000000000     
  -7.4223990780094895E-002  0.24780715257972091        0.0000000000000000     
  -7.4514400780764239E-002  0.25647331855624994        0.0000000000000000     
  -7.4724365685369248E-002  0.26524310937282242        0.0000000000000000     
  -8.0949740019601285E-002  0.23092825184444371        0.0000000000000000     
  -8.1486801059157704E-002  0.23936738951196213        0.0000000000000000     
  -8.1929184709214106E-002  0.24792303645472830        0.0000000000000000     
  -8.2276890969770505E-002  0.25659519267274211        0.0000000000000000     
  -8.2529919840826874E-002  0.26538385816600374        0.0000000000000000     
  -5.2698682122221410E-002  0.26469038242231441        0.0000000000000000     
  -5.2819789212357388E-002  0.27333614702382086        0.0000000000000000     
  -5.2958130672112712E-002  0.28193831344543074        0.0000000000000000     
  -5.3113706501487411E-002  0.29049688168714394        0.0000000000000000     
  -5.3286516700481470E-002  0.29901185174896056        0.0000000000000000     
  -5.9808746826066517E-002  0.26489637150097778        0.0000000000000000     
  -5.9941167577700280E-002  0.27362062068766529        0.0000000000000000     
  -6.0092145390436037E-002  0.28232951821397001        0.0000000000000000     
  -6.0261680264273802E-002  0.29102306407989215        0.0000000000000000     
  -6.0449772199213568E-002  0.29970125828543137        0.0000000000000000     
  -6.7150641347115778E-002  0.26508061381781378        0.0000000000000000     
  -6.7299557379318892E-002  0.27387865247947041        0.0000000000000000     
  -6.7461852732931649E-002  0.28270622540058932        0.0000000000000000     
  -6.7637527407954048E-002  0.29156333258117073        0.0000000000000000     
  -6.7826581404386105E-002  0.30044997402121448        0.0000000000000000     
  -7.4724365685369248E-002  0.26524310937282242        0.0000000000000000     
  -7.4894958617213209E-002  0.27411024239923609        0.0000000000000000     
  -7.5067252699599490E-002  0.28306843500528850        0.0000000000000000     
  -7.5241247932528163E-002  0.29211768719097980        0.0000000000000000     
  -7.5416944315999115E-002  0.30125799895630984        0.0000000000000000     
  -8.2529919840826874E-002  0.26538385816600374        0.0000000000000000     
  -8.2727371291383245E-002  0.27431539044696246        0.0000000000000000     
  -8.2908345290439653E-002  0.28341614702806761        0.0000000000000000     
  -8.3072841837996084E-002  0.29268612790931930        0.0000000000000000     
  -8.3220860934052565E-002  0.30212533309071743        0.0000000000000000     
  -4.5835035975179406E-002   5.9261444479525485E-002   0.0000000000000000     
  -4.8174013046683575E-002   6.4845190067646011E-002   0.0000000000000000     
  -5.0417116053422667E-002   7.0584923807256991E-002   0.0000000000000000     
  -5.2564344995396715E-002   7.6480645698358371E-002   0.0000000000000000     
  -5.4615699872605700E-002   8.2532355740950220E-002   0.0000000000000000     
  -5.0591658030162912E-002   6.0210549644614392E-002   0.0000000000000000     
  -5.3087427717084683E-002   6.5697578560358058E-002   0.0000000000000000     
  -5.5486253985966842E-002   7.1360112799857947E-002   0.0000000000000000     
  -5.7788136836809424E-002   7.7198152363114045E-002   0.0000000000000000     
  -5.9993076269612401E-002   8.3211697250126365E-002   0.0000000000000000     
  -5.5231802029724844E-002   6.1079414810622082E-002   0.0000000000000000     
  -5.7967064056565876E-002   6.6509841475230411E-002   0.0000000000000000     
  -6.0586170435249637E-002   7.2124797768427229E-002   0.0000000000000000     
  -6.3089121165776113E-002   7.7924283690212523E-002   0.0000000000000000     
  -6.5475916248145291E-002   8.3908299240586362E-002   0.0000000000000000     
  -5.9755467973865162E-002   6.1868039977548556E-002   0.0000000000000000     
  -6.2812922065127161E-002   6.7281978812263055E-002   0.0000000000000000     
  -6.5716865401271030E-002   7.2878978712964823E-002   0.0000000000000000     
  -6.8467297982296754E-002   7.8659039679653889E-002   0.0000000000000000     
  -7.1064219808204349E-002   8.4622161712330238E-002   0.0000000000000000     
  -6.4162655862583878E-002   6.2576425145393827E-002   0.0000000000000000     
  -6.7625001742768531E-002   6.8013990571455976E-002   0.0000000000000000     
  -7.0878338884031028E-002   7.3622655633470729E-002   0.0000000000000000     
  -7.3922667286371382E-002   7.9402420331438045E-002   0.0000000000000000     
  -7.6757986949789594E-002   8.5353284665357979E-002   0.0000000000000000     
  -5.4615699872605700E-002   8.2532355740950220E-002   0.0000000000000000     
  -5.6591315802918811E-002   8.8739730269054976E-002   0.0000000000000000     
  -5.8511327904205275E-002   9.5102445616695133E-002   0.0000000000000000     
  -6.0375736176465078E-002  0.10162050178387071        0.0000000000000000     
  -6.2184540619698227E-002  0.10829389877058167        0.0000000000000000     
  -5.9993076269612401E-002   8.3211697250126365E-002   0.0000000000000000     
  -6.2120725160164258E-002   8.9390936792842809E-002   0.0000000000000000     
  -6.4190736384253447E-002   9.5726060323211362E-002   0.0000000000000000     
  -6.6203109941879987E-002  0.10221706784123202        0.0000000000000000     
  -6.8157845833043865E-002  0.10886395934690475        0.0000000000000000     
  -6.5475916248145291E-002   8.3908299240586362E-002   0.0000000000000000     
  -6.7773138928281226E-002   9.0062524801793289E-002   0.0000000000000000     
  -7.0007372452107947E-002   9.6372640756077904E-002   0.0000000000000000     
  -7.2178616819625452E-002  0.10283864710344025        0.0000000000000000     
  -7.4286872030833756E-002  0.10946054384388026        0.0000000000000000     
  -7.1064219808204349E-002   8.4622161712330238E-002   0.0000000000000000     
  -7.3548557107269708E-002   9.0754494295906360E-002   0.0000000000000000     
  -7.5961236107768754E-002   9.7042186915294718E-002   0.0000000000000000     
  -7.8302256809701487E-002  0.10348523957049535        0.0000000000000000     
  -8.0571619213067894E-002  0.11008365226150822        0.0000000000000000     
  -7.6757986949789594E-002   8.5353284665357979E-002   0.0000000000000000     
  -7.9446979697129744E-002   9.1466845275182063E-002   0.0000000000000000     
  -8.2052327351235910E-002   9.7734698800861858E-002   0.0000000000000000     
  -8.4574029912108079E-002  0.10415684524239738        0.0000000000000000     
  -8.7012087379746264E-002  0.11073328459978862        0.0000000000000000     
  -6.2184540619698227E-002  0.10829389877058167        0.0000000000000000     
  -6.3924662253417072E-002  0.11511253927933160        0.0000000000000000     
  -6.5583022097133958E-002  0.12206632601262404        0.0000000000000000     
  -6.7159620150848878E-002  0.12915525897045899        0.0000000000000000     
  -6.8654456414561860E-002  0.13637933815283648        0.0000000000000000     
  -6.8157845833043865E-002  0.10886395934690475        0.0000000000000000     
  -7.0039858240039082E-002  0.11565672633614481        0.0000000000000000     
  -7.1834061345159628E-002  0.12258536030486736        0.0000000000000000     
  -7.3540455148405501E-002  0.12964986125307246        0.0000000000000000     
  -7.5159039649776702E-002  0.13685022918076006        0.0000000000000000     
  -7.4286872030833756E-002  0.10946054384388026        0.0000000000000000     
  -7.6316189069946555E-002  0.11622828109115416        0.0000000000000000     
  -7.8250618921177517E-002  0.12313180895901807        0.0000000000000000     
  -8.0090161584526712E-002  0.13017112744747200        0.0000000000000000     
  -8.1834817059994069E-002  0.13734623655651593        0.0000000000000000     
  -8.0571619213067894E-002  0.11008365226150822        0.0000000000000000     
  -8.2753654743139449E-002  0.11682720354435969        0.0000000000000000     
  -8.4832694825187668E-002  0.12370567197507618        0.0000000000000000     
  -8.6808739459212511E-002  0.13071905755365759        0.0000000000000000     
  -8.8681788645214005E-002  0.13786736028010396        0.0000000000000000     
  -8.7012087379746264E-002  0.11073328459978862        0.0000000000000000     
  -8.9352255259617805E-002  0.11745349369576141        0.0000000000000000     
  -9.1580289057190026E-002  0.12430694935304161        0.0000000000000000     
  -9.3696188772462913E-002  0.13129365157162923        0.0000000000000000     
  -9.5699954405436494E-002  0.13841360035152422        0.0000000000000000     
  -6.8654456414561860E-002  0.13637933815283648        0.0000000000000000     
  -7.0074017693024099E-002  0.14372469434392293        0.0000000000000000     
  -7.1424790790986806E-002  0.15117745832788496        0.0000000000000000     
  -7.2706775708449953E-002  0.15873763010472242        0.0000000000000000     
  -7.3919972445413595E-002  0.16640520967443548        0.0000000000000000     
  -7.5159039649776702E-002  0.13685022918076006        0.0000000000000000     
  -7.6697300366051477E-002  0.14417149195065104        0.0000000000000000     
  -7.8162722814008101E-002  0.15159867742546601        0.0000000000000000     
  -7.9555306993646560E-002  0.15913178560520513        0.0000000000000000     
  -8.0875052904966868E-002  0.16677081648986833        0.0000000000000000     
  -8.1834817059994069E-002  0.13734623655651593        0.0000000000000000     
  -8.3493517612458643E-002  0.14464220469902492        0.0000000000000000     
  -8.5075195506799442E-002  0.15204410028787407        0.0000000000000000     
  -8.6579850743016454E-002  0.15955192332306334        0.0000000000000000     
  -8.8007483321109692E-002  0.16716567380459271        0.0000000000000000     
  -8.8681788645214005E-002  0.13786736028010396        0.0000000000000000     
  -9.0462669432245624E-002  0.14513683258904470        0.0000000000000000     
  -9.2162208869360829E-002  0.15251372691510903        0.0000000000000000     
  -9.3780406956559634E-002  0.15999804325829703        0.0000000000000000     
  -9.5317263693842039E-002  0.16758978161860871        0.0000000000000000     
  -9.5699954405436494E-002  0.13841360035152422        0.0000000000000000     
  -9.7604755825412393E-002  0.14565537562071026        0.0000000000000000     
  -9.9423762901692275E-002  0.15300755730717097        0.0000000000000000     
 -0.10115697563427611       0.16047014541090626        0.0000000000000000     
 -0.10280439402316395       0.16804313993191627        0.0000000000000000     
  -7.3919972445413595E-002  0.16640520967443548        0.0000000000000000     
  -7.5060904849167817E-002  0.17417129236912732        0.0000000000000000     
  -7.6126096767002757E-002  0.18202697352090130        0.0000000000000000     
  -7.7115548198918443E-002  0.18997225312975749        0.0000000000000000     
  -7.8029259144914861E-002  0.19800713119569580        0.0000000000000000     
  -8.0875052904966868E-002  0.16677081648986833        0.0000000000000000     
  -8.2119001788089299E-002  0.17450863467903421        0.0000000000000000     
  -8.3284194883134113E-002  0.18233810477228130        0.0000000000000000     
  -8.4370632190101352E-002  0.19025922676960966        0.0000000000000000     
  -8.5378313708990974E-002  0.19827200067101924        0.0000000000000000     
  -8.8007483321109692E-002  0.16716567380459271        0.0000000000000000     
  -8.9355565774218756E-002  0.17487839073665942        0.0000000000000000     
  -9.0621570635483414E-002  0.18268311312346050        0.0000000000000000     
  -9.1805497904903555E-002  0.19057984096499603        0.0000000000000000     
  -9.2907347582479233E-002  0.19856857426126590        0.0000000000000000     
  -9.5317263693842039E-002  0.16758978161860871        0.0000000000000000     
  -9.6770596807556300E-002  0.17528056054200303        0.0000000000000000     
  -9.8138224024050633E-002  0.18306199857443900        0.0000000000000000     
  -9.9420145343325092E-002  0.19093409571591663        0.0000000000000000     
 -0.10061636076537962       0.19889685196643589        0.0000000000000000     
 -0.10280439402316395       0.16804313993191627        0.0000000000000000     
 -0.10436409488810182       0.17571514409506503        0.0000000000000000     
 -0.10583415504883582       0.18347476112521677        0.0000000000000000     
 -0.10721457450536594       0.19132199102237143        0.0000000000000000     
 -0.10850535325769214       0.19925683378652903        0.0000000000000000     
  -7.8029259144914861E-002  0.19800713119569580        0.0000000000000000     
  -7.8868669726860338E-002  0.20612445920710207        0.0000000000000000     
  -7.9635220066623255E-002  0.21431708865236213        0.0000000000000000     
  -8.0328910164203557E-002  0.22258501953147600        0.0000000000000000     
  -8.0949740019601285E-002  0.23092825184444371        0.0000000000000000     
  -8.5378313708990974E-002  0.19827200067101924        0.0000000000000000     
  -8.6310751591932980E-002  0.20636756067412818        0.0000000000000000     
  -8.7171457991057327E-002  0.21453704097655449        0.0000000000000000     
  -8.7960432906364017E-002  0.22278044157829824        0.0000000000000000     
  -8.8677676337853048E-002  0.23109776247935943        0.0000000000000000     
  -9.2907347582479233E-002  0.19856857426126590        0.0000000000000000     
  -9.3932271350105928E-002  0.20664061470175568        0.0000000000000000     
  -9.4885420889679148E-002  0.21478726397595066        0.0000000000000000     
  -9.5766796201198878E-002  0.22300852208385083        0.0000000000000000     
  -9.6576397284665119E-002  0.23130438902545622        0.0000000000000000     
 -0.10061636076537962       0.19889685196643589        0.0000000000000000     
 -0.10173322900137918       0.20694362128998459        0.0000000000000000     
 -0.10277710876248870       0.21506775765055053        0.0000000000000000     
 -0.10374800004870814       0.22326926104813377        0.0000000000000000     
 -0.10464590286003753       0.23154813148273426        0.0000000000000000     
 -0.10850535325769214       0.19925683378652903        0.0000000000000000     
 -0.10971362454575274       0.20727658043881489        0.0000000000000000     
 -0.11084652160948597       0.21537852200035421        0.0000000000000000     
 -0.11190404444889179       0.22356265847114706        0.0000000000000000     
 -0.11288619306397026       0.23182898985119338        0.0000000000000000     
  -8.0949740019601285E-002  0.23092825184444371        0.0000000000000000     
  -8.1486801059157704E-002  0.23936738951196213        0.0000000000000000     
  -8.1929184709214106E-002  0.24792303645472830        0.0000000000000000     
  -8.2276890969770505E-002  0.25659519267274211        0.0000000000000000     
  -8.2529919840826874E-002  0.26538385816600374        0.0000000000000000     
  -8.8677676337853048E-002  0.23109776247935943        0.0000000000000000     
  -8.9308534521659683E-002  0.23951474943610523        0.0000000000000000     
  -8.9838353693919279E-002  0.24805714820490313        0.0000000000000000     
  -9.0267133854631754E-002  0.25672495878575297        0.0000000000000000     
  -9.0594875003797162E-002  0.26551818117865483        0.0000000000000000     
  -9.6576397284665119E-002  0.23130438902545622        0.0000000000000000     
  -9.7304833079239969E-002  0.23970158069221331        0.0000000000000000     
  -9.7942712524085512E-002  0.24822681297556845        0.0000000000000000     
  -9.8490035619201721E-002  0.25688008587552164        0.0000000000000000     
  -9.8946802364588624E-002  0.26566139939207289        0.0000000000000000     
 -0.10464590286003753       0.23154813148273426        0.0000000000000000     
 -0.10547569673189852       0.23992788328028633        0.0000000000000000     
 -0.10624226119971279       0.24843203076672427        0.0000000000000000     
 -0.10694559626348038       0.25706057394204812        0.0000000000000000     
 -0.10758570192320123       0.26581351280625787        0.0000000000000000     
 -0.11288619306397026       0.23182898985119338        0.0000000000000000     
 -0.11382112547963538       0.24019365720032423        0.0000000000000000     
 -0.11473699972080123       0.24867280157837063        0.0000000000000000     
 -0.11563381578746776       0.25726642298533248        0.0000000000000000     
 -0.11651157367963501       0.26597452142120992        0.0000000000000000     
  -8.2529919840826874E-002  0.26538385816600374        0.0000000000000000     
  -8.2727371291383245E-002  0.27431539044696246        0.0000000000000000     
  -8.2908345290439653E-002  0.28341614702806761        0.0000000000000000     
  -8.3072841837996084E-002  0.29268612790931930        0.0000000000000000     
  -8.3220860934052565E-002  0.30212533309071743        0.0000000000000000     
  -9.0594875003797162E-002  0.26551818117865483        0.0000000000000000     
  -9.0852013282486571E-002  0.27449974841309810        0.0000000000000000     
  -9.1068984831771019E-002  0.28373259351857205        0.0000000000000000     
  -9.1245789651650533E-002  0.29321671649507686        0.0000000000000000     
  -9.1382427742125127E-002  0.30295211734261251        0.0000000000000000     
  -9.8946802364588624E-002  0.26566139939207289        0.0000000000000000     
  -9.9324102471180717E-002  0.27466896808809160        0.0000000000000000     
  -9.9633025649912582E-002  0.28400100652644750        0.0000000000000000     
  -9.9873571900784150E-002  0.29365751470714030        0.0000000000000000     
 -0.10004574122379548       0.30363849263017018        0.0000000000000000     
 -0.10758570192320123       0.26581351280625787        0.0000000000000000     
 -0.10814363885746575       0.27482304947194325        0.0000000000000000     
 -0.10860046774486430       0.28422138605169373        0.0000000000000000     
 -0.10895618858539693       0.29400852254550947        0.0000000000000000     
 -0.10921080137906360       0.30418445895339052        0.0000000000000000     
 -0.11651157367963501       0.26597452142120992        0.0000000000000000     
 -0.11731062244134162       0.27496199256465270        0.0000000000000000     
 -0.11797131111662623       0.28439373209431096        0.0000000000000000     
 -0.11849363970548887       0.29426974001018452        0.0000000000000000     
 -0.11887760820792949       0.30459001631227345        0.0000000000000000     
 </DataArray>
 <DataArray  type="Float64" Name="stress" NumberOfComponents="3" format="ascii">
   7102672250.0532026        847732563.80437541        740726209.01044488     
   6634036370.4980450        623268894.33862066        537544415.01037061     
   6176292502.0231915        435111928.47393036        382044655.83349454     
   5729440644.6286592        283261666.21027350        274226931.47983348     
   5293480798.3144493        167718107.54768920        214091241.94937336     
   6139058462.2775135        404587611.04724288        632847783.23859584     
   5812908338.3564949        299889364.65007615        499569612.06245726     
   5491008585.6462069        209359022.28864074        400575658.91971284     
   5173359204.1466179        132996583.96290660        335865923.81035227     
   4859960193.8577662        70802049.672927618        305440406.73438334     
   5369071745.5944471        19530779.617892981        558466607.53618824     
   5147127900.7652445        23114113.326614618        487343479.33613503     
   4922792787.2771559        18726551.505734444        437106752.37964356     
   4696066405.1301804        6368094.1552271843        407756426.66672218     
   4466948754.3243275       -13961258.724877596        399292502.19736898     
   4792712100.0040178       -307437930.48366165        517582681.90322661     
   4636695057.7242746       -207056859.63176513        500866016.83138859     
   4471645106.9160480       -136785483.87480426        491637936.21329343     
   4297562247.5793381       -96623803.212783575        489898440.04894489     
   4114446479.7141533       -86571817.645688534        495647528.33835077     
   4409979525.5062180       -576318519.25743151        510196006.33972186     
   4281609809.2335863       -390623554.22506046        540137224.54823160     
   4137565544.5628858       -257177083.85294628        564169210.42066467     
   3977846731.4940948       -175979108.14110708        582291963.95703089     
   3802453370.0272336       -147029627.08952641        594505485.15731716     
   5293480798.3144493        167718107.54768920        214091241.94937336     
   5127893136.6200333        151087835.53046298        170423833.52615142     
   4963150803.1372423        137275324.21867275        136833191.69782075     
   4799253797.8660755        126280573.61228609        113319316.46438907     
   4636202120.8065386        118103583.71133065        99882207.825856373     
   4859960193.8577662        70802049.672927618        305440406.73438334     
   4721638845.2799635        68343999.161808491        275514253.56057912     
   4583823071.8203850        67571199.044783831        253214908.14940366     
   4446512873.4790449        68483649.321879625        238542370.50086388     
   4309708250.2559385        71081349.993073702        231496640.61495408     
   4466948754.3243275       -13961258.724877596        399292502.19736898     
   4348893836.4852400       -4347052.4432566166        382711225.66402900     
   4231004740.6709819        5819893.9211506844        371306798.06105578     
   4113281466.8815570        16539580.368335962        365079219.38843888     
   3995724015.1169720        27812006.898313761        364028489.64618963     
   4114446479.7141533       -86571817.645688534        495647528.33835077     
   4009658110.2358670       -66985319.284705877        492014749.83651221     
   3904695809.6890202       -47978591.152262926        491108861.43276918     
   3799559578.0736189       -29551633.248336315        492929863.12712097     
   3694249415.3896542       -11704445.572948456        497477754.91957211     
   3802453370.0272336       -147029627.08952641        594505485.15731716     
   3703931666.5318513       -119570801.36255121        603424826.07802200     
   3604896278.8745079       -93824256.175433397        612621098.26455247     
   3505347207.0552154       -69789991.528153896        622094301.71691465     
   3405284451.0739655       -47468007.420728683        631844436.43509984     
   4636202120.8065386        118103583.71133065        99882207.825856373     
   4414119323.0778189        95485716.519495726        79506046.868742347     
   4193346224.9901175        77233514.797756433        66258861.698249318     
   3973882826.5434518        63346978.546127081        60140652.314339489     
   3755729127.7378278        53826107.764616013        61151418.717049383     
   4309708250.2559385        71081349.993073702        231496640.61495408     
   4107441050.0384493        56028214.962802649        216352070.15731201     
   3905979002.6566820        43658922.718281269        207575583.80751047     
   3705322108.1106458        33973473.259532213        205167181.56554082     
   3505470366.4003382        26971866.586530209        209126863.43140209     
   3995724015.1169720        27812006.898313761        364028489.64618963     
   3811098436.1856675        19671411.162103891        353526871.74849856     
   3626773463.2847733        12532835.527270555        348632446.27986884     
   3442749096.4143124        6396279.9938788414        349345213.24030286     
   3259025335.5742798        1261744.5619097948        355665172.62980372     
   3694249415.3896542       -11704445.572948456        497477754.91957211     
   3525091481.5194669       -13584694.882642984        491030451.64230710     
   3355729606.8744006       -16144746.775269032        489429449.11533391     
   3186163791.4544554       -19384601.250824928        492674747.33865225     
   3016394035.2596302       -23304258.309312582        500766346.31226301     
   3405284451.0739655       -47468007.420728683        631844436.43509984     
   3249420186.0398512       -43740103.171402693        628862809.83873379     
   3092847433.4255500       -42373824.189363003        629966592.31389260     
   2935566193.2310700       -43369170.474586606        635155783.86057961     
   2777576465.4563999       -46726142.027112603        644430384.47879207     
   3755729127.7378278        53826107.764616013        61151418.717049383     
   3592623965.8171453        59226033.548732281        50529081.565748185     
   3427158270.5192575        56757514.742161751        43244697.467727989     
   3259332041.8441753        46420551.344944477        39298266.423008658     
   3089145279.7918735        28215143.356993914        38689788.431576736     
   3505470366.4003382        26971866.586530209        209126863.43140209     
   3351000208.0004597        32655977.346660256        197585878.79490748     
   3195112529.1428361        33615019.914311290        189283670.35743144     
   3037807329.8274789        29848994.289513826        184220238.11896503     
   2879084610.0544133        21357900.472355247        182395582.07951722     
   3259025335.5742798        1261744.5619097948        355665172.62980372     
   3112906818.2543993        7145031.5657556057        344305722.24750590     
   2966313793.3962607        11446626.775415421        336085871.20995945     
   2819246260.9998636        14166530.190881133        331005619.51713765     
   2671704221.0652122        15304741.812154651        329064967.16906434     
   3016394035.2596302       -23304258.309312582        500766346.31226301     
   2878343796.5789657       -17306803.793951154        490688611.92355597     
   2740762063.2795291       -9747664.6745144129        483651300.02530879     
   2603648835.3612895       -626840.95106923580        479654410.61752385     
   2467004112.8242745        10055667.376439691        478697943.70020753     
   2777576465.4563999       -46726142.027112603        644430384.47879207     
   2647311142.9741712       -40699528.732465982        636734547.82304835     
   2518457338.7926407       -29967854.435503840        631979956.80349052     
   2391015052.9117804       -14531119.136290073        630166611.42011368     
   2264984285.3316126        5610677.1652207375        631294511.67293751     
   3089145279.7918735        28215143.356993914        38689788.431576736     
   2910895932.9578028        7751160.2835570574        24427563.730972528     
   2735112746.1046758       -4492289.5200375319        13184212.405576305     
   2561795719.2325244       -8515206.0537208319        4959734.4553855043     
   2390944852.3413420       -4317589.3175190687       -245870.11959218932     
   2879084610.0544133        21357900.472355247        182395582.07951722     
   2711139505.4422054        10058627.290730953        171207818.42215881     
   2544584582.4442644        3393292.8233214617        162812588.50829956     
   2379419841.0605321        1361897.0699498653        157209892.33794394     
   2215645281.2910638        3964440.0307924747        154399729.91110414     
   2671704221.0652122        15304741.812154651        329064967.16906434     
   2513416674.0128794        12976173.123812795        319696356.46043795     
   2355443330.2080746        11694948.593881965        312893939.86360443     
   2197784189.6507735        11461068.222304344        308657717.37857056     
   2040439252.3409986        12274532.009154677        306987689.00533658     
   2467004112.8242745        10055667.376439691        478697943.70020753     
   2317727438.6698098        16503797.782771707        469893177.84579617     
   2167688989.3961334        20412677.791729569        463428266.47148407     
   2016888765.0032473        21782307.403321743        459303209.57726073     
   1865326765.4911623        20612686.617585659        457518007.16313869     
   2264984285.3316126        5610677.1652207375        631294511.67293751     
   2124071799.4129910        20641501.267592549        621798282.57825041     
   1981321560.0084391        29546480.416859627        614415568.33193469     
   1836733567.1179576        32325614.613018870        609146368.93402624     
   1690307820.7415438        28978903.856081843        605990684.38450193     
   2390944852.3413420       -4317589.3175190687       -245870.11959218932     
   2249572319.8550835        6835671.9432728291       -6845821.9607667392     
   2104488887.3020298        5619266.3147284985       -11251434.748960065     
   1955694554.6821871       -7966806.2031034231       -13462708.484163199     
   1803189321.9955180       -33922545.610356092       -13479643.166413292     
   2215645281.2910638        3964440.0307924747        154399729.91110414     
   2078197741.9271705        12932214.954875588        143834765.02717832     
   1938349334.6907680        13897096.970573783        134599029.56980705     
   1796100059.5818489        6859086.0778926611        126692523.53898144     
   1651449916.6004179       -8181817.7231376171        120115246.93468991     
   2040439252.3409986        12274532.009154677        306987689.00533658     
   1904444964.3096642        18315298.059603810        293986081.97201544     
   1767359840.6000879        20719945.182591796        281448594.73879725     
   1629183881.2122893        19488473.378175259        269375227.30568403     
   1489917086.1462643        14620882.646331251        257765979.67267245     
   1865326765.4911623        20612686.617585659        457518007.16313869     
   1728313987.0025496        22984921.257421136        443608128.87374204     
   1591520405.0300024        26087810.950815916        429297260.75801009     
   1454946019.5734982        29921355.697688520        414585402.81594235     
   1318590830.6330631        34485555.498102665        399472555.04755765     
   1690307820.7415438        28978903.856081843        605990684.38450193     
   1549804810.0058422        26941084.548383951        592700905.73236072     
   1410831027.9804902        30000694.275180399        578145027.62744558     
   1273386474.6654689        38157733.036409140        562323050.06977379     
   1137471150.0607970        51412200.832134545        545234973.05932665     
   1803189321.9955180       -33922545.610356092       -13479643.166413292     
   1771781174.7934294       -16644052.750659585       -7979395.6677659107     
   1748636745.2107921        28180165.507218719       -41317330.182156518     
   1733756033.2476263        100550109.16333073       -113493446.70954925     
   1727139038.9039140        200465778.21762031       -224507745.24997997     
   1651449916.6004179       -8181817.7231376171        120115246.93468991     
   1528336232.7431369       -13892577.969872653        135731772.45388681     
   1409515200.8135831       -5294498.4575062990        124948971.73743874     
   1294986820.8117735        17612420.813984811        87766844.785350874     
   1184751092.7376935        54828179.844608009        24185391.597615518     
   1489917086.1462643        14620882.646331251        257765979.67267245     
   1310637453.5691724       -3417254.3262040615        278865873.23874706     
   1131679407.2280874       -20383437.178702354        286005296.34655637     
   953042947.12301326       -36277665.911166310        279184248.99610507     
   774728073.25394893       -51099940.523608088        258402731.18740323     
   1318590830.6330631        34485555.498102665        399472555.04755765     
   1118684837.2715297        14781918.180356145        421422906.68682510     
   915129364.45428491       -17086650.656411350        441851643.64521790     
   707924412.18132150       -61120151.012243658        460758765.92273217     
   497069980.45266235       -117318582.88707355        478144273.51936913     
   1137471150.0607970        51412200.832134545        545234973.05932665     
   952478383.85020709        40704939.549825668        563402872.79811585     
   759865072.49217653        4595861.1093696654        592488013.63340974     
   559631215.98672462       -56915034.489157230        632490395.56520712     
   351776814.33382112       -143827747.24584532        683410018.59350932     
   1727139038.9039140        200465778.21762031       -224507745.24997997     
   1456787413.1425998        184798245.43404192       -96813670.986043513     
   1154130654.9842980        61446937.993837714        60058864.689390615     
   819168764.42901266       -169588144.10300112        246109861.77631730     
   451901741.47672254       -508307000.85647738        461339320.27472633     
   1184751092.7376935        54828179.844608009        24185391.597615518     
   977784768.73800504        12031933.124298573        155576593.94672513     
   732904148.65239632       -157145300.54909045        312807731.76328969     
   450109232.48083854       -452703521.17554843        495878805.04733223     
   129400020.22339576       -874642728.75513363        704789813.79883480     
   774728073.25394893       -51099940.523608088        258402731.18740323     
   621608405.46154380       -123886494.84696466        386947037.31790251     
   424965277.89427423       -341751248.41985798        537992752.97185111     
   184798690.55215660       -704694201.24226153        711539878.14924765     
  -98891356.564838946       -1212715353.3142357        907588412.85010898     
   497069980.45266235       -117318582.88707355        478144273.51936913     
   388258323.31320798       -222957038.47979695        597297659.12749338     
   230314042.70996749       -492370905.61844087        735613928.31505299     
   23237138.642928421       -925560184.30313170        893093081.08206272     
  -232972388.88792688       -1522524874.5338070        1069735117.4284976     
   351776814.33382112       -143827747.24584532        683410018.59350932     
   277734522.29299253       -285179697.77419311        786628459.37550378     
   148950443.09945303       -609004272.14491630        905671257.79294014     
  -34575423.246830761       -1115301470.3581452        1040538413.8457866     
  -272843076.74586922       -1804071292.4138346        1191229927.5340414     
   4409979525.5062180       -576318519.25743151        510196006.33972186     
   4281609809.2335863       -390623554.22506046        540137224.54823160     
   4137565544.5628858       -257177083.85294628        564169210.42066467     
   3977846731.4940948       -175979108.14110708        582291963.95703089     
   3802453370.0272336       -147029627.08952641        594505485.15731716     
   4302433460.6006441       -79279313.704568863        806175692.30291367     
   4118603125.9627190       -53413719.525823116        795019182.57803905     
   3931110989.7323847       -39754130.655098438        783993592.02830434     
   3739957051.9096432       -38300547.092407703        773098920.65370882     
   3545141312.4944911       -49052968.837739468        762335168.45425856     
   4101063777.9963908        389612806.53869128        1040074409.8048329     
   3879030400.7394891        260826302.58770788        1001835043.4198607     
   3665347968.6958518        159876282.68093872        969766747.72123897     
   3460016481.8654747        86762746.818381786        943869522.70896804     
   3263035940.2483602        41485695.000032663        924143368.38305819     
   3805870477.6934476        830357841.47234201        1211892158.8454823     
   3562891633.5638976        552096512.11553264        1160584807.0736921     
   3340276481.4532752        341714156.15516162        1121488677.4994690     
   3138025021.3615961        199210773.59125221        1094603770.1228113     
   2956137253.2888484        124586364.42378962        1079930084.9437249     
   3416853559.6918206        1242955791.0963907        1321628939.4248617     
   3170186824.4359422        820396909.05764127        1271268473.5395367     
   2955896528.0046697        505759489.76758504        1239159381.3629930     
   2773982670.3980017        299043533.22621179        1225301662.8952301     
   2624445251.6159434        200249039.43352866        1229695318.1362514     
   3802453370.0272336       -147029627.08952641        594505485.15731716     
   3703931666.5318513       -119570801.36255121        603424826.07802200     
   3604896278.8745079       -93824256.175433397        612621098.26455247     
   3505347207.0552154       -69789991.528153896        622094301.71691465     
   3405284451.0739655       -47468007.420728683        631844436.43509984     
   3545141312.4944911       -49052968.837739468        762335168.45425856     
   3444523500.2929530       -36993257.497168303        763011850.76755857     
   3343975899.5223761       -24699508.053377867        765352852.28407967     
   3243498510.1827760       -12171720.506340623        769358173.00382710     
   3143091332.2741385        590105.14390909672        775027812.92678523     
   3263035940.2483602        41485695.000032663        924143368.38305819     
   3164285984.8760676        39335481.614825130        917258603.61403978     
   3066190136.5276618        39365624.975906372        913425545.98562884     
   2968748395.2031479        41576125.083306432        912644195.49782753     
   2871960760.9025292        45966981.937002301        914914552.15064108     
   2956137253.2888484        124586364.42378962        1079930084.9437249     
   2863219120.2811975        109415415.97341144        1066165084.6174608     
   2771538989.8903599        98371142.912412882        1056839179.3691919     
   2681096862.1163402        91453545.240801096        1051952369.1989279     
   2591892736.9591298        88662622.958561778        1051504654.1066656     
   2624445251.6159434        200249039.43352866        1229695318.1362514     
   2541322906.5083432        173246545.57861912        1209731293.7778156     
   2460022459.6104741        152317045.75614047        1195593752.4347723     
   2380543910.9223499        137460539.96614671        1187282694.1071231     
   2302887260.4439559        128677028.20859230        1184798118.7948613     
   3405284451.0739655       -47468007.420728683        631844436.43509984     
   3249420186.0398512       -43740103.171402693        628862809.83873379     
   3092847433.4255500       -42373824.189363003        629966592.31389260     
   2935566193.2310700       -43369170.474586606        635155783.86057961     
   2777576465.4563999       -46726142.027112603        644430384.47879207     
   3143091332.2741385        590105.14390909672        775027812.92678523     
   2996853035.1097808       -742284.69829583168        768531957.14642286     
   2850317133.2952857       -3066690.0409550667        766523043.13854945     
   2703483626.8306589       -6383110.8840597868        769001070.90316081     
   2556352515.7158895       -10691547.227630734        775966040.44026196     
   2871960760.9025292        45966981.937002301        914914552.15064108     
   2736495667.8963847        39918468.889807105        905383830.60467231     
   2601143853.1701593        34247550.108988166        900741583.53214920     
   2465905316.7238407        28954225.594532013        900987810.93307400     
   2330780058.5574312        24038495.346448064        906122512.80744708     
   2591892736.9591298        88662622.958561778        1051504654.1066656     
   2468348084.3996701        78242157.592921019        1039418430.2134749     
   2345327593.0501714        69568896.260479212        1032622213.4946948     
   2222831262.9106240        62642838.961217403        1031116003.9503189     
   2100859093.9810350        57463985.695148468        1034899801.5803585     
   2302887260.4439559        128677028.20859230        1184798118.7948613     
   2192410284.6196327        114228781.41103303        1170635755.9728374     
   2082868352.9353185        102897348.41350245        1162164933.0261860     
   1974261465.3910050        94682729.215973258        1159385649.9549065     
   1866589621.9866989        89584923.818473101        1162297906.7589929     
   2777576465.4563999       -46726142.027112603        644430384.47879207     
   2647311142.9741712       -40699528.732465982        636734547.82304835     
   2518457338.7926407       -29967854.435503840        631979956.80349052     
   2391015052.9117804       -14531119.136290073        630166611.42011368     
   2264984285.3316126        5610677.1652207375        631294511.67293751     
   2556352515.7158895       -10691547.227630734        775966040.44026196     
   2433450282.9410744       -6885478.6068972349        768217466.85229325     
   2311403352.4838595       -228402.26082527637        763703996.17398262     
   2190211724.3442440        9279681.8105745316        762425628.40531850     
   2069875398.5222228        21638773.607295752        764382363.54629970     
   2330780058.5574312        24038495.346448064        906122512.80744708     
   2216080507.6999154        25875896.956239462        897672283.64033222     
   2101680043.1769068        28710253.014401197        892751014.65632904     
   1987578664.9884140        32541563.520941019        891358705.85542917     
   1873776373.1344306        37369828.475850224        893495357.23763621     
   2100859093.9810350        57463985.695148468        1034899801.5803585     
   1995201817.2506976        57584597.956958532        1025098998.1871616     
   1889287410.8717844        56848111.390181899        1019121012.2505262     
   1783115874.8442960        55254525.994822800        1016965843.7704612     
   1676687209.1682343        52803841.770883381        1018633492.7469629     
   1866589621.9866989        89584923.818473101        1162297906.7589929     
   1770814211.5934269        88240624.395268440        1150497610.4927754     
   1674225455.5684857        84185172.866499841        1142813988.9565823     
   1576823353.9118891        77418569.232218027        1139247042.1504118     
   1478607906.6236317        67940813.492394626        1139796770.0742681     
   2264984285.3316126        5610677.1652207375        631294511.67293751     
   2124071799.4129910        20641501.267592549        621798282.57825041     
   1981321560.0084391        29546480.416859627        614415568.33193469     
   1836733567.1179576        32325614.613018870        609146368.93402624     
   1690307820.7415438        28978903.856081843        605990684.38450193     
   2069875398.5222228        21638773.607295752        764382363.54629970     
   1933019983.9165962        28917871.431214690        753262168.75081360     
   1795227332.4849770        33072846.501818419        744938143.10426867     
   1656497444.2273624        34103698.819113076        739410286.60666156     
   1516830319.1437628        32010428.383108258        736678599.25799489     
   1873776373.1344306        37369828.475850224        893495357.23763621     
   1742928470.7005095        37482332.278936028        881801799.51128840     
   1612043848.1005397        37472435.528504133        873587065.23443139     
   1481122505.3345048        37340138.224528432        868851154.40706146     
   1350164442.4024148        37085440.367044568        867594067.02918327     
   1676687209.1682343        52803841.770883381        1018633492.7469629     
   1553797259.7647343        46334883.810747266        1007417174.8596750     
   1431771106.8551111        42745247.496879458        1000362334.7224228     
   1310608750.4393661        42034932.829269588        997468972.33521318     
   1190310190.5175102        44203939.807933807        998737087.69803834     
   1478607906.6236317        67940813.492394626        1139796770.0742681     
   1365626351.1092589        55475526.026651859        1130108294.7959678     
   1254409108.7487063        48891282.406973481        1125263951.5682526     
   1144956179.5419631        48188082.633319199        1125263740.3911242     
   1037267563.4890367        53365926.705732584        1130107661.2645814     
   1690307820.7415438        28978903.856081843        605990684.38450193     
   1549804810.0058422        26941084.548383951        592700905.73236072     
   1410831027.9804902        30000694.275180399        578145027.62744558     
   1273386474.6654689        38157733.036409140        562323050.06977379     
   1137471150.0607970        51412200.832134545        545234973.05932665     
   1516830319.1437628        32010428.383108258        736678599.25799489     
   1374921550.1163175        28567471.901546896        727838756.47433257     
   1233503517.1265042        26760302.212090254        719507923.03605735     
   1092576220.1743031        26588919.314663053        711686098.94317603     
   952139659.25971556        28053323.209293365        704373284.19569266     
   1350164442.4024148        37085440.367044568        867594067.02918327     
   1211921654.5065503        33758868.538652062        861992585.32914102     
   1073131109.9755845        28606441.259919107        858675221.77265954     
   933792808.80950594        21628158.530814052        857641976.35972798     
   793906751.00832856        12824020.351377189        858892849.09035039     
   1190310190.5175102        44203939.807933807        998737087.69803834     
   1060805123.1765283        42515274.459670007        995162392.29678941     
   929713806.52772295        35539111.418649167        995646923.83725476     
   797036240.57109964        23275450.684902370        1000190682.3194388     
   662772425.30663955        5724292.2583653927        1008793667.7433225     
   1037267563.4890367        53365926.705732584        1130107661.2645814     
   921571956.12626696        54836689.664626092        1127348177.3772829     
   803251606.78294027        47558312.688337892        1130423029.2298417     
   682306515.45906579        31530795.776889563        1139332216.8222852     
   558736682.15463650        6754138.9302526712        1154075740.1545990     
   1137471150.0607970        51412200.832134545        545234973.05932665     
   952478383.85020709        40704939.549825668        563402872.79811585     
   759865072.49217653        4595861.1093696654        592488013.63340974     
   559631215.98672462       -56915034.489157230        632490395.56520712     
   351776814.33382112       -143827747.24584532        683410018.59350932     
   952139659.25971556        28053323.209293365        704373284.19569266     
   792681665.29857492        11375291.410502732        722103788.20251346     
   624533371.04962468       -34270408.014314383        749937053.73160946     
   447694776.51287413       -108883775.06512851        787873080.78295600     
   262165881.68830064       -212464809.74203306        835911869.35656476     
   793906751.00832856        12824020.351377189        858892849.09035039     
   657656444.79878902       -10522907.313239664        874937909.70146239     
   511646083.16107523       -66403353.071785271        900271252.26057971     
   355875666.09518278       -154817316.92425895        934892876.76770949     
   190345193.60110205       -275764798.87069094        978802783.22285187     
   662772425.30663955        5724292.2583653927        1008793667.7433225     
   547402722.35086656       -24989656.621406436        1021905237.2949402     
   421203208.82652307       -91802974.063069820        1043490609.2203169     
   284173884.73364097       -194715660.06653446        1073549783.5194560     
   136314750.07219926       -333727714.63186342        1112082760.1923721     
   558736682.15463650        6754138.9302526712        1154075740.1545990     
   461920497.95476401       -32024956.514080465        1163005770.9829473     
   353204748.04597259       -110469270.98814894        1179595124.6108215     
   232589432.42825606       -228578804.49196488        1203843801.0382104     
   100074551.10160482       -386353557.02556336        1235751800.2651160     
   351776814.33382112       -143827747.24584532        683410018.59350932     
   277734522.29299253       -285179697.77419311        786628459.37550378     
   148950443.09945303       -609004272.14491630        905671257.79294014     
  -34575423.246830761       -1115301470.3581452        1040538413.8457866     
  -272843076.74586922       -1804071292.4138346        1191229927.5340414     
   262165881.68830064       -212464809.74203306        835911869.35656476     
   223506592.32895175       -352216471.07825273        885235096.77025759     
   140637707.67569524       -639333450.06083930        945582363.41301847     
   13559227.728537440       -1073815746.6897607        1016953669.2848599     
  -157728847.51251918       -1655663360.9650202        1099349014.3857667     
   190345193.60110205       -275764798.87069094        978802783.22285187     
   173353711.47649837       -418030729.64886940        986518354.43687606     
   122684825.91682476       -672554671.87728786        1000457646.4736263     
   38338536.922094464       -1039336625.5558959        1020620659.3331029     
  -79685155.507721841       -1518376590.6847715        1047007393.0152876     
   136314750.07219926       -333727714.63186342        1112082760.1923721     
   127275879.73562726       -482622473.48602134        1090478232.3753736     
   95091797.822835624       -708667937.59424949        1070297106.9747436     
   39762504.333802402       -1011864106.9566177        1051539383.9904883     
  -38712000.731462598       -1392210981.5730844        1034205063.4226052     
   100074551.10160482       -386353557.02556336        1235751800.2651160     
   85273097.106369257       -545991702.58965611        1197114730.5857337     
   57858623.393717557       -747673247.21179152        1155100744.9163704     
   17831129.963695765       -991398190.89184093        1109709843.2570226     
  -34809383.183748722       -1277166533.6299605        1060942025.6077003     
   3416853559.6918206        1242955791.0963907        1321628939.4248617     
   3170186824.4359422        820396909.05764127        1271268473.5395367     
   2955896528.0046697        505759489.76758504        1239159381.3629930     
   2773982670.3980017        299043533.22621179        1225301662.8952301     
   2624445251.6159434        200249039.43352866        1229695318.1362514     
   2718780632.3058615        628708732.83809781        1150256668.6777489     
   2571047268.6416063        405190404.61118942        1157974974.2235591     
   2440956824.7346177        240481808.90847814        1177612064.0975699     
   2328509300.5848875        134582945.72996891        1209167938.2997789     
   2233704696.1924105        87493815.075642228        1252642596.8301935     
   2112328010.4875290        41947766.250093102        1052617620.8485171     
   2045434905.8989623        12042058.080248594        1101225592.2468913     
   1981451202.0003064       -8165647.7898976803        1155419758.5928826     
   1920376898.7915614       -18675351.360342264        1215200119.8864944     
   1862211996.2727246       -19487052.631086946        1280566676.1277235     
   1597495694.2368288       -517327108.66762269        1028711795.9371727     
   1593349736.2080004       -359048130.53518927        1101020327.6095357     
   1577379659.8017340       -240182880.32755113        1172582464.8489342     
   1549585465.0180285       -160731358.04470813        1243398207.6553724     
   1509967151.8568847       -120693563.68666208        1313467556.0288486     
   1174283683.5537601       -1049115891.9150479        1078539193.9437129     
   1214791759.5687239       -708080161.23511982        1157359180.3114920     
   1228742198.1388979       -455569888.70449221        1229100182.8657238     
   1216134999.2642865       -291585074.32314467        1293762201.6064134     
   1176970162.9448884       -216125718.09109092        1351345236.5335610     
   2624445251.6159434        200249039.43352866        1229695318.1362514     
   2541322906.5083432        173246545.57861912        1209731293.7778156     
   2460022459.6104741        152317045.75614047        1195593752.4347723     
   2380543910.9223499        137460539.96614671        1187282694.1071231     
   2302887260.4439559        128677028.20859230        1184798118.7948613     
   2233704696.1924105        87493815.075642228        1252642596.8301935     
   2170159732.7325654        78000544.055060625        1240722441.2433488     
   2107577102.7158546        71715051.178275466        1233994737.1006916     
   2045956806.1422944        68637336.445314050        1232459484.4022243     
   1985298843.0118675        68767399.856141567        1236116683.1479404     
   1862211996.2727246       -19487052.631086946        1280566676.1277235     
   1816432895.6857631       -12014556.449803233        1275687563.7514417     
   1770756563.7753489       -4199498.0133622885        1275366871.2481489     
   1725183000.5414848        3958122.6782451868        1279604598.6178410     
   1679712205.9841695        12458305.625018001        1288400745.8605170     
   1509967151.8568847       -120693563.68666208        1313467556.0288486     
   1480142395.3679407       -96798755.935980856        1314626661.3021059     
   1449560842.7889566       -75426601.818760812        1319710154.8771446     
   1418222494.1199214       -56577101.335046589        1328718036.7539670     
   1386127349.3608472       -40250254.484797835        1341650306.9325721     
   1176970162.9448884       -216125718.09109092        1351345236.5335610     
   1161288231.7791009       -176352054.40344858        1357539733.8953307     
   1143989939.7566762       -141966260.23793173        1367024587.9876835     
   1125075286.8776078       -112968335.59456062        1379799798.8106096     
   1104544273.1419063       -89358280.473299265        1395865366.3641181     
   2302887260.4439559        128677028.20859230        1184798118.7948613     
   2192410284.6196327        114228781.41103303        1170635755.9728374     
   2082868352.9353185        102897348.41350245        1162164933.0261860     
   1974261465.3910050        94682729.215973258        1159385649.9549065     
   1866589621.9866989        89584923.818473101        1162297906.7589929     
   1985298843.0118675        68767399.856141567        1236116683.1479404     
   1891036221.5440311        61191778.562512755        1226804515.4096367     
   1797377670.6748581        55629725.931090653        1222687397.5692697     
   1704323190.4043572        52081241.961915970        1223765329.6268454     
   1611872780.7325239        50546326.654959321        1230038311.5823684     
   1679712205.9841695        12458305.625018001        1288400745.8605170     
   1600245396.0801625        11329746.997498333        1283552637.4076939     
   1521051683.2334881        11111511.894423127        1283403088.8753891     
   1442131067.4441457        11803600.315783203        1287952100.2635982     
   1363483548.7121332        13406012.261584103        1297199671.5723228     
   1386127349.3608472       -40250254.484797835        1341650306.9325721     
   1320037808.2280254       -35357313.283984661        1340880121.9670112     
   1253890390.6111951       -30657293.696539760        1344312006.9445405     
   1187685096.5103655       -26150195.722420335        1351945961.8651578     
   1121421925.9255285       -21836019.361663580        1363781986.7288637     
   1104544273.1419063       -89358280.473299265        1395865366.3641181     
   1050413457.9876218       -78869402.281954229        1398786969.0875928     
   995893792.80799377       -69676690.841753721        1405414151.7767253     
   940985277.60302556       -61780146.152684689        1415746914.4315245     
   885687912.37271452       -55179768.214760780        1429785257.0519826     
   1866589621.9866989        89584923.818473101        1162297906.7589929     
   1770814211.5934269        88240624.395268440        1150497610.4927754     
   1674225455.5684857        84185172.866499841        1142813988.9565823     
   1576823353.9118891        77418569.232218027        1139247042.1504118     
   1478607906.6236317        67940813.492394626        1139796770.0742681     
   1611872780.7325239        50546326.654959321        1230038311.5823684     
   1527753567.1762600        51888776.296195567        1219827707.7725070     
   1443279517.8214488        52048439.942274690        1213846715.4769959     
   1358450632.6680908        51025317.593203187        1212095334.6958160     
   1273266911.7161915        48819409.248982787        1214573565.4289844     
   1363483548.7121332        13406012.261584103        1297199671.5723228     
   1291343208.5194929        17532013.925242782        1289113688.3574622     
   1219306542.3614259        22003595.704140306        1285370253.4412596     
   1147373550.2379301        26820757.598279595        1285969366.8237133     
   1075544232.1490030        31983499.607646406        1290911028.5048258     
   1121421925.9255285       -21836019.361663580        1363781986.7288637     
   1061583135.6231312       -14829662.717591822        1358355552.2476354     
   1002306529.1884230       -5949359.8478845358        1357384602.8493812     
   943592106.62140107        4804889.2474422455        1360869138.5341022     
   885439867.92206824        17433084.568392873        1368809159.3017895     
   885687912.37271452       -55179768.214760780        1429785257.0519826     
   838473348.48717165       -45196253.632299066        1427553299.4430249     
   792279478.30243909       -31810426.713803798        1429889763.7013569     
   747106301.81850934       -15022287.459295571        1436794649.8269801     
   702953819.03537726        5168164.1311990619        1448267957.8198829     
   1478607906.6236317        67940813.492394626        1139796770.0742681     
   1365626351.1092589        55475526.026651859        1130108294.7959678     
   1254409108.7487063        48891282.406973481        1125263951.5682526     
   1144956179.5419631        48188082.633319199        1125263740.3911242     
   1037267563.4890367        53365926.705732584        1130107661.2645814     
   1273266911.7161915        48819409.248982787        1214573565.4289844     
   1175025045.2477803        43507364.862971604        1209099317.0510869     
   1077672942.6745083        41161200.127424121        1208468410.5626345     
   981210603.99637389        41780915.042340577        1212680845.9636273     
   885638029.21337974        45366509.607719421        1221736623.2540724     
   1075544232.1490030        31983499.607646406        1290911028.5048258     
   992039797.12328815        33824021.020385623        1288630699.5588839     
   908550576.73404086        35715257.888007998        1291192922.3412399     
   825076570.98124993        37657210.210485071        1298597696.8519039     
   741617779.86493063        39649877.987868607        1310845023.0908723     
   885439867.92206824        17433084.568392873        1368809159.3017895     
   816670606.73578990        26425494.498898596        1368702442.3193417     
   747042010.92730069        32553455.688696355        1373437486.9040606     
   676554080.49659753        35816968.137785882        1383014293.0559354     
   605206815.44368935        36216031.846186876        1397432860.7749813     
   702953819.03537726        5168164.1311990619        1448267957.8198829     
   648917474.08527780        21311785.298504084        1449314545.3324780     
   593147245.25429153        31675793.529517323        1455202104.2510986     
   535643132.54240793        36260188.824208885        1465930634.5757406     
   476405135.94965303        35064971.182659909        1481500136.3063948     
   1037267563.4890367        53365926.705732584        1130107661.2645814     
   921571956.12626696        54836689.664626092        1127348177.3772829     
   803251606.78294027        47558312.688337892        1130423029.2298417     
   682306515.45906579        31530795.776889563        1139332216.8222852     
   558736682.15463650        6754138.9302526712        1154075740.1545990     
   885638029.21337974        45366509.607719421        1221736623.2540724     
   784595525.83149791        44909957.919576108        1218690590.5782189     
   681080071.07721114        36210234.990094364        1221526605.5278785     
   575091664.95052814        19267340.819282234        1230244668.1030521     
   466630307.45144743       -5918724.5928470194        1244844778.3037279     
   741617779.86493063        39649877.987868607        1310845023.0908723     
   655364700.13718736        37306907.554668695        1307689530.6693153     
   566790459.64519978        27226734.573978692        1310463797.7589076     
   475895058.38896441        9409359.0458002388        1319167824.3596478     
   382678496.36848199       -16145219.029872939        1333801610.4715405     
   605206815.44368935        36216031.846186876        1397432860.7749813     
   533879479.04334402        32027538.569912314        1394344997.6505637     
   460382772.48690385        20607811.439988062        1397234605.9229393     
   384716695.77436227        1956850.4563901275        1406101685.5921047     
   306881248.90573114       -23925344.380834490        1420946236.6580505     
   476405135.94965303        35064971.182659909        1481500136.3063948     
   420139862.54994988        29071850.965260699        1478656991.5219631     
   361857009.60230964        16353465.588071287        1481839030.0199635     
   301556577.10672611       -3090184.9489276558        1491046251.8003871     
   239238565.06320268       -29259100.645729333        1506278656.8632400     
   558736682.15463650        6754138.9302526712        1154075740.1545990     
   461920497.95476401       -32024956.514080465        1163005770.9829473     
   353204748.04597259       -110469270.98814894        1179595124.6108215     
   232589432.42825606       -228578804.49196488        1203843801.0382104     
   100074551.10160482       -386353557.02556336        1235751800.2651160     
   466630307.45144743       -5918724.5928470194        1244844778.3037279     
   389260212.31221682       -40819388.169936359        1243178641.6318893     
   301807918.95886779       -109327379.12742038        1247916689.4685743     
   204273427.39139062       -211442697.46533030        1259058921.8137941     
   96656737.609797016       -347165343.18363106        1276605338.6675401     
   382678496.36848199       -16145219.029872939        1333801610.4715405     
   321168380.88707185       -48243283.560568213        1323659568.3767700     
   251393434.68634653       -107890783.82232264        1318666572.4995515     
   173353657.76629859       -195087719.81515020        1318822622.8398736     
   87049050.126933098       -309834091.53903216        1324127719.3977456     
   306881248.90573114       -23925344.380834490        1420946236.6580505     
   257645003.67931849       -54296642.686007619        1404448551.2176216     
   201961295.22840062       -106159485.07286599        1391844773.7037618     
   139830123.55296516       -179513871.54144928        1383134904.1164608     
   71251488.653014973       -274359802.09174794        1378318942.4557154     
   239238565.06320268       -29259100.645729333        1506278656.8632400     
   198690080.68898213       -58979465.546181917        1485545590.1544347     
   153511500.58505058       -104133482.87899895        1467451293.0812054     
   103702824.75140285       -164721152.64420742        1451995765.6435499     
   49264053.188049719       -240742474.84176451        1439179007.8414667     
   100074551.10160482       -386353557.02556336        1235751800.2651160     
   85273097.106369257       -545991702.58965611        1197114730.5857337     
   57858623.393717557       -747673247.21179152        1155100744.9163704     
   17831129.963695765       -991398190.89184093        1109709843.2570226     
  -34809383.183748722       -1277166533.6299605        1060942025.6077003     
   96656737.609797016       -347165343.18363106        1276605338.6675401     
   79715997.397679180       -488247563.46181297        1222214561.4479296     
   51387767.862944394       -667288081.48205698        1165272958.8316321     
   11672049.005604804       -884286897.24431419        1105780530.8186634     
  -39431159.174348652       -1139244010.7486067        1043737277.4089985     
   87049050.126933098       -309834091.53903216        1324127719.3977456     
   70329282.535915852       -431652308.87992167        1255413020.0984888     
   43447556.017085344       -587343722.64686084        1184973585.9958487     
   6403870.5704244673       -776908332.83989084        1112809417.0898211     
  -40801773.804048896       -1000346139.4589832        1038920513.3804078     
   71251488.653014973       -274359802.09174794        1378318942.4557154     
   57112952.521097183       -376205938.84391868        1296710106.5374038     
   34037987.856144130       -507840170.70620972        1214202626.4090097     
   2026594.6581675410       -669262497.67858231        1130796502.0705304     
  -38921227.072854280       -860472919.76109111        1046491733.5219522     
   49264053.188049719       -240742474.84176451        1439179007.8414667     
   40067007.353209287       -321908453.35384983        1346105820.7646964     
   23159063.380133748       -428777425.66004944        1252960080.0711269     
  -1459778.7311950326       -561349391.76042783        1159741785.7607689     
  -33789518.980760753       -719624351.65492940        1066450937.8336116     
   1174283683.5537601       -1049115891.9150479        1078539193.9437129     
   1214791759.5687239       -708080161.23511982        1157359180.3114920     
   1228742198.1388979       -455569888.70449221        1229100182.8657238     
   1216134999.2642865       -291585074.32314467        1293762201.6064134     
   1176970162.9448884       -216125718.09109092        1351345236.5335610     
   1004558761.9439139       -749683113.01542592        1312891041.0654657     
   1007036505.9904881       -502277311.34612107        1338958093.4761472     
   989596022.16528034       -321265602.58275324        1364456934.8809850     
   952237310.46829474       -206647986.72531414        1389387565.2799795     
   894960370.89952457       -158424463.77382123        1413749984.6731312     
   752269843.40183556       -475019533.19547915        1511746503.3388243     
   735319463.50202203       -315662998.13018888        1492806599.6275821     
   705090265.30343294       -200569190.72748423        1479809257.7181981     
   661582248.80606866       -129738110.98736224        1472754477.6106703     
   604795414.00992882       -103169758.90982622        1471642259.3049970     
   417416927.92752886       -225125152.45519736        1675105580.7637837     
   399640632.10332620       -148237221.58732614        1618904698.7657924     
   375224927.55335379       -93480653.138689265        1575157151.3773613     
   344169814.27761483       -60855447.109271124        1543862938.5984855     
   306475292.27610362       -50361603.499095902        1525022060.4291656     
   15.520990353762615        29.205413179431243        1802968273.3403487     
   11.794399156961710        18.282465651277111        1717252390.8907855     
   8.9150456705522600        10.183644518317221        1650500615.8584785     
   6.8829270579754374        4.9089399784107854        1602712948.2434285     
   5.6980453780239397        2.4583578533660413        1573889388.0456328     
   1176970162.9448884       -216125718.09109092        1351345236.5335610     
   1161288231.7791009       -176352054.40344858        1357539733.8953307     
   1143989939.7566762       -141966260.23793173        1367024587.9876835     
   1125075286.8776078       -112968335.59456062        1379799798.8106096     
   1104544273.1419063       -89358280.473299265        1395865366.3641181     
   894960370.89952457       -158424463.77382123        1413749984.6731312     
   884559982.82770467       -128185898.09496415        1415281348.9221151     
   872947324.12982833       -101988234.50296271        1419785489.1302145     
   860122394.80588865       -79831472.997836888        1427262405.2974300     
   846085194.85589504       -61715613.579560280        1437712097.4237618     
   604795414.00992882       -103169758.90982622        1471642259.3049970     
   598769195.39932132       -82738503.329581648        1468981929.0435402     
   591934796.39323962       -65001182.400919616        1468976793.9697328     
   584292216.99167526       -49957796.123864949        1471626854.0835752     
   575841457.19463658       -37608344.498392165        1476932109.3850739     
   306475292.27610362       -50361603.499095902        1525022060.4291656     
   303915869.49395734       -40009870.107282221        1518641474.2596099     
   300952356.54691339       -31005103.931792632        1514598502.5062423     
   297584753.43496764       -23347304.972642884        1512893145.1690581     
   293813060.15812868       -17036473.229803935        1513525402.2480655     
   5.6980453780239397        2.4583578533660413        1573889388.0456328     
   5.1116031279513789        1.5719068674907151        1564259984.5703201     
   4.5908453092160739       0.90440433301760104        1556650614.7397339     
   4.1357677927948924       0.45583631306391614        1551061278.5538709     
   3.7463751880959295       0.22621730496156689        1547491976.0127304     
   1104544273.1419063       -89358280.473299265        1395865366.3641181     
   1050413457.9876218       -78869402.281954229        1398786969.0875928     
   995893792.80799377       -69676690.841753721        1405414151.7767253     
   940985277.60302556       -61780146.152684689        1415746914.4315245     
   885687912.37271452       -55179768.214760780        1429785257.0519826     
   846085194.85589504       -61715613.579560280        1437712097.4237618     
   801625933.66380513       -55007299.870369494        1436562585.7649031     
   756875034.96384299       -49271111.187419802        1440019588.9917994     
   711832498.75601411       -44507047.530690730        1448083107.1044488     
   666498325.04031789       -40715108.900188744        1460753140.1028576     
   575841457.19463658       -37608344.498392165        1476932109.3850739     
   543627849.73643541       -33908365.339845777        1471824897.9476030     
   511219817.28783458       -30856469.482630730        1472225136.3159811     
   478617359.84883928       -28452656.926732749        1478132824.4902079     
   445820477.41944617       -26696927.672159284        1489547962.4702792     
   293813060.15812868       -17036473.229803935        1513525402.2480655     
   276419206.20550710       -15572598.690402120        1504573905.6357024     
   258928139.77996355       -14432765.727406651        1502030793.7492769     
   241339860.88149202       -13616974.340836316        1505896066.5887876     
   223654369.51009947       -13125224.530672297        1516169724.1542480     
   3.7463751880959295       0.22621730496156689        1547491976.0127304     
   3.0710293282746415        7.7993380984345162E-002   1534809608.8291903     
   2.4402307098069485        7.8258873740330026E-002   1529436561.2916801     
   1.8539781889191322       0.22701344009740543        1531372833.4002042     
   1.3122799550310296       0.52427952089596608        1540618425.1547623     
   885687912.37271452       -55179768.214760780        1429785257.0519826     
   838473348.48717165       -45196253.632299066        1427553299.4430249     
   792279478.30243909       -31810426.713803798        1429889763.7013569     
   747106301.81850934       -15022287.459295571        1436794649.8269801     
   702953819.03537726        5168164.1311990619        1448267957.8198829     
   666498325.04031789       -40715108.900188744        1460753140.1028576     
   630531489.18993902       -33394246.735579193        1459107106.0390549     
   595330173.59985280       -23521650.369991899        1462159206.8468215     
   560894378.27007473       -11097319.803380907        1469909442.5261657     
   527224103.20059049        3878744.9642090201        1482357813.0770805     
   445820477.41944617       -26696927.672159284        1489547962.4702792     
   421471978.18789929       -21927535.350314826        1488190149.6043744     
   397633825.77614439       -15456986.962496608        1491660184.6143229     
   374306020.18418449       -7285282.5086929202        1499958067.5001328     
   351488561.41201562        2587578.0110759139        1513083798.2618020     
   223654369.51009947       -13125224.530672297        1516169724.1542480     
   211294815.48105621       -10796119.476491451        1514802430.1389816     
   199190434.83130428       -7616436.4913408682        1518392697.0038571     
   187341227.56083173       -3586175.5752586946        1526940524.7488742     
   175747193.66965395        1294663.2718067542        1540445913.3740389     
   1.3122799550310296       0.52427952089596608        1540618425.1547623     
   1.0694158470857662       0.88590606919944204        1538943947.6428769     
  0.76533015273202232        1.0434613566973732        1542356744.0154204     
  0.40002925422715785       0.99696561674687389        1550856814.2723944     
  -2.6491903908671621E-002  0.74640234469315803        1564444158.4137974     
   702953819.03537726        5168164.1311990619        1448267957.8198829     
   648917474.08527780        21311785.298504084        1449314545.3324780     
   593147245.25429153        31675793.529517323        1455202104.2510986     
   535643132.54240793        36260188.824208885        1465930634.5757406     
   476405135.94965303        35064971.182659909        1481500136.3063948     
   527224103.20059049        3878744.9642090201        1482357813.0770805     
   484938603.67667115        15458988.546793163        1481837483.1403942     
   441352691.24498332        22704522.436815381        1486568380.7989137     
   396466365.90552294        25615346.634265259        1496550506.0526412     
   350279627.65828431        24191461.139115319        1511783858.9015725     
   351488561.41201562        2587578.0110759139        1513083798.2618020     
   322126067.85481358        9956092.1711219400        1511502267.0111279     
   291896632.36295289        14434799.882303402        1515582219.5448503     
   260800254.93643275        16023701.144620076        1525323655.8629630     
   228836935.57525143        14722795.958068147        1540726575.9654694     
   175747193.66965395        1294663.2718067542        1540445913.3740389     
   160479866.61969975        4803096.1714662984        1538308896.9446821     
   144779068.60820049        6866625.8659781367        1542243620.4889002     
   128644799.63515630        7485252.3553390056        1552250084.0067015     
   112077059.70056407        6658975.6395396255        1568328287.4980762     
  -2.6491903908671621E-002  0.74640234469315803        1564444158.4137974     
  -2.8671296106516836E-002  0.54782684798782855        1562257372.9410570     
  -1.9279632835266736E-002  0.38782292395826445        1566552583.6310740     
   1.6832460333995741E-003  0.26638937164205895        1577329790.4838600     
   3.4206611901984513E-002  0.18349008210285853        1594588993.4994061     
   476405135.94965303        35064971.182659909        1481500136.3063948     
   420139862.54994988        29071850.965260699        1478656991.5219631     
   361857009.60230964        16353465.588071287        1481839030.0199635     
   301556577.10672611       -3090184.9489276558        1491046251.8003871     
   239238565.06320268       -29259100.645729333        1506278656.8632400     
   350279627.65828431        24191461.139115319        1511783858.9015725     
   309769113.97819334        20203153.370409250        1508323102.5090604     
   267745415.63859868        11170896.736690924        1510493559.7456679     
   224208532.63949323       -2905308.7620634586        1518295230.6113820     
   179158464.98088959       -22025463.125811808        1531728115.1062226     
   228836935.57525143        14722795.958068147        1540726575.9654694     
   202955554.03387904        12401612.363772139        1537236668.6680515     
   176065382.72144035        6717796.1992579997        1538984005.3464382     
   148166421.63793331       -2328652.5354836434        1545968586.0006268     
   119258670.78335485       -14737733.840464115        1558190410.6306207     
   112077059.70056407        6658975.6395396255        1568328287.4980762     
   99699182.717018515        5667227.9453869909        1565397689.9989362     
   86816910.850837961        2994163.9757843763        1567310366.8222871     
   73430244.102036759       -1360216.2692216672        1574066317.9681222     
   59539182.470597655       -7395912.7896848135        1585665543.4364619     
   3.4206611901984513E-002  0.18349008210285853        1594588993.4994061     
   2.7598985368144695E-002  0.11521415689628924        1592806166.5017102     
   2.6803879628654562E-002   6.6311219336047708E-002   1595472644.1731992     
   3.1810222953900402E-002   3.6747139214316486E-002   1602588426.5138671     
   4.2622132929275740E-002   2.6535641815740661E-002   1614153513.5237186     
   239238565.06320268       -29259100.645729333        1506278656.8632400     
   198690080.68898213       -58979465.546181917        1485545590.1544347     
   153511500.58505058       -104133482.87899895        1467451293.0812054     
   103702824.75140285       -164721152.64420742        1451995765.6435499     
   49264053.188049719       -240742474.84176451        1439179007.8414667     
   179158464.98088959       -22025463.125811808        1531728115.1062226     
   147883948.39700720       -44574682.793285407        1506432300.6181090     
   113136860.01581761       -78699141.785114884        1483976658.2024620     
   74917199.837338492       -124398840.10124293        1464361187.8592718     
   33224967.861570381       -181673777.74166894        1447585889.5885420     
   119258670.78335485       -14737733.840464115        1558190410.6306207     
   97833557.523766309       -29943177.614785329        1529682292.9510283     
   74093396.399294868       -52865447.605383612        1504215749.7807803     
   48038187.409940138       -83504543.812258422        1481790781.1198800     
   19667930.555709459       -121860466.23538782        1462407386.9683182     
   59539182.470597655       -7395912.7896848135        1585665543.4364619     
   48538908.069266260       -15084950.010658018        1555295567.1531906     
   36381109.735468507       -26632400.339850493        1528168567.8161581     
   23065787.469197303       -42038263.777287364        1504284545.4253552     
   8592941.2704670280       -61302540.322921127        1483643499.9807768     
   4.2622132929275740E-002   2.6535641815740661E-002   1614153513.5237186     
   3.3507262898368292E-002   1.9098276074156262E-002   1583272123.2245944     
   2.4335570189030171E-002   1.1475664740811953E-002   1555835112.3085947     
   1.5110303118627376E-002   3.6716966463571691E-003   1531842480.7757168     
   5.8458732360372528E-003  -4.2614263766079224E-003   1511294228.6259470     
   49264053.188049719       -240742474.84176451        1439179007.8414667     
   40067007.353209287       -321908453.35384983        1346105820.7646964     
   23159063.380133748       -428777425.66004944        1252960080.0711269     
  -1459778.7311950326       -561349391.76042783        1159741785.7607689     
  -33789518.980760753       -719624351.65492940        1066450937.8336116     
   33224967.861570381       -181673777.74166894        1447585889.5885420     
   29293843.533918798       -241658263.61271137        1347163767.1304369     
   19579545.602473989       -320919994.82973683        1245976870.3774803     
   4082074.0672042072       -419458971.39284468        1144025199.3296907     
  -17198571.071878254       -537275193.30198812        1041308753.9870640     
   19667930.555709459       -121860466.23538782        1462407386.9683182     
   19024954.369411916       -161256791.47511792        1356885341.0857038     
   14526529.113736987       -213504613.61276913        1249906300.2302101     
   6172654.7886805981       -278603932.64835894        1141470264.4018209     
  -6036668.6057515740       -356554748.58187354        1031577233.6005574     
   8592941.2704670280       -61302540.322921127        1483643499.9807768     
   9260339.8596769422       -80704036.941096157        1375270542.6305110     
   8000013.9139324948       -106531282.00911748        1264748369.6292994     
   4811963.4332491383       -138784275.52693528        1152076980.9771547     
  -303811.58238390088       -177463017.49458671        1037256376.6740919     
   5.8458732360372528E-003  -4.2614263766079224E-003   1511294228.6259470     
   4.7103346864000384E-003  -1.0663905655952439E-002   1402319371.7648418     
   3.0619280005245832E-003  -1.8777333168205214E-002   1290503078.5747626     
   9.0223158614507158E-004  -2.8597488388337880E-002   1175845349.0556989     
  -1.7720257495789111E-003  -4.0126601675105261E-002   1058346183.2076830     
   15.520990353762615        29.205413179431243        1802968273.3403487     
   11.794399156961710        18.282465651277111        1717252390.8907855     
   8.9150456705522600        10.183644518317221        1650500615.8584785     
   6.8829270579754374        4.9089399784107854        1602712948.2434285     
   5.6980453780239397        2.4583578533660413        1573889388.0456328     
  -417416901.69311631        225125196.17467812        1675105575.2591639     
  -399640611.35275519        148237249.86487356        1618904694.6278284     
  -375224911.14232618        93480669.788630113        1575157148.6430874     
  -344169801.06183177        60855455.945939645        1543862937.3049448     
  -306475281.11126953        50361608.336806461        1525022060.6133962     
  -752269822.85447431        475019561.95976442        1511746494.8863568     
  -735319446.36333084        315663017.88825601        1492806593.2665458     
  -705090250.97929037        200569203.45973927        1479809253.5226736     
  -661582236.70235264        129738118.67421228        1472754475.6547384     
  -604795403.53251743        103169763.53167689        1471642259.6627395     
  -1004558747.9630842        749683126.56067753        1312891032.2219167     
  -1007036493.2373294        502277322.35261029        1338958086.8069389     
  -989596010.59584570        321265611.19697702        1364456930.4972339     
  -952237300.03863752        206647993.09375477        1389387563.2928109     
  -894960361.56569958        158424468.04296786        1413749985.1936617     
  -1174283677.0189443        1049115889.9774141        1078539187.2658508     
  -1214791751.9747496        708080163.25793648        1157359175.2490017     
  -1228742189.9919963        455569893.00032556        1229100179.5667725     
  -1216134991.0706859        291585079.20456833        1293762200.2191598     
  -1176970155.2108173        216125721.87067139        1351345237.2061665     
   5.6980453780239397        2.4583578533660413        1573889388.0456328     
   5.1116031279513789        1.5719068674907151        1564259984.5703201     
   4.5908453092160739       0.90440433301760104        1556650614.7397339     
   4.1357677927948924       0.45583631306391614        1551061278.5538709     
   3.7463751880959295       0.22621730496156689        1547491976.0127304     
  -306475281.11126953        50361608.336806461        1525022060.6133962     
  -303915859.48942637        40009873.160731077        1518641474.4484882     
  -300952347.56292748        31005105.666841641        1514598502.7120681     
  -297584745.33177352        23347305.855136484        1512893145.4041355     
  -293813052.79595840        17036473.725633472        1513525402.5246863     
  -604795403.53251743        103169763.53167689        1471642259.6627395     
  -598769186.03449786        82738506.166332752        1468981929.4203718     
  -591934787.99284506        65001183.946432620        1468976794.3902547     
  -584292209.40756297        49957796.871962368        1471626854.5723875     
  -575841450.27864718        37608344.942939728        1476932109.9667706     
  -894960361.56569958        158424468.04296786        1413749985.1936617     
  -884559974.52360642        128185900.58872825        1415281349.4859717     
  -872947316.69890618        101988235.74318033        1419785489.7742956     
  -860122388.09160066        79831473.506318629        1427262406.0586302     
  -846085188.70168960        61715613.878139913        1437712098.3389816     
  -1176970155.2108173        216125721.87067139        1351345237.2061665     
  -1161288224.9567552        176352056.42790997        1357539734.6452885     
  -1143989933.6811101        141966261.05709094        1367024588.8641889     
  -1125075281.3838894        112968335.75819021        1379799799.8628647     
  -1104544268.0650837        89358280.531241298        1395865367.6413183     
   3.7463751880959295       0.22621730496156689        1547491976.0127304     
   3.0710293282746415        7.7993380984345162E-002   1534809608.8291903     
   2.4402307098069485        7.8258873740330026E-002   1529436561.2916801     
   1.8539781889191322       0.22701344009740543        1531372833.4002042     
   1.3122799550310296       0.52427952089596608        1540618425.1547623     
  -293813052.79595840        17036473.725633472        1513525402.5246863     
  -276419200.15121603        15572598.942081824        1504573905.9029655     
  -258928134.96720374        14432765.956097037        1502030794.0280464     
  -241339857.24392837        13616974.767654538        1505896066.8999326     
  -223654366.98139071        13125225.376754969        1516169724.5186200     
  -575841450.27864718        37608344.942939728        1476932109.9667706     
  -543627844.02589607        33908365.610448182        1471824898.4840367     
  -511219812.73916250        30856469.724564582        1472225136.8488808     
  -478617356.41844583        28452657.285292357        1478132825.0612996     
  -445820475.06374657        26696928.292628139        1489547963.1212897     
  -846085188.70168960        61715613.878139913        1437712098.3389816     
  -801625928.55301452        55007300.083078861        1436562586.5724087     
  -756875030.87563741        49271111.383688867        1440019589.7541838     
  -711832495.66956794        44507047.779942125        1448083107.8843021     
  -666498322.93478882        40715109.271897107        1460753140.9627659     
  -1104544268.0650837        89358280.531241298        1395865367.6413183     
  -1050413453.7325702        78869402.359978378        1398786970.1680760     
  -995893789.37663448        69676690.933449924        1405414152.7439523     
  -940985274.99728429        61780146.251641154        1415746915.3689463     
  -885687910.59451580        55179768.314557314        1429785258.0430529     
   1.3122799550310296       0.52427952089596608        1540618425.1547623     
   1.0694158470857662       0.88590606919944204        1538943947.6428769     
  0.76533015273202232        1.0434613566973732        1542356744.0154204     
  0.40002925422715785       0.99696561674687389        1550856814.2723944     
  -2.6491903908671621E-002  0.74640234469315803        1564444158.4137974     
  -223654366.98139071        13125225.376754969        1516169724.5186200     
  -211294813.47579527        10796120.873135403        1514802430.3545964     
  -199190433.44504732        7616438.1200244874        1518392697.0815573     
  -187341226.88915369        3586177.1173988730        1526940524.6994958     
  -175747193.80811402       -1294662.1347408891        1540445913.2084174     
  -445820475.06374657        26696928.292628139        1489547963.1212897     
  -421471976.36239606        21927536.357964516        1488190149.9892225     
  -397633824.54952866        15456988.128356457        1491660184.7546871     
  -374306019.62515038        7285283.6037846655        1499958067.4176862     
  -351488561.58925724       -2587577.2157371491        1513083797.9782186     
  -666498322.93478882        40715109.271897107        1460753140.9627659     
  -630531487.59039211        33394247.340373337        1459107106.5467496     
  -595330172.54811609        23521651.068449944        1462159207.0348158     
  -560894377.80795777        11097320.456132263        1469909442.4269688     
  -527224103.36992180       -3878744.4965914488        1482357812.7232058     
  -885687910.59451580        55179768.314557314        1429785258.0430529     
  -838473347.15978456        45196253.820356607        1427553300.0271807     
  -792279477.44080436        31810426.940320641        1429889763.9219413     
  -747106301.43757975        15022287.674434006        1436794649.7273388     
  -702953819.15010881       -5168163.9773024917        1448267957.4433763     
  -2.6491903908671621E-002  0.74640234469315803        1564444158.4137974     
  -2.8671296106516836E-002  0.54782684798782855        1562257372.9410570     
  -1.9279632835266736E-002  0.38782292395826445        1566552583.6310740     
   1.6832460333995741E-003  0.26638937164205895        1577329790.4838600     
   3.4206611901984513E-002  0.18349008210285853        1594588993.4994061     
  -175747193.80811402       -1294662.1347408891        1540445913.2084174     
  -160479866.73077145       -4803095.3112866953        1538308896.8156407     
  -144779068.67746347       -6866625.2346136943        1542243620.3931119     
  -128644799.64818834       -7485251.9047184512        1552250083.9408302     
  -112077059.64295575       -6658975.3216292746        1568328287.4587927     
  -351488561.58925724       -2587577.2157371491        1513083797.9782186     
  -322126067.98245573       -9956091.5353054553        1511502266.7905436     
  -291896632.43528390       -14434799.386975437        1515582219.3806019     
  -260800254.94774556       -16023700.770755485        1525323655.7483866     
  -228836935.51984420       -14722795.686656453        1540726575.8938963     
  -527224103.36992180       -3878744.4965914488        1482357812.7232058     
  -484938603.78370690       -15458988.124175966        1481837482.8657696     
  -441352691.29272801       -22704522.069217190        1486568380.5935414     
  -396466365.89697742       -25615346.331683174        1496550505.9065273     
  -350279627.59646374       -24191460.911607951        1511783858.8047178     
  -702953819.15010881       -5168163.9773024917        1448267957.4433763     
  -648917474.13453805       -21311785.077940434        1449314545.0413084     
  -593147245.24979365       -31675793.281332105        1455202104.0319316     
  -535643132.49588621       -36260188.587512225        1465930634.4152503     
  -476405135.87281644       -35064970.996486083        1481500136.1912537     
   3.4206611901984513E-002  0.18349008210285853        1594588993.4994061     
   2.7598985368144695E-002  0.11521415689628924        1592806166.5017102     
   2.6803879628654562E-002   6.6311219336047708E-002   1595472644.1731992     
   3.1810222953900402E-002   3.6747139214316486E-002   1602588426.5138671     
   4.2622132929275740E-002   2.6535641815740661E-002   1614153513.5237186     
  -112077059.64295575       -6658975.3216292746        1568328287.4587927     
  -99699182.669045463       -5667227.7466367185        1565397689.9748585     
  -86816910.802118868       -2994163.8615891375        1567310366.8121631     
  -73430244.042192668        1360216.3334576637        1574066317.9706988     
  -59539182.389248811        7395912.8385615610        1585665543.4504659     
  -228836935.51984420       -14722795.686656453        1540726575.8938963     
  -202955553.98812270       -12401612.195194110        1537236668.6254649     
  -176065382.67619050       -6717796.1030258387        1538984005.3303158     
  -148166421.58404964        2328652.5898390263        1545968586.0084522     
  -119258670.71169682        14737733.883407705        1558190410.6598704     
  -350279627.59646374       -24191460.911607951        1511783858.8047178     
  -309769113.92964369       -20203153.230486304        1508323102.4535172     
  -267745415.59541693       -11170896.658013135        1510493559.7276561     
  -224208532.59377736        2905308.8058389723        1518295230.6271274     
  -179158464.92472145        22025463.161077522        1531728115.1519315     
  -476405135.87281644       -35064970.996486083        1481500136.1912537     
  -420139862.49360949       -29071850.852528572        1478656991.4590263     
  -361857009.55979592       -16353465.526546195        1481839030.0041840     
  -301556577.07136762        3090184.9814835042        1491046251.8267257     
  -239238565.02831894        29259100.671582147        1506278656.9266534     
   4.2622132929275740E-002   2.6535641815740661E-002   1614153513.5237186     
   3.3507262898368292E-002   1.9098276074156262E-002   1583272123.2245944     
   2.4335570189030171E-002   1.1475664740811953E-002   1555835112.3085947     
   1.5110303118627376E-002   3.6716966463571691E-003   1531842480.7757168     
   5.8458732360372528E-003  -4.2614263766079224E-003   1511294228.6259470     
  -59539182.389248811        7395912.8385615610        1585665543.4504659     
  -48538908.004743174        15084950.047895644        1555295567.1650662     
  -36381109.688132644        26632400.364246011        1528168567.8262389     
  -23065787.439398684        42038263.787671521        1504284545.4339817     
  -8592941.2585718483        61302540.318076417        1483643499.9882853     
  -119258670.71169682        14737733.883407705        1558190410.6598704     
  -97833557.466574997        29943177.649611928        1529682292.9757202     
  -74093396.357180804        52865447.630056530        1504215749.8015866     
  -48038187.383519001        83504543.824728221        1481790781.1374660     
  -19667930.545578092        121860466.23366103        1462407386.9833608     
  -179158464.92472145        22025463.161077522        1531728115.1519315     
  -147883948.35199100        44574682.824242964        1506432300.6565492     
  -113136859.98282027        78699141.808875918        1483976658.2346339     
  -74917199.817217410        124398840.11494800        1464361187.8861811     
  -33224967.855180897        181673777.74246830        1447585889.6111810     
  -239238565.02831894        29259100.671582147        1506278656.9266534     
  -198690080.66097790        58979465.571829394        1485545590.2075641     
  -153511500.56504282        104133482.90072539        1467451293.1253855     
  -103702824.74050936        164721152.65828100        1451995765.6801143     
  -49264053.187382475        240742474.84448269        1439179007.8717604     
   5.8458732360372528E-003  -4.2614263766079224E-003   1511294228.6259470     
   4.7103346864000384E-003  -1.0663905655952439E-002   1402319371.7648418     
   3.0619280005245832E-003  -1.8777333168205214E-002   1290503078.5747626     
   9.0223158614507158E-004  -2.8597488388337880E-002   1175845349.0556989     
  -1.7720257495789111E-003  -4.0126601675105261E-002   1058346183.2076830     
  -8592941.2585718483        61302540.318076417        1483643499.9882853     
  -9260339.8497666605        80704036.923915371        1375270542.6362395     
  -8000013.9069084302        106531281.97659990        1264748369.6333799     
  -4811963.4300105497        138784275.47608101        1152076980.9797053     
   303811.58095015585        177463017.42244062        1037256376.6752064     
  -19667930.545578092        121860466.23366103        1462407386.9833608     
  -19024954.360681526        161256791.46155328        1356885341.0973792     
  -14526529.107161969        213504613.58485803        1249906300.2387369     
  -6172654.7850311697        278603932.60353357        1141470264.4074414     
   6036668.6057247221        356554748.51762354        1031577233.6034577     
  -33224967.855180897        181673777.74246830        1447585889.6111810     
  -29293843.528026074        241658263.60228062        1347163767.1482620     
  -19579545.597687170        320919994.80603838        1245976870.3908350     
  -4082074.0641557872        419458971.35377181        1144025199.3388951     
   17198571.072549671        537275193.24542153        1041308753.9924591     
  -49264053.187382475        240742474.84448269        1439179007.8717604     
  -40067007.351813897        321908453.34604168        1346105820.7888846     
  -23159063.378477752        428777425.64015913        1252960080.0896583     
   1459778.7325929403        561349391.72672033        1159741785.7740941     
   33789518.981426895        719624351.60583532        1066450937.8421586     
  -1174283677.0189443        1049115889.9774141        1078539187.2658508     
  -1214791751.9747496        708080163.25793648        1157359175.2490017     
  -1228742189.9919963        455569893.00032556        1229100179.5667725     
  -1216134991.0706859        291585079.20456833        1293762200.2191598     
  -1176970155.2108173        216125721.87067139        1351345237.2061665     
  -1597495689.0288675        517327110.73299468        1028711789.0067389     
  -1593349730.6257114        359048133.49405706        1101020322.3599589     
  -1577379654.0159554        240182883.61044443        1172582461.3130260     
  -1549585459.1995995        160731361.08216262        1243398205.8659403     
  -1509967146.1766462        120693565.90921223        1313467556.0187008     
  -2112328005.1260912       -41947759.737616420        1052617612.3692825     
  -2045434901.1776006       -12042053.840109706        1101225585.9052908     
  -1981451197.7544723        8165650.3061946630        1155419754.3063710     
  -1920376894.8567023        18675352.701300144        1215200117.5725262     
  -1862211992.4842925        19487053.345206022        1280566675.7037563     
  -2718780625.3106041       -628708721.43441319        1150256657.3534875     
  -2571047263.6304145       -405190398.74455106        1157974965.8849933     
  -2440956821.2075481       -240481806.91242218        1177612058.5468040     
  -2328509298.0420012       -134582945.93802094        1209167935.3389132     
  -2233704694.1337700       -87493815.821350336        1252642596.2613297     
  -3416853549.5824094       -1242955774.3573980        1321628923.9593558     
  -3170186817.9841547       -820396901.21927345        1271268462.2990756     
  -2955896524.3751822       -505759488.04540712        1239159374.0343258     
  -2773982668.7554846       -299043534.83579791        1225301659.1651080     
  -2624445251.1250668       -200249041.59045255        1229695317.6914227     
  -1176970155.2108173        216125721.87067139        1351345237.2061665     
  -1161288224.9567552        176352056.42790997        1357539734.6452885     
  -1143989933.6811101        141966261.05709094        1367024588.8641889     
  -1125075281.3838894        112968335.75819021        1379799799.8628647     
  -1104544268.0650837        89358280.531241298        1395865367.6413183     
  -1509967146.1766462        120693565.90921223        1313467556.0187008     
  -1480142390.2754011        96798757.099636376        1314626661.5750132     
  -1449560838.1852303        75426602.253155172        1319710155.4724913     
  -1418222489.9061246        56577101.369789183        1328718037.7111359     
  -1386127345.4380865        40250254.449523985        1341650308.2909451     
  -1862211992.4842925        19487053.345206022        1280566675.7037563     
  -1816432892.1890433        12014556.792863131        1275687563.7391658     
  -1770756560.5375118        4199498.0947880745        1275366871.6771302     
  -1725182997.5297003       -3958122.7490137815        1279604599.5176480     
  -1679712203.1656075       -12458305.738550425        1288400747.2607250     
  -2233704694.1337700       -87493815.821350336        1252642596.2613297     
  -2170159730.6976848       -78000544.492416143        1240722441.1377437     
  -2107577100.7379692       -71715051.418045282        1233994737.4781041     
  -2045956804.2546194       -68637336.598226666        1232459485.2824090     
  -1985298841.2476377       -68767400.032971978        1236116684.5506613     
  -2624445251.1250668       -200249041.59045255        1229695317.6914227     
  -2541322905.8013182       -173246546.75618160        1209731293.7707508     
  -2460022458.7865911       -152317046.28531802        1195593752.8754153     
  -2380543910.0808759       -137460540.17782915        1187282695.0054138     
  -2302887259.6841865       -128677028.43375885        1184798120.1607456     
  -1104544268.0650837        89358280.531241298        1395865367.6413183     
  -1050413453.7325702        78869402.359978378        1398786970.1680760     
  -995893789.37663448        69676690.933449924        1405414152.7439523     
  -940985274.99728429        61780146.251641154        1415746915.3689463     
  -885687910.59451580        55179768.314557314        1429785258.0430529     
  -1386127345.4380865        40250254.449523985        1341650308.2909451     
  -1320037804.9204686        35357313.240389049        1340880123.1477268     
  -1253890387.9129207        30657293.664344192        1344312008.0296001     
  -1187685094.4154551        26150195.721367121        1351945962.9365575     
  -1121421924.4280629        21836019.411471188        1363781987.8686106     
  -1679712203.1656075       -12458305.738550425        1288400747.2607250     
  -1600245393.6743863       -11329747.149006069        1283552638.6584527     
  -1521051681.2267344       -11111512.038019776        1283403090.0572426     
  -1442131065.8226550       -11803600.405608892        1287952101.4570932     
  -1363483547.4621460       -13406012.251777470        1297199672.8580096     
  -1985298841.2476377       -68767400.032971978        1236116684.5506613     
  -1891036219.9943230       -61191778.808201909        1226804516.7002559     
  -1797377669.3180704       -55629726.173643768        1222687398.8268888     
  -1704323189.2188838       -52081242.129303753        1223765330.9305565     
  -1611872779.6967618       -50546326.675178409        1230038313.0112607     
  -2302887259.6841865       -128677028.43375885        1184798120.1607456     
  -2192410283.8802805       -114228781.73721063        1170635757.2731333     
  -2082868352.1869299       -102897348.74251914        1162164934.3385322     
  -1974261464.6041384       -94682729.449688077        1159385651.3569360     
  -1866589621.1319170       -89584923.858757734        1162297908.3283515     
  -885687910.59451580        55179768.314557314        1429785258.0430529     
  -838473347.15978456        45196253.820356607        1427553300.0271807     
  -792279477.44080436        31810426.940320641        1429889763.9219413     
  -747106301.43757975        15022287.674434006        1436794649.7273388     
  -702953819.15010881       -5168163.9773024917        1448267957.4433763     
  -1121421924.4280629        21836019.411471188        1363781987.8686106     
  -1061583134.4637673        14829662.877624512        1358355552.9703085     
  -1002306528.3852346        5949360.0578983426        1357384603.1932542     
  -943592106.19246697       -4804889.0477099419        1360869138.5374584     
  -885439867.88546586       -17433084.439206660        1368809159.0029192     
  -1363483547.4621460       -13406012.251777470        1297199672.8580096     
  -1291343207.5093791       -17532013.787603080        1289113689.2122657     
  -1219306541.6123831       -22003595.509339869        1285370253.8983886     
  -1147373549.7711656       -26820757.417004049        1285969366.9163878     
  -1075544231.9857237       -31983499.510581136        1290911028.2662594     
  -1611872779.6967618       -50546326.675178409        1230038313.0112607     
  -1527753566.2966089       -51888776.175305903        1219827708.7530560     
  -1443279517.1222472       -52048439.761392534        1213846716.0373440     
  -1358450632.1736684       -51025317.433425963        1212095334.8641210     
  -1273266911.4508796       -48819409.191424966        1214573565.2333908     
  -1866589621.1319170       -89584923.858757734        1162297908.3283515     
  -1770814210.8254750       -88240624.285516381        1150497611.5926790     
  -1674225454.9148297       -84185172.698258162        1142813989.6101177     
  -1576823353.3999851       -77418569.097008109        1139247042.3806646     
  -1478607906.2809365       -67940813.481739044        1139796769.9043195     
  -702953819.15010881       -5168163.9773024917        1448267957.4433763     
  -648917474.13453805       -21311785.077940434        1449314545.0413084     
  -593147245.24979365       -31675793.281332105        1455202104.0319316     
  -535643132.49588621       -36260188.587512225        1465930634.4152503     
  -476405135.87281644       -35064970.996486083        1481500136.1912537     
  -885439867.88546586       -17433084.439206660        1368809159.0029192     
  -816670606.68332517       -26425494.351863384        1368702442.0876696     
  -747042010.86336243       -32553455.538440168        1373437486.7260134     
  -676554080.42557204       -35816967.998934031        1383014292.9179590     
  -605206815.36995280       -36216031.733325183        1397432860.6634965     
  -1075544231.9857237       -31983499.510581136        1290911028.2662594     
  -992039796.99442768       -33824020.954494238        1288630699.3779287     
  -908550576.63664997       -35715257.843457133        1291192922.2040980     
  -825076570.91238499       -37657210.177470684        1298597696.7447696     
  -741617779.82163787       -39649877.956538826        1310845022.9999497     
  -1273266911.4508796       -48819409.191424966        1214573565.2333908     
  -1175025045.0678418       -43507364.885811865        1209099316.9120810     
  -1077672942.5696599       -41161200.196384251        1208468410.4661777     
  -981210603.95633566       -41780915.123150289        1212680845.8956871     
  -885638029.22787297       -45366509.666119158        1221736623.2005980     
  -1478607906.2809365       -67940813.481739044        1139796769.9043195     
  -1365626350.9035671       -55475526.145829618        1130108294.6901331     
  -1254409108.6623967       -48891282.597242653        1125263951.5122590     
  -1144956179.5574250       -48188082.835986435        1125263740.3706985     
  -1037267563.5886495       -53365926.862055302        1130107661.2654576     
  -476405135.87281644       -35064970.996486083        1481500136.1912537     
  -420139862.49360949       -29071850.852528572        1478656991.4590263     
  -361857009.55979592       -16353465.526546195        1481839030.0041840     
  -301556577.07136762        3090184.9814835042        1491046251.8267257     
  -239238565.02831894        29259100.671582147        1506278656.9266534     
  -605206815.36995280       -36216031.733325183        1397432860.6634965     
  -533879478.98897547       -32027538.491850317        1394344997.5883536     
  -460382772.44894260       -20607811.386865973        1397234605.9069881     
  -384716695.74984789       -1956850.4183411151        1406101685.6194093     
  -306881248.89170277        23925344.413686767        1420946236.7256098     
  -741617779.82163787       -39649877.956538826        1310845022.9999497     
  -655364700.10631692       -37306907.517753035        1307689530.6204002     
  -566790459.62750554       -27226734.533997357        1310463797.7510276     
  -475895058.38519245       -9409359.0052383244        1319167824.3918302     
  -382678496.37938482        16145219.068505242        1333801610.5428207     
  -885638029.22787297       -45366509.666119158        1221736623.2005980     
  -784595525.84564757       -44909957.930251688        1218690590.5551603     
  -681080071.09549487       -36210234.967963278        1221526605.5362980     
  -575091664.97739780       -19267340.779193759        1230244668.1440094     
  -466630307.49136573        5918724.6360290647        1244844778.3782992     
  -1037267563.5886495       -53365926.862055302        1130107661.2654576     
  -921571956.20696473       -54836689.729363024        1127348177.3926449     
  -803251606.85290992       -47558312.688770235        1130423029.2628024     
  -682306515.52646101       -31530795.740196556        1139332216.8759339     
  -558736682.22764337       -6754138.8837294579        1154075740.2320344     
  -239238565.02831894        29259100.671582147        1506278656.9266534     
  -198690080.66097790        58979465.571829394        1485545590.2075641     
  -153511500.56504282        104133482.90072539        1467451293.1253855     
  -103702824.74050936        164721152.65828100        1451995765.6801143     
  -49264053.187382475        240742474.84448269        1439179007.8717604     
  -306881248.89170277        23925344.413686767        1420946236.7256098     
  -257645003.66804177        54296642.718675539        1404448551.2723804     
  -201961295.22104076        106159485.10146411        1391844773.7475569     
  -139830123.55069798        179513871.56205964        1383134904.1511221     
  -71251488.657023177        274359802.10042590        1378318942.4830871     
  -382678496.37938482        16145219.068505242        1333801610.5428207     
  -321168380.89516693        48243283.599496633        1323659568.4326651     
  -251393434.69285965        107890783.85744403        1318666572.5423889     
  -173353657.77247185        195087719.84233630        1318822622.8719914     
  -87049050.134002715        309834091.55416083        1324127719.4214747     
  -466630307.49136573        5918724.6360290647        1244844778.3782992     
  -389260212.34234381        40819388.214308873        1243178641.6884105     
  -301807918.98049152        109327379.16868965        1247916689.5098903     
  -204273427.40581447        211442697.49914879        1259058921.8427310     
  -96656737.618310139        347165343.20570743        1276605338.6869400     
  -558736682.22764337       -6754138.8837294579        1154075740.2320344     
  -461920498.00958025        32024956.563096583        1163005771.0396175     
  -353204748.08394551        110469271.03516701        1179595124.6500530     
  -232589432.45073029        228578804.53250563        1203843801.0633352     
  -100074551.10995713        386353557.05503207        1235751800.2794635     
  -49264053.187382475        240742474.84448269        1439179007.8717604     
  -40067007.351813897        321908453.34604168        1346105820.7888846     
  -23159063.378477752        428777425.64015913        1252960080.0896583     
   1459778.7325929403        561349391.72672033        1159741785.7740941     
   33789518.981426895        719624351.60583532        1066450937.8421586     
  -71251488.657023177        274359802.10042590        1378318942.4830871     
  -57112952.523655564        376205938.84139425        1296710106.5589323     
  -34037987.857137293        507840170.69285679        1214202626.4249547     
  -2026594.6574864686        669262497.65476942        1130796502.0811603     
   38921227.075324148        860472919.72720647        1046491733.5275291     
  -87049050.134002715        309834091.55416083        1324127719.4214747     
  -70329282.541334063        431652308.88297248        1255413020.1173415     
  -43447556.020127773        587343722.64024854        1184973586.0099037     
  -6403870.5703881979        776908332.82597518        1112809417.0991778     
   40801773.807898939        1000346139.4401808        1038920513.3851477     
  -96656737.618310139        347165343.20570743        1276605338.6869400     
  -79715997.404843956        488247563.47079962        1222214561.4641004     
  -51387767.867440343        667288081.48234689        1165272958.8444955     
  -11672049.006109416        884286897.24032676        1105780530.8281326     
   39431159.179162085        1139244010.7447617        1043737277.4149764     
  -100074551.10995713        386353557.05503207        1235751800.2794635     
  -85273097.114173949        545991702.60490727        1197114730.5992281     
  -57858623.399077356        747673247.21916628        1155100744.9287529     
  -17831129.964658141        991398190.89783132        1109709843.2680292     
   34809383.189095318        1277166533.6409435        1060942025.6170570     
  -3416853549.5824094       -1242955774.3573980        1321628923.9593558     
  -3170186817.9841547       -820396901.21927345        1271268462.2990756     
  -2955896524.3751822       -505759488.04540712        1239159374.0343258     
  -2773982668.7554846       -299043534.83579791        1225301659.1651080     
  -2624445251.1250668       -200249041.59045255        1229695317.6914227     
  -3805870472.1481538       -830357844.73428953        1211892142.7338486     
  -3562891629.7108989       -552096515.59797704        1160584795.2098489     
  -3340276479.2145271       -341714159.59793043        1121488669.7053499     
  -3138025020.6590333       -199210776.73413992        1094603766.2203524     
  -2956137254.0444150       -124586367.00660741        1079930084.7548575     
  -4101063778.6656480       -389612830.29670286        1040074396.6005497     
  -3879030400.7494807       -260826317.77023232        1001835033.6026294     
  -3665347968.7257948       -159876291.55202353        969766741.24818289     
  -3460016482.5945868       -86762751.642074704        943869519.53720617     
  -3263035942.3558559       -41485698.040388465        924143368.46969974     
  -4302433469.1348877        79279268.955359459        806175685.55945790     
  -4118603131.0998993        53413692.263960123        795019177.47742355     
  -3931110992.9089885        39754116.092300415        783993588.66282380     
  -3739957054.5621533        38300540.440378904        773098919.11566818     
  -3545141316.0593991        49052965.308198929        762335168.83595741     
  -4409979543.5558863        576318453.02189255        510196009.61057979     
  -4281609820.7621536        390623514.50460172        540137226.83422232     
  -4137565551.7641048        257177063.33504748        564169211.94927466     
  -3977846736.5617304        175979099.51323652        582291964.95574069     
  -3802453375.1550355        147029623.03915858        594505485.85361528     
  -2624445251.1250668       -200249041.59045255        1229695317.6914227     
  -2541322905.8013182       -173246546.75618160        1209731293.7707508     
  -2460022458.7865911       -152317046.28531802        1195593752.8754153     
  -2380543910.0808759       -137460540.17782915        1187282695.0054138     
  -2302887259.6841865       -128677028.43375885        1184798120.1607456     
  -2956137254.0444150       -124586367.00660741        1079930084.7548575     
  -2863219120.7426028       -109415417.50549054        1066165084.7243452     
  -2771538990.1587505       -98371143.730912685        1056839179.8054281     
  -2681096862.2928591       -91453545.682868123        1051952369.9981085     
  -2591892737.1449318       -88662623.361368179        1051504655.3023826     
  -3263035942.3558559       -41485698.040388465        924143368.46969974     
  -3164285986.5438042       -39335483.512767196        917258603.85224652     
  -3066190137.8586550       -39365626.074827313        913425546.43265069     
  -2968748396.3004084       -41576125.726563811        912644196.21091342     
  -2871960761.8690691       -45966982.467991471        914914553.18703127     
  -3545141316.0593991        49052965.308198929        762335168.83595741     
  -3444523503.2049274        36993255.221984386        763011851.15445781     
  -3343975901.8863068        24699506.682935476        765352852.75708234     
  -3243498512.1035314        12171719.691058278        769358173.64382124     
  -3143091333.8566060       -590105.75363659859        775027813.81468260     
  -3802453375.1550355        147029623.03915858        594505485.85361528     
  -3703931670.7259784        119570798.69873929        603424826.63097787     
  -3604896282.2417035        93824254.542369604        612621098.77871931     
  -3505347209.7022247        69789990.570018530        622094302.29684210     
  -3405284453.1075358        47468006.781700850        631844437.18534458     
  -2302887259.6841865       -128677028.43375885        1184798120.1607456     
  -2192410283.8802805       -114228781.73721063        1170635757.2731333     
  -2082868352.1869299       -102897348.74251914        1162164934.3385322     
  -1974261464.6041384       -94682729.449688077        1159385651.3569360     
  -1866589621.1319170       -89584923.858757734        1162297908.3283515     
  -2591892737.1449318       -88662623.361368179        1051504655.3023826     
  -2468348084.4100409       -78242158.049599767        1039418431.4125797     
  -2345327592.8819141       -69568896.760380387        1032622214.7593175     
  -2222831262.5605512       -62642839.493703485        1031116005.3425983     
  -2100859093.4459445       -57463986.249553323        1034899803.1624256     
  -2871960761.8690691       -45966982.467991471        914914553.18703127     
  -2736495668.5359592       -39918469.440848112        905383831.68279707     
  -2601143853.5058136       -34247550.756919265        900741584.69864273     
  -2465905316.7786322       -28954226.416202664        900987812.23456562     
  -2330780058.3544135       -24038496.418693066        906122514.29056263     
  -3143091333.8566060       -590105.75363659859        775027813.81468260     
  -2996853036.2580309        742284.08906507492        768531958.08378911     
  -2850317134.0586262        3066689.2678694725        766523044.15650308     
  -2703483627.2583842        6383109.7827953100        769001072.03283262     
  -2556352515.8573070        10691545.633839011        775966041.71277261     
  -3405284453.1075358        47468006.781700850        631844437.18534458     
  -3249420187.5762577        43740102.540126801        628862810.61555088     
  -3092847434.5403528        42373823.313984156        629966593.13290215     
  -2935566193.9998140        43369169.103287935        635155784.73740220     
  -2777576465.9546361        46726139.908047199        644430385.42904353     
  -1866589621.1319170       -89584923.858757734        1162297908.3283515     
  -1770814210.8254750       -88240624.285516381        1150497611.5926790     
  -1674225454.9148297       -84185172.698258162        1142813989.6101177     
  -1576823353.3999851       -77418569.097008109        1139247042.3806646     
  -1478607906.2809365       -67940813.481739044        1139796769.9043195     
  -2100859093.4459445       -57463986.249553323        1034899803.1624256     
  -1995201816.8114691       -57584598.587363720        1025098999.2886962     
  -1889287410.5117095       -56848112.040905595        1019121012.8936694     
  -1783115874.5466740       -55254526.610193849        1016965843.9773464     
  -1676687208.9163587       -52803842.295207441        1018633492.5397179     
  -2330780058.3544135       -24038496.418693066        906122514.29056263     
  -2216080507.6044931       -25875898.331331491        897672284.68336880     
  -2101680043.1282127       -28710254.489446282        892751015.28046572     
  -1987578664.9255819       -32541564.893051863        891358706.08186054     
  -1873776372.9965892       -37369829.542125106        893495357.08753705     
  -2556352515.8573070        10691545.633839011        775966041.71277261     
  -2433450283.2045393        6885476.4825929403        768217467.77669775     
  -2311403352.7643380        228399.95612633228        763703996.77050996     
  -2190211724.5367050       -9279683.9455709457        762425628.69420540     
  -2069875398.5216353       -21638775.222477317        764382363.54778373     
  -2777576465.9546361        46726139.908047199        644430385.42904353     
  -2647311143.6116157        40699525.854408383        636734548.56868136     
  -2518457339.4200792        29967851.295823932        631979957.36379814     
  -2391015053.3800454        14531116.232238770        630166611.81438708     
  -2264984285.4914961       -5610679.3362940550        631294511.92045498     
  -1478607906.2809365       -67940813.481739044        1139796769.9043195     
  -1365626350.9035671       -55475526.145829618        1130108294.6901331     
  -1254409108.6623967       -48891282.597242653        1125263951.5122590     
  -1144956179.5574250       -48188082.835986435        1125263740.3706985     
  -1037267563.5886495       -53365926.862055302        1130107661.2654576     
  -1676687208.9163587       -52803842.295207441        1018633492.5397179     
  -1553797259.6149104       -46334884.237665892        1007417174.7193896     
  -1431771106.8087213       -42745247.830980361        1000362334.6378127     
  -1310608750.4977660       -42034933.075079262        997468972.29498863     
  -1190310190.6820652       -44203939.970023572        998737087.69092500     
  -1873776372.9965892       -37369829.542125106        893495357.08753705     
  -1742928470.6212437       -37482333.018009305        881801799.40884149     
  -1612043848.1001925       -37472436.008228660        873587065.17133677     
  -1481122505.4334421       -37340138.512775958        868851154.37502789     
  -1350164442.6209965       -37085440.531669915        867594067.01990473     
  -2069875398.5216353       -21638775.222477317        764382363.54778373     
  -1933019983.9225626       -28917872.486853361        753262168.75849509     
  -1795227332.5368295       -33072847.129029989        744938143.11283064     
  -1656497444.3644576       -34103699.149072707        739410286.61080039     
  -1516830319.4054384       -32010428.546964347        736678599.25240326     
  -2264984285.4914961       -5610679.3362940550        631294511.92045498     
  -2124071799.5188582       -20641502.644170403        621798282.76834202     
  -1981321560.1186337       -29546481.193406582        614415568.46229577     
  -1836733567.2908056       -32325614.983972192        609146369.00232089     
  -1690307821.0353889       -28978904.015904784        605990684.38841927     
  -1037267563.5886495       -53365926.862055302        1130107661.2654576     
  -921571956.20696473       -54836689.729363024        1127348177.3926449     
  -803251606.85290992       -47558312.688770235        1130423029.2628024     
  -682306515.52646101       -31530795.740196556        1139332216.8759339     
  -558736682.22764337       -6754138.8837294579        1154075740.2320344     
  -1190310190.6820652       -44203939.970023572        998737087.69092500     
  -1060805123.3079873       -42515274.514649451        995162392.29753017     
  -929713806.63680696       -35539111.402274907        995646923.85007787     
  -797036240.66851318       -23275450.632852614        1000190682.3485695     
  -662772425.40313303       -5724292.2064630985        1008793667.7930031     
  -1350164442.6209965       -37085440.531669915        867594067.01990473     
  -1211921654.6746049       -33758868.579619348        861992585.31810689     
  -1073131110.1063858       -28606441.221484125        858675221.76523054     
  -933792808.91633773       -21628158.457253695        857641976.36126089     
  -793906751.10446429       -12824020.286929220        858892849.10620439     
  -1516830319.4054384       -32010428.546964347        736678599.25240326     
  -1374921550.3068159       -28567471.924261451        727838756.45438421     
  -1233503517.2616544       -26760302.146423519        719507923.00824940     
  -1092576220.2699239       -26588919.213363230        711686098.91399920     
  -952139659.33165562       -28053323.125166595        704373284.17163217     
  -1690307821.0353889       -28978904.015904784        605990684.38841927     
  -1549804810.2046278       -26941084.548593819        592700905.70635593     
  -1410831028.1025860       -30000694.177011967        578145027.57914710     
  -1273386474.7292824       -38157732.901226938        562323050.00679278     
  -1137471150.0846906       -51412200.721143842        545234972.98929036     
  -558736682.22764337       -6754138.8837294579        1154075740.2320344     
  -461920498.00958025        32024956.563096583        1163005771.0396175     
  -353204748.08394551        110469271.03516701        1179595124.6500530     
  -232589432.45073029        228578804.53250563        1203843801.0633352     
  -100074551.10995713        386353557.05503207        1235751800.2794635     
  -662772425.40313303       -5724292.2064630985        1008793667.7930031     
  -547402722.42653012        24989656.663642079        1021905237.3307737     
  -421203208.88089681        91802974.097187787        1043490609.2438139     
  -284173884.76621664        194715660.09420937        1073549783.5321306     
  -136314750.08249950        333727714.65470928        1112082760.1957128     
  -793906751.10446429       -12824020.286929220        858892849.10620439     
  -657656444.87670338        10522907.354193926        874937909.71254015     
  -511646083.21842545        66403353.097036242        900271252.26657426     
  -355875666.12964416        154817316.94155759        934892876.76830101     
  -190345193.61035201        275764798.88778341        978802783.21771562     
  -952139659.33165562       -28053323.125166595        704373284.17163217     
  -792681665.36008346       -11375291.365196317        722103788.18491876     
  -624533371.09653664        34270408.034696132        749937053.71832037     
  -447694776.54101026        108883775.07451749        787873080.77183735     
  -262165881.69350594        212464809.75426543        835911869.34547353     
  -1137471150.0846906       -51412200.721143842        545234972.98929036     
  -952478383.87668300       -40704939.494565666        563402872.74790728     
  -759865072.51522112       -4595861.0898008943        592488013.59906030     
  -559631216.00032091        56915034.493091077        632490395.54275787     
  -351776814.33196330        143827747.25416982        683410018.57898760     
  -100074551.10995713        386353557.05503207        1235751800.2794635     
  -85273097.114173949        545991702.60490727        1197114730.5992281     
  -57858623.399077356        747673247.21916628        1155100744.9287529     
  -17831129.964658141        991398190.89783132        1109709843.2680292     
   34809383.189095318        1277166533.6409435        1060942025.6170570     
  -136314750.08249950        333727714.65470928        1112082760.1957128     
  -127275879.74470776        482622473.50013721        1090478232.3805916     
  -95091797.829553097        708667937.60343444        1070297106.9813725     
  -39762504.337048352        1011864106.9645715        1051539383.9980313     
   38712000.732823372        1392210981.5836043        1034205063.4306000     
  -190345193.61035201        275764798.88778341        978802783.21771562     
  -173353711.48442945        418030729.66263717        986518354.43541515     
  -122684825.92311880        672554671.88878310        1000457646.4751471     
  -38338536.926403821        1039336625.5662491        1020620659.3369116     
   79685155.505688727        1518376590.6950195        1047007393.0206987     
  -262165881.69350594        212464809.75426543        835911869.34547353     
  -223506592.33335581        352216471.09235585        885235096.76369977     
  -140637707.67977640        639333450.07519364        945582363.41009355     
  -13559227.732774794        1073815746.7027886        1016953669.2846441     
   157728847.50766349        1655663360.9751673        1099349014.3873925     
  -351776814.33196330        143827747.25416982        683410018.57898760     
  -277734522.29146773        285179697.78934544        786628459.36544263     
  -148950443.09951639        609004272.16271305        905671257.78620195     
   34575423.243899107        1115301470.3742831        1040538413.8412734     
   272843076.73876572        1804071292.4240406        1191229927.5306392     
  -4409979543.5558863        576318453.02189255        510196009.61057979     
  -4281609820.7621536        390623514.50460172        540137226.83422232     
  -4137565551.7641048        257177063.33504748        564169211.94927466     
  -3977846736.5617304        175979099.51323652        582291964.95574069     
  -3802453375.1550355        147029623.03915858        594505485.85361528     
  -4792712115.2219429        307437883.28614664        517582690.40702492     
  -4636695068.3378754        207056830.77965164        500866022.90261334     
  -4471645114.4161787        136785468.39858413        491637940.03533000     
  -4297562253.4568529        96623796.142938137        489898441.80517584     
  -4114446485.4598966        86571814.012726307        495647528.21214980     
  -5369071755.9129133       -19530807.157069921        558466617.94187355     
  -5147127908.5221643       -23114130.727867365        487343486.68159896     
  -4922792793.2604780       -18726561.395540953        437106756.80417001     
  -4696066410.1278629       -6368099.1601114273        407756428.30958748     
  -4466948759.1243086        13961255.978435040        399292501.19784957     
  -6139058465.6287909       -404587618.30776501        632847792.21512687     
  -5812908341.3150244       -299889370.01795506        499569618.17118078     
  -5491008588.2970200       -209359026.04734969        400575662.25579023     
  -5173359206.5747719       -132996586.39593863        335865924.46897560     
  -4859960196.1482906       -70802051.063740253        305440404.81071472     
  -7102672244.3695669       -847732550.16592383        740726213.22677994     
  -6634036366.7164516       -623268887.09062648        537544417.37135124     
  -6176292499.5257874       -435111925.55681133        382044656.39019793     
  -5729440642.7975883       -283261665.56454802        274226930.28333229     
  -5293480796.5318251       -167718107.11376166        214091239.05074844     
  -3802453375.1550355        147029623.03915858        594505485.85361528     
  -3703931670.7259784        119570798.69873929        603424826.63097787     
  -3604896282.2417035        93824254.542369604        612621098.77871931     
  -3505347209.7022247        69789990.570018530        622094302.29684210     
  -3405284453.1075358        47468006.781700850        631844437.18534458     
  -4114446485.4598966        86571814.012726307        495647528.21214980     
  -4009658114.9744778        66985316.936428785        492014749.92834520     
  -3904695813.5218315        47978589.750910521        491108861.71810377     
  -3799559581.1019516        29551632.456159115        492929863.58141774     
  -3694249417.7148323        11704445.052200317        497477755.51828921     
  -4466948759.1243086        13961255.978435040        399292501.19784957     
  -4348893840.5734615        4347050.7689659595        382711225.25024509     
  -4231004744.1433592       -5819894.8429825306        371306798.07937557     
  -4113281469.8339949       -16539580.857392073        365079219.68524486     
  -3995724017.6453714       -27812007.274272680        364028490.06785005     
  -4859960196.1482906       -70802051.063740253        305440404.81071472     
  -4721638847.5229301       -68343999.803652048        275514252.59666818     
  -4583823074.1062813       -67571199.239283800        253214907.86253440     
  -4446512875.8983536       -68483649.370646000        238542370.60832644     
  -4309708252.8991461       -71081350.197729826        231496640.83402196     
  -5293480796.5318251       -167718107.11376166        214091239.05074844     
  -5127893135.8228655       -151087834.78138709        170423831.96762374     
  -4963150803.4106064       -137275323.43801713        136833191.06759217     
  -4799253799.2950306       -126280573.08358264        113319316.35064976     
  -4636202123.4761457       -118103583.71813488        99882207.816812336     
  -3405284453.1075358        47468006.781700850        631844437.18534458     
  -3249420187.5762577        43740102.540126801        628862810.61555088     
  -3092847434.5403528        42373823.313984156        629966593.13290215     
  -2935566193.9998140        43369169.103287935        635155784.73740220     
  -2777576465.9546361        46726139.908047199        644430385.42904353     
  -3694249417.7148323        11704445.052200317        497477755.51828921     
  -3525091483.3255258        13584694.351996899        491030452.22146624     
  -3355729608.2090950        16144746.075537443        489429449.68027663     
  -3186163792.3655453        19384600.222808480        492674747.89472985     
  -3016394035.7948728        23304256.793821931        500766346.86482185     
  -3995724017.6453714       -27812007.274272680        364028490.06785005     
  -3811098438.2023354       -19671411.574387550        353526872.13689810     
  -3626773464.8096943       -12532836.042476416        348632446.63007653     
  -3442749097.4674397       -6396280.6785168648        349345213.54738337     
  -3259025336.1755753       -1261745.4825398922        355665172.88882405     
  -4309708252.8991461       -71081350.197729826        231496640.83402196     
  -4107441052.2066965       -56028215.239039898        216352070.36184785     
  -3905979004.3421469       -43658923.040038109        207575583.98229262     
  -3705322109.3055053       -33973473.600711823        205167181.69536266     
  -3505470367.0967550       -26971866.921036482        209126863.50104797     
  -4636202123.4761457       -118103583.71813488        99882207.816812336     
  -4414119325.3385916       -95485716.641955376        79506046.896315157     
  -4193346226.8064537       -77233514.917157650        66258861.736927994     
  -3973882827.8797297       -63346978.543730021        60140652.338665061     
  -3755729128.5584178       -53826107.521697521        61151418.701507963     
  -2777576465.9546361        46726139.908047199        644430385.42904353     
  -2647311143.6116157        40699525.854408383        636734548.56868136     
  -2518457339.4200792        29967851.295823932        631979957.36379814     
  -2391015053.3800454        14531116.232238770        630166611.81438708     
  -2264984285.4914961       -5610679.3362940550        631294511.92045498     
  -3016394035.7948728        23304256.793821931        500766346.86482185     
  -2878343797.1349216        17306801.757436633        490688612.40789771     
  -2740762063.7520986        9747662.4639456272        483651300.45839095     
  -2603648835.6464219        626838.91331458092        479654411.01629680     
  -2467004112.8178620       -10055668.894380212        478697944.08161688     
  -3259025336.1755753       -1261745.4825398922        355665172.88882405     
  -3112906818.7645931       -7145032.7714648247        344305722.52208853     
  -2966313793.7563810       -11446628.069618464        336085871.51470834     
  -2819246261.1509504       -14166531.377048612        331005619.86668080     
  -2671704220.9482818       -15304742.693692207        329064967.57800198     
  -3505470367.0967550       -26971866.921036482        209126863.50104797     
  -3351000208.5006223       -32655977.732236981        197585878.91125855     
  -3195112529.4329157       -33615020.304854870        189283670.53275418     
  -3037807329.8936181       -29848994.638836980        184220238.36554271     
  -2879084609.8827353       -21357900.734202862        182395582.40961325     
  -3755729128.5584178       -53826107.521697521        61151418.701507963     
  -3592623966.3430281       -59226033.124948978        50529081.575401999     
  -3427158270.7817111       -56757514.241762877        43244697.512533814     
  -3259332041.8744583       -46420550.872128487        39298266.512888521     
  -3089145279.6212435       -28215143.015956759        38689788.576460838     
  -2264984285.4914961       -5610679.3362940550        631294511.92045498     
  -2124071799.5188582       -20641502.644170403        621798282.76834202     
  -1981321560.1186337       -29546481.193406582        614415568.46229577     
  -1836733567.2908056       -32325614.983972192        609146369.00232089     
  -1690307821.0353889       -28978904.015904784        605990684.38841927     
  -2467004112.8178620       -10055668.894380212        478697944.08161688     
  -2317727438.6717877       -16503798.770755291        469893178.10288954     
  -2167688989.4445467       -20412678.376569986        463428266.61962306     
  -2016888765.1361434       -21782307.711855531        459303209.63181812     
  -1865326765.7465947       -20612686.776636124        457518007.13947654     
  -2671704220.9482818       -15304742.693692207        329064967.57800198     
  -2513416673.9162059       -12976173.724766850        319696356.70181859     
  -2355443330.1494088       -11694948.973412156        312893939.97048724     
  -2197784189.6478968       -11461068.439683557        308657717.38401139     
  -2040439252.4116538       -12274532.123533487        306987688.94238180     
  -2879084609.8827353       -21357900.734202862        182395582.40961325     
  -2711139505.2521186       -10058627.506217003        171207818.56513515     
  -2544584582.2332177       -3393292.9839346409        162812588.51489374     
  -2379419840.8260474       -1361897.1674243212        157209892.25889626     
  -2215645281.0305762       -3964440.0565848351        154399729.79713953     
  -3089145279.6212435       -28215143.015956759        38689788.576460838     
  -2910895932.6795373       -7751160.1151518822        24427563.692832526     
  -2735112745.6959848        4492289.5918388367        13184212.252835665     
  -2561795718.6705933        8515206.1049491167        4959734.2564744251     
  -2390944851.6033583        4317589.4241926670       -245870.29624831493     
  -1690307821.0353889       -28978904.015904784        605990684.38841927     
  -1549804810.2046278       -26941084.548593819        592700905.70635593     
  -1410831028.1025860       -30000694.177011967        578145027.57914710     
  -1273386474.7292824       -38157732.901226938        562323050.00679278     
  -1137471150.0846906       -51412200.721143842        545234972.98929036     
  -1865326765.7465947       -20612686.776636124        457518007.13947654     
  -1728313987.1686265       -22984921.283098578        443608128.84542370     
  -1591520405.1212101       -26087810.891396880        429297260.71908784     
  -1454946019.6043231       -29921355.601460993        414585402.76046258     
  -1318590830.6179821       -34485555.413345933        399472554.96955562     
  -2040439252.4116538       -12274532.123533487        306987688.94238180     
  -1904444964.3354578       -18315298.078491449        293986081.93422002     
  -1767359840.5916123       -20719945.141283631        281448594.70663452     
  -1629183881.1801233       -19488473.311936557        269375227.25963110     
  -1489917086.1009941       -14620882.590453982        257765979.59319690     
  -2215645281.0305762       -3964440.0565848351        154399729.79713953     
  -2078197741.7051003       -12932214.934691787        143834764.97275934     
  -1938349334.5138054       -13897096.926710129        134599029.54180238     
  -1796100059.4566746       -6859086.0326205492        126692523.50428547     
  -1651449916.5337224        8181817.7475378513        120115246.86020863     
  -2390944851.6033583        4317589.4241926670       -245870.29624831493     
  -2249572319.2775774       -6835671.8517425060       -6845822.0389900645     
  -2104488886.8877981       -5619266.2476930618       -11251434.775426075     
  -1955694554.4339948        7966806.2364474535       -13462708.505558904     
  -1803189321.9161894        33922545.600581527       -13479643.229398806     
  -1137471150.0846906       -51412200.721143842        545234972.98929036     
  -952478383.87668300       -40704939.494565666        563402872.74790728     
  -759865072.51522112       -4595861.0898008943        592488013.59906030     
  -559631216.00032091        56915034.493091077        632490395.54275787     
  -351776814.33196330        143827747.25416982        683410018.57898760     
  -1318590830.6179821       -34485555.413345933        399472554.96955562     
  -1118684837.2651050       -14781918.138422430        421422906.63191903     
  -915129364.45188951        17086650.670973003        441851643.60971373     
  -707924412.17834866        61120151.014772773        460758765.90294427     
  -497069980.44447654        117318582.89302647        478144273.51161504     
  -1489917086.1009941       -14620882.590453982        257765979.59319690     
  -1310637453.5378296        3417254.3524633646        278865873.18400306     
  -1131679407.2074571        20383437.186076403        286005296.31314331     
  -953042947.10987210        36277665.910392225        279184248.98060453     
  -774728073.24507284        51099940.525431573        258402731.18639892     
  -1651449916.5337224        8181817.7475378513        120115246.86020863     
  -1528336232.6948798        13892577.978011549        135731772.40415975     
  -1409515200.7819242        5294498.4555168748        124948971.70933807     
  -1294986820.7948980       -17612420.820065677        87766844.775723040     
  -1184751092.7337427       -54828179.848558664        24185391.603341386     
  -1803189321.9161894        33922545.600581527       -13479643.229398806     
  -1771781174.7362318        16644052.738302469       -7979395.7076096805     
  -1748636745.1752956       -28180165.520713806       -41317330.201705627     
  -1733756033.2333918       -100550109.17650062       -113493446.71168040     
  -1727139038.9104946       -200465778.22898692       -224507745.23754376     
  -351776814.33196330        143827747.25416982        683410018.57898760     
  -277734522.29146773        285179697.78934544        786628459.36544263     
  -148950443.09951639        609004272.16271305        905671257.78620195     
   34575423.243899107        1115301470.3742831        1040538413.8412734     
   272843076.73876572        1804071292.4240406        1191229927.5306392     
  -497069980.44447654        117318582.89302647        478144273.51161504     
  -388258323.30735302        222957038.49184188        597297659.12115383     
  -230314042.70771092        492370905.63236898        735613928.30987370     
  -23237138.645584822        925560184.31452036        893093081.07779336     
   232972388.87905377        1522524874.5383525        1069735117.4248953     
  -774728073.24507284        51099940.525431573        258402731.18639892     
  -621608405.45450175        123886494.85497251        386947037.31523669     
  -424965277.89038020        341751248.42968929        537992752.96813929     
  -184798690.55273151        704694201.24949884        711539878.14511192     
   98891356.558451772        1212715353.3144114        907588412.84614289     
  -1184751092.7337427       -54828179.848558664        24185391.603341386     
  -977784768.73293376       -12031933.121255100        155576593.94769022     
  -732904148.64752710        157145300.55469617        312807731.76098126     
  -450109232.47755778        452703521.17916685        495878805.04321003     
  -129400020.22303516        874642728.75220430        704789813.79440248     
  -1727139038.9104946       -200465778.22898692       -224507745.23754376     
  -1456787413.1426468       -184798245.43690699       -96813670.981486902     
  -1154130654.9791539       -61446937.992677450        60058864.688408710     
  -819168764.42007744        169588144.10351425        246109861.77210513     
  -451901741.46538520        508307000.85172522        461339320.26965857     
 </DataArray>
 <DataArray  type="Float64" Name="VM" NumberOfComponents="1" format="ascii">
   6840428567.3600397     
   6413343602.2425127     
   6007196290.8354025     
   5613323222.3223391     
   5224821616.4313307     
   6047266480.9144840     
   5734572083.8345509     
   5433856537.9057884     
   5141178094.6628094     
   4853865717.0614157     
   5445925592.4843626     
   5204517229.4863615     
   4971442397.9810848     
   4745731887.8601265     
   4527084472.8928843     
   5034058436.4777346     
   4822289230.1911364     
   4620725046.0769911     
   4428727321.1113863     
   4246099273.6205750     
   4806507590.3168468     
   4586121632.1807680     
   4382298075.5505686     
   4191830504.6551623     
   4012437284.1379566     
   5224821616.4313307     
   5062656035.0173836     
   4901689733.2170057     
   4741440190.4432154     
   4581560415.6771393     
   4853865717.0614157     
   4712066735.3019409     
   4571500712.9659843     
   4431970295.8705931     
   4293375125.0018315     
   4527084472.8928843     
   4401273112.8855658     
   4276729732.2643671     
   4153453327.4612336     
   4031501585.3476076     
   4246099273.6205750     
   4132392644.0848589     
   4019932444.2796726     
   3908804040.5477762     
   3799119270.0792837     
   4012437284.1379566     
   3907512457.6406813     
   3803711439.4446030     
   3701077113.1519117     
   3599658268.1707234     
   4581560415.6771393     
   4369330064.0404434     
   4156852345.3434858     
   3943966884.0917530     
   3730611308.8989086     
   4293375125.0018315     
   4096889454.8301334     
   3900937080.2783632     
   3705531564.7496009     
   3510798061.3072109     
   4031501585.3476076     
   3850302886.4676771     
   3670534405.0206399     
   3492372789.3985949     
   3316116526.5239801     
   3799119270.0792837     
   3632860374.7661643     
   3469003143.4167271     
   3307863842.9285235     
   3149884393.2694392     
   3599658268.1707234     
   3448069027.3032718     
   3299868222.0820084     
   3155473251.3170071     
   3015422250.2894244     
   3730611308.8989086     
   3564454709.9854975     
   3399960080.9690046     
   3237087162.4675479     
   3075864866.3817792     
   3510798061.3072109     
   3352306543.0374861     
   3195302050.7841992     
   3039786198.1347985     
   2885809694.7474041     
   3316116526.5239801     
   3166012852.8245506     
   3017292726.5591168     
   2870035782.6903744     
   2724371339.3243027     
   3149884393.2694392     
   3009535414.2650495     
   2870599845.6895490     
   2733280956.1760235     
   2597856462.5998535     
   3015422250.2894244     
   2886858103.2769480     
   2759926484.5196447     
   2635002492.5435510     
   2512583427.1309743     
   3075864866.3817792     
   2907335981.5577559     
   2737456904.3667345     
   2566078297.9337621     
   2393106606.0300512     
   2885809694.7474041     
   2722323383.3254609     
   2558478357.9263697     
   2394273367.9831047     
   2229760921.3175282     
   2724371339.3243027     
   2567378918.1542473     
   2411309005.0410047     
   2256325886.3294244     
   2102670181.7728937     
   2597856462.5998535     
   2448730353.8974738     
   2302029793.4138322     
   2158068716.0557351     
   2017272319.1196675     
   2512583427.1309743     
   2372374836.0130334     
   2236176762.2021680     
   2104385776.6239159     
   1977541697.8123786     
   2393106606.0300512     
   2246193581.6204395     
   2101775238.6421447     
   1959828827.8019185     
   1820537377.9240358     
   2229760921.3175282     
   2086687019.1067851     
   1945457411.5659044     
   1806060866.2890050     
   1668576833.4169815     
   2102670181.7728937     
   1962561857.4322131     
   1823461120.4301891     
   1685395695.9590704     
   1548422646.3599858     
   2017272319.1196675     
   1881020175.1664157     
   1744989084.3037591     
   1609308055.8771620     
   1474155236.6040661     
   1977541697.8123786     
   1847904337.2701712     
   1718072565.3289845     
   1588395801.8133545     
   1459399693.0068080     
   1820537377.9240358     
   1780215208.1829619     
   1736193848.8710027     
   1697154452.6670840     
   1681717782.3434334     
   1668576833.4169815     
   1553224554.4273756     
   1428656902.7270827     
   1295222864.1191986     
   1159067873.1483777     
   1548422646.3599858     
   1398413214.8994215     
   1244820617.5886722     
   1085362905.3925514     
   917997420.65534520     
   1474155236.6040661     
   1329635198.5989556     
   1199620284.9439292     
   1088603240.0850747     
   1002508653.3084633     
   1459399693.0068080     
   1349951769.5088327     
   1275558683.4386072     
   1244351297.0473700     
   1263398739.6153133     
   1681717782.3434334     
   1383938893.6497307     
   1129467441.6967633     
   1010162910.5712575     
   1153602147.7337382     
   1159067873.1483777     
   1008491651.0291599     
   985170853.43756318     
   1161461235.5100102     
   1544379843.1380119     
   917997420.65534520     
   963295276.08789730     
   1144958699.7872207     
   1476427456.2312458     
   1957468044.0738726     
   1002508653.3084633     
   1165037670.3601732     
   1425572571.0562739     
   1808743968.6518762     
   2334663045.2329059     
   1263398739.6153133     
   1447073312.3526633     
   1715956052.9781835     
   2110613982.0811405     
   2663451601.0821486     
   4806507590.3168468     
   4586121632.1807680     
   4382298075.5505686     
   4191830504.6551623     
   4012437284.1379566     
   4561586413.1981258     
   4368283547.2108459     
   4177969574.0190253     
   3990618236.1351333     
   3806283955.8840961     
   4314853371.2823029     
   4136928137.5925255     
   3961776947.8324933     
   3788365125.3158336     
   3616058377.9068060     
   4052154693.1362095     
   3882372804.1629844     
   3729075802.2813764     
   3585558508.1899495     
   3447422485.6343284     
   3770005117.7985568     
   3601485070.6011128     
   3479179808.9794607     
   3385108241.5264349     
   3307373828.6108809     
   4012437284.1379566     
   3907512457.6406813     
   3803711439.4446030     
   3701077113.1519117     
   3599658268.1707234     
   3806283955.8840961     
   3706763553.7227430     
   3608694280.1300368     
   3512213787.4522972     
   3417480511.9134440     
   3616058377.9068060     
   3523332853.8085594     
   3432988173.4324875     
   3345224183.2657509     
   3260285588.7763991     
   3447422485.6343284     
   3362564366.0605145     
   3281644854.2351108     
   3204880603.5486536     
   3132563028.0888643     
   3307373828.6108809     
   3230852902.1579728     
   3160465296.9550862     
   3096380862.8215551     
   3038874556.4484615     
   3599658268.1707234     
   3448069027.3032718     
   3299868222.0820084     
   3155473251.3170071     
   3015422250.2894244     
   3417480511.9134440     
   3279523942.6859221     
   3145748071.7784524     
   3016655273.9018650     
   2892879835.9404664     
   3260285588.7763991     
   3136865465.6439033     
   3018616510.2631454     
   2906108412.5925899     
   2800046269.2044435     
   3132563028.0888643     
   3024385431.8477445     
   2922527229.2041545     
   2827588924.9699845     
   2740299272.6021614     
   3038874556.4484615     
   2946258463.7009974     
   2861204082.9038830     
   2784289845.7550282     
   2716205673.0974898     
   3015422250.2894244     
   2886858103.2769480     
   2759926484.5196447     
   2635002492.5435510     
   2512583427.1309743     
   2892879835.9404664     
   2776500925.3296933     
   2663239535.0604377     
   2553559781.6768503     
   2448040855.4369974     
   2800046269.2044435     
   2696624907.9608712     
   2597798421.5929890     
   2504078675.4826059     
   2416073997.0345764     
   2740299272.6021614     
   2649856081.2327042     
   2565357503.4091339     
   2487305499.0277300     
   2416273017.4050231     
   2716205673.0974898     
   2637848722.5966268     
   2566562779.2972655     
   2502786763.8809114     
   2447008276.0119209     
   2512583427.1309743     
   2372374836.0130334     
   2236176762.2021680     
   2104385776.6239159     
   1977541697.8123786     
   2448040855.4369974     
   2320283466.0346351     
   2197580538.1438522     
   2080585703.8083301     
   1970109279.2312117     
   2416073997.0345764     
   2303605607.7372079     
   2197531666.2316575     
   2098694791.5782769     
   2008085233.2342219     
   2416273017.4050231     
   2321444792.1542830     
   2234450413.5203285     
   2156201273.9608574     
   2087726813.7763250     
   2447008276.0119209     
   2371431698.0567307     
   2305050928.2257528     
   2248717180.4620023     
   2203371769.3069773     
   1977541697.8123786     
   1847904337.2701712     
   1718072565.3289845     
   1588395801.8133545     
   1459399693.0068080     
   1970109279.2312117     
   1855045849.2861118     
   1744222768.9073837     
   1638557492.6880727     
   1539178809.8016977     
   2008085233.2342219     
   1912609292.4433160     
   1825842176.9354155     
   1748968223.5434053     
   1683259364.1854970     
   2087726813.7763250     
   2013221100.1490829     
   1951032541.6996036     
   1902209594.3067575     
   1867752698.9520154     
   2203371769.3069773     
   2148140525.3375988     
   2107805095.5583770     
   2083088189.5857370     
   2074639957.9785683     
   1459399693.0068080     
   1349951769.5088327     
   1275558683.4386072     
   1244351297.0473700     
   1263398739.6153133     
   1539178809.8016977     
   1477754471.3604908     
   1449081143.1881385     
   1457142738.7185807     
   1505263840.3507338     
   1683259364.1854970     
   1654113728.3374958     
   1652764689.2893386     
   1681602117.0939388     
   1743253477.3770130     
   1867752698.9520154     
   1856562568.6932428     
   1868455402.4703751     
   1905657236.6675360     
   1971200676.0256848     
   2074639957.9785683     
   2070491825.1829417     
   2085739508.8835809     
   2123023980.1369574     
   2186137159.7330666     
   1263398739.6153133     
   1447073312.3526633     
   1715956052.9781835     
   2110613982.0811405     
   2663451601.0821486     
   1505263840.3507338     
   1613585409.0154908     
   1789083182.5371253     
   2066496677.7517838     
   2476016649.1117883     
   1743253477.3770130     
   1787994342.7292573     
   1884844851.2213578     
   2060712668.2294202     
   2340832878.1623449     
   1971200676.0256848     
   1969258268.2885754     
   2003808597.5531747     
   2093535169.7273626     
   2257120976.6654468     
   2186137159.7330666     
   2156661280.4094028     
   2146717364.3608248     
   2166848836.6177139     
   2228161262.9307442     
   3770005117.7985568     
   3601485070.6011128     
   3479179808.9794607     
   3385108241.5264349     
   3307373828.6108809     
   3169699178.5750685     
   3123366414.8330750     
   3096676690.9832778     
   3084307345.3201365     
   3083666148.9251294     
   2774724015.9191504     
   2792384489.0263681     
   2819109758.7680402     
   2855554921.4831071     
   2902422319.9752164     
   2611664514.5150199     
   2622309186.8460832     
   2655093766.2978220     
   2704484048.2898955     
   2766297546.3298907     
   2683521264.4546618     
   2618340561.4219117     
   2609442668.0798626     
   2634402191.9721098     
   2676704028.6566978     
   3307373828.6108809     
   3230852902.1579728     
   3160465296.9550862     
   3096380862.8215551     
   3038874556.4484615     
   3083666148.9251294     
   3027305772.3364854     
   2977265242.8446555     
   2933784322.8460927     
   2897165852.1813865     
   2902422319.9752164     
   2864180987.7500434     
   2832439708.3504963     
   2807420052.7433848     
   2789371144.5572882     
   2766297546.3298907     
   2743756043.8229532     
   2727848224.5842853     
   2718688984.1566324     
   2716401613.9866223     
   2676704028.6566978     
   2667063620.7453985     
   2664121627.7220130     
   2667807448.6289802     
   2678063384.9143338     
   3038874556.4484615     
   2946258463.7009974     
   2861204082.9038830     
   2784289845.7550282     
   2716205673.0974898     
   2897165852.1813865     
   2824746804.9935336     
   2760175165.9555202     
   2703973274.7650690     
   2656726799.6888156     
   2789371144.5572882     
   2735928623.7692723     
   2690388628.1536345     
   2653171845.1063743     
   2624722689.2346005     
   2716401613.9866223     
   2680354724.5738082     
   2652007953.1060805     
   2631655670.9322796     
   2619590666.6030035     
   2678063384.9143338     
   2657489275.9117570     
   2644166538.9600048     
   2638261219.8698745     
   2639927571.4512181     
   2716205673.0974898     
   2637848722.5966268     
   2566562779.2972655     
   2502786763.8809114     
   2447008276.0119209     
   2656726799.6888156     
   2592564185.1246357     
   2535925059.1022930     
   2487207597.0130305     
   2446834416.6005745     
   2624722689.2346005     
   2575010118.6440806     
   2533158806.6220202     
   2499512677.7404180     
   2474423674.6311975     
   2619590666.6030035     
   2584242831.3820796     
   2556970030.2729568     
   2538060230.1197395     
   2527802853.8260498     
   2639927571.4512181     
   2618530385.5101309     
   2605316800.7522726     
   2600529434.2268677     
   2604415103.9814687     
   2447008276.0119209     
   2371431698.0567307     
   2305050928.2257528     
   2248717180.4620023     
   2203371769.3069773     
   2446834416.6005745     
   2391070467.3577394     
   2345187114.5148888     
   2309828677.6022296     
   2285641192.8871222     
   2474423674.6311975     
   2435865244.2325912     
   2407452616.3747740     
   2389595628.2176771     
   2382668255.0110269     
   2527802853.8260498     
   2503219404.8610277     
   2488735479.2880840     
   2484544579.4933062     
   2490808001.8824782     
   2604415103.9814687     
   2590223242.1971927     
   2585899861.4458523     
   2591459766.5732594     
   2606916614.5136867     
   2203371769.3069773     
   2148140525.3375988     
   2107805095.5583770     
   2083088189.5857370     
   2074639957.9785683     
   2285641192.8871222     
   2244546982.8270082     
   2217408604.4193988     
   2204660290.5198011     
   2206684458.0999098     
   2382668255.0110269     
   2352998255.6561723     
   2336344786.7398877     
   2332959069.8598819     
   2343066822.8011937     
   2490808001.8824782     
   2470131197.5648470     
   2461642364.2957034     
   2465486520.5278287     
   2481804864.4113426     
   2606916614.5136867     
   2593150194.0465708     
   2590913168.7017708     
   2600295090.7654924     
   2621396053.1752543     
   2074639957.9785683     
   2070491825.1829417     
   2085739508.8835809     
   2123023980.1369574     
   2186137159.7330666     
   2206684458.0999098     
   2192158412.1761212     
   2192698008.4169011     
   2210275068.3465862     
   2247795751.8555570     
   2343066822.8011937     
   2318877900.9310265     
   2306210463.7774138     
   2306471159.6813002     
   2321742474.2218199     
   2481804864.4113426     
   2449641918.9514875     
   2425941864.5974998     
   2411652053.9500518     
   2408150315.3585329     
   2621396053.1752543     
   2583643176.1314359     
   2551594627.4797239     
   2525835405.0008416     
   2507180186.1951056     
   2186137159.7330666     
   2156661280.4094028     
   2146717364.3608248     
   2166848836.6177139     
   2228161262.9307442     
   2247795751.8555570     
   2182907869.7031426     
   2134429136.1287985     
   2112030478.0893741     
   2126657596.5993207     
   2321742474.2218199     
   2224817582.1919212     
   2141230063.8817625     
   2079335755.4503541     
   2049294704.5107787     
   2408150315.3585329     
   2282684895.2229905     
   2167766162.4582987     
   2070114709.1338758     
   1998467585.5885961     
   2507180186.1951056     
   2356720383.8971415     
   2214507483.2351937     
   2085497267.7037044     
   1976521688.9316030     
   2683521264.4546618     
   2618340561.4219117     
   2609442668.0798626     
   2634402191.9721098     
   2676704028.6566978     
   2737756832.3592420     
   2674068611.4613347     
   2643040525.2846708     
   2633900269.3007202     
   2638920811.7241883     
   2829315962.4068737     
   2749157256.3061872     
   2692267814.3308725     
   2654688820.6657238     
   2633630746.1622396     
   2955812138.0837817     
   2846662220.3356261     
   2761877767.8738770     
   2700673837.0203071     
   2662512880.2357850     
   3122832653.8602157     
   2974368390.4419703     
   2858750924.5906072     
   2775980256.3061266     
   2726056385.5885243     
   2676704028.6566978     
   2667063620.7453985     
   2664121627.7220130     
   2667807448.6289802     
   2678063384.9143338     
   2638920811.7241883     
   2630842069.2486658     
   2628467517.8740010     
   2631745116.1899433     
   2640631338.5421395     
   2633630746.1622396     
   2624620963.0971498     
   2620451656.1518960     
   2621095175.8117433     
   2626528047.1558867     
   2662512880.2357850     
   2650460537.7033005     
   2642515954.1347470     
   2638671368.3629994     
   2638920105.6159410     
   2726056385.5885243     
   2709377769.5227022     
   2696197954.3625455     
   2686516940.1080475     
   2680334726.7592072     
   2678063384.9143338     
   2657489275.9117570     
   2644166538.9600048     
   2638261219.8698745     
   2639927571.4512181     
   2640631338.5421395     
   2623139608.7774167     
   2614105733.3230000     
   2613656825.5348630     
   2621910276.5390711     
   2626528047.1558867     
   2610348662.2752666     
   2603922582.9485841     
   2607322766.1492200     
   2620616350.8938408     
   2638920105.6159410     
   2621484800.8938422     
   2615201455.2594948     
   2620092662.3377824     
   2636179235.1171670     
   2680334726.7592072     
   2658368222.4370718     
   2649061831.1106210     
   2652415552.7798634     
   2668429387.4447980     
   2639927571.4512181     
   2618530385.5101309     
   2605316800.7522726     
   2600529434.2268677     
   2604415103.9814687     
   2621910276.5390711     
   2608969509.0937104     
   2604362315.4878931     
   2608227633.0980244     
   2620703987.4420881     
   2620616350.8938408     
   2613712120.9198833     
   2615272092.4980464     
   2625358567.8846421     
   2644032742.2287874     
   2636179235.1171670     
   2632664510.7917781     
   2637764414.7409425     
   2651494584.7757025     
   2673870238.9778209     
   2668429387.4447980     
   2665529107.3180809     
   2671440244.0312133     
   2686162797.5841970     
   2709696767.9770303     
   2604415103.9814687     
   2590223242.1971927     
   2585899861.4458523     
   2591459766.5732594     
   2606916614.5136867     
   2620703987.4420881     
   2610638762.5755901     
   2610544702.4903951     
   2620434382.5757737     
   2640317893.0670714     
   2644032742.2287874     
   2637152729.7598782     
   2640486116.3353014     
   2654040563.3741174     
   2677821713.6234050     
   2673870238.9778209     
   2669117615.3080335     
   2674987876.6784372     
   2691483521.1427464     
   2718606286.8604822     
   2709696767.9770303     
   2705909144.4329906     
   2713348667.5773129     
   2732015337.4100180     
   2761909153.9310899     
   2606916614.5136867     
   2593150194.0465708     
   2590913168.7017708     
   2600295090.7654924     
   2621396053.1752543     
   2640317893.0670714     
   2629681064.9106288     
   2629371373.9673567     
   2639429961.9110131     
   2659906385.6806903     
   2677821713.6234050     
   2669853461.7628670     
   2671193868.3959746     
   2681857629.6924067     
   2701864078.9735527     
   2718606286.8604822     
   2713082529.1676283     
   2716002863.5490193     
   2727370171.4353023     
   2747188673.4080229     
   2761909153.9310899     
   2758821206.9899750     
   2763439681.7942419     
   2775764578.3438802     
   2795795896.6388974     
   2621396053.1752543     
   2583643176.1314359     
   2551594627.4797239     
   2525835405.0008416     
   2507180186.1951056     
   2659906385.6806903     
   2615045558.6215572     
   2575744056.3978209     
   2542335213.2516384     
   2515285289.7122107     
   2701864078.9735527     
   2652014554.7407527     
   2607718664.4980354     
   2569125111.8323827     
   2536442319.5273666     
   2747188673.4080229     
   2694466309.2965689     
   2647432586.7067118     
   2606124492.9295964     
   2570593844.6833787     
   2795795896.6388974     
   2742307759.6324496     
   2694785462.7181163     
   2653229005.8958926     
   2617638389.1657548     
   2507180186.1951056     
   2356720383.8971415     
   2214507483.2351937     
   2085497267.7037044     
   1976521688.9316030     
   2515285289.7122107     
   2347527761.5848250     
   2183353281.9743152     
   2025846915.4168653     
   1879545642.4300308     
   2536442319.5273666     
   2356447981.8882022     
   2176164975.1645918     
   1997058104.4110780     
   1821392350.3452189     
   2570593844.6833787     
   2383579962.6957536     
   2193406136.9129486     
   2000448990.9210060     
   1805309301.0375810     
   2617638389.1657548     
   2428888400.3347750     
   2235216899.4155397     
   2036623886.4080317     
   1833109361.3123062     
   3122832653.8602157     
   2974368390.4419703     
   2858750924.5906072     
   2775980256.3061266     
   2726056385.5885243     
   2955812130.4381070     
   2846662213.2798300     
   2761877762.3828912     
   2700673833.7310052     
   2662512879.5315390     
   2829315950.3232207     
   2749157245.2869220     
   2692267805.7434506     
   2654688815.4317527     
   2633630744.8624039     
   2737756818.7865019     
   2674068599.5825067     
   2643040516.1202021     
   2633900263.6270709     
   2638920810.0953555     
   2683521251.0845075     
   2618340551.1749406     
   2609442660.6322494     
   2634402187.3593616     
   2676704027.0985579     
   2726056385.5885243     
   2709377769.5227022     
   2696197954.3625455     
   2686516940.1080475     
   2680334726.7592072     
   2662512879.5315390     
   2650460537.0264382     
   2642515953.5319433     
   2638671367.8752060     
   2638920105.2792473     
   2633630744.8624039     
   2624620961.8588300     
   2620451655.0702467     
   2621095174.9698029     
   2626528046.6264920     
   2638920810.0953555     
   2630842067.7050338     
   2628467516.5597157     
   2631745115.2306762     
   2640631338.0480604     
   2676704027.0985579     
   2667063619.2690654     
   2664121626.5200453     
   2667807447.8699608     
   2678063384.7467394     
   2680334726.7592072     
   2658368222.4370718     
   2649061831.1106210     
   2652415552.7798634     
   2668429387.4447980     
   2638920105.2792473     
   2621484800.7124152     
   2615201455.2626228     
   2620092662.5516362     
   2636179235.5651326     
   2626528046.6264920     
   2610348661.9879918     
   2603922582.9591069     
   2607322766.5089025     
   2620616351.6502829     
   2640631338.0480604     
   2623139608.5256371     
   2614105733.3928194     
   2613656826.0023942     
   2621910277.4777579     
   2678063384.7467394     
   2657489275.8906350     
   2644166539.1843853     
   2638261220.4390640     
   2639927572.4651718     
   2668429387.4447980     
   2665529107.3180809     
   2671440244.0312133     
   2686162797.5841970     
   2709696767.9770303     
   2636179235.5651326     
   2632664511.0606866     
   2637764414.8346367     
   2651494584.6990485     
   2673870238.7374568     
   2620616351.6502829     
   2613712121.3649254     
   2615272092.6436205     
   2625358567.7439537     
   2644032741.8174953     
   2621910277.4777579     
   2608969509.6295304     
   2604362315.6455011     
   2608227632.9029160     
   2620703986.9218826     
   2639927572.4651718     
   2618530386.0623894     
   2605316800.8853893     
   2600529433.9833207     
   2604415103.4046798     
   2709696767.9770303     
   2705909144.4329906     
   2713348667.5773129     
   2732015337.4100180     
   2761909153.9310899     
   2673870238.7374568     
   2669117615.1158090     
   2674987876.5318847     
   2691483521.0388980     
   2718606286.7959661     
   2644032741.8174953     
   2637152729.4323721     
   2640486116.0849452     
   2654040563.1937594     
   2677821713.5053849     
   2620703986.9218826     
   2610638762.1642613     
   2610544702.1752901     
   2620434382.3441143     
   2640317892.9057903     
   2604415103.4046798     
   2590223241.7463880     
   2585899861.1002669     
   2591459766.3127618     
   2606916614.3183661     
   2761909153.9310899     
   2758821206.9899750     
   2763439681.7942419     
   2775764578.3438802     
   2795795896.6388974     
   2718606286.7959661     
   2713082529.1274757     
   2716002863.5316620     
   2727370171.4390335     
   2747188673.4310603     
   2677821713.5053849     
   2669853461.6915584     
   2671193868.3681126     
   2681857629.7044878     
   2701864079.0219822     
   2640317892.9057903     
   2629681064.8166876     
   2629371373.9356809     
   2639429961.9361844     
   2659906385.7571201     
   2606916614.3183661     
   2593150193.9379644     
   2590913168.6728005     
   2600295090.8086057     
   2621396053.2826581     
   2795795896.6388974     
   2742307759.6324496     
   2694785462.7181163     
   2653229005.8958926     
   2617638389.1657548     
   2747188673.4310603     
   2694466309.3163338     
   2647432586.7236934     
   2606124492.9442439     
   2570593844.6960745     
   2701864079.0219822     
   2652014554.7820826     
   2607718664.5332680     
   2569125111.8624101     
   2536442319.5529737     
   2659906385.7571201     
   2615045558.6864629     
   2575744056.4527211     
   2542335213.2979240     
   2515285289.7510462     
   2621396053.2826581     
   2583643176.2221794     
   2551594627.5558782     
   2525835405.0643034     
   2507180186.2475162     
   2617638389.1657548     
   2428888400.3347750     
   2235216899.4155397     
   2036623886.4080317     
   1833109361.3123062     
   2570593844.6960745     
   2383579962.7048478     
   2193406136.9181724     
   2000448990.9217033     
   1805309301.0324862     
   2536442319.5529737     
   2356447981.9070187     
   2176164975.1760864     
   1997058104.4141266     
   1821392350.3376782     
   2515285289.7510462     
   2347527761.6139970     
   2183353281.9931946     
   2025846915.4240077     
   1879545642.4229968     
   2507180186.2475162     
   2356720383.9373369     
   2214507483.2625151     
   2085497267.7166862     
   1976521688.9278731     
   2683521251.0845075     
   2618340551.1749406     
   2609442660.6322494     
   2634402187.3593616     
   2676704027.0985579     
   2611664503.6648979     
   2622309177.7637315     
   2655093759.1862292     
   2704484043.3658237     
   2766297543.7945499     
   2774724004.6085548     
   2792384479.6100416     
   2819109751.3987274     
   2855554916.3295231     
   2902422317.2045326     
   3169699163.5690579     
   3123366403.4121532     
   3096676682.6391244     
   3084307339.9040756     
   3083666146.5209503     
   3770005096.1044040     
   3601485055.4179821     
   3479179798.8102698     
   3385108235.6851325     
   3307373827.0148759     
   2676704027.0985579     
   2667063619.2690654     
   2664121626.5200453     
   2667807447.8699608     
   2678063384.7467394     
   2766297543.7945499     
   2743756041.7331109     
   2727848223.0657468     
   2718688983.3278213     
   2716401613.9590583     
   2902422317.2045326     
   2864180985.6189461     
   2832439706.9289446     
   2807420052.1034760     
   2789371144.7728691     
   3083666146.5209503     
   3027305770.6286349     
   2977265241.8585424     
   2933784322.6112852     
   2897165852.7324586     
   3307373827.0148759     
   3230852901.2128820     
   3160465296.6532869     
   3096380863.1546478     
   3038874557.4106007     
   2678063384.7467394     
   2657489275.8906350     
   2644166539.1843853     
   2638261220.4390640     
   2639927572.4651718     
   2716401613.9590583     
   2680354724.6837583     
   2652007953.4567971     
   2631655671.6273875     
   2619590667.7468748     
   2789371144.7728691     
   2735928624.0838027     
   2690388628.6745791     
   2653171845.9427133     
   2624722690.4972000     
   2897165852.7324586     
   2824746805.5775166     
   2760175166.6828713     
   2703973275.7498522     
   2656726801.0491982     
   3038874557.4106007     
   2946258464.6063776     
   2861204083.8637595     
   2784289846.8869762     
   2716205674.5263062     
   2639927572.4651718     
   2618530386.0623894     
   2605316800.8853893     
   2600529433.9833207     
   2604415103.4046798     
   2619590667.7468748     
   2584242832.0758615     
   2556970030.5464725     
   2538060230.0028262     
   2527802853.3495736     
   2624722690.4972000     
   2575010119.4583397     
   2533158807.0057869     
   2499512677.7113605     
   2474423674.2077403     
   2656726801.0491982     
   2592564186.0323496     
   2535925059.5639391     
   2487207597.0344772     
   2446834416.1877174     
   2716205674.5263062     
   2637848723.5662737     
   2566562779.8039470     
   2502786763.9191532     
   2447008275.5750456     
   2604415103.4046798     
   2590223241.7463880     
   2585899861.1002669     
   2591459766.3127618     
   2606916614.3183661     
   2527802853.3495736     
   2503219404.4866023     
   2488735478.9951234     
   2484544579.2609687     
   2490808001.6895275     
   2474423674.2077403     
   2435865243.9063196     
   2407452616.1258268     
   2389595628.0249586     
   2382668254.8522010     
   2446834416.1877174     
   2391070467.0548797     
   2345187114.3038826     
   2309828677.4628735     
   2285641192.7966881     
   2447008275.5750456     
   2371431697.7578516     
   2305050928.0499587     
   2248717180.3917937     
   2203371769.3210039     
   2606916614.3183661     
   2593150193.9379644     
   2590913168.6728005     
   2600295090.8086057     
   2621396053.2826581     
   2490808001.6895275     
   2470131197.4555230     
   2461642364.2661233     
   2465486520.5736680     
   2481804864.5279303     
   2382668254.8522010     
   2352998255.5708199     
   2336344786.7268224     
   2332959069.9176860     
   2343066822.9281631     
   2285641192.7966881     
   2244546982.7926011     
   2217408604.4418168     
   2204660290.6001358     
   2206684458.2392883     
   2203371769.3210039     
   2148140525.3831410     
   2107805095.6372099     
   2083088189.7007844     
   2074639958.1334517     
   2621396053.2826581     
   2583643176.2221794     
   2551594627.5558782     
   2525835405.0643034     
   2507180186.2475162     
   2481804864.5279303     
   2449641919.0468030     
   2425941864.6745477     
   2411652054.0116043     
   2408150315.4069963     
   2343066822.9281631     
   2318877901.0314555     
   2306210463.8553152     
   2306471159.7404408     
   2321742474.2654581     
   2206684458.2392883     
   2192158412.2826772     
   2192698008.4958563     
   2210275068.4028578     
   2247795751.8935180     
   2074639958.1334517     
   2070491825.2973166     
   2085739508.9640510     
   2123023980.1899557     
   2186137159.7644000     
   2507180186.2475162     
   2356720383.9373369     
   2214507483.2625151     
   2085497267.7166862     
   1976521688.9278731     
   2408150315.4069963     
   2282684895.2595062     
   2167766162.4819908     
   2070114709.1434743     
   1998467585.5826139     
   2321742474.2654581     
   2224817582.2251725     
   2141230063.9036949     
   2079335755.4601488     
   2049294704.5081334     
   2247795751.8935180     
   2182907869.7335420     
   2134429136.1507719     
   2112030478.1026754     
   2126657596.6048980     
   2186137159.7644000     
   2156661280.4373331     
   2146717364.3845589     
   2166848836.6376181     
   2228161262.9488702     
   3770005096.1044040     
   3601485055.4179821     
   3479179798.8102698     
   3385108235.6851325     
   3307373827.0148759     
   4052154673.1770110     
   3882372789.1586723     
   3729075792.1201358     
   3585558502.8198657     
   3447422485.0770435     
   4314853353.1945152     
   4136928124.3085098     
   3961776939.3604779     
   3788365121.5103426     
   3616058378.5260062     
   4561586395.8651533     
   4368283536.1157303     
   4177969568.1387186     
   3990618234.5589290     
   3806283957.7675576     
   4806507570.6736307     
   4586121622.3178024     
   4382298072.2611723     
   4191830505.5307460     
   4012437287.3332372     
   3307373827.0148759     
   3230852901.2128820     
   3160465296.6532869     
   3096380863.1546478     
   3038874557.4106007     
   3447422485.0770435     
   3362564365.9451337     
   3281644854.5581241     
   3204880604.3084664     
   3132563029.2888231     
   3616058378.5260062     
   3523332854.6520014     
   3432988174.4923081     
   3345224184.5388999     
   3260285590.2671251     
   3806283957.7675576     
   3706763555.6023407     
   3608694281.9852653     
   3512213789.2707238     
   3417480513.6925187     
   4012437287.3332372     
   3907512460.5926123     
   3803711442.1116261     
   3701077115.5045233     
   3599658270.1922750     
   3038874557.4106007     
   2946258464.6063776     
   2861204083.8637595     
   2784289846.8869762     
   2716205674.5263062     
   3132563029.2888231     
   3024385432.9178519     
   2922527230.2229400     
   2827588926.0242963     
   2740299273.7890983     
   3260285590.2671251     
   3136865466.8979616     
   3018616511.3228941     
   2906108413.5089059     
   2800046270.0391064     
   3417480513.6925187     
   3279523944.1158280     
   3145748072.8636146     
   3016655274.6537623     
   2892879836.3795991     
   3599658270.1922750     
   3448069028.8804774     
   3299868223.1816220     
   3155473251.9102249     
   3015422250.3526640     
   2716205674.5263062     
   2637848723.5662737     
   2566562779.8039470     
   2502786763.9191532     
   2447008275.5750456     
   2740299273.7890983     
   2649856081.9615178     
   2565357503.6892362     
   2487305498.8645320     
   2416273016.8004289     
   2800046270.0391064     
   2696624908.3727236     
   2597798421.6169581     
   2504078675.1482296     
   2416073996.3652339     
   2892879836.3795991     
   2776500925.3920541     
   2663239534.8167386     
   2553559781.1924934     
   2448040854.7693338     
   3015422250.3526640     
   2886858102.9991732     
   2759926484.0139155     
   2635002491.9190321     
   2512583426.4877763     
   2447008275.5750456     
   2371431697.7578516     
   2305050928.0499587     
   2248717180.3917937     
   2203371769.3210039     
   2416273016.8004289     
   2321444791.7385101     
   2234450413.2767577     
   2156201273.8700480     
   2087726813.8154192     
   2416073996.3652339     
   2303605607.2926626     
   2197531665.9883842     
   2098694791.5108504     
   2008085233.3148398     
   2448040854.7693338     
   2320283465.6204815     
   2197580537.9477792     
   2080585703.7948265     
   1970109279.3638673     
   2512583426.4877763     
   2372374835.6525559     
   2236176762.0727682     
   2104385776.6765709     
   1977541697.9990294     
   2203371769.3210039     
   2148140525.3831410     
   2107805095.6372099     
   2083088189.7007844     
   2074639958.1334517     
   2087726813.8154192     
   2013221100.2047377     
   1951032541.7738256     
   1902209594.4031971     
   1867752699.0756571     
   2008085233.3148398     
   1912609292.5211451     
   1825842177.0114803     
   1748968223.6207662     
   1683259364.2694495     
   1970109279.3638673     
   1855045849.3942900     
   1744222768.9897230     
   1638557492.7451675     
   1539178809.8369994     
   1977541697.9990294     
   1847904337.4103324     
   1718072565.4180138     
   1588395801.8477955     
   1459399692.9858565     
   2074639958.1334517     
   2070491825.2973166     
   2085739508.9640510     
   2123023980.1899557     
   2186137159.7644000     
   1867752699.0756571     
   1856562568.7820272     
   1868455402.5288577     
   1905657236.7003698     
   1971200676.0375807     
   1683259364.2694495     
   1654113728.3947022     
   1652764689.3229635     
   1681602117.1072278     
   1743253477.3737397     
   1539178809.8369994     
   1477754471.3792574     
   1449081143.1931534     
   1457142738.7123849     
   1505263840.3363216     
   1459399692.9858565     
   1349951769.4820790     
   1275558683.4101865     
   1244351297.0206280     
   1263398739.5932312     
   2186137159.7644000     
   2156661280.4373331     
   2146717364.3845589     
   2166848836.6376181     
   2228161262.9488702     
   1971200676.0375807     
   1969258268.3028591     
   2003808597.5687697     
   2093535169.7434947     
   2257120976.6824389     
   1743253477.3737397     
   1787994342.7324216     
   1884844851.2297878     
   2060712668.2415640     
   2340832878.1766682     
   1505263840.3363216     
   1613585409.0098438     
   1789083182.5392315     
   2066496677.7594063     
   2476016649.1217299     
   1263398739.5932312     
   1447073312.3402526     
   1715956052.9746196     
   2110613982.0835874     
   2663451601.0856519     
   4806507570.6736307     
   4586121622.3178024     
   4382298072.2611723     
   4191830505.5307460     
   4012437287.3332372     
   5034058428.7039499     
   4822289227.4061928     
   4620725046.7195406     
   4428727323.8772821     
   4246099277.3683167     
   5445925592.3634396     
   5204517230.6765738     
   4971442400.2023859     
   4745731890.7560844     
   4527084476.0085812     
   6047266483.8231068     
   5734572085.9127388     
   5433856539.5169039     
   5141178096.0426455     
   4853865718.2989655     
   6840428568.5708570     
   6413343602.1525316     
   6007196289.7526836     
   5613323220.6211901     
   5224821614.5034571     
   4012437287.3332372     
   3907512460.5926123     
   3803711442.1116261     
   3701077115.5045233     
   3599658270.1922750     
   4246099277.3683167     
   4132392647.5766072     
   4019932447.4327455     
   3908804043.2837830     
   3799119272.3242669     
   4527084476.0085812     
   4401273115.9903746     
   4276729735.2472949     
   4153453330.2172871     
   4031501587.7753525     
   4853865718.2989655     
   4712066737.0518532     
   4571500715.0988426     
   4431970298.2727900     
   4293375127.5693207     
   5224821614.5034571     
   5062656034.4214535     
   4901689733.8105497     
   4741440192.1159039     
   4581560418.3403187     
   3599658270.1922750     
   3448069028.8804774     
   3299868223.1816220     
   3155473251.9102249     
   3015422250.3526640     
   3799119272.3242669     
   3632860376.4974298     
   3469003144.6083651     
   3307863843.5561085     
   3149884393.3106694     
   4031501587.7753525     
   3850302888.3637094     
   3670534406.3717937     
   3492372790.1917458     
   3316116526.7461114     
   4293375127.5693207     
   4096889456.8868461     
   3900937081.8269901     
   3705531565.7930274     
   3510798061.8479114     
   4581560418.3403187     
   4369330066.2420120     
   4156852347.1027379     
   3943966885.4297171     
   3730611309.8371124     
   3015422250.3526640     
   2886858102.9991732     
   2759926484.0139155     
   2635002491.9190321     
   2512583426.4877763     
   3149884393.3106694     
   3009535414.0496964     
   2870599845.2976503     
   2733280955.6865816     
   2597856462.0897532     
   3316116526.7461114     
   3166012852.8251724     
   3017292726.3830457     
   2870035782.3826213     
   2724371338.9308467     
   3510798061.8479114     
   3352306543.3666339     
   3195302050.9127417     
   3039786198.0742826     
   2885809694.5106711     
   3730611309.8371124     
   3564454710.7181025     
   3399960081.4769249     
   3237087162.7323475     
   3075864866.3847890     
   2512583426.4877763     
   2372374835.6525559     
   2236176762.0727682     
   2104385776.6765709     
   1977541697.9990294     
   2597856462.0897532     
   2448730353.5864367     
   2302029793.2785029     
   2158068716.0730405     
   2017272319.2665453     
   2724371338.9308467     
   2567378917.8588977     
   2411309004.8419204     
   2256325886.2240973     
   2102670181.7588484     
   2885809694.5106711     
   2722323383.0569777     
   2558478357.6382103     
   2394273367.6861911     
   2229760921.0224786     
   3075864866.3847890     
   2907335981.3624163     
   2737456903.9918389     
   2566078297.3964243     
   2393106605.3456035     
   1977541697.9990294     
   1847904337.4103324     
   1718072565.4180138     
   1588395801.8477955     
   1459399692.9858565     
   2017272319.2665453     
   1881020175.2864776     
   1744989084.3837454     
   1609308055.9035757     
   1474155236.5632646     
   2102670181.7588484     
   1962561857.4311492     
   1823461120.4266791     
   1685395695.9373302     
   1548422646.3033044     
   2229760921.0224786     
   2086687018.8849792     
   1945457411.4059463     
   1806060866.1797965     
   1668576833.3469169     
   2393106605.3456035     
   2246193581.0892138     
   2101775238.2617390     
   1959828827.5709586     
   1820537377.8411005     
   1459399692.9858565     
   1349951769.4820790     
   1275558683.4101865     
   1244351297.0206280     
   1263398739.5932312     
   1474155236.5632646     
   1329635198.5585532     
   1199620284.9086149     
   1088603240.0588961     
   1002508653.2950033     
   1548422646.3033044     
   1398413214.8496270     
   1244820617.5501900     
   1085362905.3684657     
   917997420.64763021     
   1668576833.3469169     
   1553224554.3707163     
   1428656902.6874275     
   1295222864.0975263     
   1159067873.1429589     
   1820537377.8411005     
   1780215208.1200392     
   1736193848.8303590     
   1697154452.6474452     
   1681717782.3403370     
   1263398739.5932312     
   1447073312.3402526     
   1715956052.9746196     
   2110613982.0835874     
   2663451601.0856519     
   1002508653.2950033     
   1165037670.3522232     
   1425572571.0534375     
   1808743968.6521668     
   2334663045.2326989     
   917997420.64763021     
   963295276.08330131     
   1144958699.7847209     
   1476427456.2293828     
   1957468044.0701163     
   1159067873.1429589     
   1008491651.0261589     
   985170853.43433285     
   1161461235.5049310     
   1544379843.1300299     
   1681717782.3403370     
   1383938893.6476955     
   1129467441.6920199     
   1010162910.5604771     
   1153602147.7176943     
 </DataArray>
 <DataArray  type="Float64" Name="strain" NumberOfComponents="3" format="ascii">
  0.11413920801519817       -2.1384485186859759E-002   3.2098135723785948E-002
  0.10745092836994097       -2.2782366946846544E-002   2.3293591317116058E-002
  0.10076264872468355       -2.3629597035550454E-002   1.6555268419451430E-002
   9.4074369079426290E-002  -2.3926175452972070E-002   1.1883167030792785E-002
   8.7386089434169034E-002  -2.3672102199110756E-002   9.2772871511395127E-003
  0.10029470298272236       -2.3952165460600194E-002   2.7423403940339153E-002
   9.5382358816024526E-002  -2.4066385614281205E-002   2.1648016522706481E-002
   9.0470014649326913E-002  -2.3965725890087025E-002   1.7358278553187556E-002
   8.5557670482629106E-002  -2.3650186288017981E-002   1.4554190031781933E-002
   8.0645326315931465E-002  -2.3119766808073372E-002   1.3235750958489945E-002
   8.9386875195151316E-002  -2.6519845734340686E-002   2.4200219659901490E-002
   8.5669894446120998E-002  -2.5350404281715977E-002   2.1118217437899184E-002
   8.1952913697090596E-002  -2.4301854744623541E-002   1.8941292603117887E-002
   7.8235932948060194E-002  -2.3374197123063781E-002   1.7669445155557961E-002
   7.4518952199029848E-002  -2.2567431417036266E-002   1.7302675095219322E-002
   8.1415724652485283E-002  -2.9087526008081122E-002   2.2428582882473153E-002
   7.8313535260230063E-002  -2.6634422949150791E-002   2.1704194062693506E-002
   7.5211345867974816E-002  -2.4637983599160307E-002   2.1304310569242715E-002
   7.2109156475719541E-002  -2.3098207958109747E-002   2.1228932402120947E-002
   6.9006967083464335E-002  -2.2015096025998909E-002   2.1478059561328533E-002
   7.6381251354724122E-002  -3.1655206281821613E-002   2.2108493608054613E-002
   7.3313281258351737E-002  -2.7918441616585604E-002   2.3405946397090038E-002
   7.0245311161979490E-002  -2.4974112453696864E-002   2.4447332451562137E-002
   6.7177341065607118E-002  -2.2822218793155592E-002   2.5232651771471340E-002
   6.4109370969234858E-002  -2.1462760634961608E-002   2.5761904356817078E-002
   8.7386089434169034E-002  -2.3672102199110756E-002   9.2772871511395127E-003
   8.4709446432681579E-002  -2.3121335090925788E-002   7.3850327861332277E-003
   8.2032803431194012E-002  -2.2527831945374999E-002   5.9294383069055656E-003
   7.9356160429706502E-002  -2.1891592762458945E-002   4.9105037134568597E-003
   7.6679517428218991E-002  -2.1212617542177181E-002   4.3282290057871098E-003
   8.0645326315931465E-002  -2.3119766808073372E-002   1.3235750958489945E-002
   7.8352260758857012E-002  -2.2469127573703007E-002   1.1938950987625097E-002
   7.6059195201782503E-002  -2.1792928708355530E-002   1.0972646019807492E-002
   7.3766129644708023E-002  -2.1091170212030566E-002   1.0336836055037435E-002
   7.1473064087633598E-002  -2.0363852084728462E-002   1.0031521093314677E-002
   7.4518952199029848E-002  -2.2567431417036266E-002   1.7302675095219322E-002
   7.2503299203636948E-002  -2.1816920056480477E-002   1.6584153112107924E-002
   7.0487646208243937E-002  -2.1058025471335728E-002   1.6089961249312418E-002
   6.8471993212850940E-002  -2.0290747661602188E-002   1.5820099506832351E-002
   6.6456340217457971E-002  -1.9515086627279632E-002   1.5774567884668217E-002
   6.9006967083464335E-002  -2.2015096025998909E-002   2.1478059561328533E-002
   6.7162561767021317E-002  -2.1164712539257766E-002   2.1320639159582197E-002
   6.5318156450578313E-002  -2.0323122234316149E-002   2.1281383995419997E-002
   6.3473751134135323E-002  -1.9490325111173698E-002   2.1360294068841910E-002
   6.1629345817692312E-002  -1.8666321169830746E-002   2.1557369379848125E-002
   6.4109370969234858E-002  -2.1462760634961608E-002   2.5761904356817078E-002
   6.2330048449010272E-002  -2.0512505022035110E-002   2.6148409130047623E-002
   6.0550725928785631E-002  -1.9588218997296430E-002   2.6546914258130605E-002
   5.8771403408561032E-002  -1.8689902560745313E-002   2.6957419741066302E-002
   5.6992080888336405E-002  -1.7817555712381972E-002   2.7379925578854325E-002
   7.6679517428218991E-002  -2.1212617542177181E-002   4.3282290057871098E-003
   7.3091226802032838E-002  -2.0479168006730830E-002   3.4452620309788351E-003
   6.9502936175846519E-002  -1.9679505878321318E-002   2.8712173402574703E-003
   6.5914645549660228E-002  -1.8813631156948472E-002   2.6060949336213779E-003
   6.2326354923474048E-002  -1.7881543842612202E-002   2.6498948110721399E-003
   7.1473064087633598E-002  -2.0363852084728462E-002   1.0031521093314677E-002
   6.8177209759160140E-002  -1.9603401667478870E-002   9.3752563734835204E-003
   6.4881355430686627E-002  -1.8802246301312053E-002   8.9949419649921203E-003
   6.1585501102213100E-002  -1.7960385986227692E-002   8.8905778678401021E-003
   5.8289646773739656E-002  -1.7077820722226189E-002   9.0621640820274241E-003
   6.6456340217457971E-002  -1.9515086627279632E-002   1.5774567884668217E-002
   6.3419950213950610E-002  -1.8727635328226605E-002   1.5319497775768270E-002
   6.0383560210443207E-002  -1.7924986724302691E-002   1.5107406005460983E-002
   5.7347170206935812E-002  -1.7107140815506915E-002   1.5138292573746458E-002
   5.4310780203428444E-002  -1.6274097601839566E-002   1.5412157480624827E-002
   6.1629345817692312E-002  -1.8666321169830746E-002   2.1557369379848125E-002
   5.8819448166404324E-002  -1.7851868988974715E-002   2.1277986237833307E-002
   5.6009550515116358E-002  -1.7047727147293155E-002   2.1208609461664470E-002
   5.3199652863828384E-002  -1.6253895644786027E-002   2.1349239051341597E-002
   5.0389755212540396E-002  -1.5470374481453358E-002   2.1699875006864731E-002
   5.6992080888336405E-002  -1.7817555712381972E-002   2.7379925578854325E-002
   5.4375703616521193E-002  -1.6976102649722630E-002   2.7250721759678465E-002
   5.1759326344705980E-002  -1.6170467570283800E-002   2.7298552333602011E-002
   4.9142949072890768E-002  -1.5400650474065126E-002   2.7523417300625116E-002
   4.6526571801075556E-002  -1.4666651361067207E-002   2.7925316660747657E-002
   6.2326354923474048E-002  -1.7881543842612202E-002   2.6498948110721399E-003
   5.9580935929208767E-002  -1.6976019269940190E-002   2.1895935345157547E-003
   5.6835516934943486E-002  -1.6189832773560259E-002   1.8739368902682130E-003
   5.4090097940678206E-002  -1.5522984353471804E-002   1.7029248783303752E-003
   5.1344678946412925E-002  -1.4975474009676137E-002   1.6765574987016585E-003
   5.8289646773739656E-002  -1.7077820722226189E-002   9.0621640820274241E-003
   5.5686723579941033E-002  -1.6210734750891298E-002   8.5620547477793241E-003
   5.3083800386142382E-002  -1.5415312313808993E-002   8.2022923821553628E-003
   5.0480877192343745E-002  -1.4691553410978830E-002   7.9828769851551518E-003
   4.7877953998545109E-002  -1.4039458042399477E-002   7.9038085567790795E-003
   5.4310780203428444E-002  -1.6274097601839566E-002   1.5412157480624827E-002
   5.1846055146411218E-002  -1.5445450231842739E-002   1.4919914630725256E-002
   4.9381330089393938E-002  -1.4640791854057714E-002   1.4563721085764911E-002
   4.6916605032376657E-002  -1.3860122468484632E-002   1.4343576845742632E-002
   4.4451879975359432E-002  -1.3103442075123484E-002   1.4259481910659455E-002
   5.0389755212540396E-002  -1.5470374481453358E-002   2.1699875006864731E-002
   4.8058930628619184E-002  -1.4680165712794013E-002   2.1263173183354092E-002
   4.5728106044698055E-002  -1.3866271394306219E-002   2.0958223001096715E-002
   4.3397281460776836E-002  -1.3028691525990935E-002   2.0785024460092699E-002
   4.1066456876855714E-002  -1.2167426107847379E-002   2.0743577560342327E-002
   4.6526571801075556E-002  -1.4666651361067207E-002   2.7925316660747657E-002
   4.4325350026565180E-002  -1.3914881193745288E-002   2.7591830405665430E-002
   4.2124128252054860E-002  -1.3091750934554933E-002   2.7385798128151256E-002
   3.9922906477544456E-002  -1.2197260583497068E-002   2.7307219828204929E-002
   3.7721684703034108E-002  -1.1231410140571052E-002   2.7356095505827294E-002
   5.1344678946412925E-002  -1.4975474009676137E-002   1.6765574987016585E-003
   4.8476176414545602E-002  -1.4425293660063065E-002   1.0585277616754762E-003
   4.5607673882678113E-002  -1.3750435222524005E-002   5.7131587090830660E-004
   4.2739171350810679E-002  -1.2950898697057969E-002   2.1492182640003854E-004
   3.9870668818943300E-002  -1.2026684083665362E-002  -1.0654371848994870E-005
   4.7877953998545109E-002  -1.4039458042399477E-002   7.9038085567790795E-003
   4.5135365287583107E-002  -1.3388053739032180E-002   7.4190054649602155E-003
   4.2392776576621133E-002  -1.2666368031832631E-002   7.0552121686929814E-003
   3.9650187865659117E-002  -1.1874400920803496E-002   6.8124286679775714E-003
   3.6907599154697102E-002  -1.1012152405942111E-002   6.6906549628145129E-003
   4.4451879975359432E-002  -1.3103442075123484E-002   1.4259481910659455E-002
   4.1825397034595591E-002  -1.2350813818000850E-002   1.3853508779952312E-002
   3.9198914093831833E-002  -1.1582300841142340E-002   1.3558737394089526E-002
   3.6572431153068033E-002  -1.0797903144548794E-002   1.3375167753071390E-002
   3.3945948212304206E-002  -9.9976207282190810E-003   1.3302799856897918E-002
   4.1066456876855714E-002  -1.2167426107847379E-002   2.0743577560342327E-002
   3.8546271655582970E-002  -1.1313573896969520E-002   2.0362037706651168E-002
   3.6026086434310246E-002  -1.0498233650451841E-002   2.0081891547097643E-002
   3.3505901213037509E-002  -9.7214053682942066E-003   1.9903139081681297E-002
   3.0985715991764778E-002  -8.9830890504960514E-003   1.9825780310402677E-002
   3.7721684703034108E-002  -1.1231410140571052E-002   2.7356095505827294E-002
   3.5297989150545217E-002  -1.0276333975938412E-002   2.6944592245057519E-002
   3.2874293598056353E-002  -9.4141664597612029E-003   2.6624674627717171E-002
   3.0450598045567531E-002  -8.6449075920394733E-003   2.6396342653807803E-002
   2.8026902493078654E-002  -7.9685573727730219E-003   2.6259596323328416E-002
   3.9870668818943300E-002  -1.2026684083665362E-002  -1.0654371848994870E-005
   3.7458693637868357E-002  -1.1133933733554202E-002  -2.9665228496655871E-004
   3.5046718456793524E-002  -1.0428789997931343E-002  -4.8756217245493616E-004
   3.2634743275718636E-002  -9.9112528767959923E-003  -5.8338403431373864E-004
   3.0222768094643748E-002  -9.5813223701501915E-003  -5.8411787054457598E-004
   3.6907599154697102E-002  -1.1012152405942111E-002   6.6906549628145129E-003
   3.4571967957345129E-002  -1.0175451793721257E-002   6.2328398178443933E-003
   3.2236336759993267E-002  -9.4601283906109446E-003   5.8326246146916394E-003
   2.9900705562641350E-002  -8.8661821966110332E-003   5.4900093533558625E-003
   2.7565074365289322E-002  -8.3936132117210516E-003   5.2049940338365630E-003
   3.3945948212304206E-002  -9.9976207282190810E-003   1.3302799856897918E-002
   3.1649172914863050E-002  -9.2169698538882572E-003   1.2739396885454002E-002
   2.9352397617421838E-002  -8.4914667832905744E-003   1.2196105772014548E-002
   2.7055622319980613E-002  -7.8211115164251929E-003   1.1672926516579640E-002
   2.4758847022539415E-002  -7.2059040532924667E-003   1.1169859119149139E-002
   3.0985715991764778E-002  -8.9830890504960514E-003   1.9825780310402677E-002
   2.8690308510422056E-002  -8.2584879140557288E-003   1.9223018917862156E-002
   2.6394901029079293E-002  -7.5228051759697462E-003   1.8602881299513770E-002
   2.4099493547736529E-002  -6.7760408362393491E-003   1.7965367455357501E-002
   2.1804086066393870E-002  -6.0181948948636044E-003   1.7310477385394166E-002
   2.8026902493078654E-002  -7.9685573727730219E-003   2.6259596323328416E-002
   2.5695374744022115E-002  -7.3000059742228118E-003   2.5683705915068966E-002
   2.3363846994965604E-002  -6.5541435686494454E-003   2.5052951197189310E-002
   2.1032319245909106E-002  -5.7309701560538592E-003   2.4367332169690198E-002
   1.8700791496852609E-002  -4.8304857364350751E-003   2.3626848832570824E-002
   3.0222768094643748E-002  -9.5813223701501915E-003  -5.8411787054457598E-004
   2.9612906510310455E-002  -9.1363067531448072E-003  -3.4577381226985615E-004
   2.9003044925977106E-002  -8.2735143009336487E-003  -1.7904176412267825E-003
   2.8393183341643785E-002  -6.9929450135159527E-003  -4.9180493574138007E-003
   2.7783321757310464E-002  -5.2945988908925656E-003  -9.7286689608324650E-003
   2.7565074365289322E-002  -8.3936132117210516E-003   5.2049940338365630E-003
   2.5541733435568315E-002  -7.8732241298802297E-003   5.8817101396684279E-003
   2.3518392505847252E-002  -7.1358176450263544E-003   5.4144554419556790E-003
   2.1495051576126301E-002  -6.1813937571591204E-003   3.8032299406985381E-003
   1.9471710646405183E-002  -5.0099524662783335E-003   1.0480336358966724E-003
   2.4758847022539415E-002  -7.2059040532924667E-003   1.1169859119149139E-002
   2.1861043831117227E-002  -6.6101415066159297E-003   1.2084187840345706E-002
   1.8963240639694970E-002  -5.9981209891188103E-003   1.2393562841684108E-002
   1.6065437448272719E-002  -5.3698425008011710E-003   1.2097984123164554E-002
   1.3167634256850524E-002  -4.7253060416632131E-003   1.1197451684787474E-002
   2.1804086066393870E-002  -6.0181948948636044E-003   1.7310477385394166E-002
   1.8570837696957047E-002  -5.3470588833517130E-003   1.8261659289762422E-002
   1.5337589327520138E-002  -4.8604243332116132E-003   1.9146904557959442E-002
   1.2104340958083245E-002  -4.5582912444440023E-003   1.9966213189985062E-002
   8.8710925886464065E-003  -4.4406596170478707E-003   2.0719585185839329E-002
   1.8700791496852609E-002  -4.8304857364350751E-003   2.3626848832570824E-002
   1.5671115033087657E-002  -4.0839762600872742E-003   2.4414124487918354E-002
   1.2641438569322760E-002  -3.7227276773047213E-003   2.5674480590781090E-002
   9.6117621055578639E-003  -3.7467399880862437E-003   2.7407917141158977E-002
   6.5820856417929119E-003  -4.1560131924331944E-003   2.9614434139052070E-002
   2.7783321757310464E-002  -5.2945988908925656E-003  -9.7286689608324650E-003
   2.3355798991873122E-002  -4.2039663084789680E-003  -4.1952590760618858E-003
   1.8928276226435781E-002  -4.7465376416908622E-003   2.6025508032069267E-003
   1.4500753460998550E-002  -6.9223128905284148E-003   1.0664760676973750E-002
   1.0073230695561097E-002  -1.0731292054991570E-002   1.9991370545238141E-002
   1.9471710646405183E-002  -5.0099524662783335E-003   1.0480336358966724E-003
   1.6236253146678592E-002  -4.6883916249517155E-003   6.7416524043580894E-003
   1.3000795646952057E-002  -6.2836090857468219E-003   1.3555001709742553E-002
   9.7653381472250500E-003  -9.7956048486633335E-003   2.1488081552051064E-002
   6.5298806474989313E-003  -1.5224378913702541E-002   3.0540891931282843E-002
   1.3167634256850524E-002  -4.7253060416632131E-003   1.1197451684787474E-002
   1.0979572565260554E-002  -5.1728169414237968E-003   1.6767704950442441E-002
   8.7915108736705272E-003  -7.8206805298023374E-003   2.3313019295446880E-002
   6.6034491820805841E-003  -1.2668896806798474E-002   3.0833394719800733E-002
   4.4153874904905299E-003  -1.9717465772413068E-002   3.9328831223504723E-002
   8.8710925886464065E-003  -4.4406596170478707E-003   2.0719585185839329E-002
   7.5857572476191182E-003  -5.6572422578959891E-003   2.5882898562191378E-002
   6.3004219065916633E-003  -9.3577519738571868E-003   3.1876603560318961E-002
   5.0150865655644652E-003  -1.5542188764933504E-002   3.8700700180222716E-002
   3.7297512245369202E-003  -2.4210552631123816E-002   4.6355188421901561E-002
   6.5820856417929119E-003  -4.1560131924331944E-003   2.9614434139052070E-002
   6.0548071937541748E-003  -6.1416675743681814E-003   3.4087233239605164E-002
   5.5275287457154654E-003  -1.0894823417912536E-002   3.9245754504360741E-002
   5.0002502976768809E-003  -1.8415480723068270E-002   4.5089997933317416E-002
   4.4729718496380189E-003  -2.8703639489834565E-002   5.1619963526475132E-002
   7.6381251354724122E-002  -3.1655206281821613E-002   2.2108493608054613E-002
   7.3313281258351737E-002  -2.7918441616585604E-002   2.3405946397090038E-002
   7.0245311161979490E-002  -2.4974112453696864E-002   2.4447332451562137E-002
   6.7177341065607118E-002  -2.2822218793155592E-002   2.5232651771471340E-002
   6.4109370969234858E-002  -2.1462760634961608E-002   2.5761904356817078E-002
   7.2103620911866922E-002  -2.2833489198079371E-002   3.4934279999792928E-002
   6.8910454030341101E-002  -2.1483244288577313E-002   3.4450831245048358E-002
   6.5717287148815237E-002  -2.0318123792913562E-002   3.3973055654559853E-002
   6.2524120267289429E-002  -1.9338127711088345E-002   3.3500953228327385E-002
   5.9330953385763552E-002  -1.8543256043101447E-002   3.3034523966351204E-002
   6.6402998933913063E-002  -1.4011772114337101E-002   4.5069891091542760E-002
   6.3346375166052946E-002  -1.5048046960568981E-002   4.3412851881527298E-002
   6.0289751398192835E-002  -1.5662135132130280E-002   4.2023225734587021E-002
   5.7233127630332670E-002  -1.5854036629021011E-002   4.0901012650721949E-002
   5.4176503862472511E-002  -1.5623751451241258E-002   4.0046212629932521E-002
   5.9279385420862418E-002  -5.1900550305948728E-003   5.2515326883304236E-002
   5.6621044665487300E-002  -8.6128496325606138E-003   5.0292008306526657E-002
   5.3962703910112111E-002  -1.1006146471347015E-002   4.8597842691643654E-002
   5.1304363154737007E-002  -1.2369945546953778E-002   4.7432830038655158E-002
   4.8646022399361860E-002  -1.2704246859381083E-002   4.6796970347561410E-002
   5.0732780372715058E-002   3.6316620531474109E-003   5.7270587375077342E-002
   4.8734462528644162E-002  -2.1776523045523577E-003   5.5088300520046596E-002
   4.6736144684573239E-002  -6.3501578105635975E-003   5.3696906525729698E-002
   4.4737826840502301E-002  -8.8858544648864786E-003   5.3096405392126636E-002
   4.2739508996431419E-002  -9.7847422675209073E-003   5.3286797119237561E-002
   6.4109370969234858E-002  -2.1462760634961608E-002   2.5761904356817078E-002
   6.2330048449010272E-002  -2.0512505022035110E-002   2.6148409130047623E-002
   6.0550725928785631E-002  -1.9588218997296430E-002   2.6546914258130605E-002
   5.8771403408561032E-002  -1.8689902560745313E-002   2.6957419741066302E-002
   5.6992080888336405E-002  -1.7817555712381972E-002   2.7379925578854325E-002
   5.9330953385763552E-002  -1.8543256043101447E-002   3.3034523966351204E-002
   5.7593691292368396E-002  -1.7839171793084238E-002   3.3063846866594207E-002
   5.5856429198973157E-002  -1.7131537965168177E-002   3.3165290265643452E-002
   5.4119167105577966E-002  -1.6420354559352889E-002   3.3338854163499174E-002
   5.2381905012182761E-002  -1.5705621575638873E-002   3.3584538560160693E-002
   5.4176503862472511E-002  -1.5623751451241258E-002   4.0046212629932521E-002
   5.2541422339860339E-002  -1.5165838564133255E-002   3.9747872823275056E-002
   5.0906340817248159E-002  -1.4674856933039868E-002   3.9581773659377248E-002
   4.9271259294635938E-002  -1.4150806557960634E-002   3.9547915138239194E-002
   4.7636177772023808E-002  -1.3593687438895941E-002   3.9646297259861116E-002
   4.8646022399361860E-002  -1.2704246859381083E-002   4.6796970347561410E-002
   4.7173241591486240E-002  -1.2492505335182466E-002   4.6200487000089968E-002
   4.5700460783610605E-002  -1.2218175900911586E-002   4.5796364439331647E-002
   4.4227679975734999E-002  -1.1881258556568351E-002   4.5584602665286876E-002
   4.2754899167859357E-002  -1.1481753302152953E-002   4.5565201677955511E-002
   4.2739508996431419E-002  -9.7847422675209073E-003   5.3286797119237561E-002
   4.1489149047245960E-002  -9.8191721062313997E-003   5.2421689397038673E-002
   4.0238789098060529E-002  -9.7614948687833603E-003   5.1809062605506800E-002
   3.8988429148875098E-002  -9.6117105551759702E-003   5.1448916744641998E-002
   3.7738069199689639E-002  -9.3698191654099094E-003   5.1341251814443989E-002
   5.6992080888336405E-002  -1.7817555712381972E-002   2.7379925578854325E-002
   5.4375703616521193E-002  -1.6976102649722630E-002   2.7250721759678465E-002
   5.1759326344705980E-002  -1.6170467570283800E-002   2.7298552333602011E-002
   4.9142949072890768E-002  -1.5400650474065126E-002   2.7523417300625116E-002
   4.6526571801075556E-002  -1.4666651361067207E-002   2.7925316660747657E-002
   5.2381905012182761E-002  -1.5705621575638873E-002   3.3584538560160693E-002
   4.9951262008654490E-002  -1.4996636587187168E-002   3.3303051476344991E-002
   4.7520619005126205E-002  -1.4302697167159012E-002   3.3215998536003807E-002
   4.5089976001597941E-002  -1.3623803315554288E-002   3.3323379739136967E-002
   4.2659332998069649E-002  -1.2959955032373294E-002   3.3625195085744686E-002
   4.7636177772023808E-002  -1.3593687438895941E-002   3.9646297259861116E-002
   4.5408668787157373E-002  -1.3017170524651803E-002   3.9233299326202467E-002
   4.3181159802291050E-002  -1.2434926764034328E-002   3.9032135286393134E-002
   4.0953650817424685E-002  -1.1846956157043670E-002   3.9042805140433207E-002
   3.8726141832558278E-002  -1.1253258703679686E-002   3.9265308888322706E-002
   4.2754899167859357E-002  -1.1481753302152953E-002   4.5565201677955511E-002
   4.0747923952029898E-002  -1.1037704462116334E-002   4.5041465309250579E-002
   3.8740948736200459E-002  -1.0567156360909536E-002   4.4746962584770109E-002
   3.6733973520370979E-002  -1.0070108998532831E-002   4.4681693504513821E-002
   3.4726998304541512E-002  -9.5465623749860368E-003   4.4845658068482203E-002
   3.7738069199689639E-002  -9.3698191654099094E-003   5.1341251814443989E-002
   3.5969027503272050E-002  -9.0582383995809479E-003   5.0727549425489626E-002
   3.4199985806854460E-002  -8.6993859577848831E-003   5.0360480431134724E-002
   3.2430944110436885E-002  -8.2932618400221383E-003   5.0240044831379282E-002
   3.0661902414019282E-002  -7.8398660462922765E-003   5.0366242626223023E-002
   4.6526571801075556E-002  -1.4666651361067207E-002   2.7925316660747657E-002
   4.4325350026565180E-002  -1.3914881193745288E-002   2.7591830405665430E-002
   4.2124128252054860E-002  -1.3091750934554933E-002   2.7385798128151256E-002
   3.9922906477544456E-002  -1.2197260583497068E-002   2.7307219828204929E-002
   3.7721684703034108E-002  -1.1231410140571052E-002   2.7356095505827294E-002
   4.2659332998069649E-002  -1.2959955032373294E-002   3.3625195085744686E-002
   4.0591932108719059E-002  -1.2282009391486992E-002   3.3289423563599374E-002
   3.8524531219368455E-002  -1.1560823466766387E-002   3.3093839834205913E-002
   3.6457130330017858E-002  -1.0796397258211642E-002   3.3038443897563802E-002
   3.4389729440667233E-002  -9.9887307658228508E-003   3.3123235753672986E-002
   3.8726141832558278E-002  -1.1253258703679686E-002   3.9265308888322706E-002
   3.6805295643550728E-002  -1.0649137589228919E-002   3.8899132291081065E-002
   3.4884449454543109E-002  -1.0029895998977849E-002   3.8685877301774259E-002
   3.2963603265535525E-002  -9.3955339329263848E-003   3.8625543920401934E-002
   3.1042757076527927E-002  -8.7460513910746496E-003   3.8718132146964235E-002
   3.4726998304541512E-002  -9.5465623749860368E-003   4.4845658068482203E-002
   3.2965440631060168E-002  -9.0162657869708451E-003   4.4420956588110336E-002
   3.1203882957578831E-002  -8.4989685311892237E-003   4.4161910530856135E-002
   2.9442325284097487E-002  -7.9946706076410995E-003   4.4068519896719983E-002
   2.7680767610616153E-002  -7.5033720163264483E-003   4.4140784685701727E-002
   3.0661902414019282E-002  -7.8398660462922765E-003   5.0366242626223023E-002
   2.9072367071247440E-002  -7.3833939847126606E-003   4.9854896454686937E-002
   2.7482831728475599E-002  -6.9680410634007650E-003   4.9521939521451896E-002
   2.5893296385703729E-002  -6.5938072823558125E-003   4.9367371826517847E-002
   2.4303761042931887E-002  -6.2606926415782471E-003   4.9391193369884956E-002
   3.7721684703034108E-002  -1.1231410140571052E-002   2.7356095505827294E-002
   3.5297989150545217E-002  -1.0276333975938412E-002   2.6944592245057519E-002
   3.2874293598056353E-002  -9.4141664597612029E-003   2.6624674627717171E-002
   3.0450598045567531E-002  -8.6449075920394733E-003   2.6396342653807803E-002
   2.8026902493078654E-002  -7.9685573727730219E-003   2.6259596323328416E-002
   3.4389729440667233E-002  -9.9887307658228508E-003   3.3123235753672986E-002
   3.2072410374787197E-002  -9.1831353957294026E-003   3.2641360645868589E-002
   2.9755091308907189E-002  -8.4249225540612427E-003   3.2280652867851645E-002
   2.7437772243027139E-002  -7.7140922408182599E-003   3.2041112419622000E-002
   2.5120453177147173E-002  -7.0506444560003434E-003   3.1922739301179781E-002
   3.1042757076527927E-002  -8.7460513910746496E-003   3.8718132146964235E-002
   2.8861396183613816E-002  -8.0899368155202822E-003   3.8211411312155830E-002
   2.6680035290699809E-002  -7.4356786483609633E-003   3.7855439493492030E-002
   2.4498674397785771E-002  -6.7832768895970501E-003   3.7650216690972661E-002
   2.2317313504871691E-002  -6.1327315392279980E-003   3.7595742904597940E-002
   2.7680767610616153E-002  -7.5033720163264483E-003   4.4140784685701727E-002
   2.5664946577025168E-002  -6.9967382353112173E-003   4.3654744243919255E-002
   2.3649125543434124E-002  -6.4464347426608989E-003   4.3349034504638326E-002
   2.1633304509843090E-002  -5.8524615383756719E-003   4.3223655467859237E-002
   1.9617483476252164E-002  -5.2148186224553195E-003   4.3278607133581663E-002
   2.4303761042931887E-002  -6.2606926415782471E-003   4.9391193369884956E-002
   2.2483061555021056E-002  -5.9035396551020969E-003   4.8971359441158602E-002
   2.0662362067110238E-002  -5.4571908369606403E-003   4.8761437901290949E-002
   1.8841662579199454E-002  -4.9216461871544950E-003   4.8761428750282054E-002
   1.7020963091288616E-002  -4.2969057056829740E-003   4.8971331988131861E-002
   2.8026902493078654E-002  -7.9685573727730219E-003   2.6259596323328416E-002
   2.5695374744022115E-002  -7.3000059742228118E-003   2.5683705915068966E-002
   2.3363846994965604E-002  -6.5541435686494454E-003   2.5052951197189310E-002
   2.1032319245909106E-002  -5.7309701560538592E-003   2.4367332169690198E-002
   1.8700791496852609E-002  -4.8304857364350751E-003   2.3626848832570824E-002
   2.5120453177147173E-002  -7.0506444560003434E-003   3.1922739301179781E-002
   2.2772521809097557E-002  -6.3984832188891394E-003   3.1539679447221081E-002
   2.0424590441047955E-002  -5.7215125487643514E-003   3.1178676664895821E-002
   1.8076659072998401E-002  -5.0197324456271314E-003   3.0839730954204295E-002
   1.5728727704948792E-002  -4.2931429094770213E-003   3.0522842315146681E-002
   2.2317313504871691E-002  -6.1327315392279980E-003   3.7595742904597940E-002
   2.0029899899082576E-002  -5.4969604635552172E-003   3.7353012030929444E-002
   1.7742486293293482E-002  -4.8888815288792714E-003   3.7209259610148579E-002
   1.5455072687504363E-002  -4.3084947352006291E-003   3.7164485642254878E-002
   1.3167659081715258E-002  -3.7558000825186899E-003   3.7218690127248516E-002
   1.9617483476252164E-002  -5.2148186224553195E-003   4.3278607133581663E-002
   1.7467509013977124E-002  -4.5954377082214753E-003   4.3123703666194210E-002
   1.5317534551702138E-002  -4.0562505089944620E-003   4.3144700032947708E-002
   1.3167560089427148E-002  -3.5972570247737919E-003   4.3341596233842351E-002
   1.1017585627152167E-002  -3.2184572555604418E-003   4.3714392268877307E-002
   1.7020963091288616E-002  -4.2969057056829740E-003   4.8971331988131861E-002
   1.5085349153781319E-002  -3.6939149528875670E-003   4.8851754353015586E-002
   1.3149735216273981E-002  -3.2236194891090697E-003   4.8984997933293140E-002
   1.1214121278766649E-002  -2.8860193143471699E-003   4.9371062728965687E-002
   9.2785073412593455E-003  -2.6811144286023048E-003   5.0009948740032617E-002
   1.8700791496852609E-002  -4.8304857364350751E-003   2.3626848832570824E-002
   1.5671115033087657E-002  -4.0839762600872742E-003   2.4414124487918354E-002
   1.2641438569322760E-002  -3.7227276773047213E-003   2.5674480590781090E-002
   9.6117621055578639E-003  -3.7467399880862437E-003   2.7407917141158977E-002
   6.5820856417929119E-003  -4.1560131924331944E-003   2.9614434139052070E-002
   1.5728727704948792E-002  -4.2931429094770213E-003   3.0522842315146681E-002
   1.3154484631257068E-002  -3.7738201363178292E-003   3.1291164155442253E-002
   1.0580241557565317E-002  -3.6938403221533633E-003   3.2497272328369742E-002
   8.0059984838735457E-003  -4.0532034669831796E-003   3.4141166833928094E-002
   5.4317554101818433E-003  -4.8519095708087212E-003   3.6222847672117808E-002
   1.3167659081715258E-002  -3.7558000825186899E-003   3.7218690127248516E-002
   1.1013555283212684E-002  -3.4636640125479401E-003   3.7913976087063372E-002
   8.8594514847101791E-003  -3.6649529670017972E-003   3.9011754264625123E-002
   6.7053476862076744E-003  -4.3596669458802299E-003   4.0512024659934080E-002
   4.5512438877051559E-003  -5.5478059491836929E-003   4.2414787272990251E-002
   1.1017585627152167E-002  -3.2184572555604418E-003   4.3714392268877307E-002
   9.2483269889548081E-003  -3.1535078887777734E-003   4.4282560282780742E-002
   7.4790683507574007E-003  -3.6360656118504461E-003   4.5217926399547068E-002
   5.7098097125600211E-003  -4.6661304247771120E-003   4.6520490619176430E-002
   3.9405510743626380E-003  -6.2437023275587200E-003   4.8190252941669454E-002
   9.2785073412593455E-003  -2.6811144286023048E-003   5.0009948740032617E-002
   7.8587997484831362E-003  -2.8433517650084950E-003   5.0396916742594389E-002
   6.4390921557069547E-003  -3.6071782566990118E-003   5.1115788733135603E-002
   5.0193845629307593E-003  -4.9725939036740288E-003   5.2166564711655788E-002
   3.5996769701545639E-003  -6.9395987059340802E-003   5.3549244678155028E-002
   6.5820856417929119E-003  -4.1560131924331944E-003   2.9614434139052070E-002
   6.0548071937541748E-003  -6.1416675743681814E-003   3.4087233239605164E-002
   5.5275287457154654E-003  -1.0894823417912536E-002   3.9245754504360741E-002
   5.0002502976768809E-003  -1.8415480723068270E-002   4.5089997933317416E-002
   4.4729718496380189E-003  -2.8703639489834565E-002   5.1619963526475132E-002
   5.4317554101818433E-003  -4.8519095708087212E-003   3.6222847672117808E-002
   5.4861922275404595E-003  -6.9878074796156375E-003   3.8360187526711165E-002
   5.5406290448991175E-003  -1.1358746039392464E-002   4.0975235747897465E-002
   5.5950658622577615E-003  -1.7964725250138702E-002   4.4067992335677264E-002
   5.6495026796164471E-003  -2.6805745111854407E-002   4.7638457290049896E-002
   4.5512438877051559E-003  -5.5478059491836929E-003   4.2414787272990251E-002
   4.9793821728526533E-003  -7.8339473848636487E-003   4.2749128692264632E-002
   5.4075204580001854E-003  -1.1822668660872254E-002   4.3353164680523804E-002
   5.8356587431477210E-003  -1.7513969777208739E-002   4.4226895237767794E-002
   6.2637970282951594E-003  -2.4907850733874248E-002   4.5370320363995797E-002
   3.9405510743626380E-003  -6.2437023275587200E-003   4.8190252941669454E-002
   4.5343770296905617E-003  -8.6800872901118264E-003   4.7254056736266190E-002
   5.1282029850185078E-003  -1.2286591282351669E-002   4.6379541302238890E-002
   5.7220289403464618E-003  -1.7063214304279307E-002   4.5566706639587826E-002
   6.3158548956743776E-003  -2.3009956355894090E-002   4.4815552748312892E-002
   3.5996769701545639E-003  -6.9395987059340802E-003   5.3549244678155028E-002
   4.1511767980544345E-003  -9.5262271953594491E-003   5.1874971658715130E-002
   4.7026766259542496E-003  -1.2750513903831778E-002   5.0054365613042717E-002
   5.2541764538541341E-003  -1.6612458831349160E-002   4.8087426541137651E-002
   5.8056762817539909E-003  -2.1112061977913932E-002   4.5974154443000348E-002
   5.0732780372715058E-002   3.6316620531474109E-003   5.7270587375077342E-002
   4.8734462528644162E-002  -2.1776523045523577E-003   5.5088300520046596E-002
   4.6736144684573239E-002  -6.3501578105635975E-003   5.3696906525729698E-002
   4.4737826840502301E-002  -8.8858544648864786E-003   5.3096405392126636E-002
   4.2739508996431419E-002  -9.7847422675209073E-003   5.3286797119237561E-002
   4.2169466874240530E-002  -3.1154242808943411E-003   4.9844455642702457E-002
   4.0824835787637487E-002  -6.1020629330215403E-003   5.0178915549687564E-002
   3.9480204701034569E-002  -8.1967539751984508E-003   5.1029856110894695E-002
   3.8135573614431609E-002  -9.3994974074249546E-003   5.2397277326323752E-002
   3.6790942527828635E-002  -9.7102932297013500E-003   5.4281179195975054E-002
   3.4995728010208352E-002  -9.8625106149360930E-003   4.5613430236769073E-002
   3.4030371474581461E-002  -1.0026473561490667E-002   4.7719775664031960E-002
   3.3065014938954591E-002  -1.0043350139833158E-002   5.0068189539024914E-002
   3.2099658403327735E-002  -9.9131403499635121E-003   5.2658671861748094E-002
   3.1134301867700845E-002  -9.6358441918817372E-003   5.5491222632201354E-002
   2.9211563780618597E-002  -1.6609596948977859E-002   4.4577511157277483E-002
   2.8351069589475954E-002  -1.3950884189959822E-002   4.7710880863079876E-002
   2.7490575398333321E-002  -1.1889946304467856E-002   5.0811906810120482E-002
   2.6630081207190685E-002  -1.0426783292501945E-002   5.3880588998399474E-002
   2.5769587016048055E-002  -9.5613951540621245E-003   5.6916927427916778E-002
   2.4816974185471241E-002  -2.3356683283019597E-002   4.6736698404227561E-002
   2.3786930132320999E-002  -1.7875294818428950E-002   5.0152231146831316E-002
   2.2756886079170757E-002  -1.3736542469102692E-002   5.3261007924181369E-002
   2.1726842026020501E-002  -1.0940426235040511E-002   5.6063028736277914E-002
   2.0696797972870259E-002  -9.4869461162426227E-003   5.8558293583120979E-002
   4.2739508996431419E-002  -9.7847422675209073E-003   5.3286797119237561E-002
   4.1489149047245960E-002  -9.8191721062313997E-003   5.2421689397038673E-002
   4.0238789098060529E-002  -9.7614948687833603E-003   5.1809062605506800E-002
   3.8988429148875098E-002  -9.6117105551759702E-003   5.1448916744641998E-002
   3.7738069199689639E-002  -9.3698191654099094E-003   5.1341251814443989E-002
   3.6790942527828635E-002  -9.7102932297013500E-003   5.4281179195975054E-002
   3.5779326158600785E-002  -9.5507895960784822E-003   5.3764639120545119E-002
   3.4767709789372866E-002  -9.3426346606080152E-003   5.3473105274363303E-002
   3.3756093420145003E-002  -9.0858284232895707E-003   5.3406577657429719E-002
   3.2744477050917084E-002  -8.7803708841236450E-003   5.3565056269744088E-002
   3.1134301867700845E-002  -9.6358441918817372E-003   5.5491222632201354E-002
   3.0333954377011738E-002  -9.2824070859255370E-003   5.5279794429229145E-002
   2.9533606886322623E-002  -8.9237744524327811E-003   5.5265897754086454E-002
   2.8733259395633523E-002  -8.5599462914033378E-003   5.5449532606773114E-002
   2.7932911904944402E-002  -8.1909226028372140E-003   5.5830698987289068E-002
   2.5769587016048055E-002  -9.5613951540621245E-003   5.6916927427916778E-002
   2.5153033702478914E-002  -9.0140245757727167E-003   5.6967155323091254E-002
   2.4536480388909748E-002  -8.5049142442574638E-003   5.7187440044676262E-002
   2.3919927075340588E-002  -8.0340641595170494E-003   5.7577781592671906E-002
   2.3303373761771443E-002  -7.6014743215508662E-003   5.8138179967078131E-002
   2.0696797972870259E-002  -9.4869461162426227E-003   5.8558293583120979E-002
   2.0236564135002258E-002  -8.7456420656196465E-003   5.8826721802130999E-002
   1.9776330297134263E-002  -8.0860540360822436E-003   5.9237732146132954E-002
   1.9316096459266265E-002  -7.5081820276307158E-003   5.9791324615126415E-002
   1.8855862621398267E-002  -7.0120260402645185E-003   6.0487499209111784E-002
   3.7738069199689639E-002  -9.3698191654099094E-003   5.1341251814443989E-002
   3.5969027503272050E-002  -9.0582383995809479E-003   5.0727549425489626E-002
   3.4199985806854460E-002  -8.6993859577848831E-003   5.0360480431134724E-002
   3.2430944110436885E-002  -8.2932618400221383E-003   5.0240044831379282E-002
   3.0661902414019282E-002  -7.8398660462922765E-003   5.0366242626223023E-002
   3.2744477050917084E-002  -8.7803708841236450E-003   5.3565056269744088E-002
   3.1211311466254624E-002  -8.4353181316782766E-003   5.3161529001084257E-002
   2.9678145881592184E-002  -8.0597262545227810E-003   5.2983120561335015E-002
   2.8144980296929707E-002  -7.6535952526565199E-003   5.3029830950496633E-002
   2.6611814712267270E-002  -7.2169251260799649E-003   5.3301660168569298E-002
   2.7932911904944402E-002  -8.1909226028372140E-003   5.5830698987289068E-002
   2.6614107866348553E-002  -7.8123978637758412E-003   5.5620614287666736E-002
   2.5295303827752684E-002  -7.4200665512603875E-003   5.5614133851266859E-002
   2.3976499789156846E-002  -7.0139286652910089E-003   5.5811257678089261E-002
   2.2657695750560966E-002  -6.5939842058675979E-003   5.6211985768133993E-002
   2.3303373761771443E-002  -7.6014743215508662E-003   5.8138179967078131E-002
   2.2177416703553679E-002  -7.1894775958732046E-003   5.8104805285237149E-002
   2.1051459645335953E-002  -6.7804068479983062E-003   5.8253520300930089E-002
   1.9925502587118196E-002  -6.3742620779254997E-003   5.8584325014156842E-002
   1.8799545528900462E-002  -5.9710432856553697E-003   5.9097219424917427E-002
   1.8855862621398267E-002  -7.0120260402645185E-003   6.0487499209111784E-002
   1.7901237977870132E-002  -6.5665573279706790E-003   6.0614101993795688E-002
   1.6946613334341998E-002  -6.1407471447358641E-003   6.0901279910324763E-002
   1.5991988690813849E-002  -5.7345954905598726E-003   6.1349032958699395E-002
   1.5037364047285715E-002  -5.3481023654429194E-003   6.1957361138919254E-002
   3.0661902414019282E-002  -7.8398660462922765E-003   5.0366242626223023E-002
   2.9072367071247440E-002  -7.3833939847126606E-003   4.9854896454686937E-002
   2.7482831728475599E-002  -6.9680410634007650E-003   4.9521939521451896E-002
   2.5893296385703729E-002  -6.5938072823558125E-003   4.9367371826517847E-002
   2.4303761042931887E-002  -6.2606926415782471E-003   4.9391193369884956E-002
   2.6611814712267270E-002  -7.2169251260799649E-003   5.3301660168569298E-002
   2.5203115571456686E-002  -6.7739548976113728E-003   5.2859200670141965E-002
   2.3794416430646108E-002  -6.3489235900693330E-003   5.2600024337336487E-002
   2.2385717289835499E-002  -5.9418312034537346E-003   5.2524131170152033E-002
   2.0977018149024945E-002  -5.5526777377645775E-003   5.2631521168589324E-002
   2.2657695750560966E-002  -6.5939842058675979E-003   5.6211985768133993E-002
   2.1434726739032003E-002  -6.1645158105100850E-003   5.5861593162156692E-002
   2.0211757727503062E-002  -5.7298061167381231E-003   5.5699377649121251E-002
   1.8988788715974102E-002  -5.2898551245516567E-003   5.5725339229027573E-002
   1.7765819704445150E-002  -4.8446628339509079E-003   5.5939477901875784E-002
   1.8799545528900462E-002  -5.9710432856553697E-003   5.9097219424917427E-002
   1.7767200573973480E-002  -5.5550767234088527E-003   5.8862073930730868E-002
   1.6734855619046474E-002  -5.1106886434068577E-003   5.8819999456806521E-002
   1.5702510664119474E-002  -4.6378790456496344E-003   5.8970996003144427E-002
   1.4670165709192507E-002  -4.1366479301371273E-003   5.9315063569744218E-002
   1.5037364047285715E-002  -5.3481023654429194E-003   6.1957361138919254E-002
   1.4200537076281022E-002  -4.9456376363075094E-003   6.1860642975864411E-002
   1.3363710105276337E-002  -4.4915711700755923E-003   6.1961889760392130E-002
   1.2526883134271635E-002  -3.9859029667474732E-003   6.2261101492502469E-002
   1.1690056163266960E-002  -3.4286330263235687E-003   6.2758278172194926E-002
   2.4303761042931887E-002  -6.2606926415782471E-003   4.9391193369884956E-002
   2.2483061555021056E-002  -5.9035396551020969E-003   4.8971359441158602E-002
   2.0662362067110238E-002  -5.4571908369606403E-003   4.8761437901290949E-002
   1.8841662579199454E-002  -4.9216461871544950E-003   4.8761428750282054E-002
   1.7020963091288616E-002  -4.2969057056829740E-003   4.8971331988131861E-002
   2.0977018149024945E-002  -5.5526777377645775E-003   5.2631521168589324E-002
   1.9366213929814816E-002  -5.1500024785227083E-003   5.2394303738880432E-002
   1.7755409710604686E-002  -4.7023447112488070E-003   5.2366964457714160E-002
   1.6144605491394529E-002  -4.2097044359428598E-003   5.2549503325090521E-002
   1.4533801272184399E-002  -3.6720816526049083E-003   5.2941920341009807E-002
   1.7765819704445150E-002  -4.8446628339509079E-003   5.5939477901875784E-002
   1.6364876513619543E-002  -4.3964653019433475E-003   5.5840663647551636E-002
   1.4963933322793974E-002  -3.9474985855367378E-003   5.5951693301453734E-002
   1.3562990131968407E-002  -3.4977626847314987E-003   5.6272566863582500E-002
   1.2162046941142833E-002  -3.0472575995268425E-003   5.6803284333937804E-002
   1.4670165709192507E-002  -4.1366479301371273E-003   5.9315063569744218E-002
   1.3479049306435337E-002  -3.6429281253639728E-003   5.9310439167171478E-002
   1.2287932903678196E-002  -3.1926524598248976E-003   5.9515624432509295E-002
   1.1096816500921029E-002  -2.7858209335198895E-003   5.9930619365757200E-002
   9.9057000981638884E-003  -2.4224335464486657E-003   6.0555423966915857E-002
   1.1690056163266960E-002  -3.4286330263235687E-003   6.2758278172194926E-002
   1.0708732308262109E-002  -2.8893909487846536E-003   6.2803630297740720E-002
   9.7274084532572719E-003  -2.4378063341128353E-003   6.3058757850880942E-002
   8.7460845982524210E-003  -2.0738791823085578E-003   6.3523660831615425E-002
   7.7647607432475840E-003  -1.7976094933705999E-003   6.4198339239943780E-002
   1.7020963091288616E-002  -4.2969057056829740E-003   4.8971331988131861E-002
   1.5085349153781319E-002  -3.6939149528875670E-003   4.8851754353015586E-002
   1.3149735216273981E-002  -3.2236194891090697E-003   4.8984997933293140E-002
   1.1214121278766649E-002  -2.8860193143471699E-003   4.9371062728965687E-002
   9.2785073412593455E-003  -2.6811144286023048E-003   5.0009948740032617E-002
   1.4533801272184399E-002  -3.6720816526049083E-003   5.2941920341009807E-002
   1.2852042307593750E-002  -3.1744783304978874E-003   5.2809925591722817E-002
   1.1170283343003046E-002  -2.8018964388844825E-003   5.2932819572874740E-002
   9.4885243784123899E-003  -2.5543359777646032E-003   5.3310602284465589E-002
   7.8067654138216924E-003  -2.4317969471380207E-003   5.3943273726494878E-002
   1.2162046941142833E-002  -3.0472575995268425E-003   5.6803284333937804E-002
   1.0736210464513112E-002  -2.6550417081081246E-003   5.6666546329003670E-002
   9.3103739878834350E-003  -2.3801733886596871E-003   5.6786764569552658E-002
   7.8845375112537395E-003  -2.2226526411814850E-003   5.7163939055584735E-002
   6.4587010346240648E-003  -2.1824794656736257E-003   5.7798069787100087E-002
   9.9057000981638884E-003  -2.4224335464486657E-003   6.0555423966915857E-002
   8.7378536245395055E-003  -2.1356050857181813E-003   6.0421616564857762E-002
   7.5700071509151234E-003  -1.9584503384347182E-003   6.0546832923327368E-002
   6.4021606772907535E-003  -1.8909693045986425E-003   6.0931073042324535E-002
   5.2343142036663584E-003  -1.9331619842092307E-003   6.1574336921848861E-002
   7.7647607432475840E-003  -1.7976094933705999E-003   6.4198339239943780E-002
   6.8569717876728609E-003  -1.6161684633287376E-003   6.4075136299285074E-002
   5.9491828320981377E-003  -1.5367272882103600E-003   6.4213024634198423E-002
   5.0413938765234076E-003  -1.5592859680157584E-003   6.4612004244683441E-002
   4.1336049209486914E-003  -1.6838445027448357E-003   6.5272075130740403E-002
   9.2785073412593455E-003  -2.6811144286023048E-003   5.0009948740032617E-002
   7.8587997484831362E-003  -2.8433517650084950E-003   5.0396916742594389E-002
   6.4390921557069547E-003  -3.6071782566990118E-003   5.1115788733135603E-002
   5.0193845629307593E-003  -4.9725939036740288E-003   5.2166564711655788E-002
   3.5996769701545639E-003  -6.9395987059340802E-003   5.3549244678155028E-002
   7.8067654138216924E-003  -2.4317969471380207E-003   5.3943273726494878E-002
   6.6917671460532957E-003  -2.6266241977266902E-003   5.3871074470715208E-002
   5.5767688782848990E-003  -3.3311625802513456E-003   5.4076389876971553E-002
   4.4617706105164953E-003  -4.5454120947124588E-003   5.4559219945264414E-002
   3.3467723427481055E-003  -6.2693727411095024E-003   5.5319564675593402E-002
   6.4587010346240648E-003  -2.1824794656736257E-003   5.7798069787100087E-002
   5.5940227659207059E-003  -2.4098966304448299E-003   5.7358581296326705E-002
   4.7293444972173887E-003  -3.0551469038037765E-003   5.7142218141647230E-002
   3.8646662285140611E-003  -4.1182302857506632E-003   5.7148980323061184E-002
   2.9999879598107126E-003  -5.5991467762852021E-003   5.7378867840568976E-002
   5.2343142036663584E-003  -1.9331619842092307E-003   6.1574336921848861E-002
   4.5655666080853460E-003  -2.1931690631633860E-003   6.0859437219430268E-002
   3.8968190125043406E-003  -2.7791312273564364E-003   6.0313273527163008E-002
   3.2280714169233326E-003  -3.6910484767889804E-003   5.9935845845046638E-002
   2.5593238213423228E-003  -4.9289208114608740E-003   5.9727154173081005E-002
   4.1336049209486914E-003  -1.6838445027448357E-003   6.5272075130740403E-002
   3.6063986725472785E-003  -1.9764414958812759E-003   6.4373642240025508E-002
   3.0791924241458379E-003  -2.5031155509085690E-003   6.3589556033518901E-002
   2.5519861757444182E-003  -3.2638666678271380E-003   6.2919816511220500E-002
   2.0247799273429845E-003  -4.2586948466363239E-003   6.2364423673130220E-002
   3.5996769701545639E-003  -6.9395987059340802E-003   5.3549244678155028E-002
   4.1511767980544345E-003  -9.5262271953594491E-003   5.1874971658715130E-002
   4.7026766259542496E-003  -1.2750513903831778E-002   5.0054365613042717E-002
   5.2541764538541341E-003  -1.6612458831349160E-002   4.8087426541137651E-002
   5.8056762817539909E-003  -2.1112061977913932E-002   4.5974154443000348E-002
   3.3467723427481055E-003  -6.2693727411095024E-003   5.5319564675593402E-002
   3.7698377739370514E-003  -8.5360393780186117E-003   5.2962630996076954E-002
   4.1929032051260251E-003  -1.1378406864015672E-002   5.0495161549370726E-002
   4.6159686363149849E-003  -1.4796475199099927E-002   4.7917156335475414E-002
   5.0390340675038892E-003  -1.8790244383271704E-002   4.5228615354389934E-002
   2.9999879598107126E-003  -5.5991467762852021E-003   5.7378867840568976E-002
   3.3304162533315390E-003  -7.5458515606782739E-003   5.4401230870934514E-002
   3.6608445468523931E-003  -1.0006299824199774E-002   5.1348855393153439E-002
   3.9912728403731952E-003  -1.2980491566850303E-002   4.8221741407225578E-002
   4.3217011338941014E-003  -1.6468426788629476E-002   4.5019888913151007E-002
   2.5593238213423228E-003  -4.9289208114608740E-003   5.9727154173081005E-002
   2.8329122362378799E-003  -6.5556637433374643E-003   5.6190771283287498E-002
   3.1065006511334509E-003  -8.6341927843842162E-003   5.2615447144390426E-002
   3.3800890660290366E-003  -1.1164507934600542E-002   4.9001181756389650E-002
   3.6536774809245512E-003  -1.4146609193987247E-002   4.5347975119284595E-002
   2.0247799273429845E-003  -4.2586948466363239E-003   6.2364423673130220E-002
   2.2773257226560706E-003  -5.5654759259968767E-003   5.8331252233136843E-002
   2.5298715179691428E-003  -7.2620857445681586E-003   5.4294936803082172E-002
   2.7824173132822219E-003  -9.3485243023511549E-003   5.0255477382966651E-002
   3.0349631085953011E-003  -1.1824791599345019E-002   4.6212873972789836E-002
   2.4816974185471241E-002  -2.3356683283019597E-002   4.6736698404227561E-002
   2.3786930132320999E-002  -1.7875294818428950E-002   5.0152231146831316E-002
   2.2756886079170757E-002  -1.3736542469102692E-002   5.3261007924181369E-002
   2.1726842026020501E-002  -1.0940426235040511E-002   5.6063028736277914E-002
   2.0696797972870259E-002  -9.4869461162426227E-003   5.8558293583120979E-002
   2.0491061597475699E-002  -1.7517512359976672E-002   5.6891945112836850E-002
   1.9295328323238742E-002  -1.3406471052387792E-002   5.8021517383966381E-002
   1.8099595049001771E-002  -1.0302406820538956E-002   5.9126467178176018E-002
   1.6903861774764814E-002  -8.2053196644300413E-003   6.0206794495465774E-002
   1.5708128500527850E-002  -7.1152095840613105E-003   6.1262499335835691E-002
   1.4912928389341322E-002  -1.1678341436933831E-002   6.5509015144682381E-002
   1.3833639382351312E-002  -8.9376472863465922E-003   6.4688285983861893E-002
   1.2754350375361302E-002  -6.8682711719752348E-003   6.4125067834455249E-002
   1.1675061368371289E-002  -5.4702130938197140E-003   6.3819360696462379E-002
   1.0595772361381279E-002  -4.7434730518800816E-003   6.3771164569883201E-002
   8.0825745610681350E-003  -5.8391705138909344E-003   7.2587908499763959E-002
   7.4018633096587343E-003  -4.4688235203053997E-003   7.0152536946517671E-002
   6.7211520582493422E-003  -3.4341355234115897E-003   6.8256809893018994E-002
   6.0404408068399371E-003  -2.7351065232092599E-003   6.6900727339267704E-002
   5.3597295554305398E-003  -2.3717365196987833E-003   6.6084289285263845E-002
   1.1265610666555403E-010   4.0915193455504095E-010   7.8128625178081779E-002
   1.0516099102630960E-010   2.4573576506980999E-010   7.4414270271934035E-002
   9.7665871917618219E-011   1.2515218028585906E-010   7.1521693353867405E-002
   9.0170751074203359E-011   4.7401031016969242E-011   6.9450894423881901E-002
   8.2675633700235451E-011   1.2482403999314329E-011   6.8201873481977426E-002
   2.0696797972870259E-002  -9.4869461162426227E-003   5.8558293583120979E-002
   2.0236564135002258E-002  -8.7456420656196465E-003   5.8826721802130999E-002
   1.9776330297134263E-002  -8.0860540360822436E-003   5.9237732146132954E-002
   1.9316096459266265E-002  -7.5081820276307158E-003   5.9791324615126415E-002
   1.8855862621398267E-002  -7.0120260402645185E-003   6.0487499209111784E-002
   1.5708128500527850E-002  -7.1152095840613105E-003   6.1262499335835691E-002
   1.5383595870936566E-002  -6.5592315490545922E-003   6.1328858453291654E-002
   1.5059063241345285E-002  -6.0645405290318533E-003   6.1524037862309297E-002
   1.4734530611753996E-002  -5.6311365239933922E-003   6.1848037562888640E-002
   1.4409997982162720E-002  -5.2590195339388135E-003   6.2300857555029676E-002
   1.0595772361381279E-002  -4.7434730518800816E-003   6.3771164569883201E-002
   1.0393179106636598E-002  -4.3728210324896349E-003   6.3655883591886744E-002
   1.0190585851891925E-002  -4.0430270219815254E-003   6.3655661072021752E-002
   9.9879925971472459E-003  -3.7540910203561258E-003   6.3770497010288266E-002
   9.7853993424025718E-003  -3.5060130276130530E-003   6.4000391406686535E-002
   5.3597295554305398E-003  -2.3717365196987833E-003   6.6084289285263845E-002
   5.2653138421023668E-003  -2.1864105159244904E-003   6.5807797217916436E-002
   5.1708981287741859E-003  -2.0215135149311107E-003   6.5632601775270499E-002
   5.0764824154460085E-003  -1.8770455167188864E-003   6.5558702957325854E-002
   4.9820667021178312E-003  -1.7530065212873758E-003   6.5586100764082833E-002
   8.2675633700235451E-011   1.2482403999314329E-011   6.8201873481977426E-002
   7.7333851128402742E-011   6.4043215175502155E-013   6.7784599331380535E-002
   7.1992066821846556E-011  -7.8808209957870190E-012   6.7454859972055137E-002
   6.6650281647928633E-011  -1.3081567079575862E-011   6.7212655404001079E-002
   6.1308499943457662E-011  -1.4961587524453535E-011   6.7057985627218319E-002
   1.8855862621398267E-002  -7.0120260402645185E-003   6.0487499209111784E-002
   1.7901237977870132E-002  -6.5665573279706790E-003   6.0614101993795688E-002
   1.6946613334341998E-002  -6.1407471447358641E-003   6.0901279910324763E-002
   1.5991988690813849E-002  -5.7345954905598726E-003   6.1349032958699395E-002
   1.5037364047285715E-002  -5.3481023654429194E-003   6.1957361138919254E-002
   1.4409997982162720E-002  -5.2590195339388135E-003   6.2300857555029676E-002
   1.3635468727081934E-002  -4.9249179994918513E-003   6.2251045383145798E-002
   1.2860939472001148E-002  -4.6055603612762119E-003   6.2400848856311308E-002
   1.2086410216920355E-002  -4.3009466192915832E-003   6.2750267974526111E-002
   1.1311880961839577E-002  -4.0110767735380692E-003   6.3299302737790497E-002
   9.7853993424025718E-003  -3.5060130276130530E-003   6.4000391406686535E-002
   9.2300059889731528E-003  -3.2832786710129402E-003   6.3779078911062798E-002
   8.6746126355437304E-003  -3.0703735778163516E-003   6.3796422573692516E-002
   8.1192192821143185E-003  -2.8672977480230753E-003   6.4052422394575675E-002
   7.5638259286848995E-003  -2.6740511816332191E-003   6.4547078373712097E-002
   4.9820667021178312E-003  -1.7530065212873758E-003   6.5586100764082833E-002
   4.6848497635437955E-003  -1.6416393425342374E-003   6.5198202577547104E-002
   4.3876328249697590E-003  -1.5351867943565953E-003   6.5088001062468662E-002
   4.0904158863957155E-003  -1.4336488767547322E-003   6.5255496218847464E-002
   3.7931989478216859E-003  -1.3370255897283689E-003   6.5700688046684080E-002
   6.1308499943457662E-011  -1.4961587524453535E-011   6.7057985627218319E-002
   5.0793855232988960E-011  -1.4055256958300788E-011   6.6508416382598246E-002
   4.0279217461414163E-011  -1.0896838986695911E-011   6.6275584322639469E-002
   2.9764569281498510E-011  -5.4863336096389048E-012   6.6359489447342185E-002
   1.9249934979370664E-011   2.1765922397776194E-012   6.6760131756706365E-002
   1.5037364047285715E-002  -5.3481023654429194E-003   6.1957361138919254E-002
   1.4200537076281022E-002  -4.9456376363075094E-003   6.1860642975864411E-002
   1.3363710105276337E-002  -4.4915711700755923E-003   6.1961889760392130E-002
   1.2526883134271635E-002  -3.9859029667474732E-003   6.2261101492502469E-002
   1.1690056163266960E-002  -3.4286330263235687E-003   6.2758278172194926E-002
   1.1311880961839577E-002  -4.0110767735380692E-003   6.3299302737790497E-002
   1.0675829386843548E-002  -3.7092282248760156E-003   6.3227974595025715E-002
   1.0039777811847506E-002  -3.3686783741657955E-003   6.3360232296695601E-002
   9.4037262368514840E-003  -2.9894272214067222E-003   6.3696075842800515E-002
   8.7676746618554624E-003  -2.5714747665994686E-003   6.4235505233340151E-002
   7.5638259286848995E-003  -2.6740511816332191E-003   6.4547078373712097E-002
   7.1341706465498957E-003  -2.4728188134447437E-003   6.4488239816189563E-002
   6.7045153644148901E-003  -2.2457855782556657E-003   6.4638607999953995E-002
   6.2748600822798732E-003  -1.9929514760658046E-003   6.4998182925005754E-002
   5.8452048001448806E-003  -1.7143165068754795E-003   6.5566964591344756E-002
   3.7931989478216859E-003  -1.3370255897283689E-003   6.5700688046684080E-002
   3.5755608554000609E-003  -1.2364094020134719E-003   6.5641438639355870E-002
   3.3579227629784423E-003  -1.1228927823455359E-003   6.5797016870167147E-002
   3.1402846705568220E-003  -9.9647573072513679E-004   6.6167422739117882E-002
   2.9226465781351987E-003  -8.5715824715149047E-004   6.6752656246208353E-002
   1.9249934979370664E-011   2.1765922397776194E-012   6.6760131756706365E-002
   1.3394067105432228E-011   9.4180219178952029E-012   6.6687571064524664E-002
   7.5381957620468398E-012   1.3564371847962775E-011   6.6835458907334888E-002
   1.6823261533849276E-012   1.4615947341312108E-011   6.7203795285137091E-002
  -4.1735434552769846E-012   1.2572498597762660E-011   6.7792580197931218E-002
   1.1690056163266960E-002  -3.4286330263235687E-003   6.2758278172194926E-002
   1.0708732308262109E-002  -2.8893909487846536E-003   6.2803630297740720E-002
   9.7274084532572719E-003  -2.4378063341128353E-003   6.3058757850880942E-002
   8.7460845982524210E-003  -2.0738791823085578E-003   6.3523660831615425E-002
   7.7647607432475840E-003  -1.7976094933705999E-003   6.4198339239943780E-002
   8.7676746618554624E-003  -2.5714747665994686E-003   6.4235505233340151E-002
   8.0050151185438873E-003  -2.1670432092701364E-003   6.4212957602750420E-002
   7.2423555752323121E-003  -1.8283547489446605E-003   6.4417963167952924E-002
   6.4796960319207231E-003  -1.5554093856231938E-003   6.4850521928947788E-002
   5.7170364886091618E-003  -1.3482071193061662E-003   6.5510633885734804E-002
   5.8452048001448806E-003  -1.7143165068754795E-003   6.5566964591344756E-002
   5.3189873367246177E-003  -1.4446954697553693E-003   6.5498431570482213E-002
   4.7927698733043651E-003  -1.2189031637763748E-003   6.5675229513610184E-002
   4.2665524098841126E-003  -1.0369395889384958E-003   6.6097358420728392E-002
   3.7403349464638497E-003  -8.9880474524178799E-004   6.6764818291837003E-002
   2.9226465781351987E-003  -8.5715824715149047E-004   6.6752656246208353E-002
   2.6506489628043313E-003  -7.2234773024072718E-004   6.6660052200936223E-002
   2.3786513474734509E-003  -6.0945157860803345E-004   6.6830556887852346E-002
   2.1066537321425766E-003  -5.1846979225346479E-004   6.7264170306957069E-002
   1.8346561168117032E-003  -4.4940237117715998E-004   6.7960892458249975E-002
  -4.1735434552769846E-012   1.2572498597762660E-011   6.7792580197931218E-002
  -3.2169891750477575E-012   9.2738039469963951E-012   6.7697819494112466E-002
  -2.2604418337124343E-012   6.5601135634807406E-012   6.7883945290679870E-002
  -1.3038927576536352E-012   4.4314066305339850E-012   6.8350957587633931E-002
  -3.4734021214788413E-013   2.8871349755377196E-012   6.9098856384974261E-002
   7.7647607432475840E-003  -1.7976094933705999E-003   6.4198339239943780E-002
   6.8569717876728609E-003  -1.6161684633287376E-003   6.4075136299285074E-002
   5.9491828320981377E-003  -1.5367272882103600E-003   6.4213024634198423E-002
   5.0413938765234076E-003  -1.5592859680157584E-003   6.4612004244683441E-002
   4.1336049209486914E-003  -1.6838445027448357E-003   6.5272075130740403E-002
   5.7170364886091618E-003  -1.3482071193061662E-003   6.5510633885734804E-002
   5.0618027994511761E-003  -1.2121263470508126E-003   6.5360667775392622E-002
   4.4065691102931903E-003  -1.1525454659148116E-003   6.5454720922312276E-002
   3.7513354211352046E-003  -1.1694644758985240E-003   6.5792793326493224E-002
   3.0961017319772188E-003  -1.2628833770013115E-003   6.6374884987936311E-002
   3.7403349464638497E-003  -8.9880474524178799E-004   6.6764818291837003E-002
   3.3205845054124564E-003  -8.0808423077319280E-004   6.6613588975615562E-002
   2.9008340643610492E-003  -7.6836364361956844E-004   6.6689306898345652E-002
   2.4810836233096403E-003  -7.7964298378106062E-004   6.6991972060027161E-002
   2.0613331822582348E-003  -8.4192225125784281E-004   6.7521584460660228E-002
   1.8346561168117032E-003  -4.4940237117715998E-004   6.7960892458249975E-002
   1.6333169055567070E-003  -4.0404211449530936E-004   6.7833899899953906E-002
   1.4319776943017108E-003  -3.8418182132445022E-004   6.7916782562299105E-002
   1.2306384830467212E-003  -3.8982149166387828E-004   6.8209540445285294E-002
   1.0292992717917185E-003  -4.2096112551440190E-004   6.8712173548913347E-002
  -3.4734021214788413E-013   2.8871349755377196E-012   6.9098856384974261E-002
  -1.1608769501236793E-013   1.7822410214307638E-012   6.9021600548407447E-002
   1.1517523046400413E-013   9.7116759079085568E-013   6.9137147914171970E-002
   3.4643468649342424E-013   4.5340120546910612E-013   6.9445498482267581E-002
   5.7769067307589239E-013   2.2915003228263231E-013   6.9946652252694475E-002
   4.1336049209486914E-003  -1.6838445027448357E-003   6.5272075130740403E-002
   3.6063986725472785E-003  -1.9764414958812759E-003   6.4373642240025508E-002
   3.0791924241458379E-003  -2.5031155509085690E-003   6.3589556033518901E-002
   2.5519861757444182E-003  -3.2638666678271380E-003   6.2919816511220500E-002
   2.0247799273429845E-003  -4.2586948466363239E-003   6.2364423673130220E-002
   3.0961017319772188E-003  -1.2628833770013115E-003   6.6374884987936311E-002
   2.6876058872498804E-003  -1.4823311218731261E-003   6.5278733026784719E-002
   2.2791100425225350E-003  -1.8773366631643362E-003   6.4305655188773347E-002
   1.8706141977951896E-003  -2.4479000008740745E-003   6.3455651473901781E-002
   1.4621183530678511E-003  -3.1940211350023340E-003   6.2728721882170158E-002
   2.0613331822582348E-003  -8.4192225125784281E-004   6.7521584460660228E-002
   1.7802751801366985E-003  -9.8822074786525382E-004   6.6286232694544561E-002
   1.4992171780151657E-003  -1.2515577754195345E-003   6.5182682490500479E-002
   1.2181591758936277E-003  -1.6319333339206744E-003   6.4210933848528134E-002
   9.3710117377209662E-004  -2.1293474233683440E-003   6.3370986768627124E-002
   1.0292992717917185E-003  -4.2096112551440190E-004   6.8712173548913347E-002
   8.8440655120772781E-004  -4.9411037385729828E-004   6.7396141243304925E-002
   7.3951383062372759E-004  -6.2577888767485074E-004   6.6220637938700186E-002
   5.9462111003972520E-004  -8.1596666696744265E-004   6.5185663635098728E-002
   4.4972838945572281E-004  -1.0646737117343541E-003   6.4291218332500330E-002
   5.7769067307589239E-013   2.2915003228263231E-013   6.9946652252694475E-002
   4.6296300126869028E-013   1.5076828674409626E-013   6.8608458673065753E-002
   3.4821451277977644E-013   6.9583228068381686E-014   6.7419521533372440E-002
   2.3347990207867042E-013  -1.4356571487184056E-014   6.6379840833614395E-002
   1.1873835248366049E-013  -1.0025313912365164E-013   6.5489416573791037E-002
   2.0247799273429845E-003  -4.2586948466363239E-003   6.2364423673130220E-002
   2.2773257226560706E-003  -5.5654759259968767E-003   5.8331252233136843E-002
   2.5298715179691428E-003  -7.2620857445681586E-003   5.4294936803082172E-002
   2.7824173132822219E-003  -9.3485243023511549E-003   5.0255477382966651E-002
   3.0349631085953011E-003  -1.1824791599345019E-002   4.6212873972789836E-002
   1.4621183530678511E-003  -3.1940211350023340E-003   6.2728721882170158E-002
   1.6965220436288703E-003  -4.1741069445481171E-003   5.8377096575652265E-002
   1.9309257341899172E-003  -5.4465643085079840E-003   5.3992331049690812E-002
   2.1653294247509607E-003  -7.0113932268834334E-003   4.9574425304286601E-002
   2.3997331153119694E-003  -8.8685936996737436E-003   4.5123379339439440E-002
   9.3710117377209662E-004  -2.1293474233683440E-003   6.3370986768627124E-002
   1.1233665301991214E-003  -2.7827379630990245E-003   5.8798364780380502E-002
   1.3096318866261288E-003  -3.6310428724481703E-003   5.4162606343309105E-002
   1.4958972430531379E-003  -4.6742621514160518E-003   4.9463711457412241E-002
   1.6821625994801748E-003  -5.9123958000024679E-003   4.4701680122690823E-002
   4.4972838945572281E-004  -1.0646737117343541E-003   6.4291218332500330E-002
   5.5785918236676314E-004  -1.3913689816499875E-003   5.9595056847322150E-002
   6.6598997527779567E-004  -1.8155214363882871E-003   5.4805762683936311E-002
   7.7412076818882862E-004  -2.3371310759485002E-003   4.9923335842343375E-002
   8.8225156109986852E-004  -2.9561979003311922E-003   4.4947776322543986E-002
   1.1873835248366049E-013  -1.0025313912365164E-013   6.5489416573791037E-002
   1.3182510638642952E-013  -2.0128343436454088E-013   6.0767172776476475E-002
   1.4491879918310246E-013  -3.2826519280604316E-013   5.5921800071573047E-002
   1.5802463504410724E-013  -4.8113596440302331E-013   5.0953298459080282E-002
   1.7109924588254444E-013  -6.5991656583719305E-013   4.5861667938999595E-002
   1.1265610666555403E-010   4.0915193455504095E-010   7.8128625178081779E-002
   1.0516099102630960E-010   2.4573576506980999E-010   7.4414270271934035E-002
   9.7665871917618219E-011   1.2515218028585906E-010   7.1521693353867405E-002
   9.0170751074203359E-011   4.7401031016969242E-011   6.9450894423881901E-002
   8.2675633700235451E-011   1.2482403999314329E-011   6.8201873481977426E-002
  -8.0825743424253298E-003   5.8391711113768840E-003   7.2587908261230433E-002
  -7.4018631052036217E-003   4.4688238878450026E-003   7.0152536767205897E-002
  -6.7211518679819206E-003   3.4341357188554661E-003   6.8256809774533786E-002
  -6.0404406307602281E-003   2.7351066044081530E-003   6.6900727283214279E-002
  -5.3597293935385253E-003   2.3717365445031224E-003   6.6084289293247167E-002
  -1.4912928190706727E-002   1.1678341813601778E-002   6.5509014778408800E-002
  -1.3833639195496794E-002   8.9376475299542540E-003   6.4688285708216983E-002
  -1.2754350200286868E-002   6.8682713125587727E-003   6.4125067652649193E-002
  -1.1675061205076939E-002   5.4702131614153011E-003   6.3819360611705331E-002
  -1.0595772209867009E-002   4.7434730765238686E-003   6.3771164585385384E-002
  -2.0491061432188123E-002   1.7517512515826714E-002   5.6891944729616395E-002
  -1.9295328165718540E-002   1.3406471172063485E-002   5.8021517094967348E-002
  -1.8099594899248981E-002   1.0302406906262180E-002   5.9126466988213472E-002
  -1.6903861632779401E-002   8.2053197184224352E-003   6.0206794409355141E-002
  -1.5708128366309831E-002   7.1152096085446287E-003   6.1262499358392009E-002
  -2.4816974066869474E-002   2.3356683218051622E-002   4.6736698114853537E-002
  -2.3786930015868839E-002   1.7875294814172688E-002   5.0152230927456742E-002
  -2.2756885964868231E-002   1.3736542499965407E-002   5.3261007781226805E-002
  -2.1726841913867603E-002   1.0940426275429568E-002   5.6063028676163598E-002
  -2.0696797862866982E-002   9.4869461405652777E-003   5.8558293612267220E-002
   8.2675633700235451E-011   1.2482403999314329E-011   6.8201873481977426E-002
   7.7333851128402742E-011   6.4043215175502155E-013   6.7784599331380535E-002
   7.1992066821846556E-011  -7.8808209957870190E-012   6.7454859972055137E-002
   6.6650281647928633E-011  -1.3081567079575862E-011   6.7212655404001079E-002
   6.1308499943457662E-011  -1.4961587524453535E-011   6.7057985627218319E-002
  -5.3597293935385253E-003   2.3717365445031224E-003   6.6084289293247167E-002
  -5.2653136906274283E-003   2.1864105167926501E-003   6.5807797226101153E-002
  -5.1708979877163330E-003   2.0215134989286648E-003   6.5632601784189615E-002
  -5.0764822848052412E-003   1.8770454909111424E-003   6.5558702967512539E-002
  -4.9820665818941408E-003   1.7530064927403499E-003   6.5586100776069745E-002
  -1.0595772209867009E-002   4.7434730765238686E-003   6.3771164585385384E-002
  -1.0393178964739961E-002   4.3728210329447015E-003   6.3655883608216113E-002
  -1.0190585719612915E-002   4.0430270057381021E-003   6.3655661090244370E-002
  -9.9879924744858597E-003   3.7540909949038536E-003   6.3770497031470127E-002
  -9.7853992293588186E-003   3.5060130004422319E-003   6.4000391431893400E-002
  -1.5708128366309831E-002   7.1152096085446287E-003   6.1262499358392009E-002
  -1.5383595745003748E-002   6.5592315490968361E-003   6.1328858477725443E-002
  -1.5059063123697671E-002   6.0645405125475359E-003   6.1524037890219471E-002
  -1.4734530502391605E-002   5.6311364988966472E-003   6.1848037595873977E-002
  -1.4409997881085526E-002   5.2590195081441138E-003   6.2300857594689202E-002
  -2.0696797862866982E-002   9.4869461405652777E-003   5.8558293612267220E-002
  -2.0236564031418804E-002   8.7456420652489431E-003   5.8826721834629170E-002
  -1.9776330199970625E-002   8.0860540193570668E-003   5.9237732184114850E-002
  -1.9316096368522443E-002   7.5081820028892847E-003   5.9791324660724135E-002
  -1.8855862537074268E-002   7.0120260158461067E-003   6.0487499264457123E-002
   6.1308499943457662E-011  -1.4961587524453535E-011   6.7057985627218319E-002
   5.0793855232988960E-011  -1.4055256958300788E-011   6.6508416382598246E-002
   4.0279217461414163E-011  -1.0896838986695911E-011   6.6275584322639469E-002
   2.9764569281498510E-011  -5.4863336096389048E-012   6.6359489447342185E-002
   1.9249934979370664E-011   2.1765922397776194E-012   6.6760131756706365E-002
  -4.9820665818941408E-003   1.7530064927403499E-003   6.5586100776069745E-002
  -4.6848496638973430E-003   1.6416393164574439E-003   6.5198202589128507E-002
  -4.3876327459005469E-003   1.5351867741043024E-003   6.5088001074548679E-002
  -4.0904158279037456E-003   1.4336488656805507E-003   6.5255496232330415E-002
  -3.7931989099069530E-003   1.3370255911862028E-003   6.5700688062473533E-002
  -9.7853992293588186E-003   3.5060130004422319E-003   6.4000391431893400E-002
  -9.2300058951505087E-003   3.2832786469702835E-003   6.3779078934308259E-002
  -8.6746125609421972E-003   3.0703735591052217E-003   6.3796422596784835E-002
  -8.1192192267338925E-003   2.8672977368471020E-003   6.4052422419322977E-002
  -7.5638258925255844E-003   2.6740511801958688E-003   6.4547078401922559E-002
  -1.4409997881085526E-002   5.2590195081441138E-003   6.2300857594689202E-002
  -1.3635468642965637E-002   4.9249179774830537E-003   6.2251045418137710E-002
  -1.2860939404845735E-002   4.6055603441063353E-003   6.2400848889347965E-002
  -1.2086410166725844E-002   4.3009466080135422E-003   6.2750268008319759E-002
  -1.1311880928605966E-002   4.0110767692055627E-003   6.3299302775053190E-002
  -1.8855862537074268E-002   7.0120260158461067E-003   6.0487499264457123E-002
  -1.7901237907342729E-002   6.5665573079958239E-003   6.0614102040616624E-002
  -1.6946613277611159E-002   6.1407471291073379E-003   6.0901279952237930E-002
  -1.5991988647879610E-002   5.7345954791804404E-003   6.1349032999321013E-002
  -1.5037364018148050E-002   5.3481023582152010E-003   6.1957361181865622E-002
   1.9249934979370664E-011   2.1765922397776194E-012   6.6760131756706365E-002
   1.3394067105432228E-011   9.4180219178952029E-012   6.6687571064524664E-002
   7.5381957620468398E-012   1.3564371847962775E-011   6.6835458907334888E-002
   1.6823261533849276E-012   1.4615947341312108E-011   6.7203795285137091E-002
  -4.1735434552769846E-012   1.2572498597762660E-011   6.7792580197931218E-002
  -3.7931989099069530E-003   1.3370255911862028E-003   6.5700688062473533E-002
  -3.5755608289622653E-003   1.2364094152645666E-003   6.5641438648699174E-002
  -3.3579227480175777E-003   1.1228928025589779E-003   6.5797016873534148E-002
  -3.1402846670728892E-003   9.9647575306908293E-004   6.6167422736978149E-002
  -2.9226465861281956E-003   8.5715826679488849E-004   6.6752656239031427E-002
  -7.5638258925255844E-003   2.6740511801958688E-003   6.4547078401922559E-002
  -7.1341706211630902E-003   2.4728188211113888E-003   6.4488239832866306E-002
  -6.7045153498005933E-003   2.2457855915535840E-003   6.4638608006036435E-002
  -6.2748600784380965E-003   1.9929514915221630E-003   6.4998182921433070E-002
  -5.8452048070756022E-003   1.7143165210173339E-003   6.5566964579056142E-002
  -1.1311880928605966E-002   4.0110767692055627E-003   6.3299302775053190E-002
  -1.0675829363208402E-002   3.7092282269581833E-003   6.3227974617025812E-002
  -1.0039777797810850E-002   3.3686783805480791E-003   6.3360232304842015E-002
  -9.4037262324132911E-003   2.9894272299753263E-003   6.3696075838501981E-002
  -8.7676746670157391E-003   2.5714747752397515E-003   6.4235505218005584E-002
  -1.5037364018148050E-002   5.3481023582152010E-003   6.1957361181865622E-002
  -1.4200537055098193E-002   4.9456376328048668E-003   6.1860643001177829E-002
  -1.3363710092048342E-002   4.4915711695426991E-003   6.1961889769950790E-002
  -1.2526883128998498E-002   3.9859029684284654E-003   6.2261101488184686E-002
  -1.1690056165948634E-002   3.4286330294621692E-003   6.2758278155879643E-002
  -4.1735434552769846E-012   1.2572498597762660E-011   6.7792580197931218E-002
  -3.2169891750477575E-012   9.2738039469963951E-012   6.7697819494112466E-002
  -2.2604418337124343E-012   6.5601135634807406E-012   6.7883945290679870E-002
  -1.3038927576536352E-012   4.4314066305339850E-012   6.8350957587633931E-002
  -3.4734021214788413E-013   2.8871349755377196E-012   6.9098856384974261E-002
  -2.9226465861281956E-003   8.5715826679488849E-004   6.6752656239031427E-002
  -2.6506489689564240E-003   7.2234774513241229E-004   6.6660052195344432E-002
  -2.3786513517846559E-003   6.0945158947708911E-004   6.6830556883701514E-002
  -2.1066537346128801E-003   5.1846979982896751E-004   6.7264170304102644E-002
  -1.8346561174411163E-003   4.4940237618762424E-004   6.7960892456547684E-002
  -5.8452048070756022E-003   1.7143165210173339E-003   6.5566964579056142E-002
  -5.3189873420310682E-003   1.4446954809905210E-003   6.5498431560923553E-002
  -4.7927698769865213E-003   1.2189031723934957E-003   6.5675229506492752E-002
  -4.2665524119419821E-003   1.0369395952261364E-003   6.6097358415763419E-002
  -3.7403349468974542E-003   8.9880474948828004E-004   6.6764818288735511E-002
  -8.7676746670157391E-003   2.5714747752397515E-003   6.4235505218005584E-002
  -8.0050151224409019E-003   2.1670432168489351E-003   6.4212957590850023E-002
  -7.2423555778660473E-003   1.8283547553100202E-003   6.4417963159053460E-002
  -6.4796960332912084E-003   1.5554093906235012E-003   6.4850521922616186E-002
  -5.7170364887163556E-003   1.3482071227888526E-003   6.5510633881537772E-002
  -1.1690056165948634E-002   3.4286330294621692E-003   6.2758278155879643E-002
  -1.0708732310185931E-002   2.8893909527070161E-003   6.2803630285123369E-002
  -9.7274084544232350E-003   2.4378063382267667E-003   6.3058757841383706E-002
  -8.7460845986605425E-003   2.0738791860208938E-003   6.3523660824660849E-002
  -7.7647607428978430E-003   1.7976094960893141E-003   6.4198339234954327E-002
  -3.4734021214788413E-013   2.8871349755377196E-012   6.9098856384974261E-002
  -1.1608769501236793E-013   1.7822410214307638E-012   6.9021600548407447E-002
   1.1517523046400413E-013   9.7116759079085568E-013   6.9137147914171970E-002
   3.4643468649342424E-013   4.5340120546910612E-013   6.9445498482267581E-002
   5.7769067307589239E-013   2.2915003228263231E-013   6.9946652252694475E-002
  -1.8346561174411163E-003   4.4940237618762424E-004   6.7960892456547684E-002
  -1.6333169057509075E-003   4.0404211756794872E-004   6.7833899898910532E-002
  -1.4319776940607022E-003   3.8418182298410875E-004   6.7916782561860400E-002
  -1.2306384823704995E-003   3.8982149243525777E-004   6.8209540445396954E-002
  -1.0292992706802881E-003   4.2096112592227009E-004   6.8712173549520195E-002
  -3.7403349468974542E-003   8.9880474948828004E-004   6.6764818288735511E-002
  -3.3205845054927411E-003   8.0808423335404500E-004   6.6613588973770149E-002
  -2.9008340640880462E-003   7.6836364499718868E-004   6.6689306897647016E-002
  -2.4810836226833556E-003   7.7964298441756535E-004   6.6991972060366264E-002
  -2.0613331812786521E-003   8.4192225161527912E-004   6.7521584461927714E-002
  -5.7170364887163556E-003   1.3482071227888526E-003   6.5510633881537772E-002
  -5.0618027993416300E-003   1.2121263491401135E-003   6.5360667772985742E-002
  -4.4065691099668836E-003   1.1525454670101992E-003   6.5454720921531762E-002
  -3.7513354205921511E-003   1.1694644763995364E-003   6.5792793327175525E-002
  -3.0961017312174121E-003   1.2628833773082326E-003   6.6374884989917032E-002
  -7.7647607428978430E-003   1.7976094960893141E-003   6.4198339234954327E-002
  -6.8569717872975153E-003   1.6161684649259045E-003   6.4075136296557811E-002
  -5.9491828316972015E-003   1.5367272890232098E-003   6.4213024633514637E-002
  -5.0413938760968773E-003   1.5592859683815630E-003   6.4612004245824778E-002
  -4.1336049204965600E-003   1.6838445030012972E-003   6.5272075133488316E-002
   5.7769067307589239E-013   2.2915003228263231E-013   6.9946652252694475E-002
   4.6296300126869028E-013   1.5076828674409626E-013   6.8608458673065753E-002
   3.4821451277977644E-013   6.9583228068381686E-014   6.7419521533372440E-002
   2.3347990207867042E-013  -1.4356571487184056E-014   6.6379840833614395E-002
   1.1873835248366049E-013  -1.0025313912365164E-013   6.5489416573791037E-002
  -1.0292992706802881E-003   4.2096112592227009E-004   6.8712173549520195E-002
  -8.8440655031853110E-004   4.9411037415530989E-004   6.7396141243819541E-002
  -7.3951382995677412E-004   6.2577888784476343E-004   6.6220637939137017E-002
  -5.9462110959500238E-004   8.1596666699151887E-004   6.5185663635472541E-002
  -4.4972838923324626E-004   1.0646737115941329E-003   6.4291218332825695E-002
  -2.0613331812786521E-003   8.4192225161527912E-004   6.7521584461927714E-002
  -1.7802751793576429E-003   9.8822074815974048E-004   6.6286232695614539E-002
  -1.4992171774366294E-003   1.2515577756201796E-003   6.5182682491402091E-002
  -1.2181591755156245E-003   1.6319333339963986E-003   6.4210933849290192E-002
  -9.3710117359460665E-004   2.1293474232889076E-003   6.3370986769278964E-002
  -3.0961017312174121E-003   1.2628833773082326E-003   6.6374884989917032E-002
  -2.6876058866543984E-003   1.4823311221640045E-003   6.5278733028450470E-002
  -2.2791100420913842E-003   1.8773366633953667E-003   6.4305655190167468E-002
  -1.8706141975283635E-003   2.4479000010018872E-003   6.3455651475067848E-002
  -1.4621183529653567E-003   3.1940211349837100E-003   6.2728721883151178E-002
  -4.1336049204965600E-003   1.6838445030012972E-003   6.5272075133488316E-002
  -3.6063986722087785E-003   1.9764414961687127E-003   6.4373642242327778E-002
  -3.0791924239210074E-003   2.5031155511706371E-003   6.3589556035433370E-002
  -2.5519861756332276E-003   3.2638666680072301E-003   6.2919816512804955E-002
  -2.0247799273454548E-003   4.2586948466782903E-003   6.2364423674442948E-002
   1.1873835248366049E-013  -1.0025313912365164E-013   6.5489416573791037E-002
   1.3182510638642952E-013  -2.0128343436454088E-013   6.0767172776476475E-002
   1.4491879918310246E-013  -3.2826519280604316E-013   5.5921800071573047E-002
   1.5802463504410724E-013  -4.8113596440302331E-013   5.0953298459080282E-002
   1.7109924588254444E-013  -6.5991656583719305E-013   4.5861667938999595E-002
  -4.4972838923324626E-004   1.0646737115941329E-003   6.4291218332825695E-002
  -5.5785918211568794E-004   1.3913689813140895E-003   5.9595056847570382E-002
  -6.6598997499814003E-004   1.8155214358112071E-003   5.4805762684113135E-002
  -7.7412076788058084E-004   2.3371310750847363E-003   4.9923335842453898E-002
  -8.8225156076303379E-004   2.9561978991359261E-003   4.4947776322592281E-002
  -9.3710117359460665E-004   2.1293474232889076E-003   6.3370986769278964E-002
  -1.1233665299857920E-003   2.7827379628292959E-003   5.8798364780886431E-002
  -1.3096318863769895E-003   3.6310428719501103E-003   5.4162606343678601E-002
  -1.4958972427681874E-003   4.6742621506507161E-003   4.9463711457655789E-002
  -1.6821625991593724E-003   5.9123957989317688E-003   4.4701680122816501E-002
  -1.4621183529653567E-003   3.1940211349837100E-003   6.2728721883151178E-002
  -1.6965220434785044E-003   4.1741069443448076E-003   5.8377096576424689E-002
  -1.9309257339916448E-003   5.4465643080890760E-003   5.3992331050269515E-002
  -2.1653294245047887E-003   7.0113932262169752E-003   4.9574425304685456E-002
  -2.3997331150179468E-003   8.8685936987276115E-003   4.5123379339673225E-002
  -2.0247799273454548E-003   4.2586948466782903E-003   6.2364423674442948E-002
  -2.2773257225937732E-003   5.5654759258597641E-003   5.8331252234185005E-002
  -2.5298715178420916E-003   7.2620857442283748E-003   5.4294936803885196E-002
  -2.7824173130903858E-003   9.3485243017823738E-003   5.0255477383544078E-002
  -3.0349631083387285E-003   1.1824791598523454E-002   4.6212873973160207E-002
  -2.4816974066869474E-002   2.3356683218051622E-002   4.6736698114853537E-002
  -2.3786930015868839E-002   1.7875294814172688E-002   5.0152230927456742E-002
  -2.2756885964868231E-002   1.3736542499965407E-002   5.3261007781226805E-002
  -2.1726841913867603E-002   1.0940426275429568E-002   5.6063028676163598E-002
  -2.0696797862866982E-002   9.4869461405652777E-003   5.8558293612267220E-002
  -2.9211563704146098E-002   1.6609596957360917E-002   4.4577510856958685E-002
  -2.8351069511232140E-002   1.3950884211362841E-002   4.7710880635598224E-002
  -2.7490575318318146E-002   1.1889946330253851E-002   5.0811906656897790E-002
  -2.6630081125404138E-002   1.0426783314034040E-002   5.3880588920857418E-002
  -2.5769586932490166E-002   9.5613951627034344E-003   5.6916927427477032E-002
  -3.4995727953413443E-002   9.8625106966701848E-003   4.5613429869335573E-002
  -3.4030371417092795E-002   1.0026473608552841E-002   4.7719775389229266E-002
  -3.3065014880772181E-002   1.0043350160542273E-002   5.0068189353276081E-002
  -3.2099658344451540E-002   9.9131403526385147E-003   5.2658671761476136E-002
  -3.1134301808130906E-002   9.6358441848415632E-003   5.5491222613829438E-002
  -4.2169466814671333E-002   3.1154244359794664E-003   4.9844455151984463E-002
  -4.0824835733450825E-002   6.1020630057428901E-003   5.0178915188349715E-002
  -3.9480204652230365E-002   8.1967539908307067E-003   5.1029855870361504E-002
  -3.8135573571009912E-002   9.3994973912429891E-003   5.2397277198019572E-002
  -3.6790942489789417E-002   9.7102932069796782E-003   5.4281179171324287E-002
  -5.0732780287919832E-002  -3.6316618247112520E-003   5.7270586704905424E-002
  -4.8734462460306216E-002   2.1776524029328836E-003   5.5088300032959947E-002
  -4.6736144632692669E-002   6.3501578211191262E-003   5.3696906208154122E-002
  -4.4737826805079088E-002   8.8858544298474583E-003   5.3096405230488017E-002
  -4.2739508977465521E-002   9.7847422291177932E-003   5.3286797099961647E-002
  -2.0696797862866982E-002   9.4869461405652777E-003   5.8558293612267220E-002
  -2.0236564031418804E-002   8.7456420652489431E-003   5.8826721834629170E-002
  -1.9776330199970625E-002   8.0860540193570668E-003   5.9237732184114850E-002
  -1.9316096368522443E-002   7.5081820028892847E-003   5.9791324660724135E-002
  -1.8855862537074268E-002   7.0120260158461067E-003   6.0487499264457123E-002
  -2.5769586932490166E-002   9.5613951627034344E-003   5.6916927427477032E-002
  -2.5153033623421535E-002   9.0140245697042792E-003   5.6967155334917238E-002
  -2.4536480314352946E-002   8.5049142284787382E-003   5.7187440070474618E-002
  -2.3919927005284357E-002   8.0340641390271098E-003   5.7577781634149221E-002
  -2.3303373696215726E-002   7.6014743013491648E-003   5.8138180025940955E-002
  -3.1134301808130906E-002   9.6358441848415632E-003   5.5491222613829438E-002
  -3.0333954320448372E-002   9.2824070741596015E-003   5.5279794428697182E-002
  -2.9533606832765805E-002   8.9237744376006942E-003   5.5265897772675647E-002
  -2.8733259345083268E-002   8.5599462751649365E-003   5.5449532645764743E-002
  -2.7932911857400704E-002   8.1909225868521951E-003   5.5830699047964755E-002
  -3.6790942489789417E-002   9.7102932069796782E-003   5.4281179171324287E-002
  -3.5779326122499330E-002   9.5507895786148198E-003   5.3764639115968897E-002
  -3.4767709755209264E-002   9.3426346467224246E-003   5.3473105290717846E-002
  -3.3756093387919191E-002   9.0858284113026523E-003   5.3406577695571056E-002
  -3.2744477020629104E-002   8.7803708723553225E-003   5.3565056330528660E-002
  -4.2739508977465521E-002   9.7847422291177932E-003   5.3286797099961647E-002
  -4.1489149029574401E-002   9.8191720830702323E-003   5.2421689396732529E-002
  -4.0238789081683261E-002   9.7614948558443215E-003   5.1809062624601332E-002
  -3.8988429133792121E-002   9.6117105474405606E-003   5.1448916783567930E-002
  -3.7738069185900974E-002   9.3698191578582835E-003   5.1341251873632310E-002
  -1.8855862537074268E-002   7.0120260158461067E-003   6.0487499264457123E-002
  -1.7901237907342729E-002   6.5665573079958239E-003   6.0614102040616624E-002
  -1.6946613277611159E-002   6.1407471291073379E-003   6.0901279952237930E-002
  -1.5991988647879610E-002   5.7345954791804404E-003   6.1349032999321013E-002
  -1.5037364018148050E-002   5.3481023582152010E-003   6.1957361181865622E-002
  -2.3303373696215726E-002   7.6014743013491648E-003   5.8138180025940955E-002
  -2.2177416648209755E-002   7.1894775786088272E-003   5.8104805336401499E-002
  -2.1051459600203732E-002   6.7804068339703399E-003   5.8253520347949339E-002
  -1.9925502552197754E-002   6.3742620674333943E-003   5.8584325060584155E-002
  -1.8799545504191738E-002   5.9710432789981671E-003   5.9097219474306462E-002
  -2.7932911857400704E-002   8.1909225868521951E-003   5.5830699047964755E-002
  -2.6614107825494740E-002   7.8123978492218304E-003   5.5620614341866284E-002
  -2.5295303793588807E-002   7.4200665388333420E-003   5.5614133902480517E-002
  -2.3976499761682871E-002   7.0139286556864591E-003   5.5811257729807370E-002
  -2.2657695729776880E-002   6.5939841997811055E-003   5.6211985823847080E-002
  -3.2744477020629104E-002   8.7803708723553225E-003   5.3565056330528660E-002
  -3.1211311439197708E-002   8.4353181198349170E-003   5.3161529057011089E-002
  -2.9678145857766288E-002   8.0597262436962885E-003   5.2983120615831845E-002
  -2.8144980276334879E-002   7.6535952439393574E-003   5.3029831006990782E-002
  -2.6611814694903473E-002   7.2169251205641688E-003   5.3301660230487963E-002
  -3.7738069185900974E-002   9.3698191578582835E-003   5.1341251873632310E-002
  -3.5969027489318628E-002   9.0582383904478925E-003   5.0727549481835776E-002
  -3.4199985792736240E-002   8.6993859485593322E-003   5.0360480488003068E-002
  -3.2430944096153866E-002   8.2932618321925576E-003   5.0240044892133892E-002
  -3.0661902399571492E-002   7.8398660413469545E-003   5.0366242694228569E-002
  -1.5037364018148050E-002   5.3481023582152010E-003   6.1957361181865622E-002
  -1.4200537055098193E-002   4.9456376328048668E-003   6.1860643001177829E-002
  -1.3363710092048342E-002   4.4915711695426991E-003   6.1961889769950790E-002
  -1.2526883128998498E-002   3.9859029684284654E-003   6.2261101488184686E-002
  -1.1690056165948634E-002   3.4286330294621692E-003   6.2758278155879643E-002
  -1.8799545504191738E-002   5.9710432789981671E-003   5.9097219474306462E-002
  -1.7767200555450911E-002   5.5550767202792450E-003   5.8862073962046707E-002
  -1.6734855606710067E-002   5.1106886428911452E-003   5.8819999471707685E-002
  -1.5702510657969234E-002   4.6378790468338364E-003   5.8970996003289866E-002
  -1.4670165709228397E-002   4.1366479321072180E-003   5.9315063556793168E-002
  -2.2657695729776880E-002   6.5939841997811055E-003   5.6211985823847080E-002
  -2.1434726722884972E-002   6.1645158077535123E-003   5.5861593199198187E-002
  -2.0211757715993019E-002   5.7298061162395844E-003   5.5699377668930176E-002
  -1.8988788709101076E-002   5.2898551252390947E-003   5.5725339233043472E-002
  -1.7765819702209158E-002   4.8446628347522669E-003   5.5939477891537914E-002
  -2.6611814694903473E-002   7.2169251205641688E-003   5.3301660230487963E-002
  -2.5203115557400284E-002   6.7739548952279460E-003   5.2859200712632434E-002
  -2.3794416419897157E-002   6.3489235895880271E-003   5.2600024361618244E-002
  -2.2385717282394010E-002   5.9418312036445759E-003   5.2524131177445241E-002
  -2.0977018144890870E-002   5.5526777373973157E-003   5.2631521160113603E-002
  -3.0661902399571492E-002   7.8398660413469545E-003   5.0366242694228569E-002
  -2.9072367058997003E-002   7.3833939827021022E-003   4.9854896502349422E-002
  -2.7482831718422536E-002   6.9680410629365114E-003   4.9521939549771771E-002
  -2.5893296377848044E-002   6.5938072820497899E-003   4.9367371836495463E-002
  -2.4303761037273580E-002   6.2606926400423646E-003   4.9391193362520514E-002
  -1.1690056165948634E-002   3.4286330294621692E-003   6.2758278155879643E-002
  -1.0708732310185931E-002   2.8893909527070161E-003   6.2803630285123369E-002
  -9.7274084544232350E-003   2.4378063382267667E-003   6.3058757841383706E-002
  -8.7460845986605425E-003   2.0738791860208938E-003   6.3523660824660849E-002
  -7.7647607428978430E-003   1.7976094960893141E-003   6.4198339234954327E-002
  -1.4670165709228397E-002   4.1366479321072180E-003   5.9315063556793168E-002
  -1.3479049306296103E-002   3.6429281275522363E-003   5.9310439157132355E-002
  -1.2287932903363840E-002   3.1926524620094765E-003   5.9515624424793911E-002
  -1.1096816500431530E-002   2.7858209354789595E-003   5.9930619359778226E-002
  -9.9057000974992551E-003   2.4224335479610115E-003   6.0555423962084853E-002
  -1.7765819702209158E-002   4.8446628347522669E-003   5.5939477891537914E-002
  -1.6364876511801324E-002   4.3964653023972344E-003   5.5840663639710242E-002
  -1.4963933321393548E-002   3.9474985857922973E-003   5.5951693295510918E-002
  -1.3562990130985730E-002   3.4977626849374138E-003   5.6272566858940012E-002
  -1.2162046940577938E-002   3.0472575998325424E-003   5.6803284329997816E-002
  -2.0977018144890870E-002   5.5526777373973157E-003   5.2631521160113603E-002
  -1.9366213926701636E-002   5.1500024772423436E-003   5.2394303732856841E-002
  -1.7755409708512412E-002   4.7023447095752291E-003   5.2366964453534365E-002
  -1.6144605490323177E-002   4.2097044343958404E-003   5.2549503322146446E-002
  -1.4533801272133955E-002   3.6720816517040455E-003   5.2941920338692577E-002
  -2.4303761037273580E-002   6.2606926400423646E-003   4.9391193362520514E-002
  -2.2483061550996969E-002   5.9035396520873418E-003   4.8971359436572437E-002
  -2.0662362064720399E-002   5.4571908333579389E-003   4.8761437898864557E-002
  -1.8841662578443816E-002   4.9216461838540171E-003   4.8761428749396929E-002
  -1.7020963092167218E-002   4.2969057035756597E-003   4.8971331988169831E-002
  -7.7647607428978430E-003   1.7976094960893141E-003   6.4198339234954327E-002
  -6.8569717872975153E-003   1.6161684649259045E-003   6.4075136296557811E-002
  -5.9491828316972015E-003   1.5367272890232098E-003   6.4213024633514637E-002
  -5.0413938760968773E-003   1.5592859683815630E-003   6.4612004245824778E-002
  -4.1336049204965600E-003   1.6838445030012972E-003   6.5272075133488316E-002
  -9.9057000974992551E-003   2.4224335479610115E-003   6.0555423962084853E-002
  -8.7378536240236733E-003   2.1356050867473719E-003   6.0421616562161995E-002
  -7.5700071505480464E-003   1.9584503391302799E-003   6.0546832922636157E-002
  -6.4021606770724264E-003   1.8909693051102211E-003   6.0931073043507741E-002
  -5.2343142035968133E-003   1.9331619846866266E-003   6.1574336924776429E-002
  -1.2162046940577938E-002   3.0472575998325424E-003   5.6803284329997816E-002
  -1.0736210464183183E-002   2.6550417085690337E-003   5.6666546326884004E-002
  -9.3103739877884398E-003   2.3801733892375720E-003   5.6786764569211196E-002
  -7.8845375113936831E-003   2.2226526418386572E-003   5.7163939056979307E-002
  -6.4587010349989402E-003   2.1824794663720115E-003   5.7798069790188894E-002
  -1.4533801272133955E-002   3.6720816517040455E-003   5.2941920338692577E-002
  -1.2852042307776200E-002   3.1744783303907093E-003   5.2809925590723616E-002
  -1.1170283343418432E-002   2.8018964393447532E-003   5.2932819573239587E-002
  -9.4885243790606612E-003   2.5543359785670933E-003   5.3310602286240405E-002
  -7.8067654147029077E-003   2.4317969480573132E-003   5.3943273729726300E-002
  -1.7020963092167218E-002   4.2969057035756597E-003   4.8971331988169831E-002
  -1.5085349154802599E-002   3.6939149522121073E-003   4.8851754353681276E-002
  -1.3149735217437980E-002   3.2236194894517123E-003   4.8984997934721441E-002
  -1.1214121280073368E-002   2.8860193152956959E-003   4.9371062731290466E-002
  -9.2785073427087417E-003   2.6811144297427258E-003   5.0009948743388155E-002
  -4.1336049204965600E-003   1.6838445030012972E-003   6.5272075133488316E-002
  -3.6063986722087785E-003   1.9764414961687127E-003   6.4373642242327778E-002
  -3.0791924239210074E-003   2.5031155511706371E-003   6.3589556035433370E-002
  -2.5519861756332276E-003   3.2638666680072301E-003   6.2919816512804955E-002
  -2.0247799273454548E-003   4.2586948466782903E-003   6.2364423674442948E-002
  -5.2343142035968133E-003   1.9331619846866266E-003   6.1574336924776429E-002
  -4.5655666080607407E-003   2.1931690636514678E-003   6.0859437221803148E-002
  -3.8968190125246664E-003   2.7791312277962721E-003   6.0313273529060796E-002
  -3.2280714169885981E-003   3.6910484771211505E-003   5.9935845846548624E-002
  -2.5593238214525159E-003   4.9289208116255478E-003   5.9727154174267105E-002
  -6.4587010349989402E-003   2.1824794663720115E-003   5.7798069790188894E-002
  -5.5940227662502652E-003   2.4098966311341119E-003   5.7358581298748823E-002
  -4.7293444975015477E-003   3.0551469044216989E-003   5.7142218143503523E-002
  -3.8646662287528783E-003   4.1182302862346302E-003   5.7148980324452960E-002
  -2.9999879600041829E-003   5.5991467765726943E-003   5.7378867841597236E-002
  -7.8067654147029077E-003   2.4317969480573132E-003   5.3943273729726300E-002
  -6.6917671467772739E-003   2.6266241986168670E-003   5.3871074473164457E-002
  -5.5767688788516401E-003   3.3311625810472853E-003   5.4076389878761913E-002
  -4.4617706109259855E-003   4.5454120953482193E-003   5.4559219946518349E-002
  -3.3467723430003725E-003   6.2693727415200073E-003   5.5319564676434063E-002
  -9.2785073427087417E-003   2.6811144297427258E-003   5.0009948743388155E-002
  -7.8587997496418205E-003   2.8433517660995111E-003   5.0396916745050091E-002
  -6.4390921565749271E-003   3.6071782576725109E-003   5.1115788734835632E-002
  -5.0193845635080336E-003   4.9725939044620790E-003   5.2166564712744529E-002
  -3.5996769704411125E-003   6.9395987064669873E-003   5.3549244678776753E-002
  -2.0247799273454548E-003   4.2586948466782903E-003   6.2364423674442948E-002
  -2.2773257225937732E-003   5.5654759258597641E-003   5.8331252234185005E-002
  -2.5298715178420916E-003   7.2620857442283748E-003   5.4294936803885196E-002
  -2.7824173130903858E-003   9.3485243017823738E-003   5.0255477383544078E-002
  -3.0349631083387285E-003   1.1824791598523454E-002   4.6212873973160207E-002
  -2.5593238214525159E-003   4.9289208116255478E-003   5.9727154174267105E-002
  -2.8329122362678975E-003   6.5556637433081821E-003   5.6190771284220398E-002
  -3.1065006510832393E-003   8.6341927841666333E-003   5.2615447145081373E-002
  -3.3800890658986218E-003   1.1164507934200256E-002   4.9001181756850282E-002
  -3.6536774807139627E-003   1.4146609193410153E-002   4.5347975119526263E-002
  -2.9999879600041829E-003   5.5991467765726943E-003   5.7378867841597236E-002
  -3.3304162534370969E-003   7.5458515607562116E-003   5.4401230871751471E-002
  -3.6608445468700387E-003   1.0006299824104781E-002   5.1348855393762494E-002
  -3.9912728403030126E-003   1.2980491566618194E-002   4.8221741407631039E-002
  -4.3217011337359224E-003   1.6468426788296853E-002   4.5019888913356398E-002
  -3.3467723430003725E-003   6.2693727415200073E-003   5.5319564676434063E-002
  -3.7698377741013974E-003   8.5360393782042132E-003   5.2962630996777678E-002
  -4.1929032052024067E-003   1.1378406864042984E-002   5.0495161549928141E-002
  -4.6159686363034576E-003   1.4796475199035992E-002   4.7917156335885745E-002
  -5.0390340674044409E-003   1.8790244383183552E-002   4.5228615354648977E-002
  -3.5996769704411125E-003   6.9395987064669873E-003   5.3549244678776753E-002
  -4.1511767982607695E-003   9.5262271956526590E-003   5.1874971659299884E-002
  -4.7026766260804542E-003   1.2750513903981492E-002   5.0054365613579288E-002
  -5.2541764539001251E-003   1.6612458831453812E-002   4.8087426541614603E-002
  -5.8056762817197960E-003   2.1112061978070251E-002   4.5974154443405801E-002
  -5.0732780287919832E-002  -3.6316618247112520E-003   5.7270586704905424E-002
  -4.8734462460306216E-002   2.1776524029328836E-003   5.5088300032959947E-002
  -4.6736144632692669E-002   6.3501578211191262E-003   5.3696906208154122E-002
  -4.4737826805079088E-002   8.8858544298474583E-003   5.3096405230488017E-002
  -4.2739508977465521E-002   9.7847422291177932E-003   5.3286797099961647E-002
  -5.9279385312131117E-002   5.1900549485026093E-003   5.2515326185133437E-002
  -5.6621044583858429E-002   8.6128495552548756E-003   5.0292007792426791E-002
  -5.3962703855585797E-002   1.1006146402773795E-002   4.8597842353898496E-002
  -5.1304363127313193E-002   1.2369945491059502E-002   4.7432829869548609E-002
  -4.8646022399040548E-002   1.2704246820111953E-002   4.6796970339377159E-002
  -6.6402998826277287E-002   1.4011771721716526E-002   4.5069890519357156E-002
  -6.3346375090306856E-002   1.5048046707576868E-002   4.3412851456113941E-002
  -6.0289751354336465E-002   1.5662134984428581E-002   4.2023225454087924E-002
  -5.7233127618366075E-002   1.5854036552271689E-002   4.0901012513278934E-002
  -5.4176503882395657E-002   1.5623751411106140E-002   4.0046212633686989E-002
  -7.2103620830358262E-002   2.2833488494930429E-002   3.4934279707576510E-002
  -6.8910453979651454E-002   2.1483243859898832E-002   3.4450831024021689E-002
  -6.5717287128944646E-002   2.0318123566083281E-002   3.3973055508722365E-002
  -6.2524120278237783E-002   1.9338127613483747E-002   3.3500953161678955E-002
  -5.9330953427530982E-002   1.8543256002100314E-002   3.3034523982891487E-002
  -7.6381251324374233E-002   3.1655205268144304E-002   2.2108493749791791E-002
  -7.3313281251892237E-002   2.7918441012220796E-002   2.3405946496149632E-002
  -7.0245311179410325E-002   2.4974112147737981E-002   2.4447332517801901E-002
  -6.7177341106928357E-002   2.2822218674695929E-002   2.5232651814748763E-002
  -6.4109371034446389E-002   2.1462760593094488E-002   2.5761904386989998E-002
  -4.2739508977465521E-002   9.7847422291177932E-003   5.3286797099961647E-002
  -4.1489149029574401E-002   9.8191720830702323E-003   5.2421689396732529E-002
  -4.0238789081683261E-002   9.7614948558443215E-003   5.1809062624601332E-002
  -3.8988429133792121E-002   9.6117105474405606E-003   5.1448916783567930E-002
  -3.7738069185900974E-002   9.3698191578582835E-003   5.1341251873632310E-002
  -4.8646022399040548E-002   1.2704246820111953E-002   4.6796970339377159E-002
  -4.7173241591515924E-002   1.2492505311954838E-002   4.6200487004721624E-002
  -4.5700460783991287E-002   1.2218175888611876E-002   4.5796364458235220E-002
  -4.4227679976466643E-002   1.1881258550083158E-002   4.5584602699918035E-002
  -4.2754899168942026E-002   1.1481753296368524E-002   4.5565201729769911E-002
  -5.4176503882395657E-002   1.5623751411106140E-002   4.0046212633686989E-002
  -5.2541422358166237E-002   1.5165838540839569E-002   3.9747872833597347E-002
  -5.0906340833936782E-002   1.4674856921379487E-002   3.9581773678748197E-002
  -4.9271259309707320E-002   1.4150806552725978E-002   3.9547915169139580E-002
  -4.7636177785477858E-002   1.3593687434878821E-002   3.9646297304771358E-002
  -5.9330953427530982E-002   1.8543256002100314E-002   3.3034523982891487E-002
  -5.7593691329525382E-002   1.7839171769724375E-002   3.3063846883359838E-002
  -5.5856429231519789E-002   1.7131537954147125E-002   3.3165290286140237E-002
  -5.4119167133514154E-002   1.6420354555368631E-002   3.3338854191232253E-002
  -5.2381905035508589E-002   1.5705621573389089E-002   3.3584538598636249E-002
  -6.4109371034446389E-002   2.1462760593094488E-002   2.5761904386989998E-002
  -6.2330048505593330E-002   2.0512504998608877E-002   2.6148409154009039E-002
  -6.0550725976740244E-002   1.9588218986914679E-002   2.6546914280411171E-002
  -5.8771403447887172E-002   1.8689902558011430E-002   2.6957419766196491E-002
  -5.6992080919034099E-002   1.7817555711899358E-002   2.7379925611364930E-002
  -3.7738069185900974E-002   9.3698191578582835E-003   5.1341251873632310E-002
  -3.5969027489318628E-002   9.0582383904478925E-003   5.0727549481835776E-002
  -3.4199985792736240E-002   8.6993859485593322E-003   5.0360480488003068E-002
  -3.2430944096153866E-002   8.2932618321925576E-003   5.0240044892133892E-002
  -3.0661902399571492E-002   7.8398660413469545E-003   5.0366242694228569E-002
  -4.2754899168942026E-002   1.1481753296368524E-002   4.5565201729769911E-002
  -4.0747923949919350E-002   1.1037704454556874E-002   4.5041465361211785E-002
  -3.8740948730896667E-002   1.0567156351736565E-002   4.4746962639570426E-002
  -3.6733973511874005E-002   1.0070108987907698E-002   4.4681693564845928E-002
  -3.4726998292851308E-002   9.5465623630704988E-003   4.4845658137038447E-002
  -4.7636177785477858E-002   1.3593687434878821E-002   3.9646297304771358E-002
  -4.5408668795061745E-002   1.3017170518665661E-002   3.9233299372921207E-002
  -4.3181159804645639E-002   1.2434926754913748E-002   3.9032135336941186E-002
  -4.0953650814229525E-002   1.1846956143623117E-002   3.9042805196831176E-002
  -3.8726141823813426E-002   1.1253258684793849E-002   3.9265308952591046E-002
  -5.2381905035508589E-002   1.5705621573389089E-002   3.3584538598636249E-002
  -4.9951262024745841E-002   1.4996636582774572E-002   3.3303051516964194E-002
  -4.7520619013983120E-002   1.4302697158090957E-002   3.3215998580115133E-002
  -4.5089976003220379E-002   1.3623803299338509E-002   3.3323379788089413E-002
  -4.2659332992457645E-002   1.2959955006517185E-002   3.3625195140886813E-002
  -5.6992080919034099E-002   1.7817555711899358E-002   2.7379925611364930E-002
  -5.4375703638971595E-002   1.6976102646883401E-002   2.7250721793340538E-002
  -5.1759326358909133E-002   1.6170467561268165E-002   2.7298552369092427E-002
  -4.9142949078846677E-002   1.5400650455053871E-002   2.7523417338620765E-002
  -4.6526571798784166E-002   1.4666651328240632E-002   2.7925316701925218E-002
  -3.0661902399571492E-002   7.8398660413469545E-003   5.0366242694228569E-002
  -2.9072367058997003E-002   7.3833939827021022E-003   4.9854896502349422E-002
  -2.7482831718422536E-002   6.9680410629365114E-003   4.9521939549771771E-002
  -2.5893296377848044E-002   6.5938072820497899E-003   4.9367371836495463E-002
  -2.4303761037273580E-002   6.2606926400423646E-003   4.9391193362520514E-002
  -3.4726998292851308E-002   9.5465623630704988E-003   4.4845658137038447E-002
  -3.2965440620587670E-002   9.0162657742679508E-003   4.4420956635843500E-002
  -3.1203882948323963E-002   8.4989685185434538E-003   4.4161910558725676E-002
  -2.9442325276060263E-002   7.9946705958968065E-003   4.4068519905685014E-002
  -2.7680767603796605E-002   7.5033720063283349E-003   4.4140784676721112E-002
  -3.8726141823813426E-002   1.1253258684793849E-002   3.9265308952591046E-002
  -3.6805295635084889E-002   1.0649137565833605E-002   3.8899132336279313E-002
  -3.4884449446356311E-002   1.0029895974150292E-002   3.8685877328820180E-002
  -3.2963603257627774E-002   9.3955339097437137E-003   3.8625543930213960E-002
  -3.1042757068899196E-002   8.7460513726141942E-003   3.8718132140459938E-002
  -4.2659332992457645E-002   1.2959955006517185E-002   3.3625195140886813E-002
  -4.0591932102488619E-002   1.2282009357399246E-002   3.3289423603656901E-002
  -3.8524531212519593E-002   1.1560823429757127E-002   3.3093839860055430E-002
  -3.6457130322550560E-002   1.0796397223590676E-002   3.3038443910082232E-002
  -3.4389729432581534E-002   9.9887307389002200E-003   3.3123235753737296E-002
  -4.6526571798784166E-002   1.4666651328240632E-002   2.7925316701925218E-002
  -4.4325350022798971E-002   1.3914881148964886E-002   2.7591830437976195E-002
  -4.2124128246813775E-002   1.3091750885364128E-002   2.7385798152431251E-002
  -3.9922906470828620E-002   1.2197260537437540E-002   2.7307219845290109E-002
  -3.7721684694843466E-002   1.1231410105185913E-002   2.7356095516553047E-002
  -2.4303761037273580E-002   6.2606926400423646E-003   4.9391193362520514E-002
  -2.2483061550996969E-002   5.9035396520873418E-003   4.8971359436572437E-002
  -2.0662362064720399E-002   5.4571908333579389E-003   4.8761437898864557E-002
  -1.8841662578443816E-002   4.9216461838540171E-003   4.8761428749396929E-002
  -1.7020963092167218E-002   4.2969057035756597E-003   4.8971331988169831E-002
  -2.7680767603796605E-002   7.5033720063283349E-003   4.4140784676721112E-002
  -2.5664946572393509E-002   6.9967382274467860E-003   4.3654744237840215E-002
  -2.3649125540990454E-002   6.4464347368606012E-003   4.3349034500971884E-002
  -2.1633304509587371E-002   5.8524615345708422E-003   4.3223655466116173E-002
  -1.9617483478184303E-002   5.2148186205766001E-003   4.3278607133273417E-002
  -3.1042757068899196E-002   8.7460513726141942E-003   3.8718132140459938E-002
  -2.8861396178597350E-002   8.0899368028060636E-003   3.8211411307716464E-002
  -2.6680035288295399E-002   7.4356786403638186E-003   3.7855439490757925E-002
  -2.4498674397993490E-002   6.7832768852876119E-003   3.7650216689584542E-002
  -2.2317313507691595E-002   6.1327315375771518E-003   3.7595742904195872E-002
  -3.4389729432581534E-002   9.9887307389002200E-003   3.3123235753737296E-002
  -3.2072410369608444E-002   9.1831353781652580E-003   3.2641360646201455E-002
  -2.9755091306635343E-002   8.4249225438669806E-003   3.2280652868222660E-002
  -2.7437772243662263E-002   7.7140922360044092E-003   3.2041112419801350E-002
  -2.5120453180689152E-002   7.0506444545777869E-003   3.1922739300937475E-002
  -3.7721684694843466E-002   1.1231410105185913E-002   2.7356095516553047E-002
  -3.5297989145426784E-002   1.0276333953524786E-002   2.6944592253294819E-002
  -3.2874293596010198E-002   9.4141664473697262E-003   2.6624674633366152E-002
  -3.0450598046593565E-002   8.6449075867211581E-003   2.6396342656767241E-002
  -2.8026902497176959E-002   7.9685573715785329E-003   2.6259596323498169E-002
  -1.7020963092167218E-002   4.2969057035756597E-003   4.8971331988169831E-002
  -1.5085349154802599E-002   3.6939149522121073E-003   4.8851754353681276E-002
  -1.3149735217437980E-002   3.2236194894517123E-003   4.8984997934721441E-002
  -1.1214121280073368E-002   2.8860193152956959E-003   4.9371062731290466E-002
  -9.2785073427087417E-003   2.6811144297427258E-003   5.0009948743388155E-002
  -1.9617483478184303E-002   5.2148186205766001E-003   4.3278607133273417E-002
  -1.7467509015893209E-002   4.5954377079624464E-003   4.3123703666226310E-002
  -1.5317534553602075E-002   4.0562505098127866E-003   4.3144700033503375E-002
  -1.3167560091310957E-002   3.5972570261283560E-003   4.3341596235104682E-002
  -1.1017585629019902E-002   3.2184572569079473E-003   4.3714392271030134E-002
  -2.2317313507691595E-002   6.1327315375771518E-003   3.7595742904195872E-002
  -2.0029899901678652E-002   5.4969604637127023E-003   3.7353012030451299E-002
  -1.7742486295665678E-002   4.8888815301738608E-003   3.7209259609826656E-002
  -1.5455072689652695E-002   4.3084947369607940E-003   3.7164485642321304E-002
  -1.3167659083639760E-002   3.7558000840735017E-003   3.7218690127935522E-002
  -2.5120453180689152E-002   7.0506444545777869E-003   3.1922739300937475E-002
  -2.2772521812158959E-002   6.3984832194630553E-003   3.1539679446356647E-002
  -2.0424590443628789E-002   5.7215125505345465E-003   3.1178676663690806E-002
  -1.8076659075098582E-002   5.0197324477935651E-003   3.0839730952939966E-002
  -1.5728727706568427E-002   4.2931429112388342E-003   3.0522842314104064E-002
  -2.8026902497176959E-002   7.9685573715785329E-003   2.6259596323498169E-002
  -2.5695374747334160E-002   7.3000059752132418E-003   2.5683705913942090E-002
  -2.3363846997491375E-002   6.5541435708960649E-003   2.5052951195096373E-002
  -2.1032319247648569E-002   5.7309701586259615E-003   2.4367332166961020E-002
  -1.8700791497805791E-002   4.8304857384043887E-003   2.3626848829535918E-002
  -9.2785073427087417E-003   2.6811144297427258E-003   5.0009948743388155E-002
  -7.8587997496418205E-003   2.8433517660995111E-003   5.0396916745050091E-002
  -6.4390921565749271E-003   3.6071782576725109E-003   5.1115788734835632E-002
  -5.0193845635080336E-003   4.9725939044620790E-003   5.2166564712744529E-002
  -3.5996769704411125E-003   6.9395987064669873E-003   5.3549244678776753E-002
  -1.1017585629019902E-002   3.2184572569079473E-003   4.3714392271030134E-002
  -9.2483269904270471E-003   3.1535078898600188E-003   4.4282560284333528E-002
  -7.4790683518342199E-003   3.6360656126909474E-003   4.5217926400565267E-002
  -5.7098097132413234E-003   4.6661304254012395E-003   4.6520490619725657E-002
  -3.9405510746485378E-003   6.2437023279909853E-003   4.8190252941814227E-002
  -1.3167659083639760E-002   3.7558000840735017E-003   3.7218690127935522E-002
  -1.1013555284716026E-002   3.4636640136200825E-003   3.7913976087543405E-002
  -8.8594514857922718E-003   3.6649529677093978E-003   3.9011754264884888E-002
  -6.7053476868685243E-003   4.3596669463408476E-003   4.0512024659959713E-002
  -4.5512438879447836E-003   5.5478059495148169E-003   4.2414787272767679E-002
  -1.5728727706568427E-002   4.2931429112388342E-003   3.0522842314104064E-002
  -1.3154484632508744E-002   3.7738201373804792E-003   3.1291164154679814E-002
  -1.0580241558449093E-002   3.6938403227276193E-003   3.2497272327793883E-002
  -8.0059984843894247E-003   4.0532034672803429E-003   3.4141166833446285E-002
  -5.4317554103297597E-003   4.8519095710386206E-003   3.6222847671637186E-002
  -1.8700791497805791E-002   4.8304857384043887E-003   2.3626848829535918E-002
  -1.5671115033805222E-002   4.0839762611406538E-003   2.4414124485742650E-002
  -1.2641438569804681E-002   3.7227276777460905E-003   2.5674480589292614E-002
  -9.6117621058041391E-003   3.7467399882197897E-003   2.7407917140186172E-002
  -6.5820856418035700E-003   4.1560131925626465E-003   2.9614434138422796E-002
  -3.5996769704411125E-003   6.9395987064669873E-003   5.3549244678776753E-002
  -4.1511767982607695E-003   9.5262271956526590E-003   5.1874971659299884E-002
  -4.7026766260804542E-003   1.2750513903981492E-002   5.0054365613579288E-002
  -5.2541764539001251E-003   1.6612458831453812E-002   4.8087426541614603E-002
  -5.8056762817197960E-003   2.1112061978070251E-002   4.5974154443405801E-002
  -3.9405510746485378E-003   6.2437023279909853E-003   4.8190252941814227E-002
  -4.5343770299124814E-003   8.6800872903924908E-003   4.7254056736492300E-002
  -5.1282029851763902E-003   1.2286591282538339E-002   4.6379541302526139E-002
  -5.7220289404403303E-003   1.7063214304428101E-002   4.5566706639914689E-002
  -6.3158548957042981E-003   2.3009956356062622E-002   4.4815552748659337E-002
  -4.5512438879447836E-003   5.5478059495148169E-003   4.2414787272767679E-002
  -4.9793821730536765E-003   7.8339473851327668E-003   4.2749128692201321E-002
  -5.4075204581625624E-003   1.1822668661095312E-002   4.3353164680589709E-002
  -5.8356587432713096E-003   1.7513969777402837E-002   4.4226895237932835E-002
  -6.2637970283802857E-003   2.4907850734055215E-002   4.5370320364230277E-002
  -5.4317554103297597E-003   4.8519095710386206E-003   3.6222847671637186E-002
  -5.4861922276843765E-003   6.9878074798727097E-003   3.8360187526426989E-002
  -5.5406290450389084E-003   1.1358746039652111E-002   4.0975235747770719E-002
  -5.5950658623935235E-003   1.7964725250377019E-002   4.4067992335667910E-002
  -5.6495026797481127E-003   2.6805745112047807E-002   4.7638457290120340E-002
  -6.5820856418035700E-003   4.1560131925626465E-003   2.9614434138422796E-002
  -6.0548071938045234E-003   6.1416675746130966E-003   3.4087233239169179E-002
  -5.5275287458055045E-003   1.0894823418209465E-002   3.9245754504068753E-002
  -5.0002502978064300E-003   1.8415480723351890E-002   4.5089997933121850E-002
  -4.4729718498074389E-003   2.8703639490040178E-002   5.1619963526327695E-002
  -7.6381251324374233E-002   3.1655205268144304E-002   2.2108493749791791E-002
  -7.3313281251892237E-002   2.7918441012220796E-002   2.3405946496149632E-002
  -7.0245311179410325E-002   2.4974112147737981E-002   2.4447332517801901E-002
  -6.7177341106928357E-002   2.2822218674695929E-002   2.5232651814748763E-002
  -6.4109371034446389E-002   2.1462760593094488E-002   2.5761904386989998E-002
  -8.1415724670129780E-002   2.9087525297545491E-002   2.2428583250971079E-002
  -7.8313535292862835E-002   2.6634422521350232E-002   2.1704194325779913E-002
  -7.5211345915595890E-002   2.4637983378723957E-002   2.1304310734864301E-002
  -7.2109156538328903E-002   2.3098207869666567E-002   2.1228932478224286E-002
  -6.9006967161061902E-002   2.2015095994178252E-002   2.1478059555859824E-002
  -8.9386875229429869E-002   2.6519845326946734E-002   2.4200220110814519E-002
  -8.5669894488396722E-002   2.5350404030479695E-002   2.1118217756202623E-002
  -8.1952913747363604E-002   2.4301854609710044E-002   1.8941292794847367E-002
  -7.8235933006330485E-002   2.3374197064637454E-002   1.7669445226748792E-002
  -7.4518952265297325E-002   2.2567431395262127E-002   1.7302675051906816E-002
 -0.10029470300227435        2.3952165356347865E-002   2.7423404329322165E-002
  -9.5382358838493955E-002   2.4066385539609200E-002   2.1648016787417835E-002
  -9.0470014674713578E-002   2.3965725840695937E-002   1.7358278697750910E-002
  -8.5557670510933173E-002   2.3650186259608217E-002   1.4554190060322277E-002
  -8.0645326347152810E-002   2.3119766796345781E-002   1.3235750875130972E-002
 -0.11413920798866317        2.1384485385749108E-002   3.2098135906493797E-002
 -0.10745092834315439        2.2782367048738483E-002   2.3293591419425219E-002
 -0.10076264869764573        2.3629597071682079E-002   1.6555268443575244E-002
  -9.4074369052137063E-002   2.3926175454578806E-002   1.1883166978944398E-002
  -8.7386089406628287E-002   2.3672102197429767E-002   9.2772870255324325E-003
  -6.4109371034446389E-002   2.1462760593094488E-002   2.5761904386989998E-002
  -6.2330048505593330E-002   2.0512504998608877E-002   2.6148409154009039E-002
  -6.0550725976740244E-002   1.9588218986914679E-002   2.6546914280411171E-002
  -5.8771403447887172E-002   1.8689902558011430E-002   2.6957419766196491E-002
  -5.6992080919034099E-002   1.7817555711899358E-002   2.7379925611364930E-002
  -6.9006967161061902E-002   2.2015095994178252E-002   2.1478059555859824E-002
  -6.7162561834256770E-002   2.1164712523812870E-002   2.1320639163561625E-002
  -6.5318156507451736E-002   2.0323122230124328E-002   2.1281384007784496E-002
  -6.3473751180646659E-002   1.9490325113112411E-002   2.1360294088528103E-002
  -6.1629345853841541E-002   1.8666321172777500E-002   2.1557369405792531E-002
  -7.4518952265297325E-002   2.2567431395262127E-002   1.7302675051906816E-002
  -7.2503299263402515E-002   2.1816920049016739E-002   1.6584153094177288E-002
  -7.0487646261507747E-002   2.1058025473333755E-002   1.6089961250106276E-002
  -6.8471993259612965E-002   2.0290747668213444E-002   1.5820099519693945E-002
  -6.6456340257718155E-002   1.9515086633655643E-002   1.5774567902940170E-002
  -8.0645326347152810E-002   2.3119766796345781E-002   1.3235750875130972E-002
  -7.8352260793030565E-002   2.2469127574220447E-002   1.1938950945855622E-002
  -7.6059195238908278E-002   2.1792928716543349E-002   1.0972646007376491E-002
  -7.3766129684786005E-002   2.1091170223314339E-002   1.0336836059694146E-002
  -7.1473064130663774E-002   2.0363852094533563E-002   1.0031521102807618E-002
  -8.7386089406628287E-002   2.3672102197429767E-002   9.2772870255324325E-003
  -8.4709446423140822E-002   2.3121335099424545E-002   7.3850327185970288E-003
  -8.2032803439653357E-002   2.2527831959752748E-002   5.9294382795956613E-003
  -7.9356160456165920E-002   2.1891592778415438E-002   4.9105037085281564E-003
  -7.6679517472678427E-002   2.1212617555411817E-002   4.3282290053952011E-003
  -5.6992080919034099E-002   1.7817555711899358E-002   2.7379925611364930E-002
  -5.4375703638971595E-002   1.6976102646883401E-002   2.7250721793340538E-002
  -5.1759326358909133E-002   1.6170467561268165E-002   2.7298552369092427E-002
  -4.9142949078846677E-002   1.5400650455053871E-002   2.7523417338620765E-002
  -4.6526571798784166E-002   1.4666651328240632E-002   2.7925316701925218E-002
  -6.1629345853841541E-002   1.8666321172777500E-002   2.1557369405792531E-002
  -5.8819448193852084E-002   1.7851868989160913E-002   2.1277986262930204E-002
  -5.6009550533862605E-002   1.7047727142304431E-002   2.1208609486145322E-002
  -5.3199652873873127E-002   1.6253895632207867E-002   2.1349239075438294E-002
  -5.0389755213883655E-002   1.5470374458871394E-002   2.1699875030808946E-002
  -6.6456340257718155E-002   1.9515086633655643E-002   1.5774567902940170E-002
  -6.3419950245500317E-002   1.8727635331438550E-002   1.5319497792598918E-002
  -6.0383560233282521E-002   1.7924986723340530E-002   1.5107406020636649E-002
  -5.7347170221064746E-002   1.7107140809361918E-002   1.5138292587053279E-002
  -5.4310780208846887E-002   1.6274097589502212E-002   1.5412157491849043E-002
  -7.1473064130663774E-002   2.0363852094533563E-002   1.0031521102807618E-002
  -6.8177209793916407E-002   1.9603401673716152E-002   9.3752563823467396E-003
  -6.4881355457168929E-002   1.8802246304376768E-002   8.9949419725660132E-003
  -6.1585501120421528E-002   1.7960385986515663E-002   8.8905778734657149E-003
  -5.8289646783674071E-002   1.7077820720133169E-002   9.0621640850454127E-003
  -7.6679517472678427E-002   2.1212617555411817E-002   4.3282290053952011E-003
  -7.3091226839100076E-002   2.0479168015993698E-002   3.4452620321736571E-003
  -6.9502936205521781E-002   1.9679505885412979E-002   2.8712173419335463E-003
  -6.5914645571943514E-002   1.8813631163669818E-002   2.6060949346754861E-003
  -6.2326354938365136E-002   1.7881543850763792E-002   2.6498948103986786E-003
  -4.6526571798784166E-002   1.4666651328240632E-002   2.7925316701925218E-002
  -4.4325350022798971E-002   1.3914881148964886E-002   2.7591830437976195E-002
  -4.2124128246813775E-002   1.3091750885364128E-002   2.7385798152431251E-002
  -3.9922906470828620E-002   1.2197260537437540E-002   2.7307219845290109E-002
  -3.7721684694843466E-002   1.1231410105185913E-002   2.7356095516553047E-002
  -5.0389755213883655E-002   1.5470374458871394E-002   2.1699875030808946E-002
  -4.8058930627702542E-002   1.4680165681631885E-002   2.1263173204342234E-002
  -4.5728106041521367E-002   1.3866271359826252E-002   2.0958223019863609E-002
  -4.3397281455340275E-002   1.3028691493454019E-002   2.0785024477372863E-002
  -4.1066456869159135E-002   1.2167426082516308E-002   2.0743577576870065E-002
  -5.4310780208846887E-002   1.6274097589502212E-002   1.5412157491849043E-002
  -5.1846055148885892E-002   1.5445450214298551E-002   1.4919914642623835E-002
  -4.9381330088924924E-002   1.4640791834288264E-002   1.4563721098970694E-002
  -4.6916605028963929E-002   1.3860122449470609E-002   1.4343576860889502E-002
  -4.4451879969002898E-002   1.3103442059846537E-002   1.4259481928380086E-002
  -5.8289646783674071E-002   1.7077820720133169E-002   9.0621640850454127E-003
  -5.5686723586349185E-002   1.6210734746965827E-002   8.5620547528212042E-003
  -5.3083800389024320E-002   1.5415312308750331E-002   8.2022923897526814E-003
  -5.0480877191699455E-002   1.4691553405487476E-002   7.9828769958401845E-003
  -4.7877953994374570E-002   1.4039458037176961E-002   7.9038085710832415E-003
  -6.2326354938365136E-002   1.7881543850763792E-002   2.6498948103986786E-003
  -5.9580935940092394E-002   1.6976019279632659E-002   2.1895935349340867E-003
  -5.6835516941819708E-002   1.6189832783212510E-002   1.8739368922097988E-003
  -5.4090097943546994E-002   1.5522984361503483E-002   1.7029248822251694E-003
  -5.1344678945274280E-002   1.4975474014506940E-002   1.6765575049799697E-003
  -3.7721684694843466E-002   1.1231410105185913E-002   2.7356095516553047E-002
  -3.5297989145426784E-002   1.0276333953524786E-002   2.6944592253294819E-002
  -3.2874293596010198E-002   9.4141664473697262E-003   2.6624674633366152E-002
  -3.0450598046593565E-002   8.6449075867211581E-003   2.6396342656767241E-002
  -2.8026902497176959E-002   7.9685573715785329E-003   2.6259596323498169E-002
  -4.1066456869159135E-002   1.2167426082516308E-002   2.0743577576870065E-002
  -3.8546271650676020E-002   1.1313573880513017E-002   2.0362037717791881E-002
  -3.6026086432192933E-002   1.0498233640946569E-002   2.0081891553517001E-002
  -3.3505901213709777E-002   9.7214053638164585E-003   1.9903139084045451E-002
  -3.0985715995226731E-002   8.9830890491223725E-003   1.9825780309377317E-002
  -4.4451879969002898E-002   1.3103442059846537E-002   1.4259481928380086E-002
  -4.1825397029979595E-002   1.2350813807501582E-002   1.3853508790412139E-002
  -3.9198914090956424E-002   1.1582300834523510E-002   1.3558737398721113E-002
  -3.6572431151933191E-002   1.0797903140911422E-002   1.3375167753307160E-002
  -3.3945948212909895E-002   9.9976207266660455E-003   1.3302799854169878E-002
  -4.7877953994374570E-002   1.4039458037176961E-002   7.9038085710832415E-003
  -4.5135365283337565E-002   1.3388053734490313E-002   7.4190054711558567E-003
  -4.2392776572300624E-002   1.2666368028100512E-002   7.0552121689787285E-003
  -3.9650187861263668E-002   1.1874400918006499E-002   6.8124286645521708E-003
  -3.6907599150226685E-002   1.1012152404209802E-002   6.6906549578760466E-003
  -5.1344678945274280E-002   1.4975474014506940E-002   1.6765575049799697E-003
  -4.8476176410749861E-002   1.4425293661478489E-002   1.0585277600227427E-003
  -4.5607673876225607E-002   1.3750435221677237E-002   5.7131586428954551E-004
  -4.2739171341701299E-002   1.2950898695102117E-002   2.1492181778055841E-004
  -3.9870668807176934E-002   1.2026684081753336E-002  -1.0654379504093647E-005
  -2.8026902497176959E-002   7.9685573715785329E-003   2.6259596323498169E-002
  -2.5695374747334160E-002   7.3000059752132418E-003   2.5683705913942090E-002
  -2.3363846997491375E-002   6.5541435708960649E-003   2.5052951195096373E-002
  -2.1032319247648569E-002   5.7309701586259615E-003   2.4367332166961020E-002
  -1.8700791497805791E-002   4.8304857384043887E-003   2.3626848829535918E-002
  -3.0985715995226731E-002   8.9830890491223725E-003   1.9825780309377317E-002
  -2.8690308513061619E-002   8.2584879144581569E-003   1.9223018916635026E-002
  -2.6394901030896520E-002   7.5228051774161031E-003   1.8602881297827140E-002
  -2.4099493548731414E-002   6.7760408379972659E-003   1.7965367452953379E-002
  -2.1804086066566308E-002   6.0181948962008125E-003   1.7310477382014078E-002
  -3.3945948212909895E-002   9.9976207266660455E-003   1.3302799854169878E-002
  -3.1649172915198510E-002   9.2169698537024336E-003   1.2739396883816201E-002
  -2.9352397617487123E-002   8.4914667839366686E-003   1.2196105770620830E-002
  -2.7055622319775707E-002   7.8211115173683413E-003   1.1672926514584014E-002
  -2.4758847022064295E-002   7.2059040539974029E-003   1.1169859115705200E-002
  -3.6907599150226685E-002   1.1012152404209802E-002   6.6906549578760466E-003
  -3.4571967953744884E-002   1.0175451792947307E-002   6.2328398154862380E-003
  -3.2236336757263208E-002   9.4601283904571926E-003   5.8326246134781032E-003
  -2.9900705560781476E-002   8.8661821967396977E-003   5.4900093518523707E-003
  -2.7565074364299731E-002   8.3936132117942430E-003   5.2049940306090406E-003
  -3.9870668807176934E-002   1.2026684081753336E-002  -1.0654379504093647E-005
  -3.7458693628700912E-002   1.1133933732192181E-002  -2.9665228835623614E-004
  -3.5046718450224834E-002   1.0428789996977439E-002  -4.8756217360179654E-004
  -3.2634743271748812E-002   9.9112528761107627E-003  -5.8338403524088589E-004
  -3.0222768093272734E-002   9.5813223695906391E-003  -5.8411787327394826E-004
  -1.8700791497805791E-002   4.8304857384043887E-003   2.3626848829535918E-002
  -1.5671115033805222E-002   4.0839762611406538E-003   2.4414124485742650E-002
  -1.2641438569804681E-002   3.7227276777460905E-003   2.5674480589292614E-002
  -9.6117621058041391E-003   3.7467399882197897E-003   2.7407917140186172E-002
  -6.5820856418035700E-003   4.1560131925626465E-003   2.9614434138422796E-002
  -2.1804086066566308E-002   6.0181948962008125E-003   1.7310477382014078E-002
  -1.8570837697059639E-002   5.3470588840184852E-003   1.8261659287383158E-002
  -1.5337589327553025E-002   4.8604243334423314E-003   1.9146904556420929E-002
  -1.2104340958046342E-002   4.5582912444712895E-003   1.9966213189127585E-002
  -8.8710925885397418E-003   4.4406596171061574E-003   2.0719585185503320E-002
  -2.4758847022064295E-002   7.2059040539974029E-003   1.1169859115705200E-002
  -2.1861043830726144E-002   6.6101415068968716E-003   1.2084187837973465E-002
  -1.8963240639388000E-002   5.9981209891385584E-003   1.2393562840236211E-002
  -1.6065437448049828E-002   5.3698425007225638E-003   1.2097984122492862E-002
  -1.3167634256711705E-002   4.7253060416492243E-003   1.1197451684743953E-002
  -2.7565074364299731E-002   8.3936132117942430E-003   5.2049940306090406E-003
  -2.5541733434804724E-002   7.8732241297745920E-003   5.8817101375135891E-003
  -2.3518392505309658E-002   7.1358176448349034E-003   5.4144554407379829E-003
  -2.1495051575814640E-002   6.1813937569733957E-003   3.8032299402813319E-003
  -1.9471710646319584E-002   5.0099524661927353E-003   1.0480336361447934E-003
  -3.0222768093272734E-002   9.5813223695906391E-003  -5.8411787327394826E-004
  -2.9612906509295378E-002   9.1363067526528674E-003  -3.4577381399641949E-004
  -2.9003044925318022E-002   8.2735143005312484E-003  -1.7904176420739104E-003
  -2.8393183341340694E-002   6.9929450132252824E-003  -4.9180493575061504E-003
  -2.7783321757363311E-002   5.2945988907360242E-003  -9.7286689602935628E-003
  -6.5820856418035700E-003   4.1560131925626465E-003   2.9614434138422796E-002
  -6.0548071938045234E-003   6.1416675746130966E-003   3.4087233239169179E-002
  -5.5275287458055045E-003   1.0894823418209465E-002   3.9245754504068753E-002
  -5.0002502978064300E-003   1.8415480723351890E-002   4.5089997933121850E-002
  -4.4729718498074389E-003   2.8703639490040178E-002   5.1619963526327695E-002
  -8.8710925885397418E-003   4.4406596171061574E-003   2.0719585185503320E-002
  -7.5857572475817592E-003   5.6572422580674631E-003   2.5882898561916667E-002
  -6.3004219066236933E-003   9.3577519740780379E-003   3.1876603560094530E-002
  -5.0150865656656829E-003   1.5542188765136598E-002   3.8700700180037712E-002
  -3.7297512247075337E-003   2.4210552631243942E-002   4.6355188421745464E-002
  -1.3167634256711705E-002   4.7253060416492243E-003   1.1197451684743953E-002
  -1.0979572565183227E-002   5.1728169415220515E-003   1.6767704950326923E-002
  -8.7915108736547828E-003   7.8206805299467219E-003   2.3313019295286036E-002
  -6.6034491821263530E-003   1.2668896806921973E-002   3.0833394719621515E-002
  -4.4153874905978607E-003   1.9717465772447929E-002   3.9328831223332861E-002
  -1.9471710646319584E-002   5.0099524661927353E-003   1.0480336361447934E-003
  -1.6236253146609286E-002   4.6883916249770841E-003   6.7416524043999101E-003
  -1.3000795646898933E-002   6.2836090858159055E-003   1.3555001709642522E-002
  -9.7653381471884647E-003   9.7956048487072359E-003   2.1488081551872436E-002
  -6.5298806474782742E-003   1.5224378913651915E-002   3.0540891931090774E-002
  -2.7783321757363311E-002   5.2945988907360242E-003  -9.7286689602935628E-003
  -2.3355798991859578E-002   4.2039663084314505E-003  -4.1952590758644326E-003
  -1.8928276226355845E-002   4.7465376416844784E-003   2.6025508031643774E-003
  -1.4500753460852195E-002   6.9223128904922909E-003   1.0664760676791223E-002
  -1.0073230695348379E-002   1.0731292054855679E-002   1.9991370545018539E-002
 </DataArray>
 </PointData>
 </Piece>
 </UnstructuredGrid>
 </VTKFile>
