 <VTKFile type="UnstructuredGrid"  version="0.1"   >
 <UnstructuredGrid>
 <Piece  NumberOfPoints="          1600 "  NumberOfCells="         1024 ">
 <Points>
 <DataArray  type="Float64" NumberOfComponents="3"  format="ascii" >
   0.0000000000000000        0.0000000000000000        0.0000000000000000     
   3.1250000000000000E-002   0.0000000000000000        0.0000000000000000     
   6.2500000000000000E-002   0.0000000000000000        0.0000000000000000     
   9.3750000000000000E-002   0.0000000000000000        0.0000000000000000     
  0.12500000000000000        0.0000000000000000        0.0000000000000000     
   0.0000000000000000        3.1250000000000000E-002   0.0000000000000000     
   3.1250000000000000E-002   3.1250000000000000E-002   0.0000000000000000     
   6.2500000000000000E-002   3.1250000000000000E-002   0.0000000000000000     
   9.3750000000000000E-002   3.1250000000000000E-002   0.0000000000000000     
  0.12500000000000000        3.1250000000000000E-002   0.0000000000000000     
   0.0000000000000000        6.2500000000000000E-002   0.0000000000000000     
   3.1250000000000000E-002   6.2500000000000000E-002   0.0000000000000000     
   6.2500000000000000E-002   6.2500000000000000E-002   0.0000000000000000     
   9.3750000000000000E-002   6.2500000000000000E-002   0.0000000000000000     
  0.12500000000000000        6.2500000000000000E-002   0.0000000000000000     
   0.0000000000000000        9.3750000000000000E-002   0.0000000000000000     
   3.1250000000000000E-002   9.3750000000000000E-002   0.0000000000000000     
   6.2500000000000000E-002   9.3750000000000000E-002   0.0000000000000000     
   9.3750000000000000E-002   9.3750000000000000E-002   0.0000000000000000     
  0.12500000000000000        9.3750000000000000E-002   0.0000000000000000     
   0.0000000000000000       0.12500000000000000        0.0000000000000000     
   3.1250000000000000E-002  0.12500000000000000        0.0000000000000000     
   6.2500000000000000E-002  0.12500000000000000        0.0000000000000000     
   9.3750000000000000E-002  0.12500000000000000        0.0000000000000000     
  0.12500000000000000       0.12500000000000000        0.0000000000000000     
  0.12500000000000000        0.0000000000000000        0.0000000000000000     
  0.15625000000000000        0.0000000000000000        0.0000000000000000     
  0.18750000000000000        0.0000000000000000        0.0000000000000000     
  0.21875000000000000        0.0000000000000000        0.0000000000000000     
  0.25000000000000000        0.0000000000000000        0.0000000000000000     
  0.12500000000000000        3.1250000000000000E-002   0.0000000000000000     
  0.15625000000000000        3.1250000000000000E-002   0.0000000000000000     
  0.18750000000000000        3.1250000000000000E-002   0.0000000000000000     
  0.21875000000000000        3.1250000000000000E-002   0.0000000000000000     
  0.25000000000000000        3.1250000000000000E-002   0.0000000000000000     
  0.12500000000000000        6.2500000000000000E-002   0.0000000000000000     
  0.15625000000000000        6.2500000000000000E-002   0.0000000000000000     
  0.18750000000000000        6.2500000000000000E-002   0.0000000000000000     
  0.21875000000000000        6.2500000000000000E-002   0.0000000000000000     
  0.25000000000000000        6.2500000000000000E-002   0.0000000000000000     
  0.12500000000000000        9.3750000000000000E-002   0.0000000000000000     
  0.15625000000000000        9.3750000000000000E-002   0.0000000000000000     
  0.18750000000000000        9.3750000000000000E-002   0.0000000000000000     
  0.21875000000000000        9.3750000000000000E-002   0.0000000000000000     
  0.25000000000000000        9.3750000000000000E-002   0.0000000000000000     
  0.12500000000000000       0.12500000000000000        0.0000000000000000     
  0.15625000000000000       0.12500000000000000        0.0000000000000000     
  0.18750000000000000       0.12500000000000000        0.0000000000000000     
  0.21875000000000000       0.12500000000000000        0.0000000000000000     
  0.25000000000000000       0.12500000000000000        0.0000000000000000     
  0.25000000000000000        0.0000000000000000        0.0000000000000000     
  0.28125000000000000        0.0000000000000000        0.0000000000000000     
  0.31250000000000000        0.0000000000000000        0.0000000000000000     
  0.34375000000000000        0.0000000000000000        0.0000000000000000     
  0.37500000000000000        0.0000000000000000        0.0000000000000000     
  0.25000000000000000        3.1250000000000000E-002   0.0000000000000000     
  0.28125000000000000        3.1250000000000000E-002   0.0000000000000000     
  0.31250000000000000        3.1250000000000000E-002   0.0000000000000000     
  0.34375000000000000        3.1250000000000000E-002   0.0000000000000000     
  0.37500000000000000        3.1250000000000000E-002   0.0000000000000000     
  0.25000000000000000        6.2500000000000000E-002   0.0000000000000000     
  0.28125000000000000        6.2500000000000000E-002   0.0000000000000000     
  0.31250000000000000        6.2500000000000000E-002   0.0000000000000000     
  0.34375000000000000        6.2500000000000000E-002   0.0000000000000000     
  0.37500000000000000        6.2500000000000000E-002   0.0000000000000000     
  0.25000000000000000        9.3750000000000000E-002   0.0000000000000000     
  0.28125000000000000        9.3750000000000000E-002   0.0000000000000000     
  0.31250000000000000        9.3750000000000000E-002   0.0000000000000000     
  0.34375000000000000        9.3750000000000000E-002   0.0000000000000000     
  0.37500000000000000        9.3750000000000000E-002   0.0000000000000000     
  0.25000000000000000       0.12500000000000000        0.0000000000000000     
  0.28125000000000000       0.12500000000000000        0.0000000000000000     
  0.31250000000000000       0.12500000000000000        0.0000000000000000     
  0.34375000000000000       0.12500000000000000        0.0000000000000000     
  0.37500000000000000       0.12500000000000000        0.0000000000000000     
  0.37500000000000000        0.0000000000000000        0.0000000000000000     
  0.40625000000000000        0.0000000000000000        0.0000000000000000     
  0.43750000000000000        0.0000000000000000        0.0000000000000000     
  0.46875000000000000        0.0000000000000000        0.0000000000000000     
  0.50000000000000000        0.0000000000000000        0.0000000000000000     
  0.37500000000000000        3.1250000000000000E-002   0.0000000000000000     
  0.40625000000000000        3.1250000000000000E-002   0.0000000000000000     
  0.43750000000000000        3.1250000000000000E-002   0.0000000000000000     
  0.46875000000000000        3.1250000000000000E-002   0.0000000000000000     
  0.50000000000000000        3.1250000000000000E-002   0.0000000000000000     
  0.37500000000000000        6.2500000000000000E-002   0.0000000000000000     
  0.40625000000000000        6.2500000000000000E-002   0.0000000000000000     
  0.43750000000000000        6.2500000000000000E-002   0.0000000000000000     
  0.46875000000000000        6.2500000000000000E-002   0.0000000000000000     
  0.50000000000000000        6.2500000000000000E-002   0.0000000000000000     
  0.37500000000000000        9.3750000000000000E-002   0.0000000000000000     
  0.40625000000000000        9.3750000000000000E-002   0.0000000000000000     
  0.43750000000000000        9.3750000000000000E-002   0.0000000000000000     
  0.46875000000000000        9.3750000000000000E-002   0.0000000000000000     
  0.50000000000000000        9.3750000000000000E-002   0.0000000000000000     
  0.37500000000000000       0.12500000000000000        0.0000000000000000     
  0.40625000000000000       0.12500000000000000        0.0000000000000000     
  0.43750000000000000       0.12500000000000000        0.0000000000000000     
  0.46875000000000000       0.12500000000000000        0.0000000000000000     
  0.50000000000000000       0.12500000000000000        0.0000000000000000     
  0.50000000000000000        0.0000000000000000        0.0000000000000000     
  0.53125000000000000        0.0000000000000000        0.0000000000000000     
  0.56250000000000000        0.0000000000000000        0.0000000000000000     
  0.59375000000000000        0.0000000000000000        0.0000000000000000     
  0.62500000000000000        0.0000000000000000        0.0000000000000000     
  0.50000000000000000        3.1250000000000000E-002   0.0000000000000000     
  0.53125000000000000        3.1250000000000000E-002   0.0000000000000000     
  0.56250000000000000        3.1250000000000000E-002   0.0000000000000000     
  0.59375000000000000        3.1250000000000000E-002   0.0000000000000000     
  0.62500000000000000        3.1250000000000000E-002   0.0000000000000000     
  0.50000000000000000        6.2500000000000000E-002   0.0000000000000000     
  0.53125000000000000        6.2500000000000000E-002   0.0000000000000000     
  0.56250000000000000        6.2500000000000000E-002   0.0000000000000000     
  0.59375000000000000        6.2500000000000000E-002   0.0000000000000000     
  0.62500000000000000        6.2500000000000000E-002   0.0000000000000000     
  0.50000000000000000        9.3750000000000000E-002   0.0000000000000000     
  0.53125000000000000        9.3750000000000000E-002   0.0000000000000000     
  0.56250000000000000        9.3750000000000000E-002   0.0000000000000000     
  0.59375000000000000        9.3750000000000000E-002   0.0000000000000000     
  0.62500000000000000        9.3750000000000000E-002   0.0000000000000000     
  0.50000000000000000       0.12500000000000000        0.0000000000000000     
  0.53125000000000000       0.12500000000000000        0.0000000000000000     
  0.56250000000000000       0.12500000000000000        0.0000000000000000     
  0.59375000000000000       0.12500000000000000        0.0000000000000000     
  0.62500000000000000       0.12500000000000000        0.0000000000000000     
  0.62500000000000000        0.0000000000000000        0.0000000000000000     
  0.65625000000000000        0.0000000000000000        0.0000000000000000     
  0.68750000000000000        0.0000000000000000        0.0000000000000000     
  0.71875000000000000        0.0000000000000000        0.0000000000000000     
  0.75000000000000000        0.0000000000000000        0.0000000000000000     
  0.62500000000000000        3.1250000000000000E-002   0.0000000000000000     
  0.65625000000000000        3.1250000000000000E-002   0.0000000000000000     
  0.68750000000000000        3.1250000000000000E-002   0.0000000000000000     
  0.71875000000000000        3.1250000000000000E-002   0.0000000000000000     
  0.75000000000000000        3.1250000000000000E-002   0.0000000000000000     
  0.62500000000000000        6.2500000000000000E-002   0.0000000000000000     
  0.65625000000000000        6.2500000000000000E-002   0.0000000000000000     
  0.68750000000000000        6.2500000000000000E-002   0.0000000000000000     
  0.71875000000000000        6.2500000000000000E-002   0.0000000000000000     
  0.75000000000000000        6.2500000000000000E-002   0.0000000000000000     
  0.62500000000000000        9.3750000000000000E-002   0.0000000000000000     
  0.65625000000000000        9.3750000000000000E-002   0.0000000000000000     
  0.68750000000000000        9.3750000000000000E-002   0.0000000000000000     
  0.71875000000000000        9.3750000000000000E-002   0.0000000000000000     
  0.75000000000000000        9.3750000000000000E-002   0.0000000000000000     
  0.62500000000000000       0.12500000000000000        0.0000000000000000     
  0.65625000000000000       0.12500000000000000        0.0000000000000000     
  0.68750000000000000       0.12500000000000000        0.0000000000000000     
  0.71875000000000000       0.12500000000000000        0.0000000000000000     
  0.75000000000000000       0.12500000000000000        0.0000000000000000     
  0.75000000000000000        0.0000000000000000        0.0000000000000000     
  0.78125000000000000        0.0000000000000000        0.0000000000000000     
  0.81250000000000000        0.0000000000000000        0.0000000000000000     
  0.84375000000000000        0.0000000000000000        0.0000000000000000     
  0.87500000000000000        0.0000000000000000        0.0000000000000000     
  0.75000000000000000        3.1250000000000000E-002   0.0000000000000000     
  0.78125000000000000        3.1250000000000000E-002   0.0000000000000000     
  0.81250000000000000        3.1250000000000000E-002   0.0000000000000000     
  0.84375000000000000        3.1250000000000000E-002   0.0000000000000000     
  0.87500000000000000        3.1250000000000000E-002   0.0000000000000000     
  0.75000000000000000        6.2500000000000000E-002   0.0000000000000000     
  0.78125000000000000        6.2500000000000000E-002   0.0000000000000000     
  0.81250000000000000        6.2500000000000000E-002   0.0000000000000000     
  0.84375000000000000        6.2500000000000000E-002   0.0000000000000000     
  0.87500000000000000        6.2500000000000000E-002   0.0000000000000000     
  0.75000000000000000        9.3750000000000000E-002   0.0000000000000000     
  0.78125000000000000        9.3750000000000000E-002   0.0000000000000000     
  0.81250000000000000        9.3750000000000000E-002   0.0000000000000000     
  0.84375000000000000        9.3750000000000000E-002   0.0000000000000000     
  0.87500000000000000        9.3750000000000000E-002   0.0000000000000000     
  0.75000000000000000       0.12500000000000000        0.0000000000000000     
  0.78125000000000000       0.12500000000000000        0.0000000000000000     
  0.81250000000000000       0.12500000000000000        0.0000000000000000     
  0.84375000000000000       0.12500000000000000        0.0000000000000000     
  0.87500000000000000       0.12500000000000000        0.0000000000000000     
  0.87500000000000000        0.0000000000000000        0.0000000000000000     
  0.90625000000000000        0.0000000000000000        0.0000000000000000     
  0.93750000000000000        0.0000000000000000        0.0000000000000000     
  0.96875000000000000        0.0000000000000000        0.0000000000000000     
   1.0000000000000000        0.0000000000000000        0.0000000000000000     
  0.87500000000000000        3.1250000000000000E-002   0.0000000000000000     
  0.90625000000000000        3.1250000000000000E-002   0.0000000000000000     
  0.93750000000000000        3.1250000000000000E-002   0.0000000000000000     
  0.96875000000000000        3.1250000000000000E-002   0.0000000000000000     
   1.0000000000000000        3.1250000000000000E-002   0.0000000000000000     
  0.87500000000000000        6.2500000000000000E-002   0.0000000000000000     
  0.90625000000000000        6.2500000000000000E-002   0.0000000000000000     
  0.93750000000000000        6.2500000000000000E-002   0.0000000000000000     
  0.96875000000000000        6.2500000000000000E-002   0.0000000000000000     
   1.0000000000000000        6.2500000000000000E-002   0.0000000000000000     
  0.87500000000000000        9.3750000000000000E-002   0.0000000000000000     
  0.90625000000000000        9.3750000000000000E-002   0.0000000000000000     
  0.93750000000000000        9.3750000000000000E-002   0.0000000000000000     
  0.96875000000000000        9.3750000000000000E-002   0.0000000000000000     
   1.0000000000000000        9.3750000000000000E-002   0.0000000000000000     
  0.87500000000000000       0.12500000000000000        0.0000000000000000     
  0.90625000000000000       0.12500000000000000        0.0000000000000000     
  0.93750000000000000       0.12500000000000000        0.0000000000000000     
  0.96875000000000000       0.12500000000000000        0.0000000000000000     
   1.0000000000000000       0.12500000000000000        0.0000000000000000     
   0.0000000000000000       0.12500000000000000        0.0000000000000000     
   3.1250000000000000E-002  0.12500000000000000        0.0000000000000000     
   6.2500000000000000E-002  0.12500000000000000        0.0000000000000000     
   9.3750000000000000E-002  0.12500000000000000        0.0000000000000000     
  0.12500000000000000       0.12500000000000000        0.0000000000000000     
   0.0000000000000000       0.15625000000000000        0.0000000000000000     
   3.1250000000000000E-002  0.15625000000000000        0.0000000000000000     
   6.2500000000000000E-002  0.15625000000000000        0.0000000000000000     
   9.3750000000000000E-002  0.15625000000000000        0.0000000000000000     
  0.12500000000000000       0.15625000000000000        0.0000000000000000     
   0.0000000000000000       0.18750000000000000        0.0000000000000000     
   3.1250000000000000E-002  0.18750000000000000        0.0000000000000000     
   6.2500000000000000E-002  0.18750000000000000        0.0000000000000000     
   9.3750000000000000E-002  0.18750000000000000        0.0000000000000000     
  0.12500000000000000       0.18750000000000000        0.0000000000000000     
   0.0000000000000000       0.21875000000000000        0.0000000000000000     
   3.1250000000000000E-002  0.21875000000000000        0.0000000000000000     
   6.2500000000000000E-002  0.21875000000000000        0.0000000000000000     
   9.3750000000000000E-002  0.21875000000000000        0.0000000000000000     
  0.12500000000000000       0.21875000000000000        0.0000000000000000     
   0.0000000000000000       0.25000000000000000        0.0000000000000000     
   3.1250000000000000E-002  0.25000000000000000        0.0000000000000000     
   6.2500000000000000E-002  0.25000000000000000        0.0000000000000000     
   9.3750000000000000E-002  0.25000000000000000        0.0000000000000000     
  0.12500000000000000       0.25000000000000000        0.0000000000000000     
  0.12500000000000000       0.12500000000000000        0.0000000000000000     
  0.15625000000000000       0.12500000000000000        0.0000000000000000     
  0.18750000000000000       0.12500000000000000        0.0000000000000000     
  0.21875000000000000       0.12500000000000000        0.0000000000000000     
  0.25000000000000000       0.12500000000000000        0.0000000000000000     
  0.12500000000000000       0.15625000000000000        0.0000000000000000     
  0.15625000000000000       0.15625000000000000        0.0000000000000000     
  0.18750000000000000       0.15625000000000000        0.0000000000000000     
  0.21875000000000000       0.15625000000000000        0.0000000000000000     
  0.25000000000000000       0.15625000000000000        0.0000000000000000     
  0.12500000000000000       0.18750000000000000        0.0000000000000000     
  0.15625000000000000       0.18750000000000000        0.0000000000000000     
  0.18750000000000000       0.18750000000000000        0.0000000000000000     
  0.21875000000000000       0.18750000000000000        0.0000000000000000     
  0.25000000000000000       0.18750000000000000        0.0000000000000000     
  0.12500000000000000       0.21875000000000000        0.0000000000000000     
  0.15625000000000000       0.21875000000000000        0.0000000000000000     
  0.18750000000000000       0.21875000000000000        0.0000000000000000     
  0.21875000000000000       0.21875000000000000        0.0000000000000000     
  0.25000000000000000       0.21875000000000000        0.0000000000000000     
  0.12500000000000000       0.25000000000000000        0.0000000000000000     
  0.15625000000000000       0.25000000000000000        0.0000000000000000     
  0.18750000000000000       0.25000000000000000        0.0000000000000000     
  0.21875000000000000       0.25000000000000000        0.0000000000000000     
  0.25000000000000000       0.25000000000000000        0.0000000000000000     
  0.25000000000000000       0.12500000000000000        0.0000000000000000     
  0.28125000000000000       0.12500000000000000        0.0000000000000000     
  0.31250000000000000       0.12500000000000000        0.0000000000000000     
  0.34375000000000000       0.12500000000000000        0.0000000000000000     
  0.37500000000000000       0.12500000000000000        0.0000000000000000     
  0.25000000000000000       0.15625000000000000        0.0000000000000000     
  0.28125000000000000       0.15625000000000000        0.0000000000000000     
  0.31250000000000000       0.15625000000000000        0.0000000000000000     
  0.34375000000000000       0.15625000000000000        0.0000000000000000     
  0.37500000000000000       0.15625000000000000        0.0000000000000000     
  0.25000000000000000       0.18750000000000000        0.0000000000000000     
  0.28125000000000000       0.18750000000000000        0.0000000000000000     
  0.31250000000000000       0.18750000000000000        0.0000000000000000     
  0.34375000000000000       0.18750000000000000        0.0000000000000000     
  0.37500000000000000       0.18750000000000000        0.0000000000000000     
  0.25000000000000000       0.21875000000000000        0.0000000000000000     
  0.28125000000000000       0.21875000000000000        0.0000000000000000     
  0.31250000000000000       0.21875000000000000        0.0000000000000000     
  0.34375000000000000       0.21875000000000000        0.0000000000000000     
  0.37500000000000000       0.21875000000000000        0.0000000000000000     
  0.25000000000000000       0.25000000000000000        0.0000000000000000     
  0.28125000000000000       0.25000000000000000        0.0000000000000000     
  0.31250000000000000       0.25000000000000000        0.0000000000000000     
  0.34375000000000000       0.25000000000000000        0.0000000000000000     
  0.37500000000000000       0.25000000000000000        0.0000000000000000     
  0.37500000000000000       0.12500000000000000        0.0000000000000000     
  0.40625000000000000       0.12500000000000000        0.0000000000000000     
  0.43750000000000000       0.12500000000000000        0.0000000000000000     
  0.46875000000000000       0.12500000000000000        0.0000000000000000     
  0.50000000000000000       0.12500000000000000        0.0000000000000000     
  0.37500000000000000       0.15625000000000000        0.0000000000000000     
  0.40625000000000000       0.15625000000000000        0.0000000000000000     
  0.43750000000000000       0.15625000000000000        0.0000000000000000     
  0.46875000000000000       0.15625000000000000        0.0000000000000000     
  0.50000000000000000       0.15625000000000000        0.0000000000000000     
  0.37500000000000000       0.18750000000000000        0.0000000000000000     
  0.40625000000000000       0.18750000000000000        0.0000000000000000     
  0.43750000000000000       0.18750000000000000        0.0000000000000000     
  0.46875000000000000       0.18750000000000000        0.0000000000000000     
  0.50000000000000000       0.18750000000000000        0.0000000000000000     
  0.37500000000000000       0.21875000000000000        0.0000000000000000     
  0.40625000000000000       0.21875000000000000        0.0000000000000000     
  0.43750000000000000       0.21875000000000000        0.0000000000000000     
  0.46875000000000000       0.21875000000000000        0.0000000000000000     
  0.50000000000000000       0.21875000000000000        0.0000000000000000     
  0.37500000000000000       0.25000000000000000        0.0000000000000000     
  0.40625000000000000       0.25000000000000000        0.0000000000000000     
  0.43750000000000000       0.25000000000000000        0.0000000000000000     
  0.46875000000000000       0.25000000000000000        0.0000000000000000     
  0.50000000000000000       0.25000000000000000        0.0000000000000000     
  0.50000000000000000       0.12500000000000000        0.0000000000000000     
  0.53125000000000000       0.12500000000000000        0.0000000000000000     
  0.56250000000000000       0.12500000000000000        0.0000000000000000     
  0.59375000000000000       0.12500000000000000        0.0000000000000000     
  0.62500000000000000       0.12500000000000000        0.0000000000000000     
  0.50000000000000000       0.15625000000000000        0.0000000000000000     
  0.53125000000000000       0.15625000000000000        0.0000000000000000     
  0.56250000000000000       0.15625000000000000        0.0000000000000000     
  0.59375000000000000       0.15625000000000000        0.0000000000000000     
  0.62500000000000000       0.15625000000000000        0.0000000000000000     
  0.50000000000000000       0.18750000000000000        0.0000000000000000     
  0.53125000000000000       0.18750000000000000        0.0000000000000000     
  0.56250000000000000       0.18750000000000000        0.0000000000000000     
  0.59375000000000000       0.18750000000000000        0.0000000000000000     
  0.62500000000000000       0.18750000000000000        0.0000000000000000     
  0.50000000000000000       0.21875000000000000        0.0000000000000000     
  0.53125000000000000       0.21875000000000000        0.0000000000000000     
  0.56250000000000000       0.21875000000000000        0.0000000000000000     
  0.59375000000000000       0.21875000000000000        0.0000000000000000     
  0.62500000000000000       0.21875000000000000        0.0000000000000000     
  0.50000000000000000       0.25000000000000000        0.0000000000000000     
  0.53125000000000000       0.25000000000000000        0.0000000000000000     
  0.56250000000000000       0.25000000000000000        0.0000000000000000     
  0.59375000000000000       0.25000000000000000        0.0000000000000000     
  0.62500000000000000       0.25000000000000000        0.0000000000000000     
  0.62500000000000000       0.12500000000000000        0.0000000000000000     
  0.65625000000000000       0.12500000000000000        0.0000000000000000     
  0.68750000000000000       0.12500000000000000        0.0000000000000000     
  0.71875000000000000       0.12500000000000000        0.0000000000000000     
  0.75000000000000000       0.12500000000000000        0.0000000000000000     
  0.62500000000000000       0.15625000000000000        0.0000000000000000     
  0.65625000000000000       0.15625000000000000        0.0000000000000000     
  0.68750000000000000       0.15625000000000000        0.0000000000000000     
  0.71875000000000000       0.15625000000000000        0.0000000000000000     
  0.75000000000000000       0.15625000000000000        0.0000000000000000     
  0.62500000000000000       0.18750000000000000        0.0000000000000000     
  0.65625000000000000       0.18750000000000000        0.0000000000000000     
  0.68750000000000000       0.18750000000000000        0.0000000000000000     
  0.71875000000000000       0.18750000000000000        0.0000000000000000     
  0.75000000000000000       0.18750000000000000        0.0000000000000000     
  0.62500000000000000       0.21875000000000000        0.0000000000000000     
  0.65625000000000000       0.21875000000000000        0.0000000000000000     
  0.68750000000000000       0.21875000000000000        0.0000000000000000     
  0.71875000000000000       0.21875000000000000        0.0000000000000000     
  0.75000000000000000       0.21875000000000000        0.0000000000000000     
  0.62500000000000000       0.25000000000000000        0.0000000000000000     
  0.65625000000000000       0.25000000000000000        0.0000000000000000     
  0.68750000000000000       0.25000000000000000        0.0000000000000000     
  0.71875000000000000       0.25000000000000000        0.0000000000000000     
  0.75000000000000000       0.25000000000000000        0.0000000000000000     
  0.75000000000000000       0.12500000000000000        0.0000000000000000     
  0.78125000000000000       0.12500000000000000        0.0000000000000000     
  0.81250000000000000       0.12500000000000000        0.0000000000000000     
  0.84375000000000000       0.12500000000000000        0.0000000000000000     
  0.87500000000000000       0.12500000000000000        0.0000000000000000     
  0.75000000000000000       0.15625000000000000        0.0000000000000000     
  0.78125000000000000       0.15625000000000000        0.0000000000000000     
  0.81250000000000000       0.15625000000000000        0.0000000000000000     
  0.84375000000000000       0.15625000000000000        0.0000000000000000     
  0.87500000000000000       0.15625000000000000        0.0000000000000000     
  0.75000000000000000       0.18750000000000000        0.0000000000000000     
  0.78125000000000000       0.18750000000000000        0.0000000000000000     
  0.81250000000000000       0.18750000000000000        0.0000000000000000     
  0.84375000000000000       0.18750000000000000        0.0000000000000000     
  0.87500000000000000       0.18750000000000000        0.0000000000000000     
  0.75000000000000000       0.21875000000000000        0.0000000000000000     
  0.78125000000000000       0.21875000000000000        0.0000000000000000     
  0.81250000000000000       0.21875000000000000        0.0000000000000000     
  0.84375000000000000       0.21875000000000000        0.0000000000000000     
  0.87500000000000000       0.21875000000000000        0.0000000000000000     
  0.75000000000000000       0.25000000000000000        0.0000000000000000     
  0.78125000000000000       0.25000000000000000        0.0000000000000000     
  0.81250000000000000       0.25000000000000000        0.0000000000000000     
  0.84375000000000000       0.25000000000000000        0.0000000000000000     
  0.87500000000000000       0.25000000000000000        0.0000000000000000     
  0.87500000000000000       0.12500000000000000        0.0000000000000000     
  0.90625000000000000       0.12500000000000000        0.0000000000000000     
  0.93750000000000000       0.12500000000000000        0.0000000000000000     
  0.96875000000000000       0.12500000000000000        0.0000000000000000     
   1.0000000000000000       0.12500000000000000        0.0000000000000000     
  0.87500000000000000       0.15625000000000000        0.0000000000000000     
  0.90625000000000000       0.15625000000000000        0.0000000000000000     
  0.93750000000000000       0.15625000000000000        0.0000000000000000     
  0.96875000000000000       0.15625000000000000        0.0000000000000000     
   1.0000000000000000       0.15625000000000000        0.0000000000000000     
  0.87500000000000000       0.18750000000000000        0.0000000000000000     
  0.90625000000000000       0.18750000000000000        0.0000000000000000     
  0.93750000000000000       0.18750000000000000        0.0000000000000000     
  0.96875000000000000       0.18750000000000000        0.0000000000000000     
   1.0000000000000000       0.18750000000000000        0.0000000000000000     
  0.87500000000000000       0.21875000000000000        0.0000000000000000     
  0.90625000000000000       0.21875000000000000        0.0000000000000000     
  0.93750000000000000       0.21875000000000000        0.0000000000000000     
  0.96875000000000000       0.21875000000000000        0.0000000000000000     
   1.0000000000000000       0.21875000000000000        0.0000000000000000     
  0.87500000000000000       0.25000000000000000        0.0000000000000000     
  0.90625000000000000       0.25000000000000000        0.0000000000000000     
  0.93750000000000000       0.25000000000000000        0.0000000000000000     
  0.96875000000000000       0.25000000000000000        0.0000000000000000     
   1.0000000000000000       0.25000000000000000        0.0000000000000000     
   0.0000000000000000       0.25000000000000000        0.0000000000000000     
   3.1250000000000000E-002  0.25000000000000000        0.0000000000000000     
   6.2500000000000000E-002  0.25000000000000000        0.0000000000000000     
   9.3750000000000000E-002  0.25000000000000000        0.0000000000000000     
  0.12500000000000000       0.25000000000000000        0.0000000000000000     
   0.0000000000000000       0.28125000000000000        0.0000000000000000     
   3.1250000000000000E-002  0.28125000000000000        0.0000000000000000     
   6.2500000000000000E-002  0.28125000000000000        0.0000000000000000     
   9.3750000000000000E-002  0.28125000000000000        0.0000000000000000     
  0.12500000000000000       0.28125000000000000        0.0000000000000000     
   0.0000000000000000       0.31250000000000000        0.0000000000000000     
   3.1250000000000000E-002  0.31250000000000000        0.0000000000000000     
   6.2500000000000000E-002  0.31250000000000000        0.0000000000000000     
   9.3750000000000000E-002  0.31250000000000000        0.0000000000000000     
  0.12500000000000000       0.31250000000000000        0.0000000000000000     
   0.0000000000000000       0.34375000000000000        0.0000000000000000     
   3.1250000000000000E-002  0.34375000000000000        0.0000000000000000     
   6.2500000000000000E-002  0.34375000000000000        0.0000000000000000     
   9.3750000000000000E-002  0.34375000000000000        0.0000000000000000     
  0.12500000000000000       0.34375000000000000        0.0000000000000000     
   0.0000000000000000       0.37500000000000000        0.0000000000000000     
   3.1250000000000000E-002  0.37500000000000000        0.0000000000000000     
   6.2500000000000000E-002  0.37500000000000000        0.0000000000000000     
   9.3750000000000000E-002  0.37500000000000000        0.0000000000000000     
  0.12500000000000000       0.37500000000000000        0.0000000000000000     
  0.12500000000000000       0.25000000000000000        0.0000000000000000     
  0.15625000000000000       0.25000000000000000        0.0000000000000000     
  0.18750000000000000       0.25000000000000000        0.0000000000000000     
  0.21875000000000000       0.25000000000000000        0.0000000000000000     
  0.25000000000000000       0.25000000000000000        0.0000000000000000     
  0.12500000000000000       0.28125000000000000        0.0000000000000000     
  0.15625000000000000       0.28125000000000000        0.0000000000000000     
  0.18750000000000000       0.28125000000000000        0.0000000000000000     
  0.21875000000000000       0.28125000000000000        0.0000000000000000     
  0.25000000000000000       0.28125000000000000        0.0000000000000000     
  0.12500000000000000       0.31250000000000000        0.0000000000000000     
  0.15625000000000000       0.31250000000000000        0.0000000000000000     
  0.18750000000000000       0.31250000000000000        0.0000000000000000     
  0.21875000000000000       0.31250000000000000        0.0000000000000000     
  0.25000000000000000       0.31250000000000000        0.0000000000000000     
  0.12500000000000000       0.34375000000000000        0.0000000000000000     
  0.15625000000000000       0.34375000000000000        0.0000000000000000     
  0.18750000000000000       0.34375000000000000        0.0000000000000000     
  0.21875000000000000       0.34375000000000000        0.0000000000000000     
  0.25000000000000000       0.34375000000000000        0.0000000000000000     
  0.12500000000000000       0.37500000000000000        0.0000000000000000     
  0.15625000000000000       0.37500000000000000        0.0000000000000000     
  0.18750000000000000       0.37500000000000000        0.0000000000000000     
  0.21875000000000000       0.37500000000000000        0.0000000000000000     
  0.25000000000000000       0.37500000000000000        0.0000000000000000     
  0.25000000000000000       0.25000000000000000        0.0000000000000000     
  0.28125000000000000       0.25000000000000000        0.0000000000000000     
  0.31250000000000000       0.25000000000000000        0.0000000000000000     
  0.34375000000000000       0.25000000000000000        0.0000000000000000     
  0.37500000000000000       0.25000000000000000        0.0000000000000000     
  0.25000000000000000       0.28125000000000000        0.0000000000000000     
  0.28125000000000000       0.28125000000000000        0.0000000000000000     
  0.31250000000000000       0.28125000000000000        0.0000000000000000     
  0.34375000000000000       0.28125000000000000        0.0000000000000000     
  0.37500000000000000       0.28125000000000000        0.0000000000000000     
  0.25000000000000000       0.31250000000000000        0.0000000000000000     
  0.28125000000000000       0.31250000000000000        0.0000000000000000     
  0.31250000000000000       0.31250000000000000        0.0000000000000000     
  0.34375000000000000       0.31250000000000000        0.0000000000000000     
  0.37500000000000000       0.31250000000000000        0.0000000000000000     
  0.25000000000000000       0.34375000000000000        0.0000000000000000     
  0.28125000000000000       0.34375000000000000        0.0000000000000000     
  0.31250000000000000       0.34375000000000000        0.0000000000000000     
  0.34375000000000000       0.34375000000000000        0.0000000000000000     
  0.37500000000000000       0.34375000000000000        0.0000000000000000     
  0.25000000000000000       0.37500000000000000        0.0000000000000000     
  0.28125000000000000       0.37500000000000000        0.0000000000000000     
  0.31250000000000000       0.37500000000000000        0.0000000000000000     
  0.34375000000000000       0.37500000000000000        0.0000000000000000     
  0.37500000000000000       0.37500000000000000        0.0000000000000000     
  0.37500000000000000       0.25000000000000000        0.0000000000000000     
  0.40625000000000000       0.25000000000000000        0.0000000000000000     
  0.43750000000000000       0.25000000000000000        0.0000000000000000     
  0.46875000000000000       0.25000000000000000        0.0000000000000000     
  0.50000000000000000       0.25000000000000000        0.0000000000000000     
  0.37500000000000000       0.28125000000000000        0.0000000000000000     
  0.40625000000000000       0.28125000000000000        0.0000000000000000     
  0.43750000000000000       0.28125000000000000        0.0000000000000000     
  0.46875000000000000       0.28125000000000000        0.0000000000000000     
  0.50000000000000000       0.28125000000000000        0.0000000000000000     
  0.37500000000000000       0.31250000000000000        0.0000000000000000     
  0.40625000000000000       0.31250000000000000        0.0000000000000000     
  0.43750000000000000       0.31250000000000000        0.0000000000000000     
  0.46875000000000000       0.31250000000000000        0.0000000000000000     
  0.50000000000000000       0.31250000000000000        0.0000000000000000     
  0.37500000000000000       0.34375000000000000        0.0000000000000000     
  0.40625000000000000       0.34375000000000000        0.0000000000000000     
  0.43750000000000000       0.34375000000000000        0.0000000000000000     
  0.46875000000000000       0.34375000000000000        0.0000000000000000     
  0.50000000000000000       0.34375000000000000        0.0000000000000000     
  0.37500000000000000       0.37500000000000000        0.0000000000000000     
  0.40625000000000000       0.37500000000000000        0.0000000000000000     
  0.43750000000000000       0.37500000000000000        0.0000000000000000     
  0.46875000000000000       0.37500000000000000        0.0000000000000000     
  0.50000000000000000       0.37500000000000000        0.0000000000000000     
  0.50000000000000000       0.25000000000000000        0.0000000000000000     
  0.53125000000000000       0.25000000000000000        0.0000000000000000     
  0.56250000000000000       0.25000000000000000        0.0000000000000000     
  0.59375000000000000       0.25000000000000000        0.0000000000000000     
  0.62500000000000000       0.25000000000000000        0.0000000000000000     
  0.50000000000000000       0.28125000000000000        0.0000000000000000     
  0.53125000000000000       0.28125000000000000        0.0000000000000000     
  0.56250000000000000       0.28125000000000000        0.0000000000000000     
  0.59375000000000000       0.28125000000000000        0.0000000000000000     
  0.62500000000000000       0.28125000000000000        0.0000000000000000     
  0.50000000000000000       0.31250000000000000        0.0000000000000000     
  0.53125000000000000       0.31250000000000000        0.0000000000000000     
  0.56250000000000000       0.31250000000000000        0.0000000000000000     
  0.59375000000000000       0.31250000000000000        0.0000000000000000     
  0.62500000000000000       0.31250000000000000        0.0000000000000000     
  0.50000000000000000       0.34375000000000000        0.0000000000000000     
  0.53125000000000000       0.34375000000000000        0.0000000000000000     
  0.56250000000000000       0.34375000000000000        0.0000000000000000     
  0.59375000000000000       0.34375000000000000        0.0000000000000000     
  0.62500000000000000       0.34375000000000000        0.0000000000000000     
  0.50000000000000000       0.37500000000000000        0.0000000000000000     
  0.53125000000000000       0.37500000000000000        0.0000000000000000     
  0.56250000000000000       0.37500000000000000        0.0000000000000000     
  0.59375000000000000       0.37500000000000000        0.0000000000000000     
  0.62500000000000000       0.37500000000000000        0.0000000000000000     
  0.62500000000000000       0.25000000000000000        0.0000000000000000     
  0.65625000000000000       0.25000000000000000        0.0000000000000000     
  0.68750000000000000       0.25000000000000000        0.0000000000000000     
  0.71875000000000000       0.25000000000000000        0.0000000000000000     
  0.75000000000000000       0.25000000000000000        0.0000000000000000     
  0.62500000000000000       0.28125000000000000        0.0000000000000000     
  0.65625000000000000       0.28125000000000000        0.0000000000000000     
  0.68750000000000000       0.28125000000000000        0.0000000000000000     
  0.71875000000000000       0.28125000000000000        0.0000000000000000     
  0.75000000000000000       0.28125000000000000        0.0000000000000000     
  0.62500000000000000       0.31250000000000000        0.0000000000000000     
  0.65625000000000000       0.31250000000000000        0.0000000000000000     
  0.68750000000000000       0.31250000000000000        0.0000000000000000     
  0.71875000000000000       0.31250000000000000        0.0000000000000000     
  0.75000000000000000       0.31250000000000000        0.0000000000000000     
  0.62500000000000000       0.34375000000000000        0.0000000000000000     
  0.65625000000000000       0.34375000000000000        0.0000000000000000     
  0.68750000000000000       0.34375000000000000        0.0000000000000000     
  0.71875000000000000       0.34375000000000000        0.0000000000000000     
  0.75000000000000000       0.34375000000000000        0.0000000000000000     
  0.62500000000000000       0.37500000000000000        0.0000000000000000     
  0.65625000000000000       0.37500000000000000        0.0000000000000000     
  0.68750000000000000       0.37500000000000000        0.0000000000000000     
  0.71875000000000000       0.37500000000000000        0.0000000000000000     
  0.75000000000000000       0.37500000000000000        0.0000000000000000     
  0.75000000000000000       0.25000000000000000        0.0000000000000000     
  0.78125000000000000       0.25000000000000000        0.0000000000000000     
  0.81250000000000000       0.25000000000000000        0.0000000000000000     
  0.84375000000000000       0.25000000000000000        0.0000000000000000     
  0.87500000000000000       0.25000000000000000        0.0000000000000000     
  0.75000000000000000       0.28125000000000000        0.0000000000000000     
  0.78125000000000000       0.28125000000000000        0.0000000000000000     
  0.81250000000000000       0.28125000000000000        0.0000000000000000     
  0.84375000000000000       0.28125000000000000        0.0000000000000000     
  0.87500000000000000       0.28125000000000000        0.0000000000000000     
  0.75000000000000000       0.31250000000000000        0.0000000000000000     
  0.78125000000000000       0.31250000000000000        0.0000000000000000     
  0.81250000000000000       0.31250000000000000        0.0000000000000000     
  0.84375000000000000       0.31250000000000000        0.0000000000000000     
  0.87500000000000000       0.31250000000000000        0.0000000000000000     
  0.75000000000000000       0.34375000000000000        0.0000000000000000     
  0.78125000000000000       0.34375000000000000        0.0000000000000000     
  0.81250000000000000       0.34375000000000000        0.0000000000000000     
  0.84375000000000000       0.34375000000000000        0.0000000000000000     
  0.87500000000000000       0.34375000000000000        0.0000000000000000     
  0.75000000000000000       0.37500000000000000        0.0000000000000000     
  0.78125000000000000       0.37500000000000000        0.0000000000000000     
  0.81250000000000000       0.37500000000000000        0.0000000000000000     
  0.84375000000000000       0.37500000000000000        0.0000000000000000     
  0.87500000000000000       0.37500000000000000        0.0000000000000000     
  0.87500000000000000       0.25000000000000000        0.0000000000000000     
  0.90625000000000000       0.25000000000000000        0.0000000000000000     
  0.93750000000000000       0.25000000000000000        0.0000000000000000     
  0.96875000000000000       0.25000000000000000        0.0000000000000000     
   1.0000000000000000       0.25000000000000000        0.0000000000000000     
  0.87500000000000000       0.28125000000000000        0.0000000000000000     
  0.90625000000000000       0.28125000000000000        0.0000000000000000     
  0.93750000000000000       0.28125000000000000        0.0000000000000000     
  0.96875000000000000       0.28125000000000000        0.0000000000000000     
   1.0000000000000000       0.28125000000000000        0.0000000000000000     
  0.87500000000000000       0.31250000000000000        0.0000000000000000     
  0.90625000000000000       0.31250000000000000        0.0000000000000000     
  0.93750000000000000       0.31250000000000000        0.0000000000000000     
  0.96875000000000000       0.31250000000000000        0.0000000000000000     
   1.0000000000000000       0.31250000000000000        0.0000000000000000     
  0.87500000000000000       0.34375000000000000        0.0000000000000000     
  0.90625000000000000       0.34375000000000000        0.0000000000000000     
  0.93750000000000000       0.34375000000000000        0.0000000000000000     
  0.96875000000000000       0.34375000000000000        0.0000000000000000     
   1.0000000000000000       0.34375000000000000        0.0000000000000000     
  0.87500000000000000       0.37500000000000000        0.0000000000000000     
  0.90625000000000000       0.37500000000000000        0.0000000000000000     
  0.93750000000000000       0.37500000000000000        0.0000000000000000     
  0.96875000000000000       0.37500000000000000        0.0000000000000000     
   1.0000000000000000       0.37500000000000000        0.0000000000000000     
   0.0000000000000000       0.37500000000000000        0.0000000000000000     
   3.1250000000000000E-002  0.37500000000000000        0.0000000000000000     
   6.2500000000000000E-002  0.37500000000000000        0.0000000000000000     
   9.3750000000000000E-002  0.37500000000000000        0.0000000000000000     
  0.12500000000000000       0.37500000000000000        0.0000000000000000     
   0.0000000000000000       0.40625000000000000        0.0000000000000000     
   3.1250000000000000E-002  0.40625000000000000        0.0000000000000000     
   6.2500000000000000E-002  0.40625000000000000        0.0000000000000000     
   9.3750000000000000E-002  0.40625000000000000        0.0000000000000000     
  0.12500000000000000       0.40625000000000000        0.0000000000000000     
   0.0000000000000000       0.43750000000000000        0.0000000000000000     
   3.1250000000000000E-002  0.43750000000000000        0.0000000000000000     
   6.2500000000000000E-002  0.43750000000000000        0.0000000000000000     
   9.3750000000000000E-002  0.43750000000000000        0.0000000000000000     
  0.12500000000000000       0.43750000000000000        0.0000000000000000     
   0.0000000000000000       0.46875000000000000        0.0000000000000000     
   3.1250000000000000E-002  0.46875000000000000        0.0000000000000000     
   6.2500000000000000E-002  0.46875000000000000        0.0000000000000000     
   9.3750000000000000E-002  0.46875000000000000        0.0000000000000000     
  0.12500000000000000       0.46875000000000000        0.0000000000000000     
   0.0000000000000000       0.50000000000000000        0.0000000000000000     
   3.1250000000000000E-002  0.50000000000000000        0.0000000000000000     
   6.2500000000000000E-002  0.50000000000000000        0.0000000000000000     
   9.3750000000000000E-002  0.50000000000000000        0.0000000000000000     
  0.12500000000000000       0.50000000000000000        0.0000000000000000     
  0.12500000000000000       0.37500000000000000        0.0000000000000000     
  0.15625000000000000       0.37500000000000000        0.0000000000000000     
  0.18750000000000000       0.37500000000000000        0.0000000000000000     
  0.21875000000000000       0.37500000000000000        0.0000000000000000     
  0.25000000000000000       0.37500000000000000        0.0000000000000000     
  0.12500000000000000       0.40625000000000000        0.0000000000000000     
  0.15625000000000000       0.40625000000000000        0.0000000000000000     
  0.18750000000000000       0.40625000000000000        0.0000000000000000     
  0.21875000000000000       0.40625000000000000        0.0000000000000000     
  0.25000000000000000       0.40625000000000000        0.0000000000000000     
  0.12500000000000000       0.43750000000000000        0.0000000000000000     
  0.15625000000000000       0.43750000000000000        0.0000000000000000     
  0.18750000000000000       0.43750000000000000        0.0000000000000000     
  0.21875000000000000       0.43750000000000000        0.0000000000000000     
  0.25000000000000000       0.43750000000000000        0.0000000000000000     
  0.12500000000000000       0.46875000000000000        0.0000000000000000     
  0.15625000000000000       0.46875000000000000        0.0000000000000000     
  0.18750000000000000       0.46875000000000000        0.0000000000000000     
  0.21875000000000000       0.46875000000000000        0.0000000000000000     
  0.25000000000000000       0.46875000000000000        0.0000000000000000     
  0.12500000000000000       0.50000000000000000        0.0000000000000000     
  0.15625000000000000       0.50000000000000000        0.0000000000000000     
  0.18750000000000000       0.50000000000000000        0.0000000000000000     
  0.21875000000000000       0.50000000000000000        0.0000000000000000     
  0.25000000000000000       0.50000000000000000        0.0000000000000000     
  0.25000000000000000       0.37500000000000000        0.0000000000000000     
  0.28125000000000000       0.37500000000000000        0.0000000000000000     
  0.31250000000000000       0.37500000000000000        0.0000000000000000     
  0.34375000000000000       0.37500000000000000        0.0000000000000000     
  0.37500000000000000       0.37500000000000000        0.0000000000000000     
  0.25000000000000000       0.40625000000000000        0.0000000000000000     
  0.28125000000000000       0.40625000000000000        0.0000000000000000     
  0.31250000000000000       0.40625000000000000        0.0000000000000000     
  0.34375000000000000       0.40625000000000000        0.0000000000000000     
  0.37500000000000000       0.40625000000000000        0.0000000000000000     
  0.25000000000000000       0.43750000000000000        0.0000000000000000     
  0.28125000000000000       0.43750000000000000        0.0000000000000000     
  0.31250000000000000       0.43750000000000000        0.0000000000000000     
  0.34375000000000000       0.43750000000000000        0.0000000000000000     
  0.37500000000000000       0.43750000000000000        0.0000000000000000     
  0.25000000000000000       0.46875000000000000        0.0000000000000000     
  0.28125000000000000       0.46875000000000000        0.0000000000000000     
  0.31250000000000000       0.46875000000000000        0.0000000000000000     
  0.34375000000000000       0.46875000000000000        0.0000000000000000     
  0.37500000000000000       0.46875000000000000        0.0000000000000000     
  0.25000000000000000       0.50000000000000000        0.0000000000000000     
  0.28125000000000000       0.50000000000000000        0.0000000000000000     
  0.31250000000000000       0.50000000000000000        0.0000000000000000     
  0.34375000000000000       0.50000000000000000        0.0000000000000000     
  0.37500000000000000       0.50000000000000000        0.0000000000000000     
  0.37500000000000000       0.37500000000000000        0.0000000000000000     
  0.40625000000000000       0.37500000000000000        0.0000000000000000     
  0.43750000000000000       0.37500000000000000        0.0000000000000000     
  0.46875000000000000       0.37500000000000000        0.0000000000000000     
  0.50000000000000000       0.37500000000000000        0.0000000000000000     
  0.37500000000000000       0.40625000000000000        0.0000000000000000     
  0.40625000000000000       0.40625000000000000        0.0000000000000000     
  0.43750000000000000       0.40625000000000000        0.0000000000000000     
  0.46875000000000000       0.40625000000000000        0.0000000000000000     
  0.50000000000000000       0.40625000000000000        0.0000000000000000     
  0.37500000000000000       0.43750000000000000        0.0000000000000000     
  0.40625000000000000       0.43750000000000000        0.0000000000000000     
  0.43750000000000000       0.43750000000000000        0.0000000000000000     
  0.46875000000000000       0.43750000000000000        0.0000000000000000     
  0.50000000000000000       0.43750000000000000        0.0000000000000000     
  0.37500000000000000       0.46875000000000000        0.0000000000000000     
  0.40625000000000000       0.46875000000000000        0.0000000000000000     
  0.43750000000000000       0.46875000000000000        0.0000000000000000     
  0.46875000000000000       0.46875000000000000        0.0000000000000000     
  0.50000000000000000       0.46875000000000000        0.0000000000000000     
  0.37500000000000000       0.50000000000000000        0.0000000000000000     
  0.40625000000000000       0.50000000000000000        0.0000000000000000     
  0.43750000000000000       0.50000000000000000        0.0000000000000000     
  0.46875000000000000       0.50000000000000000        0.0000000000000000     
  0.50000000000000000       0.50000000000000000        0.0000000000000000     
  0.50000000000000000       0.37500000000000000        0.0000000000000000     
  0.53125000000000000       0.37500000000000000        0.0000000000000000     
  0.56250000000000000       0.37500000000000000        0.0000000000000000     
  0.59375000000000000       0.37500000000000000        0.0000000000000000     
  0.62500000000000000       0.37500000000000000        0.0000000000000000     
  0.50000000000000000       0.40625000000000000        0.0000000000000000     
  0.53125000000000000       0.40625000000000000        0.0000000000000000     
  0.56250000000000000       0.40625000000000000        0.0000000000000000     
  0.59375000000000000       0.40625000000000000        0.0000000000000000     
  0.62500000000000000       0.40625000000000000        0.0000000000000000     
  0.50000000000000000       0.43750000000000000        0.0000000000000000     
  0.53125000000000000       0.43750000000000000        0.0000000000000000     
  0.56250000000000000       0.43750000000000000        0.0000000000000000     
  0.59375000000000000       0.43750000000000000        0.0000000000000000     
  0.62500000000000000       0.43750000000000000        0.0000000000000000     
  0.50000000000000000       0.46875000000000000        0.0000000000000000     
  0.53125000000000000       0.46875000000000000        0.0000000000000000     
  0.56250000000000000       0.46875000000000000        0.0000000000000000     
  0.59375000000000000       0.46875000000000000        0.0000000000000000     
  0.62500000000000000       0.46875000000000000        0.0000000000000000     
  0.50000000000000000       0.50000000000000000        0.0000000000000000     
  0.53125000000000000       0.50000000000000000        0.0000000000000000     
  0.56250000000000000       0.50000000000000000        0.0000000000000000     
  0.59375000000000000       0.50000000000000000        0.0000000000000000     
  0.62500000000000000       0.50000000000000000        0.0000000000000000     
  0.62500000000000000       0.37500000000000000        0.0000000000000000     
  0.65625000000000000       0.37500000000000000        0.0000000000000000     
  0.68750000000000000       0.37500000000000000        0.0000000000000000     
  0.71875000000000000       0.37500000000000000        0.0000000000000000     
  0.75000000000000000       0.37500000000000000        0.0000000000000000     
  0.62500000000000000       0.40625000000000000        0.0000000000000000     
  0.65625000000000000       0.40625000000000000        0.0000000000000000     
  0.68750000000000000       0.40625000000000000        0.0000000000000000     
  0.71875000000000000       0.40625000000000000        0.0000000000000000     
  0.75000000000000000       0.40625000000000000        0.0000000000000000     
  0.62500000000000000       0.43750000000000000        0.0000000000000000     
  0.65625000000000000       0.43750000000000000        0.0000000000000000     
  0.68750000000000000       0.43750000000000000        0.0000000000000000     
  0.71875000000000000       0.43750000000000000        0.0000000000000000     
  0.75000000000000000       0.43750000000000000        0.0000000000000000     
  0.62500000000000000       0.46875000000000000        0.0000000000000000     
  0.65625000000000000       0.46875000000000000        0.0000000000000000     
  0.68750000000000000       0.46875000000000000        0.0000000000000000     
  0.71875000000000000       0.46875000000000000        0.0000000000000000     
  0.75000000000000000       0.46875000000000000        0.0000000000000000     
  0.62500000000000000       0.50000000000000000        0.0000000000000000     
  0.65625000000000000       0.50000000000000000        0.0000000000000000     
  0.68750000000000000       0.50000000000000000        0.0000000000000000     
  0.71875000000000000       0.50000000000000000        0.0000000000000000     
  0.75000000000000000       0.50000000000000000        0.0000000000000000     
  0.75000000000000000       0.37500000000000000        0.0000000000000000     
  0.78125000000000000       0.37500000000000000        0.0000000000000000     
  0.81250000000000000       0.37500000000000000        0.0000000000000000     
  0.84375000000000000       0.37500000000000000        0.0000000000000000     
  0.87500000000000000       0.37500000000000000        0.0000000000000000     
  0.75000000000000000       0.40625000000000000        0.0000000000000000     
  0.78125000000000000       0.40625000000000000        0.0000000000000000     
  0.81250000000000000       0.40625000000000000        0.0000000000000000     
  0.84375000000000000       0.40625000000000000        0.0000000000000000     
  0.87500000000000000       0.40625000000000000        0.0000000000000000     
  0.75000000000000000       0.43750000000000000        0.0000000000000000     
  0.78125000000000000       0.43750000000000000        0.0000000000000000     
  0.81250000000000000       0.43750000000000000        0.0000000000000000     
  0.84375000000000000       0.43750000000000000        0.0000000000000000     
  0.87500000000000000       0.43750000000000000        0.0000000000000000     
  0.75000000000000000       0.46875000000000000        0.0000000000000000     
  0.78125000000000000       0.46875000000000000        0.0000000000000000     
  0.81250000000000000       0.46875000000000000        0.0000000000000000     
  0.84375000000000000       0.46875000000000000        0.0000000000000000     
  0.87500000000000000       0.46875000000000000        0.0000000000000000     
  0.75000000000000000       0.50000000000000000        0.0000000000000000     
  0.78125000000000000       0.50000000000000000        0.0000000000000000     
  0.81250000000000000       0.50000000000000000        0.0000000000000000     
  0.84375000000000000       0.50000000000000000        0.0000000000000000     
  0.87500000000000000       0.50000000000000000        0.0000000000000000     
  0.87500000000000000       0.37500000000000000        0.0000000000000000     
  0.90625000000000000       0.37500000000000000        0.0000000000000000     
  0.93750000000000000       0.37500000000000000        0.0000000000000000     
  0.96875000000000000       0.37500000000000000        0.0000000000000000     
   1.0000000000000000       0.37500000000000000        0.0000000000000000     
  0.87500000000000000       0.40625000000000000        0.0000000000000000     
  0.90625000000000000       0.40625000000000000        0.0000000000000000     
  0.93750000000000000       0.40625000000000000        0.0000000000000000     
  0.96875000000000000       0.40625000000000000        0.0000000000000000     
   1.0000000000000000       0.40625000000000000        0.0000000000000000     
  0.87500000000000000       0.43750000000000000        0.0000000000000000     
  0.90625000000000000       0.43750000000000000        0.0000000000000000     
  0.93750000000000000       0.43750000000000000        0.0000000000000000     
  0.96875000000000000       0.43750000000000000        0.0000000000000000     
   1.0000000000000000       0.43750000000000000        0.0000000000000000     
  0.87500000000000000       0.46875000000000000        0.0000000000000000     
  0.90625000000000000       0.46875000000000000        0.0000000000000000     
  0.93750000000000000       0.46875000000000000        0.0000000000000000     
  0.96875000000000000       0.46875000000000000        0.0000000000000000     
   1.0000000000000000       0.46875000000000000        0.0000000000000000     
  0.87500000000000000       0.50000000000000000        0.0000000000000000     
  0.90625000000000000       0.50000000000000000        0.0000000000000000     
  0.93750000000000000       0.50000000000000000        0.0000000000000000     
  0.96875000000000000       0.50000000000000000        0.0000000000000000     
   1.0000000000000000       0.50000000000000000        0.0000000000000000     
   0.0000000000000000       0.50000000000000000        0.0000000000000000     
   3.1250000000000000E-002  0.50000000000000000        0.0000000000000000     
   6.2500000000000000E-002  0.50000000000000000        0.0000000000000000     
   9.3750000000000000E-002  0.50000000000000000        0.0000000000000000     
  0.12500000000000000       0.50000000000000000        0.0000000000000000     
   0.0000000000000000       0.53125000000000000        0.0000000000000000     
   3.1250000000000000E-002  0.53125000000000000        0.0000000000000000     
   6.2500000000000000E-002  0.53125000000000000        0.0000000000000000     
   9.3750000000000000E-002  0.53125000000000000        0.0000000000000000     
  0.12500000000000000       0.53125000000000000        0.0000000000000000     
   0.0000000000000000       0.56250000000000000        0.0000000000000000     
   3.1250000000000000E-002  0.56250000000000000        0.0000000000000000     
   6.2500000000000000E-002  0.56250000000000000        0.0000000000000000     
   9.3750000000000000E-002  0.56250000000000000        0.0000000000000000     
  0.12500000000000000       0.56250000000000000        0.0000000000000000     
   0.0000000000000000       0.59375000000000000        0.0000000000000000     
   3.1250000000000000E-002  0.59375000000000000        0.0000000000000000     
   6.2500000000000000E-002  0.59375000000000000        0.0000000000000000     
   9.3750000000000000E-002  0.59375000000000000        0.0000000000000000     
  0.12500000000000000       0.59375000000000000        0.0000000000000000     
   0.0000000000000000       0.62500000000000000        0.0000000000000000     
   3.1250000000000000E-002  0.62500000000000000        0.0000000000000000     
   6.2500000000000000E-002  0.62500000000000000        0.0000000000000000     
   9.3750000000000000E-002  0.62500000000000000        0.0000000000000000     
  0.12500000000000000       0.62500000000000000        0.0000000000000000     
  0.12500000000000000       0.50000000000000000        0.0000000000000000     
  0.15625000000000000       0.50000000000000000        0.0000000000000000     
  0.18750000000000000       0.50000000000000000        0.0000000000000000     
  0.21875000000000000       0.50000000000000000        0.0000000000000000     
  0.25000000000000000       0.50000000000000000        0.0000000000000000     
  0.12500000000000000       0.53125000000000000        0.0000000000000000     
  0.15625000000000000       0.53125000000000000        0.0000000000000000     
  0.18750000000000000       0.53125000000000000        0.0000000000000000     
  0.21875000000000000       0.53125000000000000        0.0000000000000000     
  0.25000000000000000       0.53125000000000000        0.0000000000000000     
  0.12500000000000000       0.56250000000000000        0.0000000000000000     
  0.15625000000000000       0.56250000000000000        0.0000000000000000     
  0.18750000000000000       0.56250000000000000        0.0000000000000000     
  0.21875000000000000       0.56250000000000000        0.0000000000000000     
  0.25000000000000000       0.56250000000000000        0.0000000000000000     
  0.12500000000000000       0.59375000000000000        0.0000000000000000     
  0.15625000000000000       0.59375000000000000        0.0000000000000000     
  0.18750000000000000       0.59375000000000000        0.0000000000000000     
  0.21875000000000000       0.59375000000000000        0.0000000000000000     
  0.25000000000000000       0.59375000000000000        0.0000000000000000     
  0.12500000000000000       0.62500000000000000        0.0000000000000000     
  0.15625000000000000       0.62500000000000000        0.0000000000000000     
  0.18750000000000000       0.62500000000000000        0.0000000000000000     
  0.21875000000000000       0.62500000000000000        0.0000000000000000     
  0.25000000000000000       0.62500000000000000        0.0000000000000000     
  0.25000000000000000       0.50000000000000000        0.0000000000000000     
  0.28125000000000000       0.50000000000000000        0.0000000000000000     
  0.31250000000000000       0.50000000000000000        0.0000000000000000     
  0.34375000000000000       0.50000000000000000        0.0000000000000000     
  0.37500000000000000       0.50000000000000000        0.0000000000000000     
  0.25000000000000000       0.53125000000000000        0.0000000000000000     
  0.28125000000000000       0.53125000000000000        0.0000000000000000     
  0.31250000000000000       0.53125000000000000        0.0000000000000000     
  0.34375000000000000       0.53125000000000000        0.0000000000000000     
  0.37500000000000000       0.53125000000000000        0.0000000000000000     
  0.25000000000000000       0.56250000000000000        0.0000000000000000     
  0.28125000000000000       0.56250000000000000        0.0000000000000000     
  0.31250000000000000       0.56250000000000000        0.0000000000000000     
  0.34375000000000000       0.56250000000000000        0.0000000000000000     
  0.37500000000000000       0.56250000000000000        0.0000000000000000     
  0.25000000000000000       0.59375000000000000        0.0000000000000000     
  0.28125000000000000       0.59375000000000000        0.0000000000000000     
  0.31250000000000000       0.59375000000000000        0.0000000000000000     
  0.34375000000000000       0.59375000000000000        0.0000000000000000     
  0.37500000000000000       0.59375000000000000        0.0000000000000000     
  0.25000000000000000       0.62500000000000000        0.0000000000000000     
  0.28125000000000000       0.62500000000000000        0.0000000000000000     
  0.31250000000000000       0.62500000000000000        0.0000000000000000     
  0.34375000000000000       0.62500000000000000        0.0000000000000000     
  0.37500000000000000       0.62500000000000000        0.0000000000000000     
  0.37500000000000000       0.50000000000000000        0.0000000000000000     
  0.40625000000000000       0.50000000000000000        0.0000000000000000     
  0.43750000000000000       0.50000000000000000        0.0000000000000000     
  0.46875000000000000       0.50000000000000000        0.0000000000000000     
  0.50000000000000000       0.50000000000000000        0.0000000000000000     
  0.37500000000000000       0.53125000000000000        0.0000000000000000     
  0.40625000000000000       0.53125000000000000        0.0000000000000000     
  0.43750000000000000       0.53125000000000000        0.0000000000000000     
  0.46875000000000000       0.53125000000000000        0.0000000000000000     
  0.50000000000000000       0.53125000000000000        0.0000000000000000     
  0.37500000000000000       0.56250000000000000        0.0000000000000000     
  0.40625000000000000       0.56250000000000000        0.0000000000000000     
  0.43750000000000000       0.56250000000000000        0.0000000000000000     
  0.46875000000000000       0.56250000000000000        0.0000000000000000     
  0.50000000000000000       0.56250000000000000        0.0000000000000000     
  0.37500000000000000       0.59375000000000000        0.0000000000000000     
  0.40625000000000000       0.59375000000000000        0.0000000000000000     
  0.43750000000000000       0.59375000000000000        0.0000000000000000     
  0.46875000000000000       0.59375000000000000        0.0000000000000000     
  0.50000000000000000       0.59375000000000000        0.0000000000000000     
  0.37500000000000000       0.62500000000000000        0.0000000000000000     
  0.40625000000000000       0.62500000000000000        0.0000000000000000     
  0.43750000000000000       0.62500000000000000        0.0000000000000000     
  0.46875000000000000       0.62500000000000000        0.0000000000000000     
  0.50000000000000000       0.62500000000000000        0.0000000000000000     
  0.50000000000000000       0.50000000000000000        0.0000000000000000     
  0.53125000000000000       0.50000000000000000        0.0000000000000000     
  0.56250000000000000       0.50000000000000000        0.0000000000000000     
  0.59375000000000000       0.50000000000000000        0.0000000000000000     
  0.62500000000000000       0.50000000000000000        0.0000000000000000     
  0.50000000000000000       0.53125000000000000        0.0000000000000000     
  0.53125000000000000       0.53125000000000000        0.0000000000000000     
  0.56250000000000000       0.53125000000000000        0.0000000000000000     
  0.59375000000000000       0.53125000000000000        0.0000000000000000     
  0.62500000000000000       0.53125000000000000        0.0000000000000000     
  0.50000000000000000       0.56250000000000000        0.0000000000000000     
  0.53125000000000000       0.56250000000000000        0.0000000000000000     
  0.56250000000000000       0.56250000000000000        0.0000000000000000     
  0.59375000000000000       0.56250000000000000        0.0000000000000000     
  0.62500000000000000       0.56250000000000000        0.0000000000000000     
  0.50000000000000000       0.59375000000000000        0.0000000000000000     
  0.53125000000000000       0.59375000000000000        0.0000000000000000     
  0.56250000000000000       0.59375000000000000        0.0000000000000000     
  0.59375000000000000       0.59375000000000000        0.0000000000000000     
  0.62500000000000000       0.59375000000000000        0.0000000000000000     
  0.50000000000000000       0.62500000000000000        0.0000000000000000     
  0.53125000000000000       0.62500000000000000        0.0000000000000000     
  0.56250000000000000       0.62500000000000000        0.0000000000000000     
  0.59375000000000000       0.62500000000000000        0.0000000000000000     
  0.62500000000000000       0.62500000000000000        0.0000000000000000     
  0.62500000000000000       0.50000000000000000        0.0000000000000000     
  0.65625000000000000       0.50000000000000000        0.0000000000000000     
  0.68750000000000000       0.50000000000000000        0.0000000000000000     
  0.71875000000000000       0.50000000000000000        0.0000000000000000     
  0.75000000000000000       0.50000000000000000        0.0000000000000000     
  0.62500000000000000       0.53125000000000000        0.0000000000000000     
  0.65625000000000000       0.53125000000000000        0.0000000000000000     
  0.68750000000000000       0.53125000000000000        0.0000000000000000     
  0.71875000000000000       0.53125000000000000        0.0000000000000000     
  0.75000000000000000       0.53125000000000000        0.0000000000000000     
  0.62500000000000000       0.56250000000000000        0.0000000000000000     
  0.65625000000000000       0.56250000000000000        0.0000000000000000     
  0.68750000000000000       0.56250000000000000        0.0000000000000000     
  0.71875000000000000       0.56250000000000000        0.0000000000000000     
  0.75000000000000000       0.56250000000000000        0.0000000000000000     
  0.62500000000000000       0.59375000000000000        0.0000000000000000     
  0.65625000000000000       0.59375000000000000        0.0000000000000000     
  0.68750000000000000       0.59375000000000000        0.0000000000000000     
  0.71875000000000000       0.59375000000000000        0.0000000000000000     
  0.75000000000000000       0.59375000000000000        0.0000000000000000     
  0.62500000000000000       0.62500000000000000        0.0000000000000000     
  0.65625000000000000       0.62500000000000000        0.0000000000000000     
  0.68750000000000000       0.62500000000000000        0.0000000000000000     
  0.71875000000000000       0.62500000000000000        0.0000000000000000     
  0.75000000000000000       0.62500000000000000        0.0000000000000000     
  0.75000000000000000       0.50000000000000000        0.0000000000000000     
  0.78125000000000000       0.50000000000000000        0.0000000000000000     
  0.81250000000000000       0.50000000000000000        0.0000000000000000     
  0.84375000000000000       0.50000000000000000        0.0000000000000000     
  0.87500000000000000       0.50000000000000000        0.0000000000000000     
  0.75000000000000000       0.53125000000000000        0.0000000000000000     
  0.78125000000000000       0.53125000000000000        0.0000000000000000     
  0.81250000000000000       0.53125000000000000        0.0000000000000000     
  0.84375000000000000       0.53125000000000000        0.0000000000000000     
  0.87500000000000000       0.53125000000000000        0.0000000000000000     
  0.75000000000000000       0.56250000000000000        0.0000000000000000     
  0.78125000000000000       0.56250000000000000        0.0000000000000000     
  0.81250000000000000       0.56250000000000000        0.0000000000000000     
  0.84375000000000000       0.56250000000000000        0.0000000000000000     
  0.87500000000000000       0.56250000000000000        0.0000000000000000     
  0.75000000000000000       0.59375000000000000        0.0000000000000000     
  0.78125000000000000       0.59375000000000000        0.0000000000000000     
  0.81250000000000000       0.59375000000000000        0.0000000000000000     
  0.84375000000000000       0.59375000000000000        0.0000000000000000     
  0.87500000000000000       0.59375000000000000        0.0000000000000000     
  0.75000000000000000       0.62500000000000000        0.0000000000000000     
  0.78125000000000000       0.62500000000000000        0.0000000000000000     
  0.81250000000000000       0.62500000000000000        0.0000000000000000     
  0.84375000000000000       0.62500000000000000        0.0000000000000000     
  0.87500000000000000       0.62500000000000000        0.0000000000000000     
  0.87500000000000000       0.50000000000000000        0.0000000000000000     
  0.90625000000000000       0.50000000000000000        0.0000000000000000     
  0.93750000000000000       0.50000000000000000        0.0000000000000000     
  0.96875000000000000       0.50000000000000000        0.0000000000000000     
   1.0000000000000000       0.50000000000000000        0.0000000000000000     
  0.87500000000000000       0.53125000000000000        0.0000000000000000     
  0.90625000000000000       0.53125000000000000        0.0000000000000000     
  0.93750000000000000       0.53125000000000000        0.0000000000000000     
  0.96875000000000000       0.53125000000000000        0.0000000000000000     
   1.0000000000000000       0.53125000000000000        0.0000000000000000     
  0.87500000000000000       0.56250000000000000        0.0000000000000000     
  0.90625000000000000       0.56250000000000000        0.0000000000000000     
  0.93750000000000000       0.56250000000000000        0.0000000000000000     
  0.96875000000000000       0.56250000000000000        0.0000000000000000     
   1.0000000000000000       0.56250000000000000        0.0000000000000000     
  0.87500000000000000       0.59375000000000000        0.0000000000000000     
  0.90625000000000000       0.59375000000000000        0.0000000000000000     
  0.93750000000000000       0.59375000000000000        0.0000000000000000     
  0.96875000000000000       0.59375000000000000        0.0000000000000000     
   1.0000000000000000       0.59375000000000000        0.0000000000000000     
  0.87500000000000000       0.62500000000000000        0.0000000000000000     
  0.90625000000000000       0.62500000000000000        0.0000000000000000     
  0.93750000000000000       0.62500000000000000        0.0000000000000000     
  0.96875000000000000       0.62500000000000000        0.0000000000000000     
   1.0000000000000000       0.62500000000000000        0.0000000000000000     
   0.0000000000000000       0.62500000000000000        0.0000000000000000     
   3.1250000000000000E-002  0.62500000000000000        0.0000000000000000     
   6.2500000000000000E-002  0.62500000000000000        0.0000000000000000     
   9.3750000000000000E-002  0.62500000000000000        0.0000000000000000     
  0.12500000000000000       0.62500000000000000        0.0000000000000000     
   0.0000000000000000       0.65625000000000000        0.0000000000000000     
   3.1250000000000000E-002  0.65625000000000000        0.0000000000000000     
   6.2500000000000000E-002  0.65625000000000000        0.0000000000000000     
   9.3750000000000000E-002  0.65625000000000000        0.0000000000000000     
  0.12500000000000000       0.65625000000000000        0.0000000000000000     
   0.0000000000000000       0.68750000000000000        0.0000000000000000     
   3.1250000000000000E-002  0.68750000000000000        0.0000000000000000     
   6.2500000000000000E-002  0.68750000000000000        0.0000000000000000     
   9.3750000000000000E-002  0.68750000000000000        0.0000000000000000     
  0.12500000000000000       0.68750000000000000        0.0000000000000000     
   0.0000000000000000       0.71875000000000000        0.0000000000000000     
   3.1250000000000000E-002  0.71875000000000000        0.0000000000000000     
   6.2500000000000000E-002  0.71875000000000000        0.0000000000000000     
   9.3750000000000000E-002  0.71875000000000000        0.0000000000000000     
  0.12500000000000000       0.71875000000000000        0.0000000000000000     
   0.0000000000000000       0.75000000000000000        0.0000000000000000     
   3.1250000000000000E-002  0.75000000000000000        0.0000000000000000     
   6.2500000000000000E-002  0.75000000000000000        0.0000000000000000     
   9.3750000000000000E-002  0.75000000000000000        0.0000000000000000     
  0.12500000000000000       0.75000000000000000        0.0000000000000000     
  0.12500000000000000       0.62500000000000000        0.0000000000000000     
  0.15625000000000000       0.62500000000000000        0.0000000000000000     
  0.18750000000000000       0.62500000000000000        0.0000000000000000     
  0.21875000000000000       0.62500000000000000        0.0000000000000000     
  0.25000000000000000       0.62500000000000000        0.0000000000000000     
  0.12500000000000000       0.65625000000000000        0.0000000000000000     
  0.15625000000000000       0.65625000000000000        0.0000000000000000     
  0.18750000000000000       0.65625000000000000        0.0000000000000000     
  0.21875000000000000       0.65625000000000000        0.0000000000000000     
  0.25000000000000000       0.65625000000000000        0.0000000000000000     
  0.12500000000000000       0.68750000000000000        0.0000000000000000     
  0.15625000000000000       0.68750000000000000        0.0000000000000000     
  0.18750000000000000       0.68750000000000000        0.0000000000000000     
  0.21875000000000000       0.68750000000000000        0.0000000000000000     
  0.25000000000000000       0.68750000000000000        0.0000000000000000     
  0.12500000000000000       0.71875000000000000        0.0000000000000000     
  0.15625000000000000       0.71875000000000000        0.0000000000000000     
  0.18750000000000000       0.71875000000000000        0.0000000000000000     
  0.21875000000000000       0.71875000000000000        0.0000000000000000     
  0.25000000000000000       0.71875000000000000        0.0000000000000000     
  0.12500000000000000       0.75000000000000000        0.0000000000000000     
  0.15625000000000000       0.75000000000000000        0.0000000000000000     
  0.18750000000000000       0.75000000000000000        0.0000000000000000     
  0.21875000000000000       0.75000000000000000        0.0000000000000000     
  0.25000000000000000       0.75000000000000000        0.0000000000000000     
  0.25000000000000000       0.62500000000000000        0.0000000000000000     
  0.28125000000000000       0.62500000000000000        0.0000000000000000     
  0.31250000000000000       0.62500000000000000        0.0000000000000000     
  0.34375000000000000       0.62500000000000000        0.0000000000000000     
  0.37500000000000000       0.62500000000000000        0.0000000000000000     
  0.25000000000000000       0.65625000000000000        0.0000000000000000     
  0.28125000000000000       0.65625000000000000        0.0000000000000000     
  0.31250000000000000       0.65625000000000000        0.0000000000000000     
  0.34375000000000000       0.65625000000000000        0.0000000000000000     
  0.37500000000000000       0.65625000000000000        0.0000000000000000     
  0.25000000000000000       0.68750000000000000        0.0000000000000000     
  0.28125000000000000       0.68750000000000000        0.0000000000000000     
  0.31250000000000000       0.68750000000000000        0.0000000000000000     
  0.34375000000000000       0.68750000000000000        0.0000000000000000     
  0.37500000000000000       0.68750000000000000        0.0000000000000000     
  0.25000000000000000       0.71875000000000000        0.0000000000000000     
  0.28125000000000000       0.71875000000000000        0.0000000000000000     
  0.31250000000000000       0.71875000000000000        0.0000000000000000     
  0.34375000000000000       0.71875000000000000        0.0000000000000000     
  0.37500000000000000       0.71875000000000000        0.0000000000000000     
  0.25000000000000000       0.75000000000000000        0.0000000000000000     
  0.28125000000000000       0.75000000000000000        0.0000000000000000     
  0.31250000000000000       0.75000000000000000        0.0000000000000000     
  0.34375000000000000       0.75000000000000000        0.0000000000000000     
  0.37500000000000000       0.75000000000000000        0.0000000000000000     
  0.37500000000000000       0.62500000000000000        0.0000000000000000     
  0.40625000000000000       0.62500000000000000        0.0000000000000000     
  0.43750000000000000       0.62500000000000000        0.0000000000000000     
  0.46875000000000000       0.62500000000000000        0.0000000000000000     
  0.50000000000000000       0.62500000000000000        0.0000000000000000     
  0.37500000000000000       0.65625000000000000        0.0000000000000000     
  0.40625000000000000       0.65625000000000000        0.0000000000000000     
  0.43750000000000000       0.65625000000000000        0.0000000000000000     
  0.46875000000000000       0.65625000000000000        0.0000000000000000     
  0.50000000000000000       0.65625000000000000        0.0000000000000000     
  0.37500000000000000       0.68750000000000000        0.0000000000000000     
  0.40625000000000000       0.68750000000000000        0.0000000000000000     
  0.43750000000000000       0.68750000000000000        0.0000000000000000     
  0.46875000000000000       0.68750000000000000        0.0000000000000000     
  0.50000000000000000       0.68750000000000000        0.0000000000000000     
  0.37500000000000000       0.71875000000000000        0.0000000000000000     
  0.40625000000000000       0.71875000000000000        0.0000000000000000     
  0.43750000000000000       0.71875000000000000        0.0000000000000000     
  0.46875000000000000       0.71875000000000000        0.0000000000000000     
  0.50000000000000000       0.71875000000000000        0.0000000000000000     
  0.37500000000000000       0.75000000000000000        0.0000000000000000     
  0.40625000000000000       0.75000000000000000        0.0000000000000000     
  0.43750000000000000       0.75000000000000000        0.0000000000000000     
  0.46875000000000000       0.75000000000000000        0.0000000000000000     
  0.50000000000000000       0.75000000000000000        0.0000000000000000     
  0.50000000000000000       0.62500000000000000        0.0000000000000000     
  0.53125000000000000       0.62500000000000000        0.0000000000000000     
  0.56250000000000000       0.62500000000000000        0.0000000000000000     
  0.59375000000000000       0.62500000000000000        0.0000000000000000     
  0.62500000000000000       0.62500000000000000        0.0000000000000000     
  0.50000000000000000       0.65625000000000000        0.0000000000000000     
  0.53125000000000000       0.65625000000000000        0.0000000000000000     
  0.56250000000000000       0.65625000000000000        0.0000000000000000     
  0.59375000000000000       0.65625000000000000        0.0000000000000000     
  0.62500000000000000       0.65625000000000000        0.0000000000000000     
  0.50000000000000000       0.68750000000000000        0.0000000000000000     
  0.53125000000000000       0.68750000000000000        0.0000000000000000     
  0.56250000000000000       0.68750000000000000        0.0000000000000000     
  0.59375000000000000       0.68750000000000000        0.0000000000000000     
  0.62500000000000000       0.68750000000000000        0.0000000000000000     
  0.50000000000000000       0.71875000000000000        0.0000000000000000     
  0.53125000000000000       0.71875000000000000        0.0000000000000000     
  0.56250000000000000       0.71875000000000000        0.0000000000000000     
  0.59375000000000000       0.71875000000000000        0.0000000000000000     
  0.62500000000000000       0.71875000000000000        0.0000000000000000     
  0.50000000000000000       0.75000000000000000        0.0000000000000000     
  0.53125000000000000       0.75000000000000000        0.0000000000000000     
  0.56250000000000000       0.75000000000000000        0.0000000000000000     
  0.59375000000000000       0.75000000000000000        0.0000000000000000     
  0.62500000000000000       0.75000000000000000        0.0000000000000000     
  0.62500000000000000       0.62500000000000000        0.0000000000000000     
  0.65625000000000000       0.62500000000000000        0.0000000000000000     
  0.68750000000000000       0.62500000000000000        0.0000000000000000     
  0.71875000000000000       0.62500000000000000        0.0000000000000000     
  0.75000000000000000       0.62500000000000000        0.0000000000000000     
  0.62500000000000000       0.65625000000000000        0.0000000000000000     
  0.65625000000000000       0.65625000000000000        0.0000000000000000     
  0.68750000000000000       0.65625000000000000        0.0000000000000000     
  0.71875000000000000       0.65625000000000000        0.0000000000000000     
  0.75000000000000000       0.65625000000000000        0.0000000000000000     
  0.62500000000000000       0.68750000000000000        0.0000000000000000     
  0.65625000000000000       0.68750000000000000        0.0000000000000000     
  0.68750000000000000       0.68750000000000000        0.0000000000000000     
  0.71875000000000000       0.68750000000000000        0.0000000000000000     
  0.75000000000000000       0.68750000000000000        0.0000000000000000     
  0.62500000000000000       0.71875000000000000        0.0000000000000000     
  0.65625000000000000       0.71875000000000000        0.0000000000000000     
  0.68750000000000000       0.71875000000000000        0.0000000000000000     
  0.71875000000000000       0.71875000000000000        0.0000000000000000     
  0.75000000000000000       0.71875000000000000        0.0000000000000000     
  0.62500000000000000       0.75000000000000000        0.0000000000000000     
  0.65625000000000000       0.75000000000000000        0.0000000000000000     
  0.68750000000000000       0.75000000000000000        0.0000000000000000     
  0.71875000000000000       0.75000000000000000        0.0000000000000000     
  0.75000000000000000       0.75000000000000000        0.0000000000000000     
  0.75000000000000000       0.62500000000000000        0.0000000000000000     
  0.78125000000000000       0.62500000000000000        0.0000000000000000     
  0.81250000000000000       0.62500000000000000        0.0000000000000000     
  0.84375000000000000       0.62500000000000000        0.0000000000000000     
  0.87500000000000000       0.62500000000000000        0.0000000000000000     
  0.75000000000000000       0.65625000000000000        0.0000000000000000     
  0.78125000000000000       0.65625000000000000        0.0000000000000000     
  0.81250000000000000       0.65625000000000000        0.0000000000000000     
  0.84375000000000000       0.65625000000000000        0.0000000000000000     
  0.87500000000000000       0.65625000000000000        0.0000000000000000     
  0.75000000000000000       0.68750000000000000        0.0000000000000000     
  0.78125000000000000       0.68750000000000000        0.0000000000000000     
  0.81250000000000000       0.68750000000000000        0.0000000000000000     
  0.84375000000000000       0.68750000000000000        0.0000000000000000     
  0.87500000000000000       0.68750000000000000        0.0000000000000000     
  0.75000000000000000       0.71875000000000000        0.0000000000000000     
  0.78125000000000000       0.71875000000000000        0.0000000000000000     
  0.81250000000000000       0.71875000000000000        0.0000000000000000     
  0.84375000000000000       0.71875000000000000        0.0000000000000000     
  0.87500000000000000       0.71875000000000000        0.0000000000000000     
  0.75000000000000000       0.75000000000000000        0.0000000000000000     
  0.78125000000000000       0.75000000000000000        0.0000000000000000     
  0.81250000000000000       0.75000000000000000        0.0000000000000000     
  0.84375000000000000       0.75000000000000000        0.0000000000000000     
  0.87500000000000000       0.75000000000000000        0.0000000000000000     
  0.87500000000000000       0.62500000000000000        0.0000000000000000     
  0.90625000000000000       0.62500000000000000        0.0000000000000000     
  0.93750000000000000       0.62500000000000000        0.0000000000000000     
  0.96875000000000000       0.62500000000000000        0.0000000000000000     
   1.0000000000000000       0.62500000000000000        0.0000000000000000     
  0.87500000000000000       0.65625000000000000        0.0000000000000000     
  0.90625000000000000       0.65625000000000000        0.0000000000000000     
  0.93750000000000000       0.65625000000000000        0.0000000000000000     
  0.96875000000000000       0.65625000000000000        0.0000000000000000     
   1.0000000000000000       0.65625000000000000        0.0000000000000000     
  0.87500000000000000       0.68750000000000000        0.0000000000000000     
  0.90625000000000000       0.68750000000000000        0.0000000000000000     
  0.93750000000000000       0.68750000000000000        0.0000000000000000     
  0.96875000000000000       0.68750000000000000        0.0000000000000000     
   1.0000000000000000       0.68750000000000000        0.0000000000000000     
  0.87500000000000000       0.71875000000000000        0.0000000000000000     
  0.90625000000000000       0.71875000000000000        0.0000000000000000     
  0.93750000000000000       0.71875000000000000        0.0000000000000000     
  0.96875000000000000       0.71875000000000000        0.0000000000000000     
   1.0000000000000000       0.71875000000000000        0.0000000000000000     
  0.87500000000000000       0.75000000000000000        0.0000000000000000     
  0.90625000000000000       0.75000000000000000        0.0000000000000000     
  0.93750000000000000       0.75000000000000000        0.0000000000000000     
  0.96875000000000000       0.75000000000000000        0.0000000000000000     
   1.0000000000000000       0.75000000000000000        0.0000000000000000     
   0.0000000000000000       0.75000000000000000        0.0000000000000000     
   3.1250000000000000E-002  0.75000000000000000        0.0000000000000000     
   6.2500000000000000E-002  0.75000000000000000        0.0000000000000000     
   9.3750000000000000E-002  0.75000000000000000        0.0000000000000000     
  0.12500000000000000       0.75000000000000000        0.0000000000000000     
   0.0000000000000000       0.78125000000000000        0.0000000000000000     
   3.1250000000000000E-002  0.78125000000000000        0.0000000000000000     
   6.2500000000000000E-002  0.78125000000000000        0.0000000000000000     
   9.3750000000000000E-002  0.78125000000000000        0.0000000000000000     
  0.12500000000000000       0.78125000000000000        0.0000000000000000     
   0.0000000000000000       0.81250000000000000        0.0000000000000000     
   3.1250000000000000E-002  0.81250000000000000        0.0000000000000000     
   6.2500000000000000E-002  0.81250000000000000        0.0000000000000000     
   9.3750000000000000E-002  0.81250000000000000        0.0000000000000000     
  0.12500000000000000       0.81250000000000000        0.0000000000000000     
   0.0000000000000000       0.84375000000000000        0.0000000000000000     
   3.1250000000000000E-002  0.84375000000000000        0.0000000000000000     
   6.2500000000000000E-002  0.84375000000000000        0.0000000000000000     
   9.3750000000000000E-002  0.84375000000000000        0.0000000000000000     
  0.12500000000000000       0.84375000000000000        0.0000000000000000     
   0.0000000000000000       0.87500000000000000        0.0000000000000000     
   3.1250000000000000E-002  0.87500000000000000        0.0000000000000000     
   6.2500000000000000E-002  0.87500000000000000        0.0000000000000000     
   9.3750000000000000E-002  0.87500000000000000        0.0000000000000000     
  0.12500000000000000       0.87500000000000000        0.0000000000000000     
  0.12500000000000000       0.75000000000000000        0.0000000000000000     
  0.15625000000000000       0.75000000000000000        0.0000000000000000     
  0.18750000000000000       0.75000000000000000        0.0000000000000000     
  0.21875000000000000       0.75000000000000000        0.0000000000000000     
  0.25000000000000000       0.75000000000000000        0.0000000000000000     
  0.12500000000000000       0.78125000000000000        0.0000000000000000     
  0.15625000000000000       0.78125000000000000        0.0000000000000000     
  0.18750000000000000       0.78125000000000000        0.0000000000000000     
  0.21875000000000000       0.78125000000000000        0.0000000000000000     
  0.25000000000000000       0.78125000000000000        0.0000000000000000     
  0.12500000000000000       0.81250000000000000        0.0000000000000000     
  0.15625000000000000       0.81250000000000000        0.0000000000000000     
  0.18750000000000000       0.81250000000000000        0.0000000000000000     
  0.21875000000000000       0.81250000000000000        0.0000000000000000     
  0.25000000000000000       0.81250000000000000        0.0000000000000000     
  0.12500000000000000       0.84375000000000000        0.0000000000000000     
  0.15625000000000000       0.84375000000000000        0.0000000000000000     
  0.18750000000000000       0.84375000000000000        0.0000000000000000     
  0.21875000000000000       0.84375000000000000        0.0000000000000000     
  0.25000000000000000       0.84375000000000000        0.0000000000000000     
  0.12500000000000000       0.87500000000000000        0.0000000000000000     
  0.15625000000000000       0.87500000000000000        0.0000000000000000     
  0.18750000000000000       0.87500000000000000        0.0000000000000000     
  0.21875000000000000       0.87500000000000000        0.0000000000000000     
  0.25000000000000000       0.87500000000000000        0.0000000000000000     
  0.25000000000000000       0.75000000000000000        0.0000000000000000     
  0.28125000000000000       0.75000000000000000        0.0000000000000000     
  0.31250000000000000       0.75000000000000000        0.0000000000000000     
  0.34375000000000000       0.75000000000000000        0.0000000000000000     
  0.37500000000000000       0.75000000000000000        0.0000000000000000     
  0.25000000000000000       0.78125000000000000        0.0000000000000000     
  0.28125000000000000       0.78125000000000000        0.0000000000000000     
  0.31250000000000000       0.78125000000000000        0.0000000000000000     
  0.34375000000000000       0.78125000000000000        0.0000000000000000     
  0.37500000000000000       0.78125000000000000        0.0000000000000000     
  0.25000000000000000       0.81250000000000000        0.0000000000000000     
  0.28125000000000000       0.81250000000000000        0.0000000000000000     
  0.31250000000000000       0.81250000000000000        0.0000000000000000     
  0.34375000000000000       0.81250000000000000        0.0000000000000000     
  0.37500000000000000       0.81250000000000000        0.0000000000000000     
  0.25000000000000000       0.84375000000000000        0.0000000000000000     
  0.28125000000000000       0.84375000000000000        0.0000000000000000     
  0.31250000000000000       0.84375000000000000        0.0000000000000000     
  0.34375000000000000       0.84375000000000000        0.0000000000000000     
  0.37500000000000000       0.84375000000000000        0.0000000000000000     
  0.25000000000000000       0.87500000000000000        0.0000000000000000     
  0.28125000000000000       0.87500000000000000        0.0000000000000000     
  0.31250000000000000       0.87500000000000000        0.0000000000000000     
  0.34375000000000000       0.87500000000000000        0.0000000000000000     
  0.37500000000000000       0.87500000000000000        0.0000000000000000     
  0.37500000000000000       0.75000000000000000        0.0000000000000000     
  0.40625000000000000       0.75000000000000000        0.0000000000000000     
  0.43750000000000000       0.75000000000000000        0.0000000000000000     
  0.46875000000000000       0.75000000000000000        0.0000000000000000     
  0.50000000000000000       0.75000000000000000        0.0000000000000000     
  0.37500000000000000       0.78125000000000000        0.0000000000000000     
  0.40625000000000000       0.78125000000000000        0.0000000000000000     
  0.43750000000000000       0.78125000000000000        0.0000000000000000     
  0.46875000000000000       0.78125000000000000        0.0000000000000000     
  0.50000000000000000       0.78125000000000000        0.0000000000000000     
  0.37500000000000000       0.81250000000000000        0.0000000000000000     
  0.40625000000000000       0.81250000000000000        0.0000000000000000     
  0.43750000000000000       0.81250000000000000        0.0000000000000000     
  0.46875000000000000       0.81250000000000000        0.0000000000000000     
  0.50000000000000000       0.81250000000000000        0.0000000000000000     
  0.37500000000000000       0.84375000000000000        0.0000000000000000     
  0.40625000000000000       0.84375000000000000        0.0000000000000000     
  0.43750000000000000       0.84375000000000000        0.0000000000000000     
  0.46875000000000000       0.84375000000000000        0.0000000000000000     
  0.50000000000000000       0.84375000000000000        0.0000000000000000     
  0.37500000000000000       0.87500000000000000        0.0000000000000000     
  0.40625000000000000       0.87500000000000000        0.0000000000000000     
  0.43750000000000000       0.87500000000000000        0.0000000000000000     
  0.46875000000000000       0.87500000000000000        0.0000000000000000     
  0.50000000000000000       0.87500000000000000        0.0000000000000000     
  0.50000000000000000       0.75000000000000000        0.0000000000000000     
  0.53125000000000000       0.75000000000000000        0.0000000000000000     
  0.56250000000000000       0.75000000000000000        0.0000000000000000     
  0.59375000000000000       0.75000000000000000        0.0000000000000000     
  0.62500000000000000       0.75000000000000000        0.0000000000000000     
  0.50000000000000000       0.78125000000000000        0.0000000000000000     
  0.53125000000000000       0.78125000000000000        0.0000000000000000     
  0.56250000000000000       0.78125000000000000        0.0000000000000000     
  0.59375000000000000       0.78125000000000000        0.0000000000000000     
  0.62500000000000000       0.78125000000000000        0.0000000000000000     
  0.50000000000000000       0.81250000000000000        0.0000000000000000     
  0.53125000000000000       0.81250000000000000        0.0000000000000000     
  0.56250000000000000       0.81250000000000000        0.0000000000000000     
  0.59375000000000000       0.81250000000000000        0.0000000000000000     
  0.62500000000000000       0.81250000000000000        0.0000000000000000     
  0.50000000000000000       0.84375000000000000        0.0000000000000000     
  0.53125000000000000       0.84375000000000000        0.0000000000000000     
  0.56250000000000000       0.84375000000000000        0.0000000000000000     
  0.59375000000000000       0.84375000000000000        0.0000000000000000     
  0.62500000000000000       0.84375000000000000        0.0000000000000000     
  0.50000000000000000       0.87500000000000000        0.0000000000000000     
  0.53125000000000000       0.87500000000000000        0.0000000000000000     
  0.56250000000000000       0.87500000000000000        0.0000000000000000     
  0.59375000000000000       0.87500000000000000        0.0000000000000000     
  0.62500000000000000       0.87500000000000000        0.0000000000000000     
  0.62500000000000000       0.75000000000000000        0.0000000000000000     
  0.65625000000000000       0.75000000000000000        0.0000000000000000     
  0.68750000000000000       0.75000000000000000        0.0000000000000000     
  0.71875000000000000       0.75000000000000000        0.0000000000000000     
  0.75000000000000000       0.75000000000000000        0.0000000000000000     
  0.62500000000000000       0.78125000000000000        0.0000000000000000     
  0.65625000000000000       0.78125000000000000        0.0000000000000000     
  0.68750000000000000       0.78125000000000000        0.0000000000000000     
  0.71875000000000000       0.78125000000000000        0.0000000000000000     
  0.75000000000000000       0.78125000000000000        0.0000000000000000     
  0.62500000000000000       0.81250000000000000        0.0000000000000000     
  0.65625000000000000       0.81250000000000000        0.0000000000000000     
  0.68750000000000000       0.81250000000000000        0.0000000000000000     
  0.71875000000000000       0.81250000000000000        0.0000000000000000     
  0.75000000000000000       0.81250000000000000        0.0000000000000000     
  0.62500000000000000       0.84375000000000000        0.0000000000000000     
  0.65625000000000000       0.84375000000000000        0.0000000000000000     
  0.68750000000000000       0.84375000000000000        0.0000000000000000     
  0.71875000000000000       0.84375000000000000        0.0000000000000000     
  0.75000000000000000       0.84375000000000000        0.0000000000000000     
  0.62500000000000000       0.87500000000000000        0.0000000000000000     
  0.65625000000000000       0.87500000000000000        0.0000000000000000     
  0.68750000000000000       0.87500000000000000        0.0000000000000000     
  0.71875000000000000       0.87500000000000000        0.0000000000000000     
  0.75000000000000000       0.87500000000000000        0.0000000000000000     
  0.75000000000000000       0.75000000000000000        0.0000000000000000     
  0.78125000000000000       0.75000000000000000        0.0000000000000000     
  0.81250000000000000       0.75000000000000000        0.0000000000000000     
  0.84375000000000000       0.75000000000000000        0.0000000000000000     
  0.87500000000000000       0.75000000000000000        0.0000000000000000     
  0.75000000000000000       0.78125000000000000        0.0000000000000000     
  0.78125000000000000       0.78125000000000000        0.0000000000000000     
  0.81250000000000000       0.78125000000000000        0.0000000000000000     
  0.84375000000000000       0.78125000000000000        0.0000000000000000     
  0.87500000000000000       0.78125000000000000        0.0000000000000000     
  0.75000000000000000       0.81250000000000000        0.0000000000000000     
  0.78125000000000000       0.81250000000000000        0.0000000000000000     
  0.81250000000000000       0.81250000000000000        0.0000000000000000     
  0.84375000000000000       0.81250000000000000        0.0000000000000000     
  0.87500000000000000       0.81250000000000000        0.0000000000000000     
  0.75000000000000000       0.84375000000000000        0.0000000000000000     
  0.78125000000000000       0.84375000000000000        0.0000000000000000     
  0.81250000000000000       0.84375000000000000        0.0000000000000000     
  0.84375000000000000       0.84375000000000000        0.0000000000000000     
  0.87500000000000000       0.84375000000000000        0.0000000000000000     
  0.75000000000000000       0.87500000000000000        0.0000000000000000     
  0.78125000000000000       0.87500000000000000        0.0000000000000000     
  0.81250000000000000       0.87500000000000000        0.0000000000000000     
  0.84375000000000000       0.87500000000000000        0.0000000000000000     
  0.87500000000000000       0.87500000000000000        0.0000000000000000     
  0.87500000000000000       0.75000000000000000        0.0000000000000000     
  0.90625000000000000       0.75000000000000000        0.0000000000000000     
  0.93750000000000000       0.75000000000000000        0.0000000000000000     
  0.96875000000000000       0.75000000000000000        0.0000000000000000     
   1.0000000000000000       0.75000000000000000        0.0000000000000000     
  0.87500000000000000       0.78125000000000000        0.0000000000000000     
  0.90625000000000000       0.78125000000000000        0.0000000000000000     
  0.93750000000000000       0.78125000000000000        0.0000000000000000     
  0.96875000000000000       0.78125000000000000        0.0000000000000000     
   1.0000000000000000       0.78125000000000000        0.0000000000000000     
  0.87500000000000000       0.81250000000000000        0.0000000000000000     
  0.90625000000000000       0.81250000000000000        0.0000000000000000     
  0.93750000000000000       0.81250000000000000        0.0000000000000000     
  0.96875000000000000       0.81250000000000000        0.0000000000000000     
   1.0000000000000000       0.81250000000000000        0.0000000000000000     
  0.87500000000000000       0.84375000000000000        0.0000000000000000     
  0.90625000000000000       0.84375000000000000        0.0000000000000000     
  0.93750000000000000       0.84375000000000000        0.0000000000000000     
  0.96875000000000000       0.84375000000000000        0.0000000000000000     
   1.0000000000000000       0.84375000000000000        0.0000000000000000     
  0.87500000000000000       0.87500000000000000        0.0000000000000000     
  0.90625000000000000       0.87500000000000000        0.0000000000000000     
  0.93750000000000000       0.87500000000000000        0.0000000000000000     
  0.96875000000000000       0.87500000000000000        0.0000000000000000     
   1.0000000000000000       0.87500000000000000        0.0000000000000000     
   0.0000000000000000       0.87500000000000000        0.0000000000000000     
   3.1250000000000000E-002  0.87500000000000000        0.0000000000000000     
   6.2500000000000000E-002  0.87500000000000000        0.0000000000000000     
   9.3750000000000000E-002  0.87500000000000000        0.0000000000000000     
  0.12500000000000000       0.87500000000000000        0.0000000000000000     
   0.0000000000000000       0.90625000000000000        0.0000000000000000     
   3.1250000000000000E-002  0.90625000000000000        0.0000000000000000     
   6.2500000000000000E-002  0.90625000000000000        0.0000000000000000     
   9.3750000000000000E-002  0.90625000000000000        0.0000000000000000     
  0.12500000000000000       0.90625000000000000        0.0000000000000000     
   0.0000000000000000       0.93750000000000000        0.0000000000000000     
   3.1250000000000000E-002  0.93750000000000000        0.0000000000000000     
   6.2500000000000000E-002  0.93750000000000000        0.0000000000000000     
   9.3750000000000000E-002  0.93750000000000000        0.0000000000000000     
  0.12500000000000000       0.93750000000000000        0.0000000000000000     
   0.0000000000000000       0.96875000000000000        0.0000000000000000     
   3.1250000000000000E-002  0.96875000000000000        0.0000000000000000     
   6.2500000000000000E-002  0.96875000000000000        0.0000000000000000     
   9.3750000000000000E-002  0.96875000000000000        0.0000000000000000     
  0.12500000000000000       0.96875000000000000        0.0000000000000000     
   0.0000000000000000        1.0000000000000000        0.0000000000000000     
   3.1250000000000000E-002   1.0000000000000000        0.0000000000000000     
   6.2500000000000000E-002   1.0000000000000000        0.0000000000000000     
   9.3750000000000000E-002   1.0000000000000000        0.0000000000000000     
  0.12500000000000000        1.0000000000000000        0.0000000000000000     
  0.12500000000000000       0.87500000000000000        0.0000000000000000     
  0.15625000000000000       0.87500000000000000        0.0000000000000000     
  0.18750000000000000       0.87500000000000000        0.0000000000000000     
  0.21875000000000000       0.87500000000000000        0.0000000000000000     
  0.25000000000000000       0.87500000000000000        0.0000000000000000     
  0.12500000000000000       0.90625000000000000        0.0000000000000000     
  0.15625000000000000       0.90625000000000000        0.0000000000000000     
  0.18750000000000000       0.90625000000000000        0.0000000000000000     
  0.21875000000000000       0.90625000000000000        0.0000000000000000     
  0.25000000000000000       0.90625000000000000        0.0000000000000000     
  0.12500000000000000       0.93750000000000000        0.0000000000000000     
  0.15625000000000000       0.93750000000000000        0.0000000000000000     
  0.18750000000000000       0.93750000000000000        0.0000000000000000     
  0.21875000000000000       0.93750000000000000        0.0000000000000000     
  0.25000000000000000       0.93750000000000000        0.0000000000000000     
  0.12500000000000000       0.96875000000000000        0.0000000000000000     
  0.15625000000000000       0.96875000000000000        0.0000000000000000     
  0.18750000000000000       0.96875000000000000        0.0000000000000000     
  0.21875000000000000       0.96875000000000000        0.0000000000000000     
  0.25000000000000000       0.96875000000000000        0.0000000000000000     
  0.12500000000000000        1.0000000000000000        0.0000000000000000     
  0.15625000000000000        1.0000000000000000        0.0000000000000000     
  0.18750000000000000        1.0000000000000000        0.0000000000000000     
  0.21875000000000000        1.0000000000000000        0.0000000000000000     
  0.25000000000000000        1.0000000000000000        0.0000000000000000     
  0.25000000000000000       0.87500000000000000        0.0000000000000000     
  0.28125000000000000       0.87500000000000000        0.0000000000000000     
  0.31250000000000000       0.87500000000000000        0.0000000000000000     
  0.34375000000000000       0.87500000000000000        0.0000000000000000     
  0.37500000000000000       0.87500000000000000        0.0000000000000000     
  0.25000000000000000       0.90625000000000000        0.0000000000000000     
  0.28125000000000000       0.90625000000000000        0.0000000000000000     
  0.31250000000000000       0.90625000000000000        0.0000000000000000     
  0.34375000000000000       0.90625000000000000        0.0000000000000000     
  0.37500000000000000       0.90625000000000000        0.0000000000000000     
  0.25000000000000000       0.93750000000000000        0.0000000000000000     
  0.28125000000000000       0.93750000000000000        0.0000000000000000     
  0.31250000000000000       0.93750000000000000        0.0000000000000000     
  0.34375000000000000       0.93750000000000000        0.0000000000000000     
  0.37500000000000000       0.93750000000000000        0.0000000000000000     
  0.25000000000000000       0.96875000000000000        0.0000000000000000     
  0.28125000000000000       0.96875000000000000        0.0000000000000000     
  0.31250000000000000       0.96875000000000000        0.0000000000000000     
  0.34375000000000000       0.96875000000000000        0.0000000000000000     
  0.37500000000000000       0.96875000000000000        0.0000000000000000     
  0.25000000000000000        1.0000000000000000        0.0000000000000000     
  0.28125000000000000        1.0000000000000000        0.0000000000000000     
  0.31250000000000000        1.0000000000000000        0.0000000000000000     
  0.34375000000000000        1.0000000000000000        0.0000000000000000     
  0.37500000000000000        1.0000000000000000        0.0000000000000000     
  0.37500000000000000       0.87500000000000000        0.0000000000000000     
  0.40625000000000000       0.87500000000000000        0.0000000000000000     
  0.43750000000000000       0.87500000000000000        0.0000000000000000     
  0.46875000000000000       0.87500000000000000        0.0000000000000000     
  0.50000000000000000       0.87500000000000000        0.0000000000000000     
  0.37500000000000000       0.90625000000000000        0.0000000000000000     
  0.40625000000000000       0.90625000000000000        0.0000000000000000     
  0.43750000000000000       0.90625000000000000        0.0000000000000000     
  0.46875000000000000       0.90625000000000000        0.0000000000000000     
  0.50000000000000000       0.90625000000000000        0.0000000000000000     
  0.37500000000000000       0.93750000000000000        0.0000000000000000     
  0.40625000000000000       0.93750000000000000        0.0000000000000000     
  0.43750000000000000       0.93750000000000000        0.0000000000000000     
  0.46875000000000000       0.93750000000000000        0.0000000000000000     
  0.50000000000000000       0.93750000000000000        0.0000000000000000     
  0.37500000000000000       0.96875000000000000        0.0000000000000000     
  0.40625000000000000       0.96875000000000000        0.0000000000000000     
  0.43750000000000000       0.96875000000000000        0.0000000000000000     
  0.46875000000000000       0.96875000000000000        0.0000000000000000     
  0.50000000000000000       0.96875000000000000        0.0000000000000000     
  0.37500000000000000        1.0000000000000000        0.0000000000000000     
  0.40625000000000000        1.0000000000000000        0.0000000000000000     
  0.43750000000000000        1.0000000000000000        0.0000000000000000     
  0.46875000000000000        1.0000000000000000        0.0000000000000000     
  0.50000000000000000        1.0000000000000000        0.0000000000000000     
  0.50000000000000000       0.87500000000000000        0.0000000000000000     
  0.53125000000000000       0.87500000000000000        0.0000000000000000     
  0.56250000000000000       0.87500000000000000        0.0000000000000000     
  0.59375000000000000       0.87500000000000000        0.0000000000000000     
  0.62500000000000000       0.87500000000000000        0.0000000000000000     
  0.50000000000000000       0.90625000000000000        0.0000000000000000     
  0.53125000000000000       0.90625000000000000        0.0000000000000000     
  0.56250000000000000       0.90625000000000000        0.0000000000000000     
  0.59375000000000000       0.90625000000000000        0.0000000000000000     
  0.62500000000000000       0.90625000000000000        0.0000000000000000     
  0.50000000000000000       0.93750000000000000        0.0000000000000000     
  0.53125000000000000       0.93750000000000000        0.0000000000000000     
  0.56250000000000000       0.93750000000000000        0.0000000000000000     
  0.59375000000000000       0.93750000000000000        0.0000000000000000     
  0.62500000000000000       0.93750000000000000        0.0000000000000000     
  0.50000000000000000       0.96875000000000000        0.0000000000000000     
  0.53125000000000000       0.96875000000000000        0.0000000000000000     
  0.56250000000000000       0.96875000000000000        0.0000000000000000     
  0.59375000000000000       0.96875000000000000        0.0000000000000000     
  0.62500000000000000       0.96875000000000000        0.0000000000000000     
  0.50000000000000000        1.0000000000000000        0.0000000000000000     
  0.53125000000000000        1.0000000000000000        0.0000000000000000     
  0.56250000000000000        1.0000000000000000        0.0000000000000000     
  0.59375000000000000        1.0000000000000000        0.0000000000000000     
  0.62500000000000000        1.0000000000000000        0.0000000000000000     
  0.62500000000000000       0.87500000000000000        0.0000000000000000     
  0.65625000000000000       0.87500000000000000        0.0000000000000000     
  0.68750000000000000       0.87500000000000000        0.0000000000000000     
  0.71875000000000000       0.87500000000000000        0.0000000000000000     
  0.75000000000000000       0.87500000000000000        0.0000000000000000     
  0.62500000000000000       0.90625000000000000        0.0000000000000000     
  0.65625000000000000       0.90625000000000000        0.0000000000000000     
  0.68750000000000000       0.90625000000000000        0.0000000000000000     
  0.71875000000000000       0.90625000000000000        0.0000000000000000     
  0.75000000000000000       0.90625000000000000        0.0000000000000000     
  0.62500000000000000       0.93750000000000000        0.0000000000000000     
  0.65625000000000000       0.93750000000000000        0.0000000000000000     
  0.68750000000000000       0.93750000000000000        0.0000000000000000     
  0.71875000000000000       0.93750000000000000        0.0000000000000000     
  0.75000000000000000       0.93750000000000000        0.0000000000000000     
  0.62500000000000000       0.96875000000000000        0.0000000000000000     
  0.65625000000000000       0.96875000000000000        0.0000000000000000     
  0.68750000000000000       0.96875000000000000        0.0000000000000000     
  0.71875000000000000       0.96875000000000000        0.0000000000000000     
  0.75000000000000000       0.96875000000000000        0.0000000000000000     
  0.62500000000000000        1.0000000000000000        0.0000000000000000     
  0.65625000000000000        1.0000000000000000        0.0000000000000000     
  0.68750000000000000        1.0000000000000000        0.0000000000000000     
  0.71875000000000000        1.0000000000000000        0.0000000000000000     
  0.75000000000000000        1.0000000000000000        0.0000000000000000     
  0.75000000000000000       0.87500000000000000        0.0000000000000000     
  0.78125000000000000       0.87500000000000000        0.0000000000000000     
  0.81250000000000000       0.87500000000000000        0.0000000000000000     
  0.84375000000000000       0.87500000000000000        0.0000000000000000     
  0.87500000000000000       0.87500000000000000        0.0000000000000000     
  0.75000000000000000       0.90625000000000000        0.0000000000000000     
  0.78125000000000000       0.90625000000000000        0.0000000000000000     
  0.81250000000000000       0.90625000000000000        0.0000000000000000     
  0.84375000000000000       0.90625000000000000        0.0000000000000000     
  0.87500000000000000       0.90625000000000000        0.0000000000000000     
  0.75000000000000000       0.93750000000000000        0.0000000000000000     
  0.78125000000000000       0.93750000000000000        0.0000000000000000     
  0.81250000000000000       0.93750000000000000        0.0000000000000000     
  0.84375000000000000       0.93750000000000000        0.0000000000000000     
  0.87500000000000000       0.93750000000000000        0.0000000000000000     
  0.75000000000000000       0.96875000000000000        0.0000000000000000     
  0.78125000000000000       0.96875000000000000        0.0000000000000000     
  0.81250000000000000       0.96875000000000000        0.0000000000000000     
  0.84375000000000000       0.96875000000000000        0.0000000000000000     
  0.87500000000000000       0.96875000000000000        0.0000000000000000     
  0.75000000000000000        1.0000000000000000        0.0000000000000000     
  0.78125000000000000        1.0000000000000000        0.0000000000000000     
  0.81250000000000000        1.0000000000000000        0.0000000000000000     
  0.84375000000000000        1.0000000000000000        0.0000000000000000     
  0.87500000000000000        1.0000000000000000        0.0000000000000000     
  0.87500000000000000       0.87500000000000000        0.0000000000000000     
  0.90625000000000000       0.87500000000000000        0.0000000000000000     
  0.93750000000000000       0.87500000000000000        0.0000000000000000     
  0.96875000000000000       0.87500000000000000        0.0000000000000000     
   1.0000000000000000       0.87500000000000000        0.0000000000000000     
  0.87500000000000000       0.90625000000000000        0.0000000000000000     
  0.90625000000000000       0.90625000000000000        0.0000000000000000     
  0.93750000000000000       0.90625000000000000        0.0000000000000000     
  0.96875000000000000       0.90625000000000000        0.0000000000000000     
   1.0000000000000000       0.90625000000000000        0.0000000000000000     
  0.87500000000000000       0.93750000000000000        0.0000000000000000     
  0.90625000000000000       0.93750000000000000        0.0000000000000000     
  0.93750000000000000       0.93750000000000000        0.0000000000000000     
  0.96875000000000000       0.93750000000000000        0.0000000000000000     
   1.0000000000000000       0.93750000000000000        0.0000000000000000     
  0.87500000000000000       0.96875000000000000        0.0000000000000000     
  0.90625000000000000       0.96875000000000000        0.0000000000000000     
  0.93750000000000000       0.96875000000000000        0.0000000000000000     
  0.96875000000000000       0.96875000000000000        0.0000000000000000     
   1.0000000000000000       0.96875000000000000        0.0000000000000000     
  0.87500000000000000        1.0000000000000000        0.0000000000000000     
  0.90625000000000000        1.0000000000000000        0.0000000000000000     
  0.93750000000000000        1.0000000000000000        0.0000000000000000     
  0.96875000000000000        1.0000000000000000        0.0000000000000000     
   1.0000000000000000        1.0000000000000000        0.0000000000000000     
 </DataArray>
 </Points>
 <Cells>
 <DataArray  type="Int32"  Name="connectivity"  format="ascii">
           0           1           6           5
           1           2           7           6
           2           3           8           7
           3           4           9           8
           5           6          11          10
           6           7          12          11
           7           8          13          12
           8           9          14          13
          10          11          16          15
          11          12          17          16
          12          13          18          17
          13          14          19          18
          15          16          21          20
          16          17          22          21
          17          18          23          22
          18          19          24          23
          25          26          31          30
          26          27          32          31
          27          28          33          32
          28          29          34          33
          30          31          36          35
          31          32          37          36
          32          33          38          37
          33          34          39          38
          35          36          41          40
          36          37          42          41
          37          38          43          42
          38          39          44          43
          40          41          46          45
          41          42          47          46
          42          43          48          47
          43          44          49          48
          50          51          56          55
          51          52          57          56
          52          53          58          57
          53          54          59          58
          55          56          61          60
          56          57          62          61
          57          58          63          62
          58          59          64          63
          60          61          66          65
          61          62          67          66
          62          63          68          67
          63          64          69          68
          65          66          71          70
          66          67          72          71
          67          68          73          72
          68          69          74          73
          75          76          81          80
          76          77          82          81
          77          78          83          82
          78          79          84          83
          80          81          86          85
          81          82          87          86
          82          83          88          87
          83          84          89          88
          85          86          91          90
          86          87          92          91
          87          88          93          92
          88          89          94          93
          90          91          96          95
          91          92          97          96
          92          93          98          97
          93          94          99          98
         100         101         106         105
         101         102         107         106
         102         103         108         107
         103         104         109         108
         105         106         111         110
         106         107         112         111
         107         108         113         112
         108         109         114         113
         110         111         116         115
         111         112         117         116
         112         113         118         117
         113         114         119         118
         115         116         121         120
         116         117         122         121
         117         118         123         122
         118         119         124         123
         125         126         131         130
         126         127         132         131
         127         128         133         132
         128         129         134         133
         130         131         136         135
         131         132         137         136
         132         133         138         137
         133         134         139         138
         135         136         141         140
         136         137         142         141
         137         138         143         142
         138         139         144         143
         140         141         146         145
         141         142         147         146
         142         143         148         147
         143         144         149         148
         150         151         156         155
         151         152         157         156
         152         153         158         157
         153         154         159         158
         155         156         161         160
         156         157         162         161
         157         158         163         162
         158         159         164         163
         160         161         166         165
         161         162         167         166
         162         163         168         167
         163         164         169         168
         165         166         171         170
         166         167         172         171
         167         168         173         172
         168         169         174         173
         175         176         181         180
         176         177         182         181
         177         178         183         182
         178         179         184         183
         180         181         186         185
         181         182         187         186
         182         183         188         187
         183         184         189         188
         185         186         191         190
         186         187         192         191
         187         188         193         192
         188         189         194         193
         190         191         196         195
         191         192         197         196
         192         193         198         197
         193         194         199         198
         200         201         206         205
         201         202         207         206
         202         203         208         207
         203         204         209         208
         205         206         211         210
         206         207         212         211
         207         208         213         212
         208         209         214         213
         210         211         216         215
         211         212         217         216
         212         213         218         217
         213         214         219         218
         215         216         221         220
         216         217         222         221
         217         218         223         222
         218         219         224         223
         225         226         231         230
         226         227         232         231
         227         228         233         232
         228         229         234         233
         230         231         236         235
         231         232         237         236
         232         233         238         237
         233         234         239         238
         235         236         241         240
         236         237         242         241
         237         238         243         242
         238         239         244         243
         240         241         246         245
         241         242         247         246
         242         243         248         247
         243         244         249         248
         250         251         256         255
         251         252         257         256
         252         253         258         257
         253         254         259         258
         255         256         261         260
         256         257         262         261
         257         258         263         262
         258         259         264         263
         260         261         266         265
         261         262         267         266
         262         263         268         267
         263         264         269         268
         265         266         271         270
         266         267         272         271
         267         268         273         272
         268         269         274         273
         275         276         281         280
         276         277         282         281
         277         278         283         282
         278         279         284         283
         280         281         286         285
         281         282         287         286
         282         283         288         287
         283         284         289         288
         285         286         291         290
         286         287         292         291
         287         288         293         292
         288         289         294         293
         290         291         296         295
         291         292         297         296
         292         293         298         297
         293         294         299         298
         300         301         306         305
         301         302         307         306
         302         303         308         307
         303         304         309         308
         305         306         311         310
         306         307         312         311
         307         308         313         312
         308         309         314         313
         310         311         316         315
         311         312         317         316
         312         313         318         317
         313         314         319         318
         315         316         321         320
         316         317         322         321
         317         318         323         322
         318         319         324         323
         325         326         331         330
         326         327         332         331
         327         328         333         332
         328         329         334         333
         330         331         336         335
         331         332         337         336
         332         333         338         337
         333         334         339         338
         335         336         341         340
         336         337         342         341
         337         338         343         342
         338         339         344         343
         340         341         346         345
         341         342         347         346
         342         343         348         347
         343         344         349         348
         350         351         356         355
         351         352         357         356
         352         353         358         357
         353         354         359         358
         355         356         361         360
         356         357         362         361
         357         358         363         362
         358         359         364         363
         360         361         366         365
         361         362         367         366
         362         363         368         367
         363         364         369         368
         365         366         371         370
         366         367         372         371
         367         368         373         372
         368         369         374         373
         375         376         381         380
         376         377         382         381
         377         378         383         382
         378         379         384         383
         380         381         386         385
         381         382         387         386
         382         383         388         387
         383         384         389         388
         385         386         391         390
         386         387         392         391
         387         388         393         392
         388         389         394         393
         390         391         396         395
         391         392         397         396
         392         393         398         397
         393         394         399         398
         400         401         406         405
         401         402         407         406
         402         403         408         407
         403         404         409         408
         405         406         411         410
         406         407         412         411
         407         408         413         412
         408         409         414         413
         410         411         416         415
         411         412         417         416
         412         413         418         417
         413         414         419         418
         415         416         421         420
         416         417         422         421
         417         418         423         422
         418         419         424         423
         425         426         431         430
         426         427         432         431
         427         428         433         432
         428         429         434         433
         430         431         436         435
         431         432         437         436
         432         433         438         437
         433         434         439         438
         435         436         441         440
         436         437         442         441
         437         438         443         442
         438         439         444         443
         440         441         446         445
         441         442         447         446
         442         443         448         447
         443         444         449         448
         450         451         456         455
         451         452         457         456
         452         453         458         457
         453         454         459         458
         455         456         461         460
         456         457         462         461
         457         458         463         462
         458         459         464         463
         460         461         466         465
         461         462         467         466
         462         463         468         467
         463         464         469         468
         465         466         471         470
         466         467         472         471
         467         468         473         472
         468         469         474         473
         475         476         481         480
         476         477         482         481
         477         478         483         482
         478         479         484         483
         480         481         486         485
         481         482         487         486
         482         483         488         487
         483         484         489         488
         485         486         491         490
         486         487         492         491
         487         488         493         492
         488         489         494         493
         490         491         496         495
         491         492         497         496
         492         493         498         497
         493         494         499         498
         500         501         506         505
         501         502         507         506
         502         503         508         507
         503         504         509         508
         505         506         511         510
         506         507         512         511
         507         508         513         512
         508         509         514         513
         510         511         516         515
         511         512         517         516
         512         513         518         517
         513         514         519         518
         515         516         521         520
         516         517         522         521
         517         518         523         522
         518         519         524         523
         525         526         531         530
         526         527         532         531
         527         528         533         532
         528         529         534         533
         530         531         536         535
         531         532         537         536
         532         533         538         537
         533         534         539         538
         535         536         541         540
         536         537         542         541
         537         538         543         542
         538         539         544         543
         540         541         546         545
         541         542         547         546
         542         543         548         547
         543         544         549         548
         550         551         556         555
         551         552         557         556
         552         553         558         557
         553         554         559         558
         555         556         561         560
         556         557         562         561
         557         558         563         562
         558         559         564         563
         560         561         566         565
         561         562         567         566
         562         563         568         567
         563         564         569         568
         565         566         571         570
         566         567         572         571
         567         568         573         572
         568         569         574         573
         575         576         581         580
         576         577         582         581
         577         578         583         582
         578         579         584         583
         580         581         586         585
         581         582         587         586
         582         583         588         587
         583         584         589         588
         585         586         591         590
         586         587         592         591
         587         588         593         592
         588         589         594         593
         590         591         596         595
         591         592         597         596
         592         593         598         597
         593         594         599         598
         600         601         606         605
         601         602         607         606
         602         603         608         607
         603         604         609         608
         605         606         611         610
         606         607         612         611
         607         608         613         612
         608         609         614         613
         610         611         616         615
         611         612         617         616
         612         613         618         617
         613         614         619         618
         615         616         621         620
         616         617         622         621
         617         618         623         622
         618         619         624         623
         625         626         631         630
         626         627         632         631
         627         628         633         632
         628         629         634         633
         630         631         636         635
         631         632         637         636
         632         633         638         637
         633         634         639         638
         635         636         641         640
         636         637         642         641
         637         638         643         642
         638         639         644         643
         640         641         646         645
         641         642         647         646
         642         643         648         647
         643         644         649         648
         650         651         656         655
         651         652         657         656
         652         653         658         657
         653         654         659         658
         655         656         661         660
         656         657         662         661
         657         658         663         662
         658         659         664         663
         660         661         666         665
         661         662         667         666
         662         663         668         667
         663         664         669         668
         665         666         671         670
         666         667         672         671
         667         668         673         672
         668         669         674         673
         675         676         681         680
         676         677         682         681
         677         678         683         682
         678         679         684         683
         680         681         686         685
         681         682         687         686
         682         683         688         687
         683         684         689         688
         685         686         691         690
         686         687         692         691
         687         688         693         692
         688         689         694         693
         690         691         696         695
         691         692         697         696
         692         693         698         697
         693         694         699         698
         700         701         706         705
         701         702         707         706
         702         703         708         707
         703         704         709         708
         705         706         711         710
         706         707         712         711
         707         708         713         712
         708         709         714         713
         710         711         716         715
         711         712         717         716
         712         713         718         717
         713         714         719         718
         715         716         721         720
         716         717         722         721
         717         718         723         722
         718         719         724         723
         725         726         731         730
         726         727         732         731
         727         728         733         732
         728         729         734         733
         730         731         736         735
         731         732         737         736
         732         733         738         737
         733         734         739         738
         735         736         741         740
         736         737         742         741
         737         738         743         742
         738         739         744         743
         740         741         746         745
         741         742         747         746
         742         743         748         747
         743         744         749         748
         750         751         756         755
         751         752         757         756
         752         753         758         757
         753         754         759         758
         755         756         761         760
         756         757         762         761
         757         758         763         762
         758         759         764         763
         760         761         766         765
         761         762         767         766
         762         763         768         767
         763         764         769         768
         765         766         771         770
         766         767         772         771
         767         768         773         772
         768         769         774         773
         775         776         781         780
         776         777         782         781
         777         778         783         782
         778         779         784         783
         780         781         786         785
         781         782         787         786
         782         783         788         787
         783         784         789         788
         785         786         791         790
         786         787         792         791
         787         788         793         792
         788         789         794         793
         790         791         796         795
         791         792         797         796
         792         793         798         797
         793         794         799         798
         800         801         806         805
         801         802         807         806
         802         803         808         807
         803         804         809         808
         805         806         811         810
         806         807         812         811
         807         808         813         812
         808         809         814         813
         810         811         816         815
         811         812         817         816
         812         813         818         817
         813         814         819         818
         815         816         821         820
         816         817         822         821
         817         818         823         822
         818         819         824         823
         825         826         831         830
         826         827         832         831
         827         828         833         832
         828         829         834         833
         830         831         836         835
         831         832         837         836
         832         833         838         837
         833         834         839         838
         835         836         841         840
         836         837         842         841
         837         838         843         842
         838         839         844         843
         840         841         846         845
         841         842         847         846
         842         843         848         847
         843         844         849         848
         850         851         856         855
         851         852         857         856
         852         853         858         857
         853         854         859         858
         855         856         861         860
         856         857         862         861
         857         858         863         862
         858         859         864         863
         860         861         866         865
         861         862         867         866
         862         863         868         867
         863         864         869         868
         865         866         871         870
         866         867         872         871
         867         868         873         872
         868         869         874         873
         875         876         881         880
         876         877         882         881
         877         878         883         882
         878         879         884         883
         880         881         886         885
         881         882         887         886
         882         883         888         887
         883         884         889         888
         885         886         891         890
         886         887         892         891
         887         888         893         892
         888         889         894         893
         890         891         896         895
         891         892         897         896
         892         893         898         897
         893         894         899         898
         900         901         906         905
         901         902         907         906
         902         903         908         907
         903         904         909         908
         905         906         911         910
         906         907         912         911
         907         908         913         912
         908         909         914         913
         910         911         916         915
         911         912         917         916
         912         913         918         917
         913         914         919         918
         915         916         921         920
         916         917         922         921
         917         918         923         922
         918         919         924         923
         925         926         931         930
         926         927         932         931
         927         928         933         932
         928         929         934         933
         930         931         936         935
         931         932         937         936
         932         933         938         937
         933         934         939         938
         935         936         941         940
         936         937         942         941
         937         938         943         942
         938         939         944         943
         940         941         946         945
         941         942         947         946
         942         943         948         947
         943         944         949         948
         950         951         956         955
         951         952         957         956
         952         953         958         957
         953         954         959         958
         955         956         961         960
         956         957         962         961
         957         958         963         962
         958         959         964         963
         960         961         966         965
         961         962         967         966
         962         963         968         967
         963         964         969         968
         965         966         971         970
         966         967         972         971
         967         968         973         972
         968         969         974         973
         975         976         981         980
         976         977         982         981
         977         978         983         982
         978         979         984         983
         980         981         986         985
         981         982         987         986
         982         983         988         987
         983         984         989         988
         985         986         991         990
         986         987         992         991
         987         988         993         992
         988         989         994         993
         990         991         996         995
         991         992         997         996
         992         993         998         997
         993         994         999         998
        1000        1001        1006        1005
        1001        1002        1007        1006
        1002        1003        1008        1007
        1003        1004        1009        1008
        1005        1006        1011        1010
        1006        1007        1012        1011
        1007        1008        1013        1012
        1008        1009        1014        1013
        1010        1011        1016        1015
        1011        1012        1017        1016
        1012        1013        1018        1017
        1013        1014        1019        1018
        1015        1016        1021        1020
        1016        1017        1022        1021
        1017        1018        1023        1022
        1018        1019        1024        1023
        1025        1026        1031        1030
        1026        1027        1032        1031
        1027        1028        1033        1032
        1028        1029        1034        1033
        1030        1031        1036        1035
        1031        1032        1037        1036
        1032        1033        1038        1037
        1033        1034        1039        1038
        1035        1036        1041        1040
        1036        1037        1042        1041
        1037        1038        1043        1042
        1038        1039        1044        1043
        1040        1041        1046        1045
        1041        1042        1047        1046
        1042        1043        1048        1047
        1043        1044        1049        1048
        1050        1051        1056        1055
        1051        1052        1057        1056
        1052        1053        1058        1057
        1053        1054        1059        1058
        1055        1056        1061        1060
        1056        1057        1062        1061
        1057        1058        1063        1062
        1058        1059        1064        1063
        1060        1061        1066        1065
        1061        1062        1067        1066
        1062        1063        1068        1067
        1063        1064        1069        1068
        1065        1066        1071        1070
        1066        1067        1072        1071
        1067        1068        1073        1072
        1068        1069        1074        1073
        1075        1076        1081        1080
        1076        1077        1082        1081
        1077        1078        1083        1082
        1078        1079        1084        1083
        1080        1081        1086        1085
        1081        1082        1087        1086
        1082        1083        1088        1087
        1083        1084        1089        1088
        1085        1086        1091        1090
        1086        1087        1092        1091
        1087        1088        1093        1092
        1088        1089        1094        1093
        1090        1091        1096        1095
        1091        1092        1097        1096
        1092        1093        1098        1097
        1093        1094        1099        1098
        1100        1101        1106        1105
        1101        1102        1107        1106
        1102        1103        1108        1107
        1103        1104        1109        1108
        1105        1106        1111        1110
        1106        1107        1112        1111
        1107        1108        1113        1112
        1108        1109        1114        1113
        1110        1111        1116        1115
        1111        1112        1117        1116
        1112        1113        1118        1117
        1113        1114        1119        1118
        1115        1116        1121        1120
        1116        1117        1122        1121
        1117        1118        1123        1122
        1118        1119        1124        1123
        1125        1126        1131        1130
        1126        1127        1132        1131
        1127        1128        1133        1132
        1128        1129        1134        1133
        1130        1131        1136        1135
        1131        1132        1137        1136
        1132        1133        1138        1137
        1133        1134        1139        1138
        1135        1136        1141        1140
        1136        1137        1142        1141
        1137        1138        1143        1142
        1138        1139        1144        1143
        1140        1141        1146        1145
        1141        1142        1147        1146
        1142        1143        1148        1147
        1143        1144        1149        1148
        1150        1151        1156        1155
        1151        1152        1157        1156
        1152        1153        1158        1157
        1153        1154        1159        1158
        1155        1156        1161        1160
        1156        1157        1162        1161
        1157        1158        1163        1162
        1158        1159        1164        1163
        1160        1161        1166        1165
        1161        1162        1167        1166
        1162        1163        1168        1167
        1163        1164        1169        1168
        1165        1166        1171        1170
        1166        1167        1172        1171
        1167        1168        1173        1172
        1168        1169        1174        1173
        1175        1176        1181        1180
        1176        1177        1182        1181
        1177        1178        1183        1182
        1178        1179        1184        1183
        1180        1181        1186        1185
        1181        1182        1187        1186
        1182        1183        1188        1187
        1183        1184        1189        1188
        1185        1186        1191        1190
        1186        1187        1192        1191
        1187        1188        1193        1192
        1188        1189        1194        1193
        1190        1191        1196        1195
        1191        1192        1197        1196
        1192        1193        1198        1197
        1193        1194        1199        1198
        1200        1201        1206        1205
        1201        1202        1207        1206
        1202        1203        1208        1207
        1203        1204        1209        1208
        1205        1206        1211        1210
        1206        1207        1212        1211
        1207        1208        1213        1212
        1208        1209        1214        1213
        1210        1211        1216        1215
        1211        1212        1217        1216
        1212        1213        1218        1217
        1213        1214        1219        1218
        1215        1216        1221        1220
        1216        1217        1222        1221
        1217        1218        1223        1222
        1218        1219        1224        1223
        1225        1226        1231        1230
        1226        1227        1232        1231
        1227        1228        1233        1232
        1228        1229        1234        1233
        1230        1231        1236        1235
        1231        1232        1237        1236
        1232        1233        1238        1237
        1233        1234        1239        1238
        1235        1236        1241        1240
        1236        1237        1242        1241
        1237        1238        1243        1242
        1238        1239        1244        1243
        1240        1241        1246        1245
        1241        1242        1247        1246
        1242        1243        1248        1247
        1243        1244        1249        1248
        1250        1251        1256        1255
        1251        1252        1257        1256
        1252        1253        1258        1257
        1253        1254        1259        1258
        1255        1256        1261        1260
        1256        1257        1262        1261
        1257        1258        1263        1262
        1258        1259        1264        1263
        1260        1261        1266        1265
        1261        1262        1267        1266
        1262        1263        1268        1267
        1263        1264        1269        1268
        1265        1266        1271        1270
        1266        1267        1272        1271
        1267        1268        1273        1272
        1268        1269        1274        1273
        1275        1276        1281        1280
        1276        1277        1282        1281
        1277        1278        1283        1282
        1278        1279        1284        1283
        1280        1281        1286        1285
        1281        1282        1287        1286
        1282        1283        1288        1287
        1283        1284        1289        1288
        1285        1286        1291        1290
        1286        1287        1292        1291
        1287        1288        1293        1292
        1288        1289        1294        1293
        1290        1291        1296        1295
        1291        1292        1297        1296
        1292        1293        1298        1297
        1293        1294        1299        1298
        1300        1301        1306        1305
        1301        1302        1307        1306
        1302        1303        1308        1307
        1303        1304        1309        1308
        1305        1306        1311        1310
        1306        1307        1312        1311
        1307        1308        1313        1312
        1308        1309        1314        1313
        1310        1311        1316        1315
        1311        1312        1317        1316
        1312        1313        1318        1317
        1313        1314        1319        1318
        1315        1316        1321        1320
        1316        1317        1322        1321
        1317        1318        1323        1322
        1318        1319        1324        1323
        1325        1326        1331        1330
        1326        1327        1332        1331
        1327        1328        1333        1332
        1328        1329        1334        1333
        1330        1331        1336        1335
        1331        1332        1337        1336
        1332        1333        1338        1337
        1333        1334        1339        1338
        1335        1336        1341        1340
        1336        1337        1342        1341
        1337        1338        1343        1342
        1338        1339        1344        1343
        1340        1341        1346        1345
        1341        1342        1347        1346
        1342        1343        1348        1347
        1343        1344        1349        1348
        1350        1351        1356        1355
        1351        1352        1357        1356
        1352        1353        1358        1357
        1353        1354        1359        1358
        1355        1356        1361        1360
        1356        1357        1362        1361
        1357        1358        1363        1362
        1358        1359        1364        1363
        1360        1361        1366        1365
        1361        1362        1367        1366
        1362        1363        1368        1367
        1363        1364        1369        1368
        1365        1366        1371        1370
        1366        1367        1372        1371
        1367        1368        1373        1372
        1368        1369        1374        1373
        1375        1376        1381        1380
        1376        1377        1382        1381
        1377        1378        1383        1382
        1378        1379        1384        1383
        1380        1381        1386        1385
        1381        1382        1387        1386
        1382        1383        1388        1387
        1383        1384        1389        1388
        1385        1386        1391        1390
        1386        1387        1392        1391
        1387        1388        1393        1392
        1388        1389        1394        1393
        1390        1391        1396        1395
        1391        1392        1397        1396
        1392        1393        1398        1397
        1393        1394        1399        1398
        1400        1401        1406        1405
        1401        1402        1407        1406
        1402        1403        1408        1407
        1403        1404        1409        1408
        1405        1406        1411        1410
        1406        1407        1412        1411
        1407        1408        1413        1412
        1408        1409        1414        1413
        1410        1411        1416        1415
        1411        1412        1417        1416
        1412        1413        1418        1417
        1413        1414        1419        1418
        1415        1416        1421        1420
        1416        1417        1422        1421
        1417        1418        1423        1422
        1418        1419        1424        1423
        1425        1426        1431        1430
        1426        1427        1432        1431
        1427        1428        1433        1432
        1428        1429        1434        1433
        1430        1431        1436        1435
        1431        1432        1437        1436
        1432        1433        1438        1437
        1433        1434        1439        1438
        1435        1436        1441        1440
        1436        1437        1442        1441
        1437        1438        1443        1442
        1438        1439        1444        1443
        1440        1441        1446        1445
        1441        1442        1447        1446
        1442        1443        1448        1447
        1443        1444        1449        1448
        1450        1451        1456        1455
        1451        1452        1457        1456
        1452        1453        1458        1457
        1453        1454        1459        1458
        1455        1456        1461        1460
        1456        1457        1462        1461
        1457        1458        1463        1462
        1458        1459        1464        1463
        1460        1461        1466        1465
        1461        1462        1467        1466
        1462        1463        1468        1467
        1463        1464        1469        1468
        1465        1466        1471        1470
        1466        1467        1472        1471
        1467        1468        1473        1472
        1468        1469        1474        1473
        1475        1476        1481        1480
        1476        1477        1482        1481
        1477        1478        1483        1482
        1478        1479        1484        1483
        1480        1481        1486        1485
        1481        1482        1487        1486
        1482        1483        1488        1487
        1483        1484        1489        1488
        1485        1486        1491        1490
        1486        1487        1492        1491
        1487        1488        1493        1492
        1488        1489        1494        1493
        1490        1491        1496        1495
        1491        1492        1497        1496
        1492        1493        1498        1497
        1493        1494        1499        1498
        1500        1501        1506        1505
        1501        1502        1507        1506
        1502        1503        1508        1507
        1503        1504        1509        1508
        1505        1506        1511        1510
        1506        1507        1512        1511
        1507        1508        1513        1512
        1508        1509        1514        1513
        1510        1511        1516        1515
        1511        1512        1517        1516
        1512        1513        1518        1517
        1513        1514        1519        1518
        1515        1516        1521        1520
        1516        1517        1522        1521
        1517        1518        1523        1522
        1518        1519        1524        1523
        1525        1526        1531        1530
        1526        1527        1532        1531
        1527        1528        1533        1532
        1528        1529        1534        1533
        1530        1531        1536        1535
        1531        1532        1537        1536
        1532        1533        1538        1537
        1533        1534        1539        1538
        1535        1536        1541        1540
        1536        1537        1542        1541
        1537        1538        1543        1542
        1538        1539        1544        1543
        1540        1541        1546        1545
        1541        1542        1547        1546
        1542        1543        1548        1547
        1543        1544        1549        1548
        1550        1551        1556        1555
        1551        1552        1557        1556
        1552        1553        1558        1557
        1553        1554        1559        1558
        1555        1556        1561        1560
        1556        1557        1562        1561
        1557        1558        1563        1562
        1558        1559        1564        1563
        1560        1561        1566        1565
        1561        1562        1567        1566
        1562        1563        1568        1567
        1563        1564        1569        1568
        1565        1566        1571        1570
        1566        1567        1572        1571
        1567        1568        1573        1572
        1568        1569        1574        1573
        1575        1576        1581        1580
        1576        1577        1582        1581
        1577        1578        1583        1582
        1578        1579        1584        1583
        1580        1581        1586        1585
        1581        1582        1587        1586
        1582        1583        1588        1587
        1583        1584        1589        1588
        1585        1586        1591        1590
        1586        1587        1592        1591
        1587        1588        1593        1592
        1588        1589        1594        1593
        1590        1591        1596        1595
        1591        1592        1597        1596
        1592        1593        1598        1597
        1593        1594        1599        1598
 </DataArray>
 <DataArray  type="Int32"  Name="offsets"  format="ascii"> 
           4
           8
          12
          16
          20
          24
          28
          32
          36
          40
          44
          48
          52
          56
          60
          64
          68
          72
          76
          80
          84
          88
          92
          96
         100
         104
         108
         112
         116
         120
         124
         128
         132
         136
         140
         144
         148
         152
         156
         160
         164
         168
         172
         176
         180
         184
         188
         192
         196
         200
         204
         208
         212
         216
         220
         224
         228
         232
         236
         240
         244
         248
         252
         256
         260
         264
         268
         272
         276
         280
         284
         288
         292
         296
         300
         304
         308
         312
         316
         320
         324
         328
         332
         336
         340
         344
         348
         352
         356
         360
         364
         368
         372
         376
         380
         384
         388
         392
         396
         400
         404
         408
         412
         416
         420
         424
         428
         432
         436
         440
         444
         448
         452
         456
         460
         464
         468
         472
         476
         480
         484
         488
         492
         496
         500
         504
         508
         512
         516
         520
         524
         528
         532
         536
         540
         544
         548
         552
         556
         560
         564
         568
         572
         576
         580
         584
         588
         592
         596
         600
         604
         608
         612
         616
         620
         624
         628
         632
         636
         640
         644
         648
         652
         656
         660
         664
         668
         672
         676
         680
         684
         688
         692
         696
         700
         704
         708
         712
         716
         720
         724
         728
         732
         736
         740
         744
         748
         752
         756
         760
         764
         768
         772
         776
         780
         784
         788
         792
         796
         800
         804
         808
         812
         816
         820
         824
         828
         832
         836
         840
         844
         848
         852
         856
         860
         864
         868
         872
         876
         880
         884
         888
         892
         896
         900
         904
         908
         912
         916
         920
         924
         928
         932
         936
         940
         944
         948
         952
         956
         960
         964
         968
         972
         976
         980
         984
         988
         992
         996
        1000
        1004
        1008
        1012
        1016
        1020
        1024
        1028
        1032
        1036
        1040
        1044
        1048
        1052
        1056
        1060
        1064
        1068
        1072
        1076
        1080
        1084
        1088
        1092
        1096
        1100
        1104
        1108
        1112
        1116
        1120
        1124
        1128
        1132
        1136
        1140
        1144
        1148
        1152
        1156
        1160
        1164
        1168
        1172
        1176
        1180
        1184
        1188
        1192
        1196
        1200
        1204
        1208
        1212
        1216
        1220
        1224
        1228
        1232
        1236
        1240
        1244
        1248
        1252
        1256
        1260
        1264
        1268
        1272
        1276
        1280
        1284
        1288
        1292
        1296
        1300
        1304
        1308
        1312
        1316
        1320
        1324
        1328
        1332
        1336
        1340
        1344
        1348
        1352
        1356
        1360
        1364
        1368
        1372
        1376
        1380
        1384
        1388
        1392
        1396
        1400
        1404
        1408
        1412
        1416
        1420
        1424
        1428
        1432
        1436
        1440
        1444
        1448
        1452
        1456
        1460
        1464
        1468
        1472
        1476
        1480
        1484
        1488
        1492
        1496
        1500
        1504
        1508
        1512
        1516
        1520
        1524
        1528
        1532
        1536
        1540
        1544
        1548
        1552
        1556
        1560
        1564
        1568
        1572
        1576
        1580
        1584
        1588
        1592
        1596
        1600
        1604
        1608
        1612
        1616
        1620
        1624
        1628
        1632
        1636
        1640
        1644
        1648
        1652
        1656
        1660
        1664
        1668
        1672
        1676
        1680
        1684
        1688
        1692
        1696
        1700
        1704
        1708
        1712
        1716
        1720
        1724
        1728
        1732
        1736
        1740
        1744
        1748
        1752
        1756
        1760
        1764
        1768
        1772
        1776
        1780
        1784
        1788
        1792
        1796
        1800
        1804
        1808
        1812
        1816
        1820
        1824
        1828
        1832
        1836
        1840
        1844
        1848
        1852
        1856
        1860
        1864
        1868
        1872
        1876
        1880
        1884
        1888
        1892
        1896
        1900
        1904
        1908
        1912
        1916
        1920
        1924
        1928
        1932
        1936
        1940
        1944
        1948
        1952
        1956
        1960
        1964
        1968
        1972
        1976
        1980
        1984
        1988
        1992
        1996
        2000
        2004
        2008
        2012
        2016
        2020
        2024
        2028
        2032
        2036
        2040
        2044
        2048
        2052
        2056
        2060
        2064
        2068
        2072
        2076
        2080
        2084
        2088
        2092
        2096
        2100
        2104
        2108
        2112
        2116
        2120
        2124
        2128
        2132
        2136
        2140
        2144
        2148
        2152
        2156
        2160
        2164
        2168
        2172
        2176
        2180
        2184
        2188
        2192
        2196
        2200
        2204
        2208
        2212
        2216
        2220
        2224
        2228
        2232
        2236
        2240
        2244
        2248
        2252
        2256
        2260
        2264
        2268
        2272
        2276
        2280
        2284
        2288
        2292
        2296
        2300
        2304
        2308
        2312
        2316
        2320
        2324
        2328
        2332
        2336
        2340
        2344
        2348
        2352
        2356
        2360
        2364
        2368
        2372
        2376
        2380
        2384
        2388
        2392
        2396
        2400
        2404
        2408
        2412
        2416
        2420
        2424
        2428
        2432
        2436
        2440
        2444
        2448
        2452
        2456
        2460
        2464
        2468
        2472
        2476
        2480
        2484
        2488
        2492
        2496
        2500
        2504
        2508
        2512
        2516
        2520
        2524
        2528
        2532
        2536
        2540
        2544
        2548
        2552
        2556
        2560
        2564
        2568
        2572
        2576
        2580
        2584
        2588
        2592
        2596
        2600
        2604
        2608
        2612
        2616
        2620
        2624
        2628
        2632
        2636
        2640
        2644
        2648
        2652
        2656
        2660
        2664
        2668
        2672
        2676
        2680
        2684
        2688
        2692
        2696
        2700
        2704
        2708
        2712
        2716
        2720
        2724
        2728
        2732
        2736
        2740
        2744
        2748
        2752
        2756
        2760
        2764
        2768
        2772
        2776
        2780
        2784
        2788
        2792
        2796
        2800
        2804
        2808
        2812
        2816
        2820
        2824
        2828
        2832
        2836
        2840
        2844
        2848
        2852
        2856
        2860
        2864
        2868
        2872
        2876
        2880
        2884
        2888
        2892
        2896
        2900
        2904
        2908
        2912
        2916
        2920
        2924
        2928
        2932
        2936
        2940
        2944
        2948
        2952
        2956
        2960
        2964
        2968
        2972
        2976
        2980
        2984
        2988
        2992
        2996
        3000
        3004
        3008
        3012
        3016
        3020
        3024
        3028
        3032
        3036
        3040
        3044
        3048
        3052
        3056
        3060
        3064
        3068
        3072
        3076
        3080
        3084
        3088
        3092
        3096
        3100
        3104
        3108
        3112
        3116
        3120
        3124
        3128
        3132
        3136
        3140
        3144
        3148
        3152
        3156
        3160
        3164
        3168
        3172
        3176
        3180
        3184
        3188
        3192
        3196
        3200
        3204
        3208
        3212
        3216
        3220
        3224
        3228
        3232
        3236
        3240
        3244
        3248
        3252
        3256
        3260
        3264
        3268
        3272
        3276
        3280
        3284
        3288
        3292
        3296
        3300
        3304
        3308
        3312
        3316
        3320
        3324
        3328
        3332
        3336
        3340
        3344
        3348
        3352
        3356
        3360
        3364
        3368
        3372
        3376
        3380
        3384
        3388
        3392
        3396
        3400
        3404
        3408
        3412
        3416
        3420
        3424
        3428
        3432
        3436
        3440
        3444
        3448
        3452
        3456
        3460
        3464
        3468
        3472
        3476
        3480
        3484
        3488
        3492
        3496
        3500
        3504
        3508
        3512
        3516
        3520
        3524
        3528
        3532
        3536
        3540
        3544
        3548
        3552
        3556
        3560
        3564
        3568
        3572
        3576
        3580
        3584
        3588
        3592
        3596
        3600
        3604
        3608
        3612
        3616
        3620
        3624
        3628
        3632
        3636
        3640
        3644
        3648
        3652
        3656
        3660
        3664
        3668
        3672
        3676
        3680
        3684
        3688
        3692
        3696
        3700
        3704
        3708
        3712
        3716
        3720
        3724
        3728
        3732
        3736
        3740
        3744
        3748
        3752
        3756
        3760
        3764
        3768
        3772
        3776
        3780
        3784
        3788
        3792
        3796
        3800
        3804
        3808
        3812
        3816
        3820
        3824
        3828
        3832
        3836
        3840
        3844
        3848
        3852
        3856
        3860
        3864
        3868
        3872
        3876
        3880
        3884
        3888
        3892
        3896
        3900
        3904
        3908
        3912
        3916
        3920
        3924
        3928
        3932
        3936
        3940
        3944
        3948
        3952
        3956
        3960
        3964
        3968
        3972
        3976
        3980
        3984
        3988
        3992
        3996
        4000
        4004
        4008
        4012
        4016
        4020
        4024
        4028
        4032
        4036
        4040
        4044
        4048
        4052
        4056
        4060
        4064
        4068
        4072
        4076
        4080
        4084
        4088
        4092
        4096
 </DataArray>
 <DataArray  type="UInt8"  Name="types"  format="ascii">
 9
 9
 9
 9
 9
 9
 9
 9
 9
 9
 9
 9
 9
 9
 9
 9
 9
 9
 9
 9
 9
 9
 9
 9
 9
 9
 9
 9
 9
 9
 9
 9
 9
 9
 9
 9
 9
 9
 9
 9
 9
 9
 9
 9
 9
 9
 9
 9
 9
 9
 9
 9
 9
 9
 9
 9
 9
 9
 9
 9
 9
 9
 9
 9
 9
 9
 9
 9
 9
 9
 9
 9
 9
 9
 9
 9
 9
 9
 9
 9
 9
 9
 9
 9
 9
 9
 9
 9
 9
 9
 9
 9
 9
 9
 9
 9
 9
 9
 9
 9
 9
 9
 9
 9
 9
 9
 9
 9
 9
 9
 9
 9
 9
 9
 9
 9
 9
 9
 9
 9
 9
 9
 9
 9
 9
 9
 9
 9
 9
 9
 9
 9
 9
 9
 9
 9
 9
 9
 9
 9
 9
 9
 9
 9
 9
 9
 9
 9
 9
 9
 9
 9
 9
 9
 9
 9
 9
 9
 9
 9
 9
 9
 9
 9
 9
 9
 9
 9
 9
 9
 9
 9
 9
 9
 9
 9
 9
 9
 9
 9
 9
 9
 9
 9
 9
 9
 9
 9
 9
 9
 9
 9
 9
 9
 9
 9
 9
 9
 9
 9
 9
 9
 9
 9
 9
 9
 9
 9
 9
 9
 9
 9
 9
 9
 9
 9
 9
 9
 9
 9
 9
 9
 9
 9
 9
 9
 9
 9
 9
 9
 9
 9
 9
 9
 9
 9
 9
 9
 9
 9
 9
 9
 9
 9
 9
 9
 9
 9
 9
 9
 9
 9
 9
 9
 9
 9
 9
 9
 9
 9
 9
 9
 9
 9
 9
 9
 9
 9
 9
 9
 9
 9
 9
 9
 9
 9
 9
 9
 9
 9
 9
 9
 9
 9
 9
 9
 9
 9
 9
 9
 9
 9
 9
 9
 9
 9
 9
 9
 9
 9
 9
 9
 9
 9
 9
 9
 9
 9
 9
 9
 9
 9
 9
 9
 9
 9
 9
 9
 9
 9
 9
 9
 9
 9
 9
 9
 9
 9
 9
 9
 9
 9
 9
 9
 9
 9
 9
 9
 9
 9
 9
 9
 9
 9
 9
 9
 9
 9
 9
 9
 9
 9
 9
 9
 9
 9
 9
 9
 9
 9
 9
 9
 9
 9
 9
 9
 9
 9
 9
 9
 9
 9
 9
 9
 9
 9
 9
 9
 9
 9
 9
 9
 9
 9
 9
 9
 9
 9
 9
 9
 9
 9
 9
 9
 9
 9
 9
 9
 9
 9
 9
 9
 9
 9
 9
 9
 9
 9
 9
 9
 9
 9
 9
 9
 9
 9
 9
 9
 9
 9
 9
 9
 9
 9
 9
 9
 9
 9
 9
 9
 9
 9
 9
 9
 9
 9
 9
 9
 9
 9
 9
 9
 9
 9
 9
 9
 9
 9
 9
 9
 9
 9
 9
 9
 9
 9
 9
 9
 9
 9
 9
 9
 9
 9
 9
 9
 9
 9
 9
 9
 9
 9
 9
 9
 9
 9
 9
 9
 9
 9
 9
 9
 9
 9
 9
 9
 9
 9
 9
 9
 9
 9
 9
 9
 9
 9
 9
 9
 9
 9
 9
 9
 9
 9
 9
 9
 9
 9
 9
 9
 9
 9
 9
 9
 9
 9
 9
 9
 9
 9
 9
 9
 9
 9
 9
 9
 9
 9
 9
 9
 9
 9
 9
 9
 9
 9
 9
 9
 9
 9
 9
 9
 9
 9
 9
 9
 9
 9
 9
 9
 9
 9
 9
 9
 9
 9
 9
 9
 9
 9
 9
 9
 9
 9
 9
 9
 9
 9
 9
 9
 9
 9
 9
 9
 9
 9
 9
 9
 9
 9
 9
 9
 9
 9
 9
 9
 9
 9
 9
 9
 9
 9
 9
 9
 9
 9
 9
 9
 9
 9
 9
 9
 9
 9
 9
 9
 9
 9
 9
 9
 9
 9
 9
 9
 9
 9
 9
 9
 9
 9
 9
 9
 9
 9
 9
 9
 9
 9
 9
 9
 9
 9
 9
 9
 9
 9
 9
 9
 9
 9
 9
 9
 9
 9
 9
 9
 9
 9
 9
 9
 9
 9
 9
 9
 9
 9
 9
 9
 9
 9
 9
 9
 9
 9
 9
 9
 9
 9
 9
 9
 9
 9
 9
 9
 9
 9
 9
 9
 9
 9
 9
 9
 9
 9
 9
 9
 9
 9
 9
 9
 9
 9
 9
 9
 9
 9
 9
 9
 9
 9
 9
 9
 9
 9
 9
 9
 9
 9
 9
 9
 9
 9
 9
 9
 9
 9
 9
 9
 9
 9
 9
 9
 9
 9
 9
 9
 9
 9
 9
 9
 9
 9
 9
 9
 9
 9
 9
 9
 9
 9
 9
 9
 9
 9
 9
 9
 9
 9
 9
 9
 9
 9
 9
 9
 9
 9
 9
 9
 9
 9
 9
 9
 9
 9
 9
 9
 9
 9
 9
 9
 9
 9
 9
 9
 9
 9
 9
 9
 9
 9
 9
 9
 9
 9
 9
 9
 9
 9
 9
 9
 9
 9
 9
 9
 9
 9
 9
 9
 9
 9
 9
 9
 9
 9
 9
 9
 9
 9
 9
 9
 9
 9
 9
 9
 9
 9
 9
 9
 9
 9
 9
 9
 9
 9
 9
 9
 9
 9
 9
 9
 9
 9
 9
 9
 9
 9
 9
 9
 9
 9
 9
 9
 9
 9
 9
 9
 9
 9
 9
 9
 9
 9
 9
 9
 9
 9
 9
 9
 9
 9
 9
 9
 9
 9
 9
 9
 9
 9
 9
 9
 9
 9
 9
 9
 9
 9
 9
 9
 9
 9
 9
 9
 9
 9
 9
 9
 9
 9
 9
 9
 9
 9
 9
 9
 9
 9
 9
 9
 9
 9
 9
 9
 9
 9
 9
 9
 9
 9
 9
 9
 9
 9
 9
 9
 9
 9
 9
 9
 9
 9
 9
 9
 9
 9
 9
 9
 9
 9
 9
 9
 9
 9
 9
 9
 9
 9
 9
 9
 9
 9
 9
 9
 9
 9
 9
 9
 9
 9
 9
 9
 9
 9
 9
 9
 9
 9
 9
 9
 9
 9
 9
 9
 9
 9
 9
 9
 9
 9
 9
 9
 9
 9
 9
 9
 9
 9
 9
 9
 9
 9
 9
 9
 9
 9
 9
 9
 9
 9
 9
 9
 9
 9
 9
 9
 9
 9
 9
 9
 9
 9
 9
 9
 9
 9
 9
 9
 9
 9
 9
 9
 9
 9
 9
 9
 9
 9
 9
 9
 9
 9
 9
 9
 9
 9
 </DataArray>
 </Cells> 
 <PointData>
 <DataArray  type="Float64" Name="disp" NumberOfComponents="3" format="ascii">
   0.0000000000000000        0.0000000000000000        0.0000000000000000     
   6.0944401413566508E-003   3.7871183472768322E-003   0.0000000000000000     
   1.1664081048513327E-002   7.3178575692605377E-003   0.0000000000000000     
   1.6708922721470027E-002   1.0592217665951115E-002   0.0000000000000000     
   2.1228965160226754E-002   1.3610198637348567E-002   0.0000000000000000     
   0.0000000000000000        0.0000000000000000        0.0000000000000000     
   4.8909719207335164E-003   3.0193116499937925E-003   0.0000000000000000     
   9.5738103226406003E-003   6.0549349042615871E-003   0.0000000000000000     
   1.4048515205721252E-002   9.1068697628033830E-003   0.0000000000000000     
   1.8315086569975471E-002   1.2175116225619183E-002   0.0000000000000000     
   0.0000000000000000        0.0000000000000000        0.0000000000000000     
   3.9541741053649368E-003   2.4226500451871914E-003   0.0000000000000000     
   7.9119350472848949E-003   5.0576966028114947E-003   0.0000000000000000     
   1.1873282825759873E-002   7.9051396728729104E-003   0.0000000000000000     
   1.5838217440789875E-002   1.0964979255371439E-002   0.0000000000000000     
   0.0000000000000000        0.0000000000000000        0.0000000000000000     
   3.2840466952509108E-003   1.9971335328570284E-003   0.0000000000000000     
   6.6784552224462088E-003   4.3261426649102604E-003   0.0000000000000000     
   1.0183225581585895E-002   6.9870273961596977E-003   0.0000000000000000     
   1.3798357772669972E-002   9.9797877266053370E-003   0.0000000000000000     
   0.0000000000000000        0.0000000000000000        0.0000000000000000     
   2.8805896903914396E-003   1.7427621130033039E-003   0.0000000000000000     
   5.8733708481245464E-003   3.8602730905578850E-003   0.0000000000000000     
   8.9783434731993197E-003   6.3525329326637433E-003   0.0000000000000000     
   1.2195507565615760E-002   9.2195416393208770E-003   0.0000000000000000     
   2.1228965160226754E-002   1.3610198637348567E-002   0.0000000000000000     
   2.5436786084408552E-002   1.6600705629267947E-002   0.0000000000000000     
   2.9544963213640460E-002   1.9792643787524326E-002   0.0000000000000000     
   3.3553496547922487E-002   2.3186013112117699E-002   0.0000000000000000     
   3.7462386087254627E-002   2.6780813603048063E-002   0.0000000000000000     
   1.8315086569975471E-002   1.2175116225619183E-002   0.0000000000000000     
   2.2412138324015066E-002   1.5326965465017659E-002   0.0000000000000000     
   2.6378284376451854E-002   1.8629708653307493E-002   0.0000000000000000     
   3.0213524727285834E-002   2.2083345790488682E-002   0.0000000000000000     
   3.3917859376517007E-002   2.5687876876561225E-002   0.0000000000000000     
   1.5838217440789875E-002   1.0964979255371439E-002   0.0000000000000000     
   1.9735648332801708E-002   1.4195433539604705E-002   0.0000000000000000     
   2.3494484942222185E-002   1.7554720714870325E-002   0.0000000000000000     
   2.7114727269051304E-002   2.1042840781168304E-002   0.0000000000000000     
   3.0596375313289060E-002   2.4659793738498640E-002   0.0000000000000000     
   1.3798357772669972E-002   9.9797877266053370E-003   0.0000000000000000     
   1.7407316110768477E-002   1.3206109853029080E-002   0.0000000000000000     
   2.0893564910951443E-002   1.6567679972212822E-002   0.0000000000000000     
   2.4257104173218878E-002   2.0064498084156560E-002   0.0000000000000000     
   2.7497933897570784E-002   2.3696564188860295E-002   0.0000000000000000     
   1.2195507565615760E-002   9.2195416393208770E-003   0.0000000000000000     
   1.5427141657915366E-002   1.2358994405290789E-002   0.0000000000000000     
   1.8575524282639640E-002   1.5668586425334981E-002   0.0000000000000000     
   2.1640655439788575E-002   1.9148317699453452E-002   0.0000000000000000     
   2.4622535129362175E-002   2.2798188227646198E-002   0.0000000000000000     
   3.7462386087254627E-002   2.6780813603048063E-002   0.0000000000000000     
   4.1281517142173881E-002   3.0575908035269005E-002   0.0000000000000000     
   4.5020775023217240E-002   3.4570159183734114E-002   0.0000000000000000     
   4.8680159730384712E-002   3.8763567048443394E-002   0.0000000000000000     
   5.2259671263676297E-002   4.3156131629396834E-002   0.0000000000000000     
   3.3917859376517007E-002   2.5687876876561225E-002   0.0000000000000000     
   3.7516443297631083E-002   2.9473922839181405E-002   0.0000000000000000     
   4.1034431464113785E-002   3.3472104606005498E-002   0.0000000000000000     
   4.4471823875965114E-002   3.7682422177033478E-002   0.0000000000000000     
   4.7828620533185061E-002   4.2104875552265379E-002   0.0000000000000000     
   3.0596375313289060E-002   2.4659793738498640E-002   0.0000000000000000     
   3.3968255623752441E-002   2.8450954712047932E-002   0.0000000000000000     
   3.7259194749258435E-002   3.2461698827002776E-002   0.0000000000000000     
   4.0469192689807032E-002   3.6692026083363180E-002   0.0000000000000000     
   4.3598249445398231E-002   4.1141936481129134E-002   0.0000000000000000     
   2.7497933897570784E-002   2.3696564188860295E-002   0.0000000000000000     
   3.0636954120537949E-002   2.7507003653868586E-002   0.0000000000000000     
   3.3695064878651169E-002   3.1538941846725982E-002   0.0000000000000000     
   3.6672266171910453E-002   3.5792378767432485E-002   0.0000000000000000     
   3.9568558000315800E-002   4.0267314415988104E-002   0.0000000000000000     
   2.4622535129362175E-002   2.2798188227646198E-002   0.0000000000000000     
   2.7522538787987594E-002   2.6642069664643369E-002   0.0000000000000000     
   3.0342041852291998E-002   3.0703833665175099E-002   0.0000000000000000     
   3.3081044322275377E-002   3.4983480229241394E-002   0.0000000000000000     
   3.5739546197937754E-002   3.9481009356842262E-002   0.0000000000000000     
   5.2259671263676297E-002   4.3156131629396834E-002   0.0000000000000000     
   5.5757035360340115E-002   4.7761332583512124E-002   0.0000000000000000     
   5.9169977757624316E-002   5.2592649567706956E-002   0.0000000000000000     
   6.2498498455528871E-002   5.7650082581981343E-002   0.0000000000000000     
   6.5742597454053808E-002   6.2933631626335251E-002   0.0000000000000000     
   4.7828620533185061E-002   4.2104875552265379E-002   0.0000000000000000     
   5.1107939223297948E-002   4.6743013873594801E-002   0.0000000000000000     
   5.4312897733828067E-002   5.1600386282915363E-002   0.0000000000000000     
   5.7443496064775439E-002   5.6676992780227045E-002   0.0000000000000000     
   6.0499734216140036E-002   6.1972833365529875E-002   0.0000000000000000     
   4.3598249445398231E-002   4.1141936481129134E-002   0.0000000000000000     
   4.6651586885921630E-002   4.5808528397384439E-002   0.0000000000000000     
   4.9634426881266840E-002   5.0688900209212878E-002   0.0000000000000000     
   5.2546769431433847E-002   5.5783051916614465E-002   0.0000000000000000     
   5.5388614536422659E-002   6.1090983519589179E-002   0.0000000000000000     
   3.9568558000315800E-002   4.0267314415988104E-002   0.0000000000000000     
   4.2387978348211189E-002   4.4957876154881039E-002   0.0000000000000000     
   4.5134565199940628E-002   4.9858191346599530E-002   0.0000000000000000     
   4.7808318555504131E-002   5.4968259991143568E-002   0.0000000000000000     
   5.0409238414901671E-002   6.0288082088513169E-002   0.0000000000000000     
   3.5739546197937754E-002   3.9481009356842262E-002   0.0000000000000000     
   3.8317113610166612E-002   4.4191057146084581E-002   0.0000000000000000     
   4.0813312689849439E-002   4.9108259695075297E-002   0.0000000000000000     
   4.3228143436986263E-002   5.4232617003814383E-002   0.0000000000000000     
   4.5561605851577071E-002   5.9564129072301859E-002   0.0000000000000000     
   6.5742597454053808E-002   6.2933631626335251E-002   0.0000000000000000     
   6.8904996207118985E-002   6.8411472581431820E-002   0.0000000000000000     
   7.1988416168644237E-002   7.4051781327934108E-002   0.0000000000000000     
   7.4992857338629607E-002   7.9854557865842155E-002   0.0000000000000000     
   7.7918319717075052E-002   8.5819802195155948E-002   0.0000000000000000     
   6.0499734216140036E-002   6.1972833365529875E-002   0.0000000000000000     
   6.3481010193667545E-002   6.7462704763304071E-002   0.0000000000000000     
   6.6386722003103624E-002   7.3121403698029885E-002   0.0000000000000000     
   6.9216869644448273E-002   7.8948930169707318E-002   0.0000000000000000     
   7.1971453117701464E-002   8.4945284178336383E-002   0.0000000000000000     
   5.5388614536422659E-002   6.1090983519589179E-002   0.0000000000000000     
   5.8160194993400208E-002   6.6592945224708364E-002   0.0000000000000000     
   6.0861743599533419E-002   7.2269187238543350E-002   0.0000000000000000     
   6.3493260354822292E-002   7.8119709561094125E-002   0.0000000000000000     
   6.6054745259266801E-002   8.4144512192360701E-002   0.0000000000000000     
   5.0409238414901671E-002   6.0288082088513169E-002   0.0000000000000000     
   5.2942550606316939E-002   6.5802193965644684E-002   0.0000000000000000     
   5.5413480957933595E-002   7.1495131949474475E-002   0.0000000000000000     
   5.7822029469751651E-002   7.7366896040002561E-002   0.0000000000000000     
   6.0168196141771095E-002   8.3417486237228930E-002   0.0000000000000000     
   4.5561605851577071E-002   5.9564129072301859E-002   0.0000000000000000     
   4.7828077032417746E-002   6.5090450986113046E-002   0.0000000000000000     
   5.0041934078304179E-002   7.0799237830823314E-002   0.0000000000000000     
   5.2203176989236363E-002   7.6690489606432655E-002   0.0000000000000000     
   5.4311805765214299E-002   8.2764206312941069E-002   0.0000000000000000     
   7.7918319717075052E-002   8.5819802195155948E-002   0.0000000000000000     
   8.0754981257188482E-002   9.1949431955837352E-002   0.0000000000000000     
   8.3493019912177766E-002   9.8245364787848219E-002   0.0000000000000000     
   8.6132435682042888E-002  0.10470760069118856        0.0000000000000000     
   8.8673228566783877E-002  0.11133613966585840        0.0000000000000000     
   7.1971453117701464E-002   8.4945284178336383E-002   0.0000000000000000     
   7.4638806727683138E-002   9.1108548407990986E-002   0.0000000000000000     
   7.7207264779213178E-002   9.7436805542745100E-002   0.0000000000000000     
   7.9676827272291570E-002  0.10393005558259870        0.0000000000000000     
   8.2047494206918342E-002  0.11058829852755181        0.0000000000000000     
   6.6054745259266801E-002   8.4144512192360701E-002   0.0000000000000000     
   6.8532373170489949E-002   9.0338497421691089E-002   0.0000000000000000     
   7.0912318946114578E-002   9.6696567538433295E-002   0.0000000000000000     
   7.3194582586140783E-002  0.10321872254258731        0.0000000000000000     
   7.5379164090568468E-002  0.10990496243415314        0.0000000000000000     
   6.0168196141771095E-002   8.3417486237228930E-002   0.0000000000000000     
   6.2435680585608888E-002   8.9639278996937632E-002   0.0000000000000000     
   6.4608182412882020E-002   9.6024650774912804E-002   0.0000000000000000     
   6.6685701623590471E-002  0.10257360157115436        0.0000000000000000     
   6.8668238217734268E-002  0.10928613138566240        0.0000000000000000     
   5.4311805765214299E-002   8.2764206312941069E-002   0.0000000000000000     
   5.6348728973040003E-002   8.9010893133730673E-002   0.0000000000000000     
   5.8294855179515472E-002   9.5421055252183612E-002   0.0000000000000000     
   6.0150184384640717E-002  0.10199469266829991        0.0000000000000000     
   6.1914716588415734E-002  0.10873180538207952        0.0000000000000000     
   8.8673228566783877E-002  0.11133613966585840        0.0000000000000000     
   9.1115179520541656E-002  0.11813406234069607        0.0000000000000000     
   9.3458069497457177E-002  0.12510444934454001        0.0000000000000000     
   9.5701898497530427E-002  0.13224730067739018        0.0000000000000000     
   9.7846666520761433E-002  0.13956261633924663        0.0000000000000000     
   8.2047494206918342E-002  0.11058829852755181        0.0000000000000000     
   8.4326184986190184E-002  0.11741123139538889        0.0000000000000000     
   8.6519819013203839E-002  0.12439855120389440        0.0000000000000000     
   8.8628396287959293E-002  0.13155025795306835        0.0000000000000000     
   9.0651916810456548E-002  0.13886635164291072        0.0000000000000000     
   7.5379164090568468E-002  0.10990496243415314        0.0000000000000000     
   7.7474438851364069E-002  0.11675155675430432        0.0000000000000000     
   7.9488782260493926E-002  0.12375477504421434        0.0000000000000000     
   8.1422194317958024E-002  0.13091461730388321        0.0000000000000000     
   8.3274675023756406E-002  0.13823108353331096        0.0000000000000000     
   6.8668238217734268E-002  0.10928613138566240        0.0000000000000000     
   7.0559941116063271E-002  0.11615503841744236        0.0000000000000000     
   7.2364959239327398E-002  0.12317312086549984        0.0000000000000000     
   7.4083292587526647E-002  0.13034037872983484        0.0000000000000000     
   7.5714941160661020E-002  0.13765681201044733        0.0000000000000000     
   6.1914716588415734E-002  0.10873180538207952        0.0000000000000000     
   6.3582691780287817E-002  0.11562167638480302        0.0000000000000000     
   6.5148349949704282E-002  0.12265358866775089        0.0000000000000000     
   6.6611691096665135E-002  0.12982754223092313        0.0000000000000000     
   6.7972715221170363E-002  0.13714353707431975        0.0000000000000000     
   9.7846666520761433E-002  0.13956261633924663        0.0000000000000000     
   9.9809708329081301E-002  0.14692706586231136        0.0000000000000000     
  0.10150835868442121       0.15421731877878639        0.0000000000000000     
  0.10294261758678112       0.16143337508867178        0.0000000000000000     
  0.10411248503616106       0.16857523479196748        0.0000000000000000     
   9.0651916810456548E-002  0.13886635164291072        0.0000000000000000     
   9.2559947429074890E-002  0.14628397657822736        0.0000000000000000     
   9.4322054992193607E-002  0.15374027706382409        0.0000000000000000     
   9.5938239499812727E-002  0.16123525309970091        0.0000000000000000     
   9.7408500951932209E-002  0.16876890468585781        0.0000000000000000     
   8.3274675023756406E-002  0.13823108353331096        0.0000000000000000     
   8.5044533704437070E-002  0.14567697342047434        0.0000000000000000     
   8.6730079686548070E-002  0.15322508665335027        0.0000000000000000     
   8.8331312970089393E-002  0.16087542323193865        0.0000000000000000     
   8.9848233555061024E-002  0.16862798315623950        0.0000000000000000     
   7.5714941160661020E-002  0.13765681201044733        0.0000000000000000     
   7.7263467155167867E-002  0.14510605638905230        0.0000000000000000     
   7.8732432767484567E-002  0.15267174754736487        0.0000000000000000     
   8.0121837997611120E-002  0.16035388548538490        0.0000000000000000     
   8.1431682845547512E-002  0.16815247020311253        0.0000000000000000     
   6.7972715221170363E-002  0.13714353707431975        0.0000000000000000     
   6.9216747781267268E-002  0.14457122548396117        0.0000000000000000     
   7.0329114235003098E-002  0.15208025974586789        0.0000000000000000     
   7.1309814582377923E-002  0.15967063986003979        0.0000000000000000     
   7.2158848823391672E-002  0.16734236582647691        0.0000000000000000     
   0.0000000000000000        0.0000000000000000        0.0000000000000000     
   2.8805896903914396E-003   1.7427621130033039E-003   0.0000000000000000     
   5.8733708481245464E-003   3.8602730905578850E-003   0.0000000000000000     
   8.9783434731993197E-003   6.3525329326637433E-003   0.0000000000000000     
   1.2195507565615760E-002   9.2195416393208770E-003   0.0000000000000000     
   0.0000000000000000        0.0000000000000000        0.0000000000000000     
   2.6103315081002351E-003   1.5870289322556959E-003   0.0000000000000000     
   5.2893715991648559E-003   3.5529170149225038E-003   0.0000000000000000     
   8.0371202731938634E-003   5.8976642480004244E-003   0.0000000000000000     
   1.0853577530187257E-002   8.6212706314894565E-003   0.0000000000000000     
   0.0000000000000000        0.0000000000000000        0.0000000000000000     
   2.3398005656910100E-003   1.4574271372438806E-003   0.0000000000000000     
   4.7191471504120933E-003   3.2969035731722530E-003   0.0000000000000000     
   7.1380397541632497E-003   5.5184293077851195E-003   0.0000000000000000     
   9.5964783769444794E-003   8.1220043410824769E-003   0.0000000000000000     
   0.0000000000000000        0.0000000000000000        0.0000000000000000     
   2.0689968631637645E-003   1.3539567279678591E-003   0.0000000000000000     
   4.1626975018662559E-003   3.0922327653071348E-003   0.0000000000000000     
   6.2811019161074762E-003   5.2148281120178277E-003   0.0000000000000000     
   8.4242101058874218E-003   7.7217427680999363E-003   0.0000000000000000     
   0.0000000000000000        0.0000000000000000        0.0000000000000000     
   1.7979204005184992E-003   1.2766177044276307E-003   0.0000000000000000     
   3.6200226535273473E-003   2.9389045913271470E-003   0.0000000000000000     
   5.4663067590265445E-003   4.9868606606985489E-003   0.0000000000000000     
   7.3367727170160907E-003   7.4204859125418365E-003   0.0000000000000000     
   1.2195507565615760E-002   9.2195416393208770E-003   0.0000000000000000     
   1.5427141657915366E-002   1.2358994405290789E-002   0.0000000000000000     
   1.8575524282639640E-002   1.5668586425334981E-002   0.0000000000000000     
   2.1640655439788575E-002   1.9148317699453452E-002   0.0000000000000000     
   2.4622535129362175E-002   2.2798188227646198E-002   0.0000000000000000     
   1.0853577530187257E-002   8.6212706314894565E-003   0.0000000000000000     
   1.3684839605721115E-002   1.1641281571605499E-002   0.0000000000000000     
   1.6477002735371511E-002   1.4875242474564440E-002   0.0000000000000000     
   1.9230066919138439E-002   1.8323153340366286E-002   0.0000000000000000     
   2.1944032157021912E-002   2.1985014169011035E-002   0.0000000000000000     
   9.5964783769444794E-003   8.1220043410824769E-003   0.0000000000000000     
   1.2070124585664440E-002   1.1040165727188869E-002   0.0000000000000000     
   1.4534639947231795E-002   1.4205450520228835E-002   0.0000000000000000     
   1.6990024461646547E-002   1.7617858720202381E-002   0.0000000000000000     
   1.9436278128908687E-002   2.1277390327109499E-002   0.0000000000000000     
   8.4242101058874218E-003   7.7217427680999363E-003   0.0000000000000000     
   1.0582996597745347E-002   1.0555646872040900E-002   0.0000000000000000     
   1.2748435918220499E-002   1.3659210562328166E-002   0.0000000000000000     
   1.4920528067312882E-002   1.7032433838961730E-002   0.0000000000000000     
   1.7099273045022491E-002   2.0675316701941591E-002   0.0000000000000000     
   7.3367727170160907E-003   7.4204859125418365E-003   0.0000000000000000     
   9.2234556419638347E-003   1.0187725006161599E-002   0.0000000000000000     
   1.1118390648337624E-002   1.3236522600862432E-002   0.0000000000000000     
   1.3021577736137456E-002   1.6566878696644333E-002   0.0000000000000000     
   1.4933016905363335E-002   2.0178793293507302E-002   0.0000000000000000     
   2.4622535129362175E-002   2.2798188227646198E-002   0.0000000000000000     
   2.7522538787987594E-002   2.6642069664643369E-002   0.0000000000000000     
   3.0342041852291998E-002   3.0703833665175099E-002   0.0000000000000000     
   3.3081044322275377E-002   3.4983480229241394E-002   0.0000000000000000     
   3.5739546197937754E-002   3.9481009356842262E-002   0.0000000000000000     
   2.1944032157021912E-002   2.1985014169011035E-002   0.0000000000000000     
   2.4599548543839389E-002   2.5860681245398063E-002   0.0000000000000000     
   2.7177266174408337E-002   2.9950010854426737E-002   0.0000000000000000     
   2.9677185048728755E-002   3.4253002996097064E-002   0.0000000000000000     
   3.2099305166800644E-002   3.8769657670409040E-002   0.0000000000000000     
   1.9436278128908687E-002   2.1277390327109499E-002   0.0000000000000000     
   2.1842522305831336E-002   2.5167366897158455E-002   0.0000000000000000     
   2.4177878349227609E-002   2.9271109986557509E-002   0.0000000000000000     
   2.6442346259097495E-002   3.3588619595306658E-002   0.0000000000000000     
   2.8635926035441007E-002   3.8119895723405899E-002   0.0000000000000000     
   1.7099273045022491E-002   2.0675316701941591E-002   0.0000000000000000     
   1.9251460073963434E-002   2.4562126619924542E-002   0.0000000000000000     
   2.1343878376749805E-002   2.8667131061567395E-002   0.0000000000000000     
   2.3376527953381611E-002   3.2990330026870150E-002   0.0000000000000000     
   2.5349408803858844E-002   3.7531723515832789E-002   0.0000000000000000     
   1.4933016905363335E-002   2.0178793293507302E-002   0.0000000000000000     
   1.6826361848235688E-002   2.4044960413696335E-002   0.0000000000000000     
   1.8675266256974937E-002   2.8138074079456420E-002   0.0000000000000000     
   2.0479730131581088E-002   3.2458134290787560E-002   0.0000000000000000     
   2.2239753472054143E-002   3.7005141047689760E-002   0.0000000000000000     
   3.5739546197937754E-002   3.9481009356842262E-002   0.0000000000000000     
   3.8317113610166612E-002   4.4191057146084581E-002   0.0000000000000000     
   4.0813312689849439E-002   4.9108259695075297E-002   0.0000000000000000     
   4.3228143436986263E-002   5.4232617003814383E-002   0.0000000000000000     
   4.5561605851577071E-002   5.9564129072301859E-002   0.0000000000000000     
   3.2099305166800644E-002   3.8769657670409040E-002   0.0000000000000000     
   3.4438601959189123E-002   4.3495921378238808E-002   0.0000000000000000     
   3.6690050856459287E-002   4.8427740620462484E-002   0.0000000000000000     
   3.8853651858611157E-002   5.3565115397080074E-002   0.0000000000000000     
   4.0929404965644726E-002   5.8908045708091578E-002   0.0000000000000000     
   2.8635926035441007E-002   3.8119895723405899E-002   0.0000000000000000     
   3.0752052682679963E-002   4.2860318858587411E-002   0.0000000000000000     
   3.2784161205236209E-002   4.7805269488583373E-002   0.0000000000000000     
   3.4732251603109721E-002   5.2954747613393797E-002   0.0000000000000000     
   3.6596323876300511E-002   5.8308753233018672E-002   0.0000000000000000     
   2.5349408803858844E-002   3.7531723515832789E-002   0.0000000000000000     
   2.7257465780639152E-002   4.2284249587130389E-002   0.0000000000000000     
   2.9095643736180184E-002   4.7240846299437977E-002   0.0000000000000000     
   3.0863942670481946E-002   5.2401513652755562E-002   0.0000000000000000     
   3.2562362583544432E-002   5.7766251647083128E-002   0.0000000000000000     
   2.2239753472054143E-002   3.7005141047689760E-002   0.0000000000000000     
   2.3954841253066662E-002   4.1767713563867756E-002   0.0000000000000000     
   2.5624498449291232E-002   4.6734471053026291E-002   0.0000000000000000     
   2.7248725060727834E-002   5.1905413515165359E-002   0.0000000000000000     
   2.8827521087376476E-002   5.7280540950284967E-002   0.0000000000000000     
   4.5561605851577071E-002   5.9564129072301859E-002   0.0000000000000000     
   4.7828077032417746E-002   6.5090450986113046E-002   0.0000000000000000     
   5.0041934078304179E-002   7.0799237830823314E-002   0.0000000000000000     
   5.2203176989236363E-002   7.6690489606432655E-002   0.0000000000000000     
   5.4311805765214299E-002   8.2764206312941069E-002   0.0000000000000000     
   4.0929404965644726E-002   5.8908045708091578E-002   0.0000000000000000     
   4.2939556310558361E-002   6.4446607687399751E-002   0.0000000000000000     
   4.4906352026350439E-002   7.0170877468907378E-002   0.0000000000000000     
   4.6829792113020963E-002   7.6080855052614471E-002   0.0000000000000000     
   4.8709876570569924E-002   8.2176540438520990E-002   0.0000000000000000     
   3.6596323876300511E-002   5.8308753233018672E-002   0.0000000000000000     
   3.8399770479594517E-002   6.3859555470791113E-002   0.0000000000000000     
   4.0165983867777671E-002   6.9599423450044259E-002   0.0000000000000000     
   4.1894964040849976E-002   7.5528357170778090E-002   0.0000000000000000     
   4.3586710998811423E-002   8.1646356632992648E-002   0.0000000000000000     
   3.2562362583544432E-002   5.7766251647083128E-002   0.0000000000000000     
   3.4208719539526221E-002   6.3329294336287104E-002   0.0000000000000000     
   3.5820829602585869E-002   6.9084875774233889E-002   0.0000000000000000     
   3.7398692772723410E-002   7.5032995960923568E-002   0.0000000000000000     
   3.8942309049938811E-002   8.1173654896356015E-002   0.0000000000000000     
   2.8827521087376476E-002   5.7280540950284967E-002   0.0000000000000000     
   3.0366403490353452E-002   6.2855824283887751E-002   0.0000000000000000     
   3.1870889230775044E-002   6.8627234441476379E-002   0.0000000000000000     
   3.3340978308641259E-002   7.4594771423050821E-002   0.0000000000000000     
   3.4776670723952088E-002   8.0758435228611092E-002   0.0000000000000000     
   5.4311805765214299E-002   8.2764206312941069E-002   0.0000000000000000     
   5.6348728973040003E-002   8.9010893133730673E-002   0.0000000000000000     
   5.8294855179515472E-002   9.5421055252183612E-002   0.0000000000000000     
   6.0150184384640717E-002  0.10199469266829991        0.0000000000000000     
   6.1914716588415734E-002  0.10873180538207952        0.0000000000000000     
   4.8709876570569924E-002   8.2176540438520990E-002   0.0000000000000000     
   5.0525547335249617E-002   8.8446828098812533E-002   0.0000000000000000     
   5.2255746343312356E-002   9.4880612505674686E-002   0.0000000000000000     
   5.3900473594758122E-002  0.10147789365910743        0.0000000000000000     
   5.5459729089586941E-002  0.10823867155911075        0.0000000000000000     
   4.3586710998811423E-002   8.1646356632992648E-002   0.0000000000000000     
   4.5220164674704105E-002   8.7940572158925659E-002   0.0000000000000000     
   4.6774265001570080E-002   9.4398154070814921E-002   0.0000000000000000     
   4.8249011979409354E-002  0.10101910236866042        0.0000000000000000     
   4.9644405608221961E-002  0.10780341705246216        0.0000000000000000     
   3.8942309049938811E-002   8.1173654896356015E-002   0.0000000000000000     
   4.0432580991403441E-002   8.7492125314070024E-002   0.0000000000000000     
   4.1850411154288655E-002   9.3973679947604319E-002   0.0000000000000000     
   4.3195799538594426E-002  0.10061831879695890        0.0000000000000000     
   4.4468746144320788E-002  0.10742604186213375        0.0000000000000000     
   3.4776670723952088E-002   8.0758435228611092E-002   0.0000000000000000     
   3.6162796285347652E-002   8.7101487564245628E-002   0.0000000000000000     
   3.7484184801468062E-002   9.3607190136042892E-002   0.0000000000000000     
   3.8740836272313325E-002  0.10027554294400286        0.0000000000000000     
   3.9932750697883435E-002  0.10710654598812552        0.0000000000000000     
   6.1914716588415734E-002  0.10873180538207952        0.0000000000000000     
   6.3582691780287817E-002  0.11562167638480302        0.0000000000000000     
   6.5148349949704282E-002  0.12265358866775089        0.0000000000000000     
   6.6611691096665135E-002  0.12982754223092313        0.0000000000000000     
   6.7972715221170363E-002  0.13714353707431975        0.0000000000000000     
   5.5459729089586941E-002  0.10823867155911075        0.0000000000000000     
   5.6918557532706401E-002  0.11514940829743536        0.0000000000000000     
   5.8262003629024124E-002  0.12219656596583196        0.0000000000000000     
   5.9490067378540103E-002  0.12938014456430053        0.0000000000000000     
   6.0602748781254351E-002  0.13670014409284115        0.0000000000000000     
   4.9644405608221961E-002  0.10780341705246216        0.0000000000000000     
   5.0943405061987704E-002  0.11473617179638843        0.0000000000000000     
   5.2128969514686423E-002  0.12180244027460752        0.0000000000000000     
   5.3201098966318153E-002  0.12900222248711940        0.0000000000000000     
   5.4159793416882873E-002  0.13633551843392416        0.0000000000000000     
   4.4468746144320788E-002  0.10742604186213375        0.0000000000000000     
   4.5657234368131717E-002  0.11438196688166218        0.0000000000000000     
   4.6749247606691212E-002  0.12147121159407751        0.0000000000000000     
   4.7744785859999271E-002  0.12869377599937973        0.0000000000000000     
   4.8643849128055916E-002  0.13604966009756886        0.0000000000000000     
   3.9932750697883435E-002  0.10710654598812552        0.0000000000000000     
   4.1060045451138463E-002  0.11408679355325665        0.0000000000000000     
   4.2122837905038478E-002  0.12120287992424199        0.0000000000000000     
   4.3121128059583486E-002  0.12845480510108151        0.0000000000000000     
   4.4054915914773486E-002  0.13584256908377523        0.0000000000000000     
   6.7972715221170363E-002  0.13714353707431975        0.0000000000000000     
   6.9216747781267268E-002  0.14457122548396117        0.0000000000000000     
   7.0329114235003098E-002  0.15208025974586789        0.0000000000000000     
   7.1309814582377923E-002  0.15967063986003979        0.0000000000000000     
   7.2158848823391672E-002  0.16734236582647691        0.0000000000000000     
   6.0602748781254351E-002  0.13670014409284115        0.0000000000000000     
   6.1561911763855511E-002  0.14410666910935233        0.0000000000000000     
   6.2329420253032237E-002  0.15154982417173288        0.0000000000000000     
   6.2905274248784546E-002  0.15902960927998266        0.0000000000000000     
   6.3289473751112379E-002  0.16654602443410182        0.0000000000000000     
   5.4159793416882873E-002  0.13633551843392416        0.0000000000000000     
   5.4956495284052879E-002  0.14374657566937704        0.0000000000000000     
   5.5542646985500502E-002  0.15117964174783335        0.0000000000000000     
   5.5918248521225726E-002  0.15863471666929319        0.0000000000000000     
   5.6083299891228559E-002  0.16611180043375642        0.0000000000000000     
   4.8643849128055916E-002  0.13604966009756886        0.0000000000000000     
   4.9400498341859375E-002  0.14349094516403532        0.0000000000000000     
   4.9968794432407898E-002  0.15096971247416940        0.0000000000000000     
   5.0348737399701506E-002  0.15848596202797122        0.0000000000000000     
   5.0540327243740184E-002  0.16603969382544079        0.0000000000000000     
   4.4054915914773486E-002  0.13584256908377523        0.0000000000000000     
   4.4893920937274970E-002  0.14333977759332703        0.0000000000000000     
   4.5607862593754434E-002  0.15092003635074094        0.0000000000000000     
   4.6196740884211863E-002  0.15858334535601684        0.0000000000000000     
   4.6660555808647267E-002  0.16632970460915486        0.0000000000000000     
   0.0000000000000000        0.0000000000000000        0.0000000000000000     
   1.7979204005184992E-003   1.2766177044276307E-003   0.0000000000000000     
   3.6200226535273473E-003   2.9389045913271470E-003   0.0000000000000000     
   5.4663067590265445E-003   4.9868606606985489E-003   0.0000000000000000     
   7.3367727170160907E-003   7.4204859125418365E-003   0.0000000000000000     
   0.0000000000000000        0.0000000000000000        0.0000000000000000     
   1.5347238850009159E-003   1.2181252623428048E-003   0.0000000000000000     
   3.0982557007554873E-003   2.8221224386969575E-003   0.0000000000000000     
   4.6905954472637153E-003   4.8119915290624577E-003   0.0000000000000000     
   6.3117431245255989E-003   7.1877325334393062E-003   0.0000000000000000     
   0.0000000000000000        0.0000000000000000        0.0000000000000000     
   1.2875600238567175E-003   1.1711945974329911E-003   0.0000000000000000     
   2.6045297389108010E-003   2.7270896948812340E-003   0.0000000000000000     
   3.9509091451622501E-003   4.6676852923447296E-003   0.0000000000000000     
   5.3266982426110653E-003   6.9929813898234787E-003   0.0000000000000000     
   0.0000000000000000        0.0000000000000000        0.0000000000000000     
   1.0564288170859047E-003   1.1358257096981887E-003   0.0000000000000000     
   2.1388447679932874E-003   2.6538063598799768E-003   0.0000000000000000     
   3.2472478527221485E-003   4.5539419505453635E-003   0.0000000000000000     
   4.3816380712724872E-003   6.8362324816943496E-003   0.0000000000000000     
   0.0000000000000000        0.0000000000000000        0.0000000000000000     
   8.4133026468847702E-004   1.1120185991383990E-003   0.0000000000000000     
   1.7012007880029473E-003   2.6022724336931856E-003   0.0000000000000000     
   2.5796115699434109E-003   4.4707615036643604E-003   0.0000000000000000     
   3.4765626105098674E-003   6.7174858090519231E-003   0.0000000000000000     
   7.3367727170160907E-003   7.4204859125418365E-003   0.0000000000000000     
   9.2234556419638347E-003   1.0187725006161599E-002   0.0000000000000000     
   1.1118390648337624E-002   1.3236522600862432E-002   0.0000000000000000     
   1.3021577736137456E-002   1.6566878696644333E-002   0.0000000000000000     
   1.4933016905363335E-002   2.0178793293507302E-002   0.0000000000000000     
   6.3117431245255989E-003   7.1877325334393062E-003   0.0000000000000000     
   7.9491762411725460E-003   9.9003787661742400E-003   0.0000000000000000     
   9.5903723058359605E-003   1.2900963541614000E-002   0.0000000000000000     
   1.1235331318515847E-002   1.6189486859758583E-002   0.0000000000000000     
   1.2884053279212201E-002   1.9765948720607995E-002   0.0000000000000000     
   5.3266982426110653E-003   6.9929813898234787E-003   0.0000000000000000     
   6.7178329182241278E-003   9.6575867887021029E-003   0.0000000000000000     
   8.1102490589683180E-003   1.2616110290365237E-002   0.0000000000000000     
   9.5039466648436342E-003   1.5868551894812878E-002   0.0000000000000000     
   1.0898925735850083E-002   1.9414911602045025E-002   0.0000000000000000     
   4.3816380712724872E-003   6.8362324816943496E-003   0.0000000000000000     
   5.5294256731185775E-003   9.4593490737451894E-003   0.0000000000000000     
   6.6780209077346902E-003   1.2381962847116144E-002   0.0000000000000000     
   7.8274237751208217E-003   1.5604073801807209E-002   0.0000000000000000     
   8.9776342752769800E-003   1.9125681937818384E-002   0.0000000000000000     
   3.4765626105098674E-003   6.7174858090519231E-003   0.0000000000000000     
   4.3839545058558960E-003   9.3056656213034994E-003   0.0000000000000000     
   5.2936878521350770E-003   1.2198521211866719E-002   0.0000000000000000     
   6.2057626493474093E-003   1.5396052580741577E-002   0.0000000000000000     
   7.1201788974928938E-003   1.8898259727928076E-002   0.0000000000000000     
   1.4933016905363335E-002   2.0178793293507302E-002   0.0000000000000000     
   1.6826361848235688E-002   2.4044960413696335E-002   0.0000000000000000     
   1.8675266256974937E-002   2.8138074079456420E-002   0.0000000000000000     
   2.0479730131581088E-002   3.2458134290787560E-002   0.0000000000000000     
   2.2239753472054143E-002   3.7005141047689760E-002   0.0000000000000000     
   1.2884053279212201E-002   1.9765948720607995E-002   0.0000000000000000     
   1.4520080955346917E-002   2.3604722594846902E-002   0.0000000000000000     
   1.6126957114341894E-002   2.7680181953159980E-002   0.0000000000000000     
   1.7704681756197126E-002   3.1992326795547220E-002   0.0000000000000000     
   1.9253254880912618E-002   3.6541157122008630E-002   0.0000000000000000     
   1.0898925735850083E-002   1.9414911602045025E-002   0.0000000000000000     
   1.2285470721995959E-002   2.3230267479749340E-002   0.0000000000000000     
   1.3653866073289563E-002   2.7289697595613480E-002   0.0000000000000000     
   1.5004111789730901E-002   3.1593201949637453E-002   0.0000000000000000     
   1.6336207871319969E-002   3.6140780541821259E-002   0.0000000000000000     
   8.9776342752769800E-003   1.9125681937818384E-002   0.0000000000000000     
   1.0122531148182807E-002   2.2921595068403640E-002   0.0000000000000000     
   1.1255993133817954E-002   2.6966621006816936E-002   0.0000000000000000     
   1.2378020232182416E-002   3.1260759753058281E-002   0.0000000000000000     
   1.3488612443276201E-002   3.5804011307127660E-002   0.0000000000000000     
   7.1201788974928938E-003   1.8898259727928076E-002   0.0000000000000000     
   8.0312622339074654E-003   2.2678705360809803E-002   0.0000000000000000     
   8.9333382959270562E-003   2.6710952186770335E-002   0.0000000000000000     
   9.8264070835516696E-003   3.0995000205809670E-002   0.0000000000000000     
   1.0710468596781304E-002   3.5530849417927821E-002   0.0000000000000000     
   2.2239753472054143E-002   3.7005141047689760E-002   0.0000000000000000     
   2.3954841253066662E-002   4.1767713563867756E-002   0.0000000000000000     
   2.5624498449291232E-002   4.6734471053026291E-002   0.0000000000000000     
   2.7248725060727834E-002   5.1905413515165359E-002   0.0000000000000000     
   2.8827521087376476E-002   5.7280540950284967E-002   0.0000000000000000     
   1.9253254880912618E-002   3.6541157122008630E-002   0.0000000000000000     
   2.0776585568216644E-002   4.1310834321332042E-002   0.0000000000000000     
   2.2278582897837487E-002   4.6285519782305287E-002   0.0000000000000000     
   2.3759246869775145E-002   5.1465213504928373E-002   0.0000000000000000     
   2.5218577484029614E-002   5.6849915489201278E-002   0.0000000000000000     
   1.6336207871319969E-002   3.6140780541821259E-002   0.0000000000000000     
   1.7655105194343223E-002   4.0913735392055797E-002   0.0000000000000000     
   1.8965754635087113E-002   4.5893368520231952E-002   0.0000000000000000     
   2.0268156193551646E-002   5.1079679926349750E-002   0.0000000000000000     
   2.1562309869736812E-002   5.6472669610409164E-002   0.0000000000000000     
   1.3488612443276201E-002   3.5804011307127660E-002   0.0000000000000000     
   1.4590400131446395E-002   4.0576416776039029E-002   0.0000000000000000     
   1.5686013661040110E-002   4.5558017266806299E-002   0.0000000000000000     
   1.6775453032057335E-002   5.0748812779429511E-002   0.0000000000000000     
   1.7858718244498077E-002   5.6148803313908625E-002   0.0000000000000000     
   1.0710468596781304E-002   3.5530849417927821E-002   0.0000000000000000     
   1.1582470379526168E-002   4.0298878473281723E-002   0.0000000000000000     
   1.2439359975696474E-002   4.5279466022028335E-002   0.0000000000000000     
   1.3281137385292215E-002   5.0472612064167643E-002   0.0000000000000000     
   1.4107802608313399E-002   5.5878316599699662E-002   0.0000000000000000     
   2.8827521087376476E-002   5.7280540950284967E-002   0.0000000000000000     
   3.0366403490353452E-002   6.2855824283887751E-002   0.0000000000000000     
   3.1870889230775044E-002   6.8627234441476379E-002   0.0000000000000000     
   3.3340978308641259E-002   7.4594771423050821E-002   0.0000000000000000     
   3.4776670723952088E-002   8.0758435228611092E-002   0.0000000000000000     
   2.5218577484029614E-002   5.6849915489201278E-002   0.0000000000000000     
   2.6649925288920937E-002   6.2436679680177493E-002   0.0000000000000000     
   2.8046640832769153E-002   6.8222560022910467E-002   0.0000000000000000     
   2.9408724115574270E-002   7.4207556517400200E-002   0.0000000000000000     
   3.0736175137336265E-002   8.0391669163646706E-002   0.0000000000000000     
   2.1562309869736812E-002   5.6472669610409164E-002   0.0000000000000000     
   2.2836387892073404E-002   6.2069394891740737E-002   0.0000000000000000     
   2.4078562488992192E-002   6.7866913089675018E-002   0.0000000000000000     
   2.5288833660493181E-002   7.3865224204212002E-002   0.0000000000000000     
   2.6467201406576366E-002   8.0064328235351659E-002   0.0000000000000000     
   1.7858718244498077E-002   5.6148803313908625E-002   0.0000000000000000     
   1.8925791299810844E-002   6.1753969918577518E-002   0.0000000000000000     
   1.9966654199444153E-002   6.7560293641770047E-002   0.0000000000000000     
   2.0981306943398004E-002   7.3567774483486198E-002   0.0000000000000000     
   2.1969749531672387E-002   7.9776412443725950E-002   0.0000000000000000     
   1.4107802608313399E-002   5.5878316599699662E-002   0.0000000000000000     
   1.4918135512133258E-002   6.1490404760687817E-002   0.0000000000000000     
   1.5710915964125036E-002   6.7302701679195540E-002   0.0000000000000000     
   1.6486143964288730E-002   7.3315207355222789E-002   0.0000000000000000     
   1.7243819512624339E-002   7.9527921788769607E-002   0.0000000000000000     
   3.4776670723952088E-002   8.0758435228611092E-002   0.0000000000000000     
   3.6162796285347652E-002   8.7101487564245628E-002   0.0000000000000000     
   3.7484184801468062E-002   9.3607190136042892E-002   0.0000000000000000     
   3.8740836272313325E-002  0.10027554294400286        0.0000000000000000     
   3.9932750697883435E-002  0.10710654598812552        0.0000000000000000     
   3.0736175137336265E-002   8.0391669163646706E-002   0.0000000000000000     
   3.2018071483027523E-002   8.6756536310992727E-002   0.0000000000000000     
   3.3243490737620410E-002   9.3283796308781031E-002   0.0000000000000000     
   3.4412432901114912E-002   9.9973449157011660E-002   0.0000000000000000     
   3.5524897973511049E-002  0.10682549485568454        0.0000000000000000     
   2.6467201406576366E-002   8.0064328235351659E-002   0.0000000000000000     
   2.7605667510933862E-002   8.6445148955851550E-002   0.0000000000000000     
   2.8696233757257762E-002   9.2988610138469208E-002   0.0000000000000000     
   2.9738900145548069E-002   9.9694711783204659E-002   0.0000000000000000     
   3.0733666675804787E-002  0.10656345389005785        0.0000000000000000     
   2.1969749531672387E-002   7.9776412443725950E-002   0.0000000000000000     
   2.2925584369066655E-002   8.6167325498822112E-002   0.0000000000000000     
   2.3842413860380121E-002   9.2721631625107395E-002   0.0000000000000000     
   2.4720238005612783E-002   9.9439330822581828E-002   0.0000000000000000     
   2.5559056804764654E-002  0.10632042309124540        0.0000000000000000     
   1.7243819512624339E-002   7.9527921788769607E-002   0.0000000000000000     
   1.7977822057425909E-002   8.5923065939904397E-002   0.0000000000000000     
   1.8682031046987485E-002   9.2482860768695593E-002   0.0000000000000000     
   1.9356446481309061E-002   9.9207306275143209E-002   0.0000000000000000     
   2.0001068360390648E-002  0.10609640245924723        0.0000000000000000     
   3.9932750697883435E-002  0.10710654598812552        0.0000000000000000     
   4.1060045451138463E-002  0.11408679355325665        0.0000000000000000     
   4.2122837905038478E-002  0.12120287992424199        0.0000000000000000     
   4.3121128059583486E-002  0.12845480510108151        0.0000000000000000     
   4.4054915914773486E-002  0.13584256908377523        0.0000000000000000     
   3.5524897973511049E-002  0.10682549485568454        0.0000000000000000     
   3.6592825731320285E-002  0.11382837813786116        0.0000000000000000     
   3.7628155951054107E-002  0.12097054373660286        0.0000000000000000     
   3.8630888632712510E-002  0.12825199165190967        0.0000000000000000     
   3.9601023776295499E-002  0.13567272188378160        0.0000000000000000     
   3.0733666675804787E-002  0.10656345389005785        0.0000000000000000     
   3.1696562628989552E-002  0.11358444696216492        0.0000000000000000     
   3.2643617286063978E-002  0.12074730150266204        0.0000000000000000     
   3.3574830647028084E-002  0.12805201751154918        0.0000000000000000     
   3.4490202711881864E-002  0.13549859498882635        0.0000000000000000     
   2.5559056804764654E-002  0.10632042309124540        0.0000000000000000     
   2.6371256144146250E-002  0.11335500002616801        0.0000000000000000     
   2.7169221910068105E-002  0.12053315322241956        0.0000000000000000     
   2.7952954102530198E-002  0.12785488268000003        0.0000000000000000     
   2.8722452721532562E-002  0.13532018839890944        0.0000000000000000     
   2.0001068360390648E-002  0.10609640245924723        0.0000000000000000     
   2.0616906276790397E-002  0.11314003732987038        0.0000000000000000     
   2.1204969823066473E-002  0.12032809889587537        0.0000000000000000     
   2.1765258999218877E-002  0.12766058715726222        0.0000000000000000     
   2.2297773805247608E-002  0.13513750211403092        0.0000000000000000     
   4.4054915914773486E-002  0.13584256908377523        0.0000000000000000     
   4.4893920937274970E-002  0.14333977759332703        0.0000000000000000     
   4.5607862593754434E-002  0.15092003635074094        0.0000000000000000     
   4.6196740884211863E-002  0.15858334535601684        0.0000000000000000     
   4.6660555808647267E-002  0.16632970460915486        0.0000000000000000     
   3.9601023776295499E-002  0.13567272188378160        0.0000000000000000     
   4.0526281245539447E-002  0.14322973581023105        0.0000000000000000     
   4.1394380904180732E-002  0.15092003480927052        0.0000000000000000     
   4.2205322752219360E-002  0.15874361888089994        0.0000000000000000     
   4.2959106789655310E-002  0.16670048802511936        0.0000000000000000     
   3.4490202711881864E-002  0.13549859498882635        0.0000000000000000     
   3.5387097441892564E-002  0.14309748266772601        0.0000000000000000     
   3.6262878798327458E-002  0.15085912928148065        0.0000000000000000     
   3.7117546781186540E-002  0.15878353483009031        0.0000000000000000     
   3.7951101390469824E-002  0.16687069931355494        0.0000000000000000     
   2.8722452721532562E-002  0.13532018839890944        0.0000000000000000     
   2.9476369526334308E-002  0.14294301816581190        0.0000000000000000     
   3.0213356276194602E-002  0.15073731976737137        0.0000000000000000     
   3.0933412971113433E-002  0.15870309320358794        0.0000000000000000     
   3.1636539611090808E-002  0.16684033847446161        0.0000000000000000     
   2.2297773805247608E-002  0.13513750211403092        0.0000000000000000     
   2.2794097498864692E-002  0.14276634230448865        0.0000000000000000     
   2.3245813337782164E-002  0.15055460626694264        0.0000000000000000     
   2.3652921322000021E-002  0.15850229400139293        0.0000000000000000     
   2.4015421451518255E-002  0.16660940550783937        0.0000000000000000     
   0.0000000000000000        0.0000000000000000        0.0000000000000000     
   8.4133026468847702E-004   1.1120185991383990E-003   0.0000000000000000     
   1.7012007880029473E-003   2.6022724336931856E-003   0.0000000000000000     
   2.5796115699434109E-003   4.4707615036643604E-003   0.0000000000000000     
   3.4765626105098674E-003   6.7174858090519231E-003   0.0000000000000000     
   0.0000000000000000        0.0000000000000000        0.0000000000000000     
   6.3343545424541744E-004   1.0962456549088069E-003   0.0000000000000000     
   1.2771581253747382E-003   2.5666956146291977E-003   0.0000000000000000     
   1.9311680133879622E-003   4.4113498791611729E-003   0.0000000000000000     
   2.5954651182850891E-003   6.6302084485047302E-003   0.0000000000000000     
   0.0000000000000000        0.0000000000000000        0.0000000000000000     
   4.2391547333770906E-004   1.0849792661645995E-003   0.0000000000000000     
   8.5227710654361846E-004   2.5412836009963496E-003   0.0000000000000000     
   1.2850848996177283E-003   4.3689130044952508E-003   0.0000000000000000     
   1.7223388525600383E-003   6.5678674766613022E-003   0.0000000000000000     
   0.0000000000000000        0.0000000000000000        0.0000000000000000     
   2.1277032196535158E-004   1.0782194329057757E-003   0.0000000000000000     
   4.2655773150958786E-004   2.5260363927946412E-003   0.0000000000000000     
   6.4136222863270904E-004   4.3434508796665969E-003   0.0000000000000000     
   8.5718381333471476E-004   6.5304628935216429E-003   0.0000000000000000     
   0.0000000000000000        0.0000000000000000        0.0000000000000000     
   1.2834508846329418E-013   1.0759661551323360E-003   0.0000000000000000     
   2.7264659713949202E-013   2.5209539900240725E-003   0.0000000000000000     
   4.3290430918815903E-013   4.3349635046752094E-003   0.0000000000000000     
   6.0911865829016421E-013   6.5179946990857468E-003   0.0000000000000000     
   3.4765626105098674E-003   6.7174858090519231E-003   0.0000000000000000     
   4.3839545058558960E-003   9.3056656213034994E-003   0.0000000000000000     
   5.2936878521350770E-003   1.2198521211866719E-002   0.0000000000000000     
   6.2057626493474093E-003   1.5396052580741577E-002   0.0000000000000000     
   7.1201788974928938E-003   1.8898259727928076E-002   0.0000000000000000     
   2.5954651182850891E-003   6.6302084485047302E-003   0.0000000000000000     
   3.2669550030337588E-003   9.1906850902563099E-003   0.0000000000000000     
   3.9425432306016096E-003   1.2060193572012341E-002   0.0000000000000000     
   4.6222298009886429E-003   1.5238733893772829E-002   0.0000000000000000     
   5.3060147141948573E-003   1.8726306055537770E-002   0.0000000000000000     
   1.7223388525600383E-003   6.5678674766613022E-003   0.0000000000000000     
   2.1639627512498377E-003   9.1085561394828873E-003   0.0000000000000000     
   2.6098803815664141E-003   1.1961388114948389E-002   0.0000000000000000     
   3.0600917435097694E-003   1.5126363403057810E-002   0.0000000000000000     
   3.5145968370799020E-003   1.8603482003811143E-002   0.0000000000000000     
   8.5718381333471476E-004   6.5304628935216429E-003   0.0000000000000000     
   1.0749777505041330E-003   9.0592787689832439E-003   0.0000000000000000     
   1.2956993050294917E-003   1.1902104840674865E-002   0.0000000000000000     
   1.5193484769107902E-003   1.5058941108596515E-002   0.0000000000000000     
   1.7459252661480285E-003   1.8529787572748181E-002   0.0000000000000000     
   6.0911865829016421E-013   6.5179946990857468E-003   0.0000000000000000     
   7.9664541022955726E-013   9.0428529787573726E-003   0.0000000000000000     
   9.9084084578641984E-013   1.1882343749191771E-002   0.0000000000000000     
   1.1917047684491082E-012   1.5036467010388946E-002   0.0000000000000000     
   1.3992369546009242E-012   1.8505222762348894E-002   0.0000000000000000     
   7.1201788974928938E-003   1.8898259727928076E-002   0.0000000000000000     
   8.0312622339074654E-003   2.2678705360809803E-002   0.0000000000000000     
   8.9333382959270562E-003   2.6710952186770335E-002   0.0000000000000000     
   9.8264070835516696E-003   3.0995000205809670E-002   0.0000000000000000     
   1.0710468596781304E-002   3.5530849417927821E-002   0.0000000000000000     
   5.3060147141948573E-003   1.8726306055537770E-002   0.0000000000000000     
   5.9877331560083897E-003   2.2494956799551439E-002   0.0000000000000000     
   6.6612203122173750E-003   2.6516732868058102E-002   0.0000000000000000     
   7.3264761828218134E-003   3.0791634261057750E-002   0.0000000000000000     
   7.9835007678217065E-003   3.5319660978550389E-002   0.0000000000000000     
   3.5145968370799020E-003   1.8603482003811143E-002   0.0000000000000000     
   3.9680130913240389E-003   2.2363707827212170E-002   0.0000000000000000     
   4.4149579352894056E-003   2.6378004783264655E-002   0.0000000000000000     
   4.8554313689760029E-003   3.0646372871968610E-002   0.0000000000000000     
   5.2894333923838299E-003   3.5168812093324030E-002   0.0000000000000000     
   1.7459252661480285E-003   1.8529787572748181E-002   0.0000000000000000     
   1.9721020398544131E-003   2.2284958443791979E-002   0.0000000000000000     
   2.1945511651431486E-003   2.6294767932390002E-002   0.0000000000000000     
   2.4132726420142349E-003   3.0559216038542256E-002   0.0000000000000000     
   2.6282664704676733E-003   3.5078302762248735E-002   0.0000000000000000     
   1.3992369546009242E-012   1.8505222762348894E-002   0.0000000000000000     
   1.5995121351551622E-012   2.2258708649290873E-002   0.0000000000000000     
   1.7786031707763689E-012   2.6267022315434131E-002   0.0000000000000000     
   1.9365113015207790E-012   3.0530163760778679E-002   0.0000000000000000     
   2.0732354635150108E-012   3.5048132985324512E-002   0.0000000000000000     
   1.0710468596781304E-002   3.5530849417927821E-002   0.0000000000000000     
   1.1582470379526168E-002   4.0298878473281723E-002   0.0000000000000000     
   1.2439359975696474E-002   4.5279466022028335E-002   0.0000000000000000     
   1.3281137385292215E-002   5.0472612064167643E-002   0.0000000000000000     
   1.4107802608313399E-002   5.5878316599699662E-002   0.0000000000000000     
   7.9835007678217065E-003   3.5319660978550389E-002   0.0000000000000000     
   8.6239094086163186E-003   4.0082186345450549E-002   0.0000000000000000     
   9.2393174466049149E-003   4.5060583686672741E-002   0.0000000000000000     
   9.8297248817874969E-003   5.0254853002216965E-002   0.0000000000000000     
   1.0395131714164061E-002   5.5664994292083228E-002   0.0000000000000000     
   5.2894333923838299E-003   3.5168812093324030E-002   0.0000000000000000     
   5.7073106887506322E-003   3.9927406254212164E-002   0.0000000000000000     
   6.0994099413141526E-003   4.4904239161514245E-002   0.0000000000000000     
   6.4657311500743910E-003   5.0099310815230273E-002   0.0000000000000000     
   6.8062743150313484E-003   5.5512621215360249E-002   0.0000000000000000     
   2.6282664704676733E-003   3.5078302762248735E-002   0.0000000000000000     
   2.8326742199291073E-003   3.9834538199566574E-002   0.0000000000000000     
   3.0196374598241834E-003   4.4810432446552841E-002   0.0000000000000000     
   3.1891561901529015E-003   5.0005985503207569E-002   0.0000000000000000     
   3.3412304109152616E-003   5.5421197369530752E-002   0.0000000000000000     
   2.0732354635150108E-012   3.5048132985324512E-002   0.0000000000000000     
   2.1517450364896828E-012   3.9803582181513759E-002   0.0000000000000000     
   2.1350096170158483E-012   4.4779163541788534E-002   0.0000000000000000     
   2.0230263861678588E-012   4.9974877066148858E-002   0.0000000000000000     
   1.8157990302331006E-012   5.5390722754594703E-002   0.0000000000000000     
   1.4107802608313399E-002   5.5878316599699662E-002   0.0000000000000000     
   1.4918135512133258E-002   6.1490404760687817E-002   0.0000000000000000     
   1.5710915964125036E-002   6.7302701679195540E-002   0.0000000000000000     
   1.6486143964288730E-002   7.3315207355222789E-002   0.0000000000000000     
   1.7243819512624339E-002   7.9527921788769607E-002   0.0000000000000000     
   1.0395131714164061E-002   5.5664994292083228E-002   0.0000000000000000     
   1.0943613003676600E-002   6.1282473916791091E-002   0.0000000000000000     
   1.1483243810267106E-002   6.7098758236860095E-002   0.0000000000000000     
   1.2014024133935571E-002   7.3113847252290295E-002   0.0000000000000000     
   1.2535953974682002E-002   7.9327740963081650E-002   0.0000000000000000     
   6.8062743150313484E-003   5.5512621215360249E-002   0.0000000000000000     
   7.1324162490768251E-003   6.1133951885606774E-002   0.0000000000000000     
   7.4555337651026230E-003   6.6953084349672440E-002   0.0000000000000000     
   7.7756268631087415E-003   7.2970018607557224E-002   0.0000000000000000     
   8.0926955430951769E-003   7.9184754659261142E-002   0.0000000000000000     
   3.3412304109152616E-003   5.5421197369530752E-002   0.0000000000000000     
   3.4845452483339349E-003   6.1044838667134893E-002   0.0000000000000000     
   3.6277858286315927E-003   6.6865680017632476E-002   0.0000000000000000     
   3.7709521518082363E-003   7.2883721421023562E-002   0.0000000000000000     
   3.9140442178638634E-003   7.9098962877308110E-002   0.0000000000000000     
   1.8157990302331006E-012   5.5390722754594703E-002   0.0000000000000000     
   1.4479270647044240E-012   6.1015134261375406E-002   0.0000000000000000     
   8.5401374557217413E-013   6.6836545240740286E-002   0.0000000000000000     
   3.4058327447357428E-014   7.2854955692689308E-002   0.0000000000000000     
  -1.0119387966467386E-012   7.9070365617222513E-002   0.0000000000000000     
   1.7243819512624339E-002   7.9527921788769607E-002   0.0000000000000000     
   1.7977822057425909E-002   8.5923065939904397E-002   0.0000000000000000     
   1.8682031046987485E-002   9.2482860768695593E-002   0.0000000000000000     
   1.9356446481309061E-002   9.9207306275143209E-002   0.0000000000000000     
   2.0001068360390648E-002  0.10609640245924723        0.0000000000000000     
   1.2535953974682002E-002   7.9327740963081650E-002   0.0000000000000000     
   1.3043006756293262E-002   8.5724023031390956E-002   0.0000000000000000     
   1.3529155902556206E-002   9.2286277119375024E-002   0.0000000000000000     
   1.3994401413470843E-002   9.9014503227033868E-002   0.0000000000000000     
   1.4438743289037166E-002  0.10590870135436747        0.0000000000000000     
   8.0926955430951769E-003   7.9184754659261142E-002   0.0000000000000000     
   8.4017646459503409E-003   8.5581849525574336E-002   0.0000000000000000     
   8.6978590125626337E-003   9.2145860227286921E-002   0.0000000000000000     
   8.9809786429320554E-003   9.8876786764398886E-002   0.0000000000000000     
   9.2511235370586042E-003  0.10577462913691026        0.0000000000000000     
   3.9140442178638634E-003   7.9098962877308110E-002   0.0000000000000000     
   4.0540957263971488E-003   8.5496545422454523E-002   0.0000000000000000     
   4.1881403770067591E-003   9.2061610092431273E-002   0.0000000000000000     
   4.3161781696926978E-003   9.8794156887238291E-002   0.0000000000000000     
   4.4382091044549632E-003  0.10569418580687563        0.0000000000000000     
  -1.0119387966467386E-012   7.9070365617222513E-002   0.0000000000000000     
  -2.3663159105791198E-012   8.5468110722031546E-002   0.0000000000000000     
  -4.1114110813783578E-012   9.2033526714808064E-002   0.0000000000000000     
  -6.2472237127332575E-012   9.8766613595552055E-002   0.0000000000000000     
  -8.7737551598965346E-012  0.10566737136426355        0.0000000000000000     
   2.0001068360390648E-002  0.10609640245924723        0.0000000000000000     
   2.0616906276790397E-002  0.11314003732987038        0.0000000000000000     
   2.1204969823066473E-002  0.12032809889587537        0.0000000000000000     
   2.1765258999218877E-002  0.12766058715726222        0.0000000000000000     
   2.2297773805247608E-002  0.13513750211403092        0.0000000000000000     
   1.4438743289037166E-002  0.10590870135436747        0.0000000000000000     
   1.4851695964795136E-002  0.11295828182560633        0.0000000000000000     
   1.5222773876284720E-002  0.12015265496498094        0.0000000000000000     
   1.5551977023505916E-002  0.12749182077249130        0.0000000000000000     
   1.5839305406458719E-002  0.13497577924813742        0.0000000000000000     
   9.2511235370586042E-003  0.10577462913691026        0.0000000000000000     
   9.4938081460336273E-003  0.11282845646571016        0.0000000000000000     
   9.6945469209484703E-003  0.12002733787168765        0.0000000000000000     
   9.8533398618031332E-003  0.12737127335484283        0.0000000000000000     
   9.9701869685976142E-003  0.13486026291517561        0.0000000000000000     
   4.4382091044549632E-003  0.10569418580687563        0.0000000000000000     
   4.5432428205058684E-003  0.11275056125018185        0.0000000000000000     
   4.6202889570577223E-003  0.11995214761599557        0.0000000000000000     
   4.6693475141105292E-003  0.12729894490431679        0.0000000000000000     
   4.6904184916642874E-003  0.13479095311514550        0.0000000000000000     
  -8.7737551598965346E-012  0.10566737136426355        0.0000000000000000     
  -1.1788141643376271E-011  0.11272459617902143        0.0000000000000000     
  -1.5387520684723155E-011  0.11992708419790464        0.0000000000000000     
  -1.9571891958676535E-011  0.12727483542091320        0.0000000000000000     
  -2.4341255139975759E-011  0.13476784984804702        0.0000000000000000     
   2.2297773805247608E-002  0.13513750211403092        0.0000000000000000     
   2.2794097498864692E-002  0.14276634230448865        0.0000000000000000     
   2.3245813337782164E-002  0.15055460626694264        0.0000000000000000     
   2.3652921322000021E-002  0.15850229400139293        0.0000000000000000     
   2.4015421451518255E-002  0.16660940550783937        0.0000000000000000     
   1.5839305406458719E-002  0.13497577924813742        0.0000000000000000     
   1.6068433340766731E-002  0.14260203345583000        0.0000000000000000     
   1.6223035142053546E-002  0.15036808645947980        0.0000000000000000     
   1.6303110810319165E-002  0.15827393825908678        0.0000000000000000     
   1.6308660345563587E-002  0.16631958885465095        0.0000000000000000     
   9.9701869685976142E-003  0.13486026291517561        0.0000000000000000     
   1.0027529033323442E-002  0.14248466999190951        0.0000000000000000     
   1.0007806847972148E-002  0.15023485802426806        0.0000000000000000     
   9.9110204125437348E-003  0.15811082701225124        0.0000000000000000     
   9.7371697270382043E-003  0.16611257695585901        0.0000000000000000     
   4.6904184916642874E-003  0.13479095311514550        0.0000000000000000     
   4.6713845765348257E-003  0.14241425191272719        0.0000000000000000     
   4.6001284555379765E-003  0.15015492096130748        0.0000000000000000     
   4.4766501286737379E-003  0.15801296026088624        0.0000000000000000     
   4.3009495959421100E-003  0.16598836981146362        0.0000000000000000     
  -2.4341255139975759E-011  0.13476784984804702        0.0000000000000000     
  -2.9599115910008966E-011  0.14239077921828300        0.0000000000000000     
  -3.5248976263876908E-011  0.15012827527059794        0.0000000000000000     
  -4.1290835713688606E-011  0.15798033800499184        0.0000000000000000     
  -4.7724694855755256E-011  0.16594696742146470        0.0000000000000000     
   0.0000000000000000        0.0000000000000000        0.0000000000000000     
   1.2834508846329418E-013   1.0759661551323360E-003   0.0000000000000000     
   2.7264659713949202E-013   2.5209539900240725E-003   0.0000000000000000     
   4.3290430918815903E-013   4.3349635046752094E-003   0.0000000000000000     
   6.0911865829016421E-013   6.5179946990857468E-003   0.0000000000000000     
   0.0000000000000000        0.0000000000000000        0.0000000000000000     
  -2.1277032171264194E-004   1.0782194328450509E-003   0.0000000000000000     
  -4.2655773097219167E-004   2.5260363926856576E-003   0.0000000000000000     
  -6.4136222777864884E-004   4.3434508795218204E-003   0.0000000000000000     
  -8.5718381213201395E-004   6.5304628933535377E-003   0.0000000000000000     
   0.0000000000000000        0.0000000000000000        0.0000000000000000     
  -4.2391547309694109E-004   1.0849792660446896E-003   0.0000000000000000     
  -8.5227710602991263E-004   2.5412836007804086E-003   0.0000000000000000     
  -1.2850848987989148E-003   4.3689130042071566E-003   0.0000000000000000     
  -1.7223388514039475E-003   6.5678674763249333E-003   0.0000000000000000     
   0.0000000000000000        0.0000000000000000        0.0000000000000000     
  -6.3343545402455223E-004   1.0962456547312523E-003   0.0000000000000000     
  -1.2771581249005166E-003   2.5666956143083250E-003   0.0000000000000000     
  -1.9311680126278931E-003   4.4113498787312182E-003   0.0000000000000000     
  -2.5954651172066818E-003   6.6302084479999326E-003   0.0000000000000000     
   0.0000000000000000        0.0000000000000000        0.0000000000000000     
  -8.4133026449547538E-004   1.1120185989047394E-003   0.0000000000000000     
  -1.7012007875840032E-003   2.6022724332694087E-003   0.0000000000000000     
  -2.5796115692655833E-003   4.4707615030940076E-003   0.0000000000000000     
  -3.4765626095402164E-003   6.7174858083785365E-003   0.0000000000000000     
   6.0911865829016421E-013   6.5179946990857468E-003   0.0000000000000000     
   7.9664541022955726E-013   9.0428529787573726E-003   0.0000000000000000     
   9.9084084578641984E-013   1.1882343749191771E-002   0.0000000000000000     
   1.1917047684491082E-012   1.5036467010388946E-002   0.0000000000000000     
   1.3992369546009242E-012   1.8505222762348894E-002   0.0000000000000000     
  -8.5718381213201395E-004   6.5304628933535377E-003   0.0000000000000000     
  -1.0749777489298582E-003   9.0592787688039758E-003   0.0000000000000000     
  -1.2956993030697535E-003   1.1902104840496303E-002   0.0000000000000000     
  -1.5193484745516994E-003   1.5058941108430516E-002   0.0000000000000000     
  -1.7459252633756962E-003   1.8529787572606614E-002   0.0000000000000000     
  -1.7223388514039475E-003   6.5678674763249333E-003   0.0000000000000000     
  -2.1639627497326112E-003   9.1085561391217613E-003   0.0000000000000000     
  -2.6098803796725076E-003   1.1961388114585660E-002   0.0000000000000000     
  -3.0600917412236341E-003   1.5126363402716635E-002   0.0000000000000000     
  -3.5145968343859939E-003   1.8603482003514683E-002   0.0000000000000000     
  -2.5954651172066818E-003   6.6302084479999326E-003   0.0000000000000000     
  -3.2669550016116134E-003   9.1906850897107237E-003   0.0000000000000000     
  -3.9425432288174196E-003   1.2060193571459845E-002   0.0000000000000000     
  -4.6222297988241009E-003   1.5238733893247303E-002   0.0000000000000000     
  -5.3060147116316550E-003   1.8726306055073097E-002   0.0000000000000000     
  -3.4765626095402164E-003   6.7174858083785365E-003   0.0000000000000000     
  -4.3839545045668638E-003   9.3056656205708650E-003   0.0000000000000000     
  -5.2936878505044915E-003   1.2198521211118859E-002   0.0000000000000000     
  -6.2057626473530974E-003   1.5396052580022522E-002   0.0000000000000000     
  -7.1201788951126832E-003   1.8898259727281857E-002   0.0000000000000000     
   1.3992369546009242E-012   1.8505222762348894E-002   0.0000000000000000     
   1.5995121351551622E-012   2.2258708649290873E-002   0.0000000000000000     
   1.7786031707763689E-012   2.6267022315434131E-002   0.0000000000000000     
   1.9365113015207790E-012   3.0530163760778679E-002   0.0000000000000000     
   2.0732354635150108E-012   3.5048132985324512E-002   0.0000000000000000     
  -1.7459252633756962E-003   1.8529787572606614E-002   0.0000000000000000     
  -1.9721020366811936E-003   2.2284958443698096E-002   0.0000000000000000     
  -2.1945511616076408E-003   2.6294767932378452E-002   0.0000000000000000     
  -2.4132726381550377E-003   3.0559216038647682E-002   0.0000000000000000     
  -2.6282664663233859E-003   3.5078302762505793E-002   0.0000000000000000     
  -3.5145968343859939E-003   1.8603482003514683E-002   0.0000000000000000     
  -3.9680130882282314E-003   2.2363707827002886E-002   0.0000000000000000     
  -4.4149579318189932E-003   2.6378004783204345E-002   0.0000000000000000     
  -4.8554313651582824E-003   3.0646372872119045E-002   0.0000000000000000     
  -5.2894333882460946E-003   3.5168812093746997E-002   0.0000000000000000     
  -5.3060147116316550E-003   1.8726306055073097E-002   0.0000000000000000     
  -5.9877331530416031E-003   2.2494956799205254E-002   0.0000000000000000     
  -6.6612203088554584E-003   2.6516732867911813E-002   0.0000000000000000     
  -7.3264761790732208E-003   3.0791634261192774E-002   0.0000000000000000     
  -7.9835007636948913E-003   3.5319660979048144E-002   0.0000000000000000     
  -7.1201788951126832E-003   1.8898259727281857E-002   0.0000000000000000     
  -8.0312622311213087E-003   2.2678705360305189E-002   0.0000000000000000     
  -8.9333382927170302E-003   2.6710952186500863E-002   0.0000000000000000     
  -9.8264070798998546E-003   3.0995000205868869E-002   0.0000000000000000     
  -1.0710468592669777E-002   3.5530849418409220E-002   0.0000000000000000     
   2.0732354635150108E-012   3.5048132985324512E-002   0.0000000000000000     
   2.1517450364896828E-012   3.9803582181513759E-002   0.0000000000000000     
   2.1350096170158483E-012   4.4779163541788534E-002   0.0000000000000000     
   2.0230263861678588E-012   4.9974877066148858E-002   0.0000000000000000     
   1.8157990302331006E-012   5.5390722754594703E-002   0.0000000000000000     
  -2.6282664663233859E-003   3.5078302762505793E-002   0.0000000000000000     
  -2.8326742156088210E-003   3.9834538199994288E-002   0.0000000000000000     
  -3.0196374555074780E-003   4.4810432447154686E-002   0.0000000000000000     
  -3.1891561860193621E-003   5.0005985503987015E-002   0.0000000000000000     
  -3.3412304071444672E-003   5.5421197370491240E-002   0.0000000000000000     
  -5.2894333882460946E-003   3.5168812093746997E-002   0.0000000000000000     
  -5.7073106843799556E-003   3.9927406254948707E-002   0.0000000000000000     
  -6.0994099368573904E-003   4.4904239162584673E-002   0.0000000000000000     
  -6.4657311456783910E-003   5.0099310816654925E-002   0.0000000000000000     
  -6.8062743108429670E-003   5.5512621217159441E-002   0.0000000000000000     
  -7.9835007636948913E-003   3.5319660979048144E-002   0.0000000000000000     
  -8.6239094041616615E-003   4.0082186346377016E-002   0.0000000000000000     
  -9.2393174419147187E-003   4.5060583688078505E-002   0.0000000000000000     
  -9.8297248769540664E-003   5.0254853004152604E-002   0.0000000000000000     
  -1.0395131709279698E-002   5.5664994294599306E-002   0.0000000000000000     
  -1.0710468592669777E-002   3.5530849418409220E-002   0.0000000000000000     
  -1.1582470374953937E-002   4.0298878474279216E-002   0.0000000000000000     
  -1.2439359970679471E-002   4.5279466023636146E-002   0.0000000000000000     
  -1.3281137379846380E-002   5.0472612066480037E-002   0.0000000000000000     
  -1.4107802602454663E-002   5.5878316602810861E-002   0.0000000000000000     
   1.8157990302331006E-012   5.5390722754594703E-002   0.0000000000000000     
   1.4479270647044240E-012   6.1015134261375406E-002   0.0000000000000000     
   8.5401374557217413E-013   6.6836545240740286E-002   0.0000000000000000     
   3.4058327447357428E-014   7.2854955692689308E-002   0.0000000000000000     
  -1.0119387966467386E-012   7.9070365617222513E-002   0.0000000000000000     
  -3.3412304071444672E-003   5.5421197370491240E-002   0.0000000000000000     
  -3.4845452452353606E-003   6.1044838668272046E-002   0.0000000000000000     
  -3.6277858266446053E-003   6.6865680018934087E-002   0.0000000000000000     
  -3.7709521513722001E-003   7.2883721422477385E-002   0.0000000000000000     
  -3.9140442194181462E-003   7.9098962878901932E-002   0.0000000000000000     
  -6.8062743108429670E-003   5.5512621217159441E-002   0.0000000000000000     
  -7.1324162453700957E-003   6.1133951887768455E-002   0.0000000000000000     
  -7.4555337622787543E-003   6.6953084352152192E-002   0.0000000000000000     
  -7.7756268615689498E-003   7.2970018610310675E-002   0.0000000000000000     
  -8.0926955432406751E-003   7.9184754662243895E-002   0.0000000000000000     
  -1.0395131709279698E-002   5.5664994294599306E-002   0.0000000000000000     
  -1.0943612998956272E-002   6.1282473919864647E-002   0.0000000000000000     
  -1.1483243806048433E-002   6.7098758240394601E-002   0.0000000000000000     
  -1.2014024130556184E-002   7.3113847256189204E-002   0.0000000000000000     
  -1.2535953972479525E-002   7.9327740967248400E-002   0.0000000000000000     
  -1.4107802602454663E-002   5.5878316602810861E-002   0.0000000000000000     
  -1.4918135505993895E-002   6.1490404764560629E-002   0.0000000000000000     
  -1.5710915957953646E-002   6.7302701683661315E-002   0.0000000000000000     
  -1.6486143958333914E-002   7.3315207360112933E-002   0.0000000000000000     
  -1.7243819507134696E-002   7.9527921793915476E-002   0.0000000000000000     
  -1.0119387966467386E-012   7.9070365617222513E-002   0.0000000000000000     
  -2.3663159105791198E-012   8.5468110722031546E-002   0.0000000000000000     
  -4.1114110813783578E-012   9.2033526714808064E-002   0.0000000000000000     
  -6.2472237127332575E-012   9.8766613595552055E-002   0.0000000000000000     
  -8.7737551598965346E-012  0.10566737136426355        0.0000000000000000     
  -3.9140442194181462E-003   7.9098962878901932E-002   0.0000000000000000     
  -4.0540957305292879E-003   8.5496545424164669E-002   0.0000000000000000     
  -4.1881403844524680E-003   9.2061610094222548E-002   0.0000000000000000     
  -4.3161781811876833E-003   9.8794156889075571E-002   0.0000000000000000     
  -4.4382091207349388E-003  0.10569418580872372        0.0000000000000000     
  -8.0926955432406751E-003   7.9184754662243895E-002   0.0000000000000000     
  -8.4017646482810043E-003   8.5581849528713200E-002   0.0000000000000000     
  -8.6978590176769958E-003   9.2145860230479965E-002   0.0000000000000000     
  -8.9809786514286529E-003   9.8876786767544203E-002   0.0000000000000000     
  -9.2511235495359775E-003  0.10577462913990587        0.0000000000000000     
  -1.2535953972479525E-002   7.9327740967248400E-002   0.0000000000000000     
  -1.3043006755621459E-002   8.5724023035677152E-002   0.0000000000000000     
  -1.3529155903784998E-002   9.2286277123580326E-002   0.0000000000000000     
  -1.3994401416970132E-002   9.9014503230957923E-002   0.0000000000000000     
  -1.4438743295176868E-002  0.10590870135780998        0.0000000000000000     
  -1.7243819507134696E-002   7.9527921793915476E-002   0.0000000000000000     
  -1.7977822052550663E-002   8.5923065945056526E-002   0.0000000000000000     
  -1.8682031042776468E-002   9.2482860773523634E-002   0.0000000000000000     
  -1.9356446477812119E-002   9.9207306279316815E-002   0.0000000000000000     
  -2.0001068357657616E-002  0.10609640246243607        0.0000000000000000     
  -8.7737551598965346E-012  0.10566737136426355        0.0000000000000000     
  -1.1788141643376271E-011  0.11272459617902143        0.0000000000000000     
  -1.5387520684723155E-011  0.11992708419790464        0.0000000000000000     
  -1.9571891958676535E-011  0.12727483542091320        0.0000000000000000     
  -2.4341255139975759E-011  0.13476784984804702        0.0000000000000000     
  -4.4382091207349388E-003  0.10569418580872372        0.0000000000000000     
  -4.5432428424773469E-003  0.11275056125180766        0.0000000000000000     
  -4.6202889857980198E-003  0.11995214761696796        0.0000000000000000     
  -4.6693475506969576E-003  0.12729894490420471        0.0000000000000000     
  -4.6904185371741619E-003  0.13479095311351780        0.0000000000000000     
  -9.2511235495359775E-003  0.10577462913990587        0.0000000000000000     
  -9.4938081631906947E-003  0.11282845646811926        0.0000000000000000     
  -9.6945469435845352E-003  0.12002733787273866        0.0000000000000000     
  -9.8533398907174954E-003  0.12737127335376403        0.0000000000000000     
  -9.9701870045895789E-003  0.13486026291119538        0.0000000000000000     
  -1.4438743295176868E-002  0.10590870135780998        0.0000000000000000     
  -1.4851695973928188E-002  0.11295828182795629        0.0000000000000000     
  -1.5222773888747062E-002  0.12015265496521665        0.0000000000000000     
  -1.5551977039633506E-002  0.12749182076959115        0.0000000000000000     
  -1.5839305426587506E-002  0.13497577924107970        0.0000000000000000     
  -2.0001068357657616E-002  0.10609640246243607        0.0000000000000000     
  -2.0616906274689824E-002  0.11314003733131871        0.0000000000000000     
  -2.1204969821285613E-002  0.12032809889440205        0.0000000000000000     
  -2.1765258997444983E-002  0.12766058715168607        0.0000000000000000     
  -2.2297773803167942E-002  0.13513750210317083        0.0000000000000000     
  -2.4341255139975759E-011  0.13476784984804702        0.0000000000000000     
  -2.9599115910008966E-011  0.14239077921828300        0.0000000000000000     
  -3.5248976263876908E-011  0.15012827527059794        0.0000000000000000     
  -4.1290835713688606E-011  0.15798033800499184        0.0000000000000000     
  -4.7724694855755256E-011  0.16594696742146470        0.0000000000000000     
  -4.6904185371741619E-003  0.13479095311351780        0.0000000000000000     
  -4.6713846318456181E-003  0.14241425190834545        0.0000000000000000     
  -4.6001285213273140E-003  0.15015492095212585        0.0000000000000000     
  -4.4766502056192486E-003  0.15801296024485892        0.0000000000000000     
  -4.3009496847214220E-003  0.16598836978654469        0.0000000000000000     
  -9.9701870045895789E-003  0.13486026291119538        0.0000000000000000     
  -1.0027529076971917E-002  0.14248466998268303        0.0000000000000000     
  -1.0007806899635648E-002  0.15023485800587735        0.0000000000000000     
  -9.9110204725807692E-003  0.15811082698077836        0.0000000000000000     
  -9.7371697958072816E-003  0.16611257690738601        0.0000000000000000     
  -1.5839305426587506E-002  0.13497577924107970        0.0000000000000000     
  -1.6068433364978013E-002  0.14260203344129568        0.0000000000000000     
  -1.6223035170173976E-002  0.15036808643185251        0.0000000000000000     
  -1.6303110842175398E-002  0.15827393821275018        0.0000000000000000     
  -1.6308660380982269E-002  0.16631958878398867        0.0000000000000000     
  -2.2297773803167942E-002  0.13513750210317083        0.0000000000000000     
  -2.2794097495863908E-002  0.14276634228418345        0.0000000000000000     
  -2.3245813332942306E-002  0.15055460623005135        0.0000000000000000     
  -2.3652921314403132E-002  0.15850229394077439        0.0000000000000000     
  -2.4015421440246393E-002  0.16660940541635261        0.0000000000000000     
   0.0000000000000000        0.0000000000000000        0.0000000000000000     
  -8.4133026449547538E-004   1.1120185989047394E-003   0.0000000000000000     
  -1.7012007875840032E-003   2.6022724332694087E-003   0.0000000000000000     
  -2.5796115692655833E-003   4.4707615030940076E-003   0.0000000000000000     
  -3.4765626095402164E-003   6.7174858083785365E-003   0.0000000000000000     
   0.0000000000000000        0.0000000000000000        0.0000000000000000     
  -1.0564288169277358E-003   1.1358257094127725E-003   0.0000000000000000     
  -2.1388447676445833E-003   2.6538063593604306E-003   0.0000000000000000     
  -3.2472478521505437E-003   4.5539419498429740E-003   0.0000000000000000     
  -4.3816380704456157E-003   6.8362324808604021E-003   0.0000000000000000     
   0.0000000000000000        0.0000000000000000        0.0000000000000000     
  -1.2875600237393580E-003   1.1711945971029740E-003   0.0000000000000000     
  -2.6045297386464677E-003   2.7270896942781634E-003   0.0000000000000000     
  -3.9509091447213294E-003   4.6676852915255697E-003   0.0000000000000000     
  -5.3266982419639432E-003   6.9929813888451918E-003   0.0000000000000000     
   0.0000000000000000        0.0000000000000000        0.0000000000000000     
  -1.5347238849303421E-003   1.2181252619753434E-003   0.0000000000000000     
  -3.0982557005896564E-003   2.8221224380226080E-003   0.0000000000000000     
  -4.6905954469779430E-003   4.8119915281417949E-003   0.0000000000000000     
  -6.3117431240952001E-003   7.1877325323329013E-003   0.0000000000000000     
   0.0000000000000000        0.0000000000000000        0.0000000000000000     
  -1.7979204005006883E-003   1.2766177040298816E-003   0.0000000000000000     
  -3.6200226534741494E-003   2.9389045905937644E-003   0.0000000000000000     
  -5.4663067589203820E-003   4.9868606596916477E-003   0.0000000000000000     
  -7.3367727168393874E-003   7.4204859113235324E-003   0.0000000000000000     
  -3.4765626095402164E-003   6.7174858083785365E-003   0.0000000000000000     
  -4.3839545045668638E-003   9.3056656205708650E-003   0.0000000000000000     
  -5.2936878505044915E-003   1.2198521211118859E-002   0.0000000000000000     
  -6.2057626473530974E-003   1.5396052580022522E-002   0.0000000000000000     
  -7.1201788951126832E-003   1.8898259727281857E-002   0.0000000000000000     
  -4.3816380704456157E-003   6.8362324808604021E-003   0.0000000000000000     
  -5.5294256720072989E-003   9.4593490728317759E-003   0.0000000000000000     
  -6.6780209063130921E-003   1.2381962846176155E-002   0.0000000000000000     
  -7.8274237733629952E-003   1.5604073800893535E-002   0.0000000000000000     
  -8.9776342731570126E-003   1.9125681936983920E-002   0.0000000000000000     
  -5.3266982419639432E-003   6.9929813888451918E-003   0.0000000000000000     
  -6.7178329173418509E-003   9.6575867876230563E-003   0.0000000000000000     
  -8.1102490578225921E-003   1.2616110289245188E-002   0.0000000000000000     
  -9.5039466634061660E-003   1.5868551893711592E-002   0.0000000000000000     
  -1.0898925734092579E-002   1.9414911601022260E-002   0.0000000000000000     
  -6.3117431240952001E-003   7.1877325323329013E-003   0.0000000000000000     
  -7.9491762405705206E-003   9.9003787649446975E-003   0.0000000000000000     
  -9.5903723050329900E-003   1.2900963540325959E-002   0.0000000000000000     
  -1.1235331317482613E-002   1.6189486858476682E-002   0.0000000000000000     
  -1.2884053277919381E-002   1.9765948719396863E-002   0.0000000000000000     
  -7.3367727168393874E-003   7.4204859113235324E-003   0.0000000000000000     
  -9.2234556416933063E-003   1.0187725004796708E-002   0.0000000000000000     
  -1.1118390647944287E-002   1.3236522599418470E-002   0.0000000000000000     
  -1.3021577735592324E-002   1.6566878695188816E-002   0.0000000000000000     
  -1.4933016904637424E-002   2.0178793292107745E-002   0.0000000000000000     
  -7.1201788951126832E-003   1.8898259727281857E-002   0.0000000000000000     
  -8.0312622311213087E-003   2.2678705360305189E-002   0.0000000000000000     
  -8.9333382927170302E-003   2.6710952186500863E-002   0.0000000000000000     
  -9.8264070798998546E-003   3.0995000205868869E-002   0.0000000000000000     
  -1.0710468592669777E-002   3.5530849418409220E-002   0.0000000000000000     
  -8.9776342731570126E-003   1.9125681936983920E-002   0.0000000000000000     
  -1.0122531145666252E-002   2.2921595067725193E-002   0.0000000000000000     
  -1.1255993130861834E-002   2.6966621006395235E-002   0.0000000000000000     
  -1.2378020228743753E-002   3.1260759752994055E-002   0.0000000000000000     
  -1.3488612439312013E-002   3.5804011307521637E-002   0.0000000000000000     
  -1.0898925734092579E-002   1.9414911601022260E-002   0.0000000000000000     
  -1.2285470719875341E-002   2.3230267478887772E-002   0.0000000000000000     
  -1.3653866070747978E-002   2.7289697595018692E-002   0.0000000000000000     
  -1.5004111786710485E-002   3.1593201949415034E-002   0.0000000000000000     
  -1.6336207867762867E-002   3.6140780542076797E-002   0.0000000000000000     
  -1.2884053277919381E-002   1.9765948719396863E-002   0.0000000000000000     
  -1.4520080953748578E-002   2.3604722593792912E-002   0.0000000000000000     
  -1.6126957112375467E-002   2.7680181952371239E-002   0.0000000000000000     
  -1.7704681753800054E-002   3.1992326795131830E-002   0.0000000000000000     
  -1.9253254878022333E-002   3.6541157122074695E-002   0.0000000000000000     
  -1.4933016904637424E-002   2.0178793292107745E-002   0.0000000000000000     
  -1.6826361847285962E-002   2.4044960412440634E-002   0.0000000000000000     
  -1.8675266255744304E-002   2.8138074078452865E-002   0.0000000000000000     
  -2.0479730130012454E-002   3.2458134290144429E-002   0.0000000000000000     
  -2.2239753470090416E-002   3.7005141047515337E-002   0.0000000000000000     
  -1.0710468592669777E-002   3.5530849418409220E-002   0.0000000000000000     
  -1.1582470374953937E-002   4.0298878474279216E-002   0.0000000000000000     
  -1.2439359970679471E-002   4.5279466023636146E-002   0.0000000000000000     
  -1.3281137379846380E-002   5.0472612066480037E-002   0.0000000000000000     
  -1.4107802602454663E-002   5.5878316602810861E-002   0.0000000000000000     
  -1.3488612439312013E-002   3.5804011307521637E-002   0.0000000000000000     
  -1.4590400126906381E-002   4.0576416777010064E-002   0.0000000000000000     
  -1.5686013655866627E-002   4.5558017268491416E-002   0.0000000000000000     
  -1.6775453026192745E-002   5.0748812781965698E-002   0.0000000000000000     
  -1.7858718237884742E-002   5.6148803317432897E-002   0.0000000000000000     
  -1.6336207867762867E-002   3.6140780542076797E-002   0.0000000000000000     
  -1.7655105190168600E-002   4.0913735392924359E-002   0.0000000000000000     
  -1.8965754630191164E-002   4.5893368521878114E-002   0.0000000000000000     
  -2.0268156187830566E-002   5.1079679928938075E-002   0.0000000000000000     
  -2.1562309863086802E-002   5.6472669614104236E-002   0.0000000000000000     
  -1.9253254878022333E-002   3.6541157122074695E-002   0.0000000000000000     
  -2.0776585564740584E-002   4.1310834322022080E-002   0.0000000000000000     
  -2.2278582893653098E-002   4.6285519783796233E-002   0.0000000000000000     
  -2.3759246864759848E-002   5.1465213507397162E-002   0.0000000000000000     
  -2.5218577478060850E-002   5.6849915492824872E-002   0.0000000000000000     
  -2.2239753470090416E-002   3.7005141047515337E-002   0.0000000000000000     
  -2.3954841250622347E-002   4.1767713564303234E-002   0.0000000000000000     
  -2.5624498446252402E-002   4.6734471054245774E-002   0.0000000000000000     
  -2.7248725056980581E-002   5.1905413517342958E-002   0.0000000000000000     
  -2.8827521082806888E-002   5.7280540953594805E-002   0.0000000000000000     
  -1.4107802602454663E-002   5.5878316602810861E-002   0.0000000000000000     
  -1.4918135505993895E-002   6.1490404764560629E-002   0.0000000000000000     
  -1.5710915957953646E-002   6.7302701683661315E-002   0.0000000000000000     
  -1.6486143958333914E-002   7.3315207360112933E-002   0.0000000000000000     
  -1.7243819507134696E-002   7.9527921793915476E-002   0.0000000000000000     
  -1.7858718237884742E-002   5.6148803317432897E-002   0.0000000000000000     
  -1.8925791292498852E-002   6.1753969923036577E-002   0.0000000000000000     
  -1.9966654191591326E-002   6.7560293646920261E-002   0.0000000000000000     
  -2.0981306935162154E-002   7.3567774489083956E-002   0.0000000000000000     
  -2.1969749523211346E-002   7.9776412449527670E-002   0.0000000000000000     
  -2.1562309863086802E-002   5.6472669614104236E-002   0.0000000000000000     
  -2.2836387884487028E-002   6.2069394896472646E-002   0.0000000000000000     
  -2.4078562480558410E-002   6.7866913095139328E-002   0.0000000000000000     
  -2.5288833651300947E-002   7.3865224210104316E-002   0.0000000000000000     
  -2.6467201396714629E-002   8.0064328241367583E-002   0.0000000000000000     
  -2.5218577478060850E-002   5.6849915492824872E-002   0.0000000000000000     
  -2.6649925281958430E-002   6.2436679684868830E-002   0.0000000000000000     
  -2.8046640824854911E-002   6.8222560028318543E-002   0.0000000000000000     
  -2.9408724106750279E-002   7.4207556523173998E-002   0.0000000000000000     
  -3.0736175127644556E-002   8.0391669169435187E-002   0.0000000000000000     
  -2.8827521082806888E-002   5.7280540953594805E-002   0.0000000000000000     
  -3.0366403484913054E-002   6.2855824288225143E-002   0.0000000000000000     
  -3.1870889224480808E-002   6.8627234446457880E-002   0.0000000000000000     
  -3.3340978301510164E-002   7.4594771428293002E-002   0.0000000000000000     
  -3.4776670716001115E-002   8.0758435233730497E-002   0.0000000000000000     
  -1.7243819507134696E-002   7.9527921793915476E-002   0.0000000000000000     
  -1.7977822052550663E-002   8.5923065945056526E-002   0.0000000000000000     
  -1.8682031042776468E-002   9.2482860773523634E-002   0.0000000000000000     
  -1.9356446477812119E-002   9.9207306279316815E-002   0.0000000000000000     
  -2.0001068357657616E-002  0.10609640246243607        0.0000000000000000     
  -2.1969749523211346E-002   7.9776412449527670E-002   0.0000000000000000     
  -2.2925584360329435E-002   8.6167325504474118E-002   0.0000000000000000     
  -2.3842413851106959E-002   9.2721631630145976E-002   0.0000000000000000     
  -2.4720237995543928E-002   9.9439330826543271E-002   0.0000000000000000     
  -2.5559056793640331E-002  0.10632042309366599        0.0000000000000000     
  -2.6467201396714629E-002   8.0064328241367583E-002   0.0000000000000000     
  -2.7605667500218607E-002   8.6445148961552767E-002   0.0000000000000000     
  -2.8696233745232020E-002   9.2988610143283509E-002   0.0000000000000000     
  -2.9738900131754863E-002   9.9694711786559767E-002   0.0000000000000000     
  -3.0733666659787134E-002  0.10656345389138158        0.0000000000000000     
  -3.0736175127644556E-002   8.0391669169435187E-002   0.0000000000000000     
  -3.2018071472218190E-002   8.6756536316292474E-002   0.0000000000000000     
  -3.3243490725151641E-002   9.3283796312936193E-002   0.0000000000000000     
  -3.4412432886444924E-002   9.9973449159366332E-002   0.0000000000000000     
  -3.5524897956098027E-002  0.10682549485558289        0.0000000000000000     
  -3.4776670716001115E-002   8.0758435233730497E-002   0.0000000000000000     
  -3.6162796276328166E-002   8.7101487568693223E-002   0.0000000000000000     
  -3.7484184790865842E-002   9.3607190139104055E-002   0.0000000000000000     
  -3.8740836259614116E-002  0.10027554294496292        0.0000000000000000     
  -3.9932750682573015E-002  0.10710654598626987        0.0000000000000000     
  -2.0001068357657616E-002  0.10609640246243607        0.0000000000000000     
  -2.0616906274689824E-002  0.11314003733131871        0.0000000000000000     
  -2.1204969821285613E-002  0.12032809889440205        0.0000000000000000     
  -2.1765258997444983E-002  0.12766058715168607        0.0000000000000000     
  -2.2297773803167942E-002  0.13513750210317083        0.0000000000000000     
  -2.5559056793640331E-002  0.10632042309366599        0.0000000000000000     
  -2.6371256131373502E-002  0.11335500002619274        0.0000000000000000     
  -2.7169221894720777E-002  0.12053315321880213        0.0000000000000000     
  -2.7952954083682147E-002  0.12785488267149414        0.0000000000000000     
  -2.8722452698257624E-002  0.13532018838426885        0.0000000000000000     
  -3.0733666659787134E-002  0.10656345389138158        0.0000000000000000     
  -3.1696562609877139E-002  0.11358444696056456        0.0000000000000000     
  -3.2643617262573157E-002  0.12074730149692427        0.0000000000000000     
  -3.3574830617875209E-002  0.12805201750046072        0.0000000000000000     
  -3.4490202675783288E-002  0.13549859497117395        0.0000000000000000     
  -3.5524897956098027E-002  0.10682549485558289        0.0000000000000000     
  -3.6592825710200720E-002  0.11382837813443415        0.0000000000000000     
  -3.7628155924842782E-002  0.12097054372876848        0.0000000000000000     
  -3.8630888600024171E-002  0.12825199163858575        0.0000000000000000     
  -3.9601023735744915E-002  0.13567272186388613        0.0000000000000000     
  -3.9932750682573015E-002  0.10710654598626987        0.0000000000000000     
  -4.1060045432344268E-002  0.11408679354780157        0.0000000000000000     
  -4.2122837881529610E-002  0.12120287991433473        0.0000000000000000     
  -4.3121128030129026E-002  0.12845480508586932        0.0000000000000000     
  -4.4054915878142531E-002  0.13584256906240538        0.0000000000000000     
  -2.2297773803167942E-002  0.13513750210317083        0.0000000000000000     
  -2.2794097495863908E-002  0.14276634228418345        0.0000000000000000     
  -2.3245813332942306E-002  0.15055460623005135        0.0000000000000000     
  -2.3652921314403132E-002  0.15850229394077439        0.0000000000000000     
  -2.4015421440246393E-002  0.16660940541635261        0.0000000000000000     
  -2.8722452698257624E-002  0.13532018838426885        0.0000000000000000     
  -2.9476369497387953E-002  0.14294301814048660        0.0000000000000000     
  -3.0213356240013891E-002  0.15073731972350782        0.0000000000000000     
  -3.0933412926135440E-002  0.15870309313333250        0.0000000000000000     
  -3.1636539555752595E-002  0.16684033836996071        0.0000000000000000     
  -3.4490202675783288E-002  0.13549859497117395        0.0000000000000000     
  -3.5387097397308512E-002  0.14309748263934524        0.0000000000000000     
  -3.6262878743461999E-002  0.15085912923525602        0.0000000000000000     
  -3.7117546714243770E-002  0.15878353475890619        0.0000000000000000     
  -3.7951101309653824E-002  0.16687069921029574        0.0000000000000000     
  -3.9601023735744915E-002  0.13567272186388613        0.0000000000000000     
  -4.0526281195625555E-002  0.14322973578075948        0.0000000000000000     
  -4.1394380843286636E-002  0.15092003476529592        0.0000000000000000     
  -4.2205322678728140E-002  0.15874361881749530        0.0000000000000000     
  -4.2959106701950078E-002  0.16670048793735778        0.0000000000000000     
  -4.4054915878142531E-002  0.13584256906240538        0.0000000000000000     
  -4.4893920892339130E-002  0.14333977756472929        0.0000000000000000     
  -4.5607862539487801E-002  0.15092003631362746        0.0000000000000000     
  -4.6196740819588536E-002  0.15858334530909998        0.0000000000000000     
  -4.6660555732641364E-002  0.16632970455114671        0.0000000000000000     
   0.0000000000000000        0.0000000000000000        0.0000000000000000     
  -1.7979204005006883E-003   1.2766177040298816E-003   0.0000000000000000     
  -3.6200226534741494E-003   2.9389045905937644E-003   0.0000000000000000     
  -5.4663067589203820E-003   4.9868606596916477E-003   0.0000000000000000     
  -7.3367727168393874E-003   7.4204859113235324E-003   0.0000000000000000     
   0.0000000000000000        0.0000000000000000        0.0000000000000000     
  -2.0689968632024748E-003   1.3539567275512011E-003   0.0000000000000000     
  -4.1626975019342172E-003   3.0922327645349036E-003   0.0000000000000000     
  -6.2811019161952255E-003   5.2148281109511072E-003   0.0000000000000000     
  -8.4242101059854996E-003   7.7217427667998122E-003   0.0000000000000000     
   0.0000000000000000        0.0000000000000000        0.0000000000000000     
  -2.3398005657877799E-003   1.4574271368239149E-003   0.0000000000000000     
  -4.7191471506041307E-003   3.2969035723892982E-003   0.0000000000000000     
  -7.1380397544490498E-003   5.5184293066961486E-003   0.0000000000000000     
  -9.5964783773225381E-003   8.1220043397444673E-003   0.0000000000000000     
   0.0000000000000000        0.0000000000000000        0.0000000000000000     
  -2.6103315082566044E-003   1.5870289318480229E-003   0.0000000000000000     
  -5.2893715994838889E-003   3.5529170141569474E-003   0.0000000000000000     
  -8.0371202736818550E-003   5.8976642469267745E-003   0.0000000000000000     
  -1.0853577530850502E-002   8.6212706301575029E-003   0.0000000000000000     
   0.0000000000000000        0.0000000000000000        0.0000000000000000     
  -2.8805896906089470E-003   1.7427621126235252E-003   0.0000000000000000     
  -5.8733708485734946E-003   3.8602730898378520E-003   0.0000000000000000     
  -8.9783434738936411E-003   6.3525329316429799E-003   0.0000000000000000     
  -1.2195507566569390E-002   9.2195416380389094E-003   0.0000000000000000     
  -7.3367727168393874E-003   7.4204859113235324E-003   0.0000000000000000     
  -9.2234556416933063E-003   1.0187725004796708E-002   0.0000000000000000     
  -1.1118390647944287E-002   1.3236522599418470E-002   0.0000000000000000     
  -1.3021577735592324E-002   1.6566878695188816E-002   0.0000000000000000     
  -1.4933016904637424E-002   2.0178793292107745E-002   0.0000000000000000     
  -8.4242101059854996E-003   7.7217427667998122E-003   0.0000000000000000     
  -1.0582996597836200E-002   1.0555646870572260E-002   0.0000000000000000     
  -1.2748435918278478E-002   1.3659210560759697E-002   0.0000000000000000     
  -1.4920528067312340E-002   1.7032433837362117E-002   0.0000000000000000     
  -1.7099273044937784E-002   2.0675316700379528E-002   0.0000000000000000     
  -9.5964783773225381E-003   8.1220043397444673E-003   0.0000000000000000     
  -1.2070124586125181E-002   1.1040165725664531E-002   0.0000000000000000     
  -1.4534639947757560E-002   1.4205450518586618E-002   0.0000000000000000     
  -1.6990024462219682E-002   1.7617858718510723E-002   0.0000000000000000     
  -1.9436278129511538E-002   2.1277390325436848E-002   0.0000000000000000     
  -1.0853577530850502E-002   8.6212706301575029E-003   0.0000000000000000     
  -1.3684839606560252E-002   1.1641281570073521E-002   0.0000000000000000     
  -1.6477002736381537E-002   1.4875242472899229E-002   0.0000000000000000     
  -1.9230066920314346E-002   1.8323153338634626E-002   0.0000000000000000     
  -2.1944032158358686E-002   2.1985014167279705E-002   0.0000000000000000     
  -1.2195507566569390E-002   9.2195416380389094E-003   0.0000000000000000     
  -1.5427141659141417E-002   1.2358994403799232E-002   0.0000000000000000     
  -1.8575524284150394E-002   1.5668586423697534E-002   0.0000000000000000     
  -2.1640655441596331E-002   1.9148317697733824E-002   0.0000000000000000     
  -2.4622535131479224E-002   2.2798188225908095E-002   0.0000000000000000     
  -1.4933016904637424E-002   2.0178793292107745E-002   0.0000000000000000     
  -1.6826361847285962E-002   2.4044960412440634E-002   0.0000000000000000     
  -1.8675266255744304E-002   2.8138074078452865E-002   0.0000000000000000     
  -2.0479730130012454E-002   3.2458134290144429E-002   0.0000000000000000     
  -2.2239753470090416E-002   3.7005141047515337E-002   0.0000000000000000     
  -1.7099273044937784E-002   2.0675316700379528E-002   0.0000000000000000     
  -1.9251460073759115E-002   2.4562126618489461E-002   0.0000000000000000     
  -2.1343878376380642E-002   2.8667131060369472E-002   0.0000000000000000     
  -2.3376527952802366E-002   3.2990330026019546E-002   0.0000000000000000     
  -2.5349408803024283E-002   3.7531723515439694E-002   0.0000000000000000     
  -1.9436278129511538E-002   2.1277390325436848E-002   0.0000000000000000     
  -2.1842522306439679E-002   2.5167366895597940E-002   0.0000000000000000     
  -2.4177878349810656E-002   2.9271109985226949E-002   0.0000000000000000     
  -2.6442346259624459E-002   3.3588619594323868E-002   0.0000000000000000     
  -2.8635926035881096E-002   3.8119895722888708E-002   0.0000000000000000     
  -2.1944032158358686E-002   2.1985014167279705E-002   0.0000000000000000     
  -2.4599548545327650E-002   2.5860681243766063E-002   0.0000000000000000     
  -2.7177266176034328E-002   2.9950010853025302E-002   0.0000000000000000     
  -2.9677185050478741E-002   3.4253002995057416E-002   0.0000000000000000     
  -3.2099305168660872E-002   3.8769657669862415E-002   0.0000000000000000     
  -2.4622535131479224E-002   2.2798188225908095E-002   0.0000000000000000     
  -2.7522538790423025E-002   2.6642069662993834E-002   0.0000000000000000     
  -3.0342041855051682E-002   3.0703833663764529E-002   0.0000000000000000     
  -3.3081044325365204E-002   3.4983480228220183E-002   0.0000000000000000     
  -3.5739546201363576E-002   3.9481009356360793E-002   0.0000000000000000     
  -2.2239753470090416E-002   3.7005141047515337E-002   0.0000000000000000     
  -2.3954841250622347E-002   4.1767713564303234E-002   0.0000000000000000     
  -2.5624498446252402E-002   4.6734471054245774E-002   0.0000000000000000     
  -2.7248725056980581E-002   5.1905413517342958E-002   0.0000000000000000     
  -2.8827521082806888E-002   5.7280540953594805E-002   0.0000000000000000     
  -2.5349408803024283E-002   3.7531723515439694E-002   0.0000000000000000     
  -2.7257465779485440E-002   4.2284249587336238E-002   0.0000000000000000     
  -2.9095643734624865E-002   4.7240846300415550E-002   0.0000000000000000     
  -3.0863942668442571E-002   5.2401513654677608E-002   0.0000000000000000     
  -3.2562362580938552E-002   5.7766251650122433E-002   0.0000000000000000     
  -2.8635926035881096E-002   3.8119895722888708E-002   0.0000000000000000     
  -3.0752052683001418E-002   4.2860318858689531E-002   0.0000000000000000     
  -3.2784161205406247E-002   4.7805269489494373E-002   0.0000000000000000     
  -3.4732251603095600E-002   5.2954747615303256E-002   0.0000000000000000     
  -3.6596323876069481E-002   5.8308753236116159E-002   0.0000000000000000     
  -3.2099305168660872E-002   3.8769657669862415E-002   0.0000000000000000     
  -3.4438601961170288E-002   4.3495921378363084E-002   0.0000000000000000     
  -3.6690050858596550E-002   4.8427740621482245E-002   0.0000000000000000     
  -3.8853651860939677E-002   5.3565115399219876E-002   0.0000000000000000     
  -4.0929404968199662E-002   5.8908045711576006E-002   0.0000000000000000     
  -3.5739546201363576E-002   3.9481009356360793E-002   0.0000000000000000     
  -3.8317113613992031E-002   4.4191057146356925E-002   0.0000000000000000     
  -4.0813312694195768E-002   4.9108259696379157E-002   0.0000000000000000     
  -4.3228143441974794E-002   5.4232617006427494E-002   0.0000000000000000     
  -4.5561605857329109E-002   5.9564129076501944E-002   0.0000000000000000     
  -2.8827521082806888E-002   5.7280540953594805E-002   0.0000000000000000     
  -3.0366403484913054E-002   6.2855824288225143E-002   0.0000000000000000     
  -3.1870889224480808E-002   6.8627234446457880E-002   0.0000000000000000     
  -3.3340978301510164E-002   7.4594771428293002E-002   0.0000000000000000     
  -3.4776670716001115E-002   8.0758435233730497E-002   0.0000000000000000     
  -3.2562362580938552E-002   5.7766251650122433E-002   0.0000000000000000     
  -3.4208719536315296E-002   6.3329294340318712E-002   0.0000000000000000     
  -3.5820829598775292E-002   6.9084875778835181E-002   0.0000000000000000     
  -3.7398692768318559E-002   7.5032995965671812E-002   0.0000000000000000     
  -3.8942309044945070E-002   8.1173654900828604E-002   0.0000000000000000     
  -3.6596323876069481E-002   5.8308753236116159E-002   0.0000000000000000     
  -3.8399770479129555E-002   6.3859555474926638E-002   0.0000000000000000     
  -4.0165983867077537E-002   6.9599423454728207E-002   0.0000000000000000     
  -4.1894964039913420E-002   7.5528357175520838E-002   0.0000000000000000     
  -4.3586710997637210E-002   8.1646356637304573E-002   0.0000000000000000     
  -4.0929404968199662E-002   5.8908045711576006E-002   0.0000000000000000     
  -4.2939556313355831E-002   6.4446607692048921E-002   0.0000000000000000     
  -4.4906352029387538E-002   7.0170877474136958E-002   0.0000000000000000     
  -4.6829792116294740E-002   7.6080855057840110E-002   0.0000000000000000     
  -4.8709876574077479E-002   8.2176540443158377E-002   0.0000000000000000     
  -4.5561605857329109E-002   5.9564129076501944E-002   0.0000000000000000     
  -4.7828077038994131E-002   6.5090450991685575E-002   0.0000000000000000     
  -5.0041934085705272E-002   7.0799237837061463E-002   0.0000000000000000     
  -5.2203176997462540E-002   7.6690489612629628E-002   0.0000000000000000     
  -5.4311805774265934E-002   8.2764206318390057E-002   0.0000000000000000     
  -3.4776670716001115E-002   8.0758435233730497E-002   0.0000000000000000     
  -3.6162796276328166E-002   8.7101487568693223E-002   0.0000000000000000     
  -3.7484184790865842E-002   9.3607190139104055E-002   0.0000000000000000     
  -3.8740836259614116E-002  0.10027554294496292        0.0000000000000000     
  -3.9932750682573015E-002  0.10710654598626987        0.0000000000000000     
  -3.8942309044945070E-002   8.1173654900828604E-002   0.0000000000000000     
  -4.0432580985612067E-002   8.7492125317677805E-002   0.0000000000000000     
  -4.1850411147276785E-002   9.3973679949591632E-002   0.0000000000000000     
  -4.3195799529939204E-002  0.10061831879657007        0.0000000000000000     
  -4.4468746133599329E-002  0.10742604185861312        0.0000000000000000     
  -4.3586710997637210E-002   8.1646356637304573E-002   0.0000000000000000     
  -4.5220164673133438E-002   8.7940572162168953E-002   0.0000000000000000     
  -4.6774264999286684E-002   9.4398154072203519E-002   0.0000000000000000     
  -4.8249011976096955E-002  0.10101910236740830        0.0000000000000000     
  -4.9644405603564222E-002  0.10780341704778329        0.0000000000000000     
  -4.8709876574077479E-002   8.2176540443158377E-002   0.0000000000000000     
  -5.0525547338892252E-002   8.8446828102166614E-002   0.0000000000000000     
  -5.2255746346895539E-002   9.4880612506939702E-002   0.0000000000000000     
  -5.3900473598087341E-002  0.10147789365747759        0.0000000000000000     
  -5.5459729092467672E-002  0.10823867155378032        0.0000000000000000     
  -5.4311805774265934E-002   8.2764206318390057E-002   0.0000000000000000     
  -5.6348728982888514E-002   8.9010893137670855E-002   0.0000000000000000     
  -5.8294855190103335E-002   9.5421055253800152E-002   0.0000000000000000     
  -6.0150184395910397E-002  0.10199469266677792        0.0000000000000000     
  -6.1914716600309692E-002  0.10873180537660422        0.0000000000000000     
  -3.9932750682573015E-002  0.10710654598626987        0.0000000000000000     
  -4.1060045432344268E-002  0.11408679354780157        0.0000000000000000     
  -4.2122837881529610E-002  0.12120287991433473        0.0000000000000000     
  -4.3121128030129026E-002  0.12845480508586932        0.0000000000000000     
  -4.4054915878142531E-002  0.13584256906240538        0.0000000000000000     
  -4.4468746133599329E-002  0.10742604185861312        0.0000000000000000     
  -4.5657234354675107E-002  0.11438196687433524        0.0000000000000000     
  -4.6749247589584486E-002  0.12147121158235082        0.0000000000000000     
  -4.7744785838327447E-002  0.12869377598265985        0.0000000000000000     
  -4.8643849100904010E-002  0.13604966007526242        0.0000000000000000     
  -4.9644405603564222E-002  0.10780341704778329        0.0000000000000000     
  -5.0943405055560616E-002  0.11473617178770362        0.0000000000000000     
  -5.2128969505958245E-002  0.12180244026154452        0.0000000000000000     
  -5.3201098954757116E-002  0.12900222246930598        0.0000000000000000     
  -5.4159793401957215E-002  0.13633551841098793        0.0000000000000000     
  -5.5459729092467672E-002  0.10823867155378032        0.0000000000000000     
  -5.6918557535000761E-002  0.11514940828790678        0.0000000000000000     
  -5.8262003630650885E-002  0.12219656595191589        0.0000000000000000     
  -5.9490067379418012E-002  0.12938014454580762        0.0000000000000000     
  -6.0602748781302153E-002  0.13670014406958203        0.0000000000000000     
  -6.1914716600309692E-002  0.10873180537660422        0.0000000000000000     
  -6.3582691792995583E-002  0.11562167637494464        0.0000000000000000     
  -6.5148349963662408E-002  0.12265358865346483        0.0000000000000000     
  -6.6611691112310148E-002  0.12982754221216480        0.0000000000000000     
  -6.7972715238938830E-002  0.13714353705104457        0.0000000000000000     
  -4.4054915878142531E-002  0.13584256906240538        0.0000000000000000     
  -4.4893920892339130E-002  0.14333977756472929        0.0000000000000000     
  -4.5607862539487801E-002  0.15092003631362746        0.0000000000000000     
  -4.6196740819588536E-002  0.15858334530909998        0.0000000000000000     
  -4.6660555732641364E-002  0.16632970455114671        0.0000000000000000     
  -4.8643849100904010E-002  0.13604966007526242        0.0000000000000000     
  -4.9400498308616363E-002  0.14349094513697727        0.0000000000000000     
  -4.9968794392766719E-002  0.15096971244462323        0.0000000000000000     
  -5.0348737353355072E-002  0.15848596199820034        0.0000000000000000     
  -5.0540327190381436E-002  0.16603969379770858        0.0000000000000000     
  -5.4159793401957215E-002  0.13633551841098793        0.0000000000000000     
  -5.4956495265624433E-002  0.14374657564322599        0.0000000000000000     
  -5.5542646963824639E-002  0.15117964172265555        0.0000000000000000     
  -5.5918248496557847E-002  0.15863471664927667        0.0000000000000000     
  -5.6083299863824050E-002  0.16611180042308935        0.0000000000000000     
  -6.0602748781302153E-002  0.13670014406958203        0.0000000000000000     
  -6.1561911763363321E-002  0.14410666908347550        0.0000000000000000     
  -6.2329420252661569E-002  0.15154982414772447        0.0000000000000000     
  -6.2905274249196869E-002  0.15902960926232895        0.0000000000000000     
  -6.3289473752969214E-002  0.16654602442728900        0.0000000000000000     
  -6.7972715238938830E-002  0.13714353705104457        0.0000000000000000     
  -6.9216747801833053E-002  0.14457122545772577        0.0000000000000000     
  -7.0329114259277486E-002  0.15208025971982994        0.0000000000000000     
  -7.1309814611272115E-002  0.15967063983735724        0.0000000000000000     
  -7.2158848857816926E-002  0.16734236581030754        0.0000000000000000     
   0.0000000000000000        0.0000000000000000        0.0000000000000000     
  -2.8805896906089470E-003   1.7427621126235252E-003   0.0000000000000000     
  -5.8733708485734946E-003   3.8602730898378520E-003   0.0000000000000000     
  -8.9783434738936411E-003   6.3525329316429799E-003   0.0000000000000000     
  -1.2195507566569390E-002   9.2195416380389094E-003   0.0000000000000000     
   0.0000000000000000        0.0000000000000000        0.0000000000000000     
  -3.2840466955124251E-003   1.9971335325165368E-003   0.0000000000000000     
  -6.6784552229939434E-003   4.3261426642568638E-003   0.0000000000000000     
  -1.0183225582444557E-002   6.9870273952209782E-003   0.0000000000000000     
  -1.3798357773864263E-002   9.9797877254088844E-003   0.0000000000000000     
   0.0000000000000000        0.0000000000000000        0.0000000000000000     
  -3.9541741056346542E-003   2.4226500448931735E-003   0.0000000000000000     
  -7.9119350478662337E-003   5.0576966022388339E-003   0.0000000000000000     
  -1.1873282826694741E-002   7.9051396720369801E-003   0.0000000000000000     
  -1.5838217442120175E-002   1.0964979254287615E-002   0.0000000000000000     
   0.0000000000000000        0.0000000000000000        0.0000000000000000     
  -4.8909719209756352E-003   3.0193116497534344E-003   0.0000000000000000     
  -9.5738103231903706E-003   6.0549349037837628E-003   0.0000000000000000     
  -1.4048515206644201E-002   9.1068697620909841E-003   0.0000000000000000     
  -1.8315086571337135E-002   1.2175116224675099E-002   0.0000000000000000     
   0.0000000000000000        0.0000000000000000        0.0000000000000000     
  -6.0944401415353655E-003   3.7871183470973195E-003   0.0000000000000000     
  -1.1664081048966345E-002   7.3178575688916496E-003   0.0000000000000000     
  -1.6708922722292935E-002   1.0592217665382989E-002   0.0000000000000000     
  -2.1228965161515137E-002   1.3610198636571341E-002   0.0000000000000000     
  -1.2195507566569390E-002   9.2195416380389094E-003   0.0000000000000000     
  -1.5427141659141417E-002   1.2358994403799232E-002   0.0000000000000000     
  -1.8575524284150394E-002   1.5668586423697534E-002   0.0000000000000000     
  -2.1640655441596331E-002   1.9148317697733824E-002   0.0000000000000000     
  -2.4622535131479224E-002   2.2798188225908095E-002   0.0000000000000000     
  -1.3798357773864263E-002   9.9797877254088844E-003   0.0000000000000000     
  -1.7407316112326550E-002   1.3206109851619017E-002   0.0000000000000000     
  -2.0893564912904904E-002   1.6567679970649812E-002   0.0000000000000000     
  -2.4257104175599335E-002   2.0064498082501284E-002   0.0000000000000000     
  -2.7497933900409839E-002   2.3696564187173415E-002   0.0000000000000000     
  -1.5838217442120175E-002   1.0964979254287615E-002   0.0000000000000000     
  -1.9735648334573544E-002   1.4195433538310235E-002   0.0000000000000000     
  -2.3494484944485829E-002   1.7554720713424350E-002   0.0000000000000000     
  -2.7114727271857049E-002   2.1042840779629958E-002   0.0000000000000000     
  -3.0596375316687196E-002   2.4659793736927060E-002   0.0000000000000000     
  -1.8315086571337135E-002   1.2175116224675099E-002   0.0000000000000000     
  -2.2412138325882385E-002   1.5326965463872891E-002   0.0000000000000000     
  -2.6378284378893158E-002   1.8629708652021140E-002   0.0000000000000000     
  -3.0213524730369468E-002   2.2083345789119847E-002   0.0000000000000000     
  -3.3917859380311305E-002   2.5687876875169012E-002   0.0000000000000000     
  -2.1228965161515137E-002   1.3610198636571341E-002   0.0000000000000000     
  -2.5436786086253084E-002   1.6600705628306980E-002   0.0000000000000000     
  -2.9544963216126902E-002   1.9792643786440182E-002   0.0000000000000000     
  -3.3553496551136597E-002   2.3186013110970953E-002   0.0000000000000000     
  -3.7462386091282163E-002   2.6780813601899288E-002   0.0000000000000000     
  -2.4622535131479224E-002   2.2798188225908095E-002   0.0000000000000000     
  -2.7522538790423025E-002   2.6642069662993834E-002   0.0000000000000000     
  -3.0342041855051682E-002   3.0703833663764529E-002   0.0000000000000000     
  -3.3081044325365204E-002   3.4983480228220183E-002   0.0000000000000000     
  -3.5739546201363576E-002   3.9481009356360793E-002   0.0000000000000000     
  -2.7497933900409839E-002   2.3696564187173415E-002   0.0000000000000000     
  -3.0636954123868066E-002   2.7507003652266094E-002   0.0000000000000000     
  -3.3695064882505676E-002   3.1538941845379198E-002   0.0000000000000000     
  -3.6672266176322688E-002   3.5792378766512714E-002   0.0000000000000000     
  -3.9568558005319068E-002   4.0267314415666659E-002   0.0000000000000000     
  -3.0596375316687196E-002   2.4659793736927060E-002   0.0000000000000000     
  -3.3968255627805026E-002   2.8450954710567671E-002   0.0000000000000000     
  -3.7259194754039292E-002   3.2461698825803839E-002   0.0000000000000000     
  -4.0469192695390004E-002   3.6692026082635561E-002   0.0000000000000000     
  -4.3598249451857148E-002   4.1141936481062839E-002   0.0000000000000000     
  -3.3917859380311305E-002   2.5687876875169012E-002   0.0000000000000000     
  -3.7516443302233908E-002   2.9473922837898577E-002   0.0000000000000000     
  -4.1034431469652535E-002   3.3472104605038480E-002   0.0000000000000000     
  -4.4471823882567166E-002   3.7682422176588744E-002   0.0000000000000000     
  -4.7828620540977820E-002   4.2104875552549333E-002   0.0000000000000000     
  -3.7462386091282163E-002   2.6780813601899288E-002   0.0000000000000000     
  -4.1281517147154723E-002   3.0575908034258806E-002   0.0000000000000000     
  -4.5020775029345393E-002   3.4570159183083114E-002   0.0000000000000000     
  -4.8680159737854188E-002   3.8763567048372229E-002   0.0000000000000000     
  -5.2259671272681094E-002   4.3156131630126146E-002   0.0000000000000000     
  -3.5739546201363576E-002   3.9481009356360793E-002   0.0000000000000000     
  -3.8317113613992031E-002   4.4191057146356925E-002   0.0000000000000000     
  -4.0813312694195768E-002   4.9108259696379157E-002   0.0000000000000000     
  -4.3228143441974794E-002   5.4232617006427494E-002   0.0000000000000000     
  -4.5561605857329109E-002   5.9564129076501944E-002   0.0000000000000000     
  -3.9568558005319068E-002   4.0267314415666659E-002   0.0000000000000000     
  -4.2387978353912066E-002   4.4957876155407750E-002   0.0000000000000000     
  -4.5134565206518928E-002   4.9858191348302668E-002   0.0000000000000000     
  -4.7808318563139628E-002   5.4968259994351468E-002   0.0000000000000000     
  -5.0409238423774178E-002   6.0288082093554102E-002   0.0000000000000000     
  -4.3598249451857148E-002   4.1141936481062839E-002   0.0000000000000000     
  -4.6651586893375799E-002   4.5808528398252245E-002   0.0000000000000000     
  -4.9634426889881046E-002   5.0688900211370326E-002   0.0000000000000000     
  -5.2546769441372855E-002   5.5783051920417118E-002   0.0000000000000000     
  -5.5388614547851253E-002   6.1090983525392599E-002   0.0000000000000000     
  -4.7828620540977820E-002   4.2104875552549333E-002   0.0000000000000000     
  -5.1107939232383222E-002   4.6743013874890417E-002   0.0000000000000000     
  -5.4312897744282114E-002   5.1600386285582139E-002   0.0000000000000000     
  -5.7443496076674469E-002   5.6676992784624479E-002   0.0000000000000000     
  -6.0499734229560308E-002   6.1972833372017450E-002   0.0000000000000000     
  -5.2259671272681094E-002   4.3156131630126146E-002   0.0000000000000000     
  -5.5757035370934335E-002   4.7761332585322280E-002   0.0000000000000000     
  -5.9169977769722118E-002   5.2592649570938080E-002   0.0000000000000000     
  -6.2498498469044469E-002   5.7650082586973524E-002   0.0000000000000000     
  -6.5742597468901348E-002   6.2933631633428633E-002   0.0000000000000000     
  -4.5561605857329109E-002   5.9564129076501944E-002   0.0000000000000000     
  -4.7828077038994131E-002   6.5090450991685575E-002   0.0000000000000000     
  -5.0041934085705272E-002   7.0799237837061463E-002   0.0000000000000000     
  -5.2203176997462540E-002   7.6690489612629628E-002   0.0000000000000000     
  -5.4311805774265934E-002   8.2764206318390057E-002   0.0000000000000000     
  -5.0409238423774178E-002   6.0288082093554102E-002   0.0000000000000000     
  -5.2942550616508974E-002   6.5802193972270412E-002   0.0000000000000000     
  -5.5413480969430384E-002   7.1495131956860206E-002   0.0000000000000000     
  -5.7822029482538423E-002   7.7366896047323455E-002   0.0000000000000000     
  -6.0168196155833090E-002   8.3417486243660216E-002   0.0000000000000000     
  -5.5388614547851253E-002   6.1090983525392599E-002   0.0000000000000000     
  -5.8160195006364906E-002   6.6592945232237286E-002   0.0000000000000000     
  -6.0861743613962488E-002   7.2269187246891672E-002   0.0000000000000000     
  -6.3493260370644011E-002   7.8119709569355752E-002   0.0000000000000000     
  -6.6054745276409463E-002   8.4144512199629484E-002   0.0000000000000000     
  -6.0499734229560308E-002   6.1972833372017450E-002   0.0000000000000000     
  -6.3481010208561922E-002   6.7462704771586196E-002   0.0000000000000000     
  -6.6386722019301583E-002   7.3121403707155849E-002   0.0000000000000000     
  -6.9216869661779298E-002   7.8948930178726423E-002   0.0000000000000000     
  -7.1971453135995067E-002   8.4945284186297890E-002   0.0000000000000000     
  -6.5742597468901348E-002   6.2933631633428633E-002   0.0000000000000000     
  -6.8904996223100007E-002   6.8411472590317129E-002   0.0000000000000000     
  -7.1988416185447657E-002   7.4051781337652764E-002   0.0000000000000000     
  -7.4992857355944298E-002   7.9854557875435508E-002   0.0000000000000000     
  -7.7918319734589930E-002   8.5819802203665405E-002   0.0000000000000000     
  -5.4311805774265934E-002   8.2764206318390057E-002   0.0000000000000000     
  -5.6348728982888514E-002   8.9010893137670855E-002   0.0000000000000000     
  -5.8294855190103335E-002   9.5421055253800152E-002   0.0000000000000000     
  -6.0150184395910397E-002  0.10199469266677792        0.0000000000000000     
  -6.1914716600309692E-002  0.10873180537660422        0.0000000000000000     
  -6.0168196155833090E-002   8.3417486243660216E-002   0.0000000000000000     
  -6.2435680600986358E-002   8.9639279001662395E-002   0.0000000000000000     
  -6.4608182429670272E-002   9.6024650777121898E-002   0.0000000000000000     
  -6.6685701641884781E-002  0.10257360157003881        0.0000000000000000     
  -6.8668238237629908E-002  0.10928613138041304        0.0000000000000000     
  -6.6054745276409463E-002   8.4144512199629484E-002   0.0000000000000000     
  -6.8532373189049936E-002   9.0338497427121897E-002   0.0000000000000000     
  -7.0912318966356497E-002   9.6696567541241937E-002   0.0000000000000000     
  -7.3194582608329173E-002  0.10321872254198955        0.0000000000000000     
  -7.5379164114967936E-002  0.10990496242936480        0.0000000000000000     
  -7.1971453135995067E-002   8.4945284186297890E-002   0.0000000000000000     
  -7.4638806747079234E-002   9.1108548414049445E-002   0.0000000000000000     
  -7.7207264800162073E-002   9.7436805546160229E-002   0.0000000000000000     
  -7.9676827295243571E-002  0.10393005558263024        0.0000000000000000     
  -8.2047494232323784E-002  0.11058829852345951        0.0000000000000000     
  -7.7918319734589930E-002   8.5819802203665405E-002   0.0000000000000000     
  -8.0754981275074245E-002   9.1949431962444969E-002   0.0000000000000000     
  -8.3493019931086918E-002   9.8245364791876788E-002   0.0000000000000000     
  -8.6132435702627991E-002  0.10470760069196083        0.0000000000000000     
  -8.8673228589697423E-002  0.11133613966269715        0.0000000000000000     
  -6.1914716600309692E-002  0.10873180537660422        0.0000000000000000     
  -6.3582691792995583E-002  0.11562167637494464        0.0000000000000000     
  -6.5148349963662408E-002  0.12265358865346483        0.0000000000000000     
  -6.6611691112310148E-002  0.12982754221216480        0.0000000000000000     
  -6.7972715238938830E-002  0.13714353705104457        0.0000000000000000     
  -6.8668238237629908E-002  0.10928613138041304        0.0000000000000000     
  -7.0559941138040386E-002  0.11615503840768482        0.0000000000000000     
  -7.2364959264250919E-002  0.12317312085129423        0.0000000000000000     
  -7.4083292616261509E-002  0.13034037871124138        0.0000000000000000     
  -7.5714941194072169E-002  0.13765681198752619        0.0000000000000000     
  -7.5379164114967936E-002  0.10990496242936480        0.0000000000000000     
  -7.7474438878630494E-002  0.11675155674499488        0.0000000000000000     
  -7.9488782291674540E-002  0.12375477503050698        0.0000000000000000     
  -8.1422194354100114E-002  0.13091461728590117        0.0000000000000000     
  -8.3274675065907133E-002  0.13823108351117741        0.0000000000000000     
  -8.2047494232323784E-002  0.11058829852345951        0.0000000000000000     
  -8.4326185014765936E-002  0.11741123138687484        0.0000000000000000     
  -8.6519819045933311E-002  0.12439855119110306        0.0000000000000000     
  -8.8628396325825892E-002  0.13155025793614422        0.0000000000000000     
  -9.0651916854443723E-002  0.13886635162199829        0.0000000000000000     
  -8.8673228589697423E-002  0.11133613966269715        0.0000000000000000     
  -9.1115179546446656E-002  0.11813406233332469        0.0000000000000000     
  -9.3458069527027163E-002  0.12510444933308246        0.0000000000000000     
  -9.5701898531438914E-002  0.13224730066197046        0.0000000000000000     
  -9.7846666559681911E-002  0.13956261631998870        0.0000000000000000     
  -6.7972715238938830E-002  0.13714353705104457        0.0000000000000000     
  -6.9216747801833053E-002  0.14457122545772577        0.0000000000000000     
  -7.0329114259277486E-002  0.15208025971982994        0.0000000000000000     
  -7.1309814611272115E-002  0.15967063983735724        0.0000000000000000     
  -7.2158848857816926E-002  0.16734236581030754        0.0000000000000000     
  -7.5714941194072169E-002  0.13765681198752619        0.0000000000000000     
  -7.7263467194189375E-002  0.14510605636240237        0.0000000000000000     
  -7.8732432813119563E-002  0.15267174751812368        0.0000000000000000     
  -8.0121838050862759E-002  0.16035388545469006        0.0000000000000000     
  -8.1431682907418992E-002  0.16815247017210150        0.0000000000000000     
  -8.3274675065907133E-002  0.13823108351117741        0.0000000000000000     
  -8.5044533753587975E-002  0.14567697339393101        0.0000000000000000     
  -8.6730079743634947E-002  0.15322508662175721        0.0000000000000000     
  -8.8331313036048034E-002  0.16087542319465606        0.0000000000000000     
  -8.9848233630827237E-002  0.16862798311262747        0.0000000000000000     
  -9.0651916854443723E-002  0.13886635162199829        0.0000000000000000     
  -9.2559947480028923E-002  0.14628397655231162        0.0000000000000000     
  -9.4322055050823625E-002  0.15374027703073057        0.0000000000000000     
  -9.5938239566827885E-002  0.16123525305725517        0.0000000000000000     
  -9.7408501028041647E-002  0.16876890463188537        0.0000000000000000     
  -9.7846666559681911E-002  0.13956261631998870        0.0000000000000000     
  -9.9809708373512163E-002  0.14692706583754414        0.0000000000000000     
 -0.10150835873468562       0.15421731874504374        0.0000000000000000     
 -0.10294261764320232       0.16143337504248745        0.0000000000000000     
 -0.10411248509906225       0.16857523472987532        0.0000000000000000     
 </DataArray>
 <DataArray  type="Float64" Name="stress" NumberOfComponents="3" format="ascii">
   13412233336.523895        4023670000.9571686        2891304302.7126617     
   11764803694.840162        1890952960.8912308        1714800266.8651254     
   10314222774.909203        414398326.66787148        810890738.36743712     
   9060490576.7310162       -405993901.71290970        179575717.21959713     
   8003607100.3056049       -570223724.25110912       -179144796.57839522     
   10538982709.760139        3161694812.9280415        2223622779.9557843     
   9668012130.4759979        1590514069.1367443        1445416197.5150297     
   8945401313.4625301        513865866.24767733        862306010.42996657     
   8371150258.7197256       -68249795.739159107        474292218.70059443     
   7945258966.2475929       -155832916.82376289        281374822.32691264     
   8339088922.2064352        2501726676.6619306        1710610551.8537612     
   8023154228.1957264        1425655276.0074244        1274130970.0906668     
   7807090336.9735794        682486551.31480050        955249671.68910623     
   7690897248.5400009        272220502.58406162        753966656.64907992     
   7674574962.8949842        194857129.81520462        670281924.97058749     
   6812551973.8627863        2043765592.1588361        1352267618.4065917     
   6830229987.9993420        1396376581.5032709        1200944584.5920360     
   6899289845.4423599        920260381.86924243        1089721722.1448565     
   7019731546.1918392        615416993.25675035        1018599031.0650544     
   7191555090.2477770        481846415.66579270        987576511.35262895     
   5959371864.7291899        1787811559.4187570        1148593979.6142762     
   6089239409.8868504        1502677985.6242855        1225857041.0191371     
   6221999838.8688660        1227187357.9110022        1265722161.7972181     
   6357653151.6752386        961339676.27890730        1268189341.9485185     
   6496199348.3059692        705134940.72800159        1233258581.4730392     
   8003607100.3056049       -570223724.25110912       -179144796.57839522     
   7921678927.3448772       -205597346.44093180       -79387620.846030667     
   7798750126.6812515        22360272.359576702       -11420157.964205010     
   7634820698.3147259        113649132.15042114        24757592.067072224     
   7429890642.2452965        68269232.931591511        29145629.247811843     
   7945258966.2475929       -155832916.82376289        281374822.32691264     
   7745001683.9497976        14439299.108222008        278198649.63008118     
   7521768244.1929512        108124323.51004362        260640758.41947562     
   7275558646.9770575        125222156.38169718        228701148.69509751     
   7006372892.3021135        65732797.723186970        182379820.45693991     
   7674574962.8949842        194857129.81520462        670281924.97058749     
   7405725697.9365997        185696321.87194300        585200952.46238530     
   7131924745.7630148        160029889.87801790        503146255.77717781     
   6853172106.3742323        117857833.83343196        424117834.91496253     
   6569467779.7702494        59180153.738179207        348115689.87574363     
   7191555090.2477770        481846415.66579270        987576511.35262895     
   6903850969.3052816        308173721.85022759        841619287.65088427     
   6629219631.3914385        178076971.46350121        716096334.10889924     
   6367661076.5062504        91556164.505617142        611007650.72667694     
   6119175304.6497107        48611300.976570129        526353237.50421518     
   6496199348.3059692        705134940.72800159        1233258581.4730392     
   6239377498.0558462        381871499.04307723        1047453655.1955748     
   6013652901.0782242        162265568.26649237        899490993.41463923     
   5819025557.3731070        46317148.398253918        789370596.13023424     
   5655495466.9404936        34026239.438354731        717092463.34235764     
   7429890642.2452965        68269232.931591511        29145629.247811843     
   7251157131.5591927       -16320823.216399193        15622789.268799534     
   7082389663.6018124       -67690736.935299873        1427095.6502366615     
   6923588238.3731670       -85840508.225092888       -13441451.607873254     
   6774752855.8732424       -70770137.085806847       -28982852.505531169     
   7006372892.3021135        65732797.723186970        182379820.45693991     
   6835079831.8738909        10568759.269932270        173895216.37765935     
   6670251398.3099346       -23046522.969100952        165016269.74520820     
   6511887591.6102438       -35113048.993928909        155742980.55958351     
   6359988411.7748146       -25630818.804544210        146075348.82078934     
   6569467779.7702494        59180153.738179207        348115689.87574363     
   6406410915.5609980        33680856.767993689        340584336.52098286     
   6246317262.3515425        18058929.797133923        332937151.69943249     
   6089186820.1418848        12314372.825605869        325174135.41108376     
   5935019588.9320316        16447185.853414536        317295287.65595055     
   6119175304.6497107        48611300.976570129        526353237.50421518     
   5965150382.6205025        53015469.277768850        515690149.69876826     
   5810587255.7266302        55625621.363417625        505189741.51290786     
   5655485923.9680910        56441757.233514547        494852012.94663447     
   5499846387.3448868        55463876.888060808        484676963.99994361     
   5655495466.9404936        34026239.438354731        717092463.34235764     
   5511298233.0524139        68572596.799267054        699212655.91101694     
   5363061378.4352026        89653551.729746342        681774039.18564057     
   5210784903.0888577        97269104.229786634        664776613.16622639     
   5054468807.0133896        91419254.299404144        648220377.85277474     
   6774752855.8732424       -70770137.085806847       -28982852.505531169     
   6618899654.9122086       -49981930.926277161       -20092850.008644212     
   6458238552.2500830       -45220063.770407677       -1484019.8246063734     
   6292769547.8868484       -56484535.618218422        26843638.046605084     
   6122492641.8225193       -83775346.469688654        64890123.604965508     
   6359988411.7748146       -25630818.804544210        146075348.82078934     
   6222525831.8818779       -7934269.1180143356        144022986.91624153     
   6081159068.7605410       -3251663.5261573792        147111888.10145250     
   5935888122.4108076       -11583002.028956890        155342052.37642598     
   5786712992.8326740       -32928284.626430988        168713479.74115729     
   5935019588.9320316        16447185.853414536        317295287.65595055     
   5802868874.1146164        27128452.269163370        305354899.56811947     
   5667717694.5415049        27808169.499253750        293978209.97264558     
   5529566050.2126884        18486337.543666840        283165218.86953479     
   5388413941.1281738       -837043.59757733345        272915926.25877905     
   5499846387.3448868        55463876.888060808        484676963.99994361     
   5359928781.6104269        55206233.235268593        463902887.94697869     
   5217914429.5929670        47959435.305813551        439114945.78897399     
   5073803331.2925005        33723483.099684000        410313137.52592683     
   4927595486.7090425        12498376.616885424        377497463.15784264     
   5054468807.0133896        91419254.299404144        648220377.85277474     
   4893705554.3693104        76299073.780297995        619666952.05282748     
   4731749273.9149284        57202133.893519640        582522095.55043948     
   4568599965.6502457        34128434.639071703        536785808.34560895     
   4404257629.5752640        7077976.0169589520        482458090.43833727     
   6122492641.8225193       -83775346.469688654        64890123.604965508     
   5963451998.0879173       -108446559.72964668        61664071.942864649     
   5808723905.8736963       -118742601.25500321        60177670.655535102     
   5658308365.1798725       -114663471.04570651        60430919.742948994     
   5512205376.0064268       -96209169.101802588        62423819.205127150     
   5786712992.8326740       -32928284.626430988        168713479.74115729     
   5634914721.7018509       -55311845.943964481        149083982.31922901     
   5486854917.5878496       -65233850.538786173        132757970.69258402     
   5342533580.4906454       -62694298.410921574        119735444.86123480     
   5201950710.4102612       -47693189.560358047        110016404.82516566     
   5388413941.1281738       -837043.59757733345        272915926.25877905     
   5248326143.8026571       -19592522.612212658        236213217.82284969     
   5111402728.9903708       -27800059.916075945        204377830.60273305     
   4977643696.6913118       -25459655.509168625        177409764.59842935     
   4847049046.9054852       -12571309.391495943        155309019.80993474     
   4927595486.7090425        12498376.616885424        377497463.15784264     
   4803686264.3903303       -1288589.7343964577        323051778.45373040     
   4682367340.0812654       -6441229.3868484497        275037250.38596106     
   4563638713.7818546       -2959542.3404595852        233453878.95453215     
   4447500385.4920979        9156471.4047753811        198301664.15944511     
   4404257629.5752640        7077976.0169589520        482458090.43833727     
   4300995083.4648638       -400047.31053066254        409599664.21187335     
   4199748750.8605409       -1157358.9510998726        344736230.04227185     
   4100518631.7622838        4806041.0952250957        287867787.92954898     
   4003304726.1701035        17490152.828461409        238994337.87368634     
   5512205376.0064268       -96209169.101802588        62423819.205127150     
   5326333501.1139793       -84595620.615419388        67743714.967166692     
   5139505060.8054314       -76170623.516014576        72313539.528370187     
   4951720055.0807800       -70934177.803640127        76133292.888738289     
   4762978483.9400387       -68886283.478216648        79202975.048261374     
   5201950710.4102612       -47693189.560358047        110016404.82516566     
   5013659394.7440825       -42399334.357181311        99291056.385293514     
   4824666060.4314270       -39445541.308898926        88913061.616447061     
   4634970707.4723082       -38831810.415514469        78882420.518607751     
   4444573335.8667231       -40558141.677017450        69199133.091801807     
   4847049046.9054852       -12571309.391495943        155309019.80993474     
   4659473790.0994520       -12656497.581373453        128835398.39938912     
   4471451061.4165840       -14233258.694033623        103806555.53172135     
   4282980860.8568797       -17301592.729495525        80222491.206925809     
   4094063188.4203253       -21861499.687759399        58083205.425014190     
   4447500385.4920979        9156471.4047753811        198301664.15944511     
   4263776687.1801062        4632889.7120313644        156376741.00945416     
   4079860063.7608981       -533775.67141509056        116994021.27419601     
   3895750515.2344828       -6343524.7455570698        80153504.953677520     
   3711448041.6008601       -12796357.510399580        45855192.047892265     
   4003304726.1701035        17490152.828461409        238994337.87368634     
   3826568085.9860263        9468827.5230026245        181915084.21548161     
   3649893067.4643726        1652907.7589523792        128475458.84387305     
   3473279670.6051340       -5957606.4637126923        78675461.758864850     
   3296727895.4083123       -13362715.144978046        32515092.960443243     
   4762978483.9400387       -68886283.478216648        79202975.048261374     
   4570228190.4761572       -77397009.900681973        93442046.936628938     
   4372265668.5486526       -103281831.20191479        121670265.83780369     
   4169090918.1574998       -146540747.38195801        163887631.75180361     
   3960703939.3027105       -207173758.44079661        220094144.67862353     
   4444573335.8667231       -40558141.677017450        69199133.091801807     
   4280516708.9596276       -43050350.248195171        62589048.799386397     
   4111446869.4555473       -62253267.475978374        62672979.956747741     
   3937363817.3544865       -98166893.360369921        69450926.563916251     
   3758267552.6564627       -150791227.90130329        82922888.620867297     
   4094063188.4203253       -21861499.687759399        58083205.425014190     
   3937856995.0327830       -24588160.318832874        30856150.129579540     
   3776836604.9149199       -43362143.384299517        3027978.7209084821     
   3611002018.0667353       -78183448.884170055       -25401308.800994020     
   3440353234.4882393       -129052076.81842899       -54431712.436139651     
   3711448041.6008601       -12796357.510399580        45855192.047892265     
   3542249048.6956496       -22010440.112542152       -1756649.0727855628     
   3368434874.9267774       -46608458.926874638       -57264737.869726010     
   3190005520.2942524       -86590413.953399420       -120669074.34293123     
   3006960984.7980657       -141956305.19211996       -191969658.49239540     
   3296727895.4083123       -13362715.144978046        32515092.960443243     
   3093692869.9482174       -35317189.629333019       -35249348.807707950     
   2886241679.4911122       -71992214.103708029       -118205169.81515262     
   2674374324.0370154       -123387788.56806397       -216352370.06188625     
   2458090803.5859203       -189503913.02240241       -329690949.54791212     
   3960703939.3027105       -207173758.44079661        220094144.67862353     
   3444409060.5469193       -236051388.55488110        155384663.68923548     
   3015168883.3855786        25253319.979184270        199153275.81163484     
   2672983407.8186588        576740367.16132343        351399981.04587412     
   2417852633.8461795        1418409752.9916091        612124779.39188802     
   3758267552.6564627       -150791227.90130329        82922888.620867297     
   3476160473.8665180       -157240602.00356364        40154140.160919130     
   3249887401.9590244        22423380.169003248        63876008.713990100     
   3079448336.9339719        388200718.61637187        154088494.28011352     
   2964843278.7913542        940091413.33854604        310791596.85927397     
   3440353234.4882393       -129052076.81842899       -54431712.436139651     
   3272469738.2390866       -149062460.13635826       -111683872.19731440     
   3129199554.1603909       -87028469.552761793       -144432891.04422069     
   3010542682.2521300        57049894.932280540       -152678768.97686839     
   2916499122.5143147        283172633.31881869       -136421505.99525023     
   3006960984.7980657       -141956305.19211996       -191969658.49239540     
   2833336853.6646399       -211516962.95324254       -300129373.38545549     
   2653105339.9896674       -303102229.18618691       -425773423.46302134     
   2466266443.7731462       -416712103.89097655       -568901808.72508919     
   2272820165.0150733       -552346587.06757593       -729514529.17166853     
   2458090803.5859203       -189503913.02240241       -329690949.54791212     
   2158761820.1431613       -344604110.45425010       -525182363.40350997     
   1821604759.4468627       -625797898.73122489       -780145588.54238713     
   1446619621.4970217       -1033085277.8533431       -1094580624.9645512     
   1033806406.2936345       -1566466247.8206165       -1468487472.6699727     
   5959371864.7291899        1787811559.4187570        1148593979.6142762     
   6089239409.8868504        1502677985.6242855        1225857041.0191371     
   6221999838.8688660        1227187357.9110022        1265722161.7972181     
   6357653151.6752386        961339676.27890730        1268189341.9485185     
   6496199348.3059692        705134940.72800159        1233258581.4730392     
   5435028852.6446590        1630508655.7933979        1032073371.3601031     
   5489692595.8017015        1372986202.0114636        1112170297.9281507     
   5546666806.0250788        1123165305.1173177        1165444289.7349939     
   5605951483.3147945        881045965.11095941        1191895346.7806337     
   5667546627.6708431        646628181.99238825        1191523469.0650687     
   4895003195.4482088        1468500958.6344626        935189529.52736104     
   4904677439.0777063        1247653915.6069884        1017440835.0409046     
   4916079733.0155210        1032567040.2739019        1083444211.6588202     
   4929210077.2616491        823240332.63520157        1133199659.3811085     
   4944068471.8160963        619673792.69088900        1166707178.2077680     
   4339294893.1398354        1301788467.9419508        857942454.11604977     
   4334193939.7148628        1126681126.4108589        941668652.35739946     
   4330238619.8401890        955392563.38075399        1019721927.5686975     
   4327428933.5158081        787922778.85163510        1092102279.7499435     
   4325764880.7417250        624271772.82350242        1158809708.9011381     
   3767903945.7195415        1130371183.7158625        800332145.12616944     
   3778242097.7131763        1010067834.4230759        884853749.87763488     
   3789143466.4990859        891641874.43787479        974277437.46462476     
   3800608052.0772710        775093303.76025903        1068603207.8871390     
   3812635854.4477320        660422122.39022934        1167831061.1451769     
   6496199348.3059692        705134940.72800159        1233258581.4730392     
   6239377498.0558462        381871499.04307723        1047453655.1955748     
   6013652901.0782242        162265568.26649237        899490993.41463923     
   5819025557.3731070        46317148.398253918        789370596.13023424     
   5655495466.9404936        34026239.438354731        717092463.34235764     
   5667546627.6708431        646628181.99238825        1191523469.0650687     
   5515017074.3775024        388429591.33540654        1069644838.4581130     
   5386851736.4945765        211445052.04647374        975133821.54570270     
   5283050614.0220671        115674564.12559247        907990418.32783890     
   5203613706.9599714        101118127.57276058        868214628.80452120     
   4944068471.8160963        619673792.69088900        1166707178.2077680     
   4865903641.7595844        417561780.94586444        1100899632.4322186     
   4805369989.2513990        274220361.02859688        1051985049.5492321     
   4762467514.2915411        189649532.93908691        1019963429.5588077     
   4737196216.8800106        163849296.67733383        1004834772.4609466     
   4325764880.7417250        624271772.82350242        1158809708.9011381     
   4292037200.2020893        469268067.87444913        1141218037.1178918     
   4269207659.3486929        350591495.21286070        1130044677.4252260     
   4257276258.1815357        268242054.83873677        1125289629.8231382     
   4256242996.7006178        222219746.75207663        1126952894.3116298     
   3812635854.4477320        660422122.39022934        1167831061.1451769     
   3793417749.7050190        543548452.12116051        1190600052.5151334     
   3778364746.7864566        440558454.59926689        1209312705.1736836     
   3767476845.6920457        351452129.82454085        1223969019.1208315     
   3760754046.4217877        276229477.79699004        1234568994.3565741     
   5655495466.9404936        34026239.438354731        717092463.34235764     
   5511298233.0524139        68572596.799267054        699212655.91101694     
   5363061378.4352026        89653551.729746342        681774039.18564057     
   5210784903.0888577        97269104.229786634        664776613.16622639     
   5054468807.0133896        91419254.299404144        648220377.85277474     
   5203613706.9599714        101118127.57276058        868214628.80452120     
   5054055230.3904524        100501912.33161855        843684998.12656355     
   4903194093.6834335        95543496.632138968        822704583.74201071     
   4751030296.8389101        86242880.474317074        805273385.65086317     
   4597563839.8568878        72600063.858161449        791391403.85312021     
   4737196216.8800106        163849296.67733383        1004834772.4609466     
   4591156570.7360315        130734530.76623392        976848439.22660363     
   4446551225.0461798        102400766.36888695        955519347.87310898     
   4303380179.8104534        78848003.485294819        940847498.40045881     
   4161643435.0288534        60076242.115457058        932832890.80865705     
   4256242996.7006178        222219746.75207663        1126952894.3116298     
   4122602254.0891533        159270452.10310888        1098702979.2111356     
   3993132772.5234447        110225360.93999314        1080218331.5789299     
   3867834552.0034876        75084473.262719393        1071498951.4150139     
   3746707592.5292869        53847789.071296692        1072544838.7193824     
   3760754046.4217877        276229477.79699004        1234568994.3565741     
   3648392280.4498138        186109676.34224987        1209248618.0801620     
   3542938736.1152210        119017280.34544516        1196801534.8594792     
   3444393413.4180136        74952289.806591153        1197227744.6945260     
   3352756312.3581867        53914704.725672841        1210527247.5853021     
   5054468807.0133896        91419254.299404144        648220377.85277474     
   4893705554.3693104        76299073.780297995        619666952.05282748     
   4731749273.9149284        57202133.893519640        582522095.55043948     
   4568599965.6502457        34128434.639071703        536785808.34560895     
   4404257629.5752640        7077976.0169589520        482458090.43833727     
   4597563839.8568878        72600063.858161449        791391403.85312021     
   4421827731.0693531        49039563.323514938        772808131.40928113     
   4245260136.2367997        22707442.638799906        753246474.17650318     
   4067861055.3592172       -6396298.1960017681        732706432.15478730     
   3889630488.4366155       -38271659.180876970        711188005.34413290     
   4161643435.0288534        60076242.115457058        932832890.80865705     
   3992686029.8507323        34600889.491141319        924641570.44708204     
   3823258680.3928623        7559055.9343345165        923084911.21007311     
   3653361386.6552486       -21049258.554958344        928162913.09762478     
   3482994148.6378870       -51224053.976741552        939875576.10974443     
   3746707592.5292869        53847789.071296692        1072544838.7193824     
   3606280450.7134399        32983052.283163786        1075167269.1662307     
   3465744906.3831215        11756973.780127764        1092037406.6511459     
   3325100959.5383363       -9830446.4377970695        1123155251.1741271     
   3184348610.1790810       -31779208.370626330        1168520802.7351763     
   3352756312.3581867        53914704.725672841        1210527247.5853021     
   3262610993.6574769        44186051.699581504        1224385227.5667307     
   3172718814.2075734        35301196.176180124        1260103960.4997258     
   3083079774.0084815        27260138.155482292        1317683446.3842897     
   2993693873.0601926        20062877.637462616        1397123685.2204223     
   4404257629.5752640        7077976.0169589520        482458090.43833727     
   4300995083.4648638       -400047.31053066254        409599664.21187335     
   4199748750.8605409       -1157358.9510998726        344736230.04227185     
   4100518631.7622838        4806041.0952250957        287867787.92954898     
   4003304726.1701035        17490152.828461409        238994337.87368634     
   3889630488.4366155       -38271659.180876970        711188005.34413290     
   3805902494.3568869       -39888946.401996851        677363153.72033966     
   3724263548.0216742       -34542741.141399622        649217410.96179914     
   3644713649.4309759       -22233043.399072886        626750777.06851351     
   3567252798.5847960       -2959853.1750388145        609963252.04047787     
   3482994148.6378870       -51224053.976741552        939875576.10974443     
   3412183897.4699240       -48965647.827165842        945169272.36680877     
   3343535528.2849193       -39500968.401052952        953826194.29750955     
   3277049041.0828743       -22830015.698419571        965846341.90184617     
   3212724435.8637886        1047210.2807527781        981229715.17982304     
   3184348610.1790810       -31779208.370626330        1168520802.7351763     
   3119839292.8039794       -27630151.586025715        1213018020.1512816     
   3057564691.6502819       -16032040.730079293        1258562580.0494049     
   2997524806.7179823        3015124.1972067356        1305154482.4295554     
   2939719638.0070915        29511343.195832968        1352793727.2917187     
   2993693873.0601926        20062877.637462616        1397123685.2204223     
   2928868680.3590484        24117542.321416974        1480909397.0737531     
   2866351038.1177540        35864041.871533155        1563426568.2174907     
   2806140946.3362999        55302376.287788987        1644675198.6516309     
   2748238405.0146971        82432545.570210695        1724655288.3761723     
   4003304726.1701035        17490152.828461409        238994337.87368634     
   3826568085.9860263        9468827.5230026245        181915084.21548161     
   3649893067.4643726        1652907.7589523792        128475458.84387305     
   3473279670.6051340       -5957606.4637126923        78675461.758864850     
   3296727895.4083123       -13362715.144978046        32515092.960443243     
   3567252798.5847960       -2959853.1750388145        609963252.04047787     
   3401958836.3614235       -6920484.9043881893        581725945.40964460     
   3236630405.3780036       -10996012.500549436        557713987.32903874     
   3071267505.6345329       -15186435.963558555        537927377.79866135     
   2905870137.1310096       -19491755.293399215        522366116.81851399     
   3212724435.8637886        1047210.2807527781        981229715.17982304     
   3060546638.0686417        1649318.0677707195        981722250.08348203     
   2908238281.0909777        1816228.5797381401        987025853.80100024     
   2755799364.9307976        1547941.8166517019        997140526.33238113     
   2603229889.5881009        844457.77850782871        1012066267.6776208     
   2939719638.0070915        29511343.195832968        1352793727.2917187     
   2802331491.1076894        35178236.439480186        1381903998.2369955     
   2664716694.6033006        40089630.999840736        1416411058.2597606     
   2526875248.4939294        44245526.876925349        1456314907.3600194     
   2388807152.7795706        47645924.070715070        1501615545.5377707     
   2748238405.0146971        82432545.570210695        1724655288.3761723     
   2627313395.4785590        93666270.210731149        1782271189.8701828     
   2506065645.9149675        103824194.75973785        1845869600.7053161     
   2384495156.3239303        112906319.21725464        1915450520.8815711     
   2262601926.7054348        120912643.58325386        1991013950.3989604     
   3296727895.4083123       -13362715.144978046        32515092.960443243     
   3093692869.9482174       -35317189.629333019       -35249348.807707950     
   2886241679.4911122       -71992214.103708029       -118205169.81515262     
   2674374324.0370154       -123387788.56806397       -216352370.06188625     
   2458090803.5859203       -189503913.02240241       -329690949.54791212     
   2905870137.1310096       -19491755.293399215        522366116.81851399     
   2675998061.9739461       -47284986.285837770        486870531.10932887     
   2443427159.0934749       -84074309.689610839        447269845.60516751     
   2208157428.4896173       -129859725.50468087        403564060.30603528     
   1970188870.1623676       -184641233.73106396        355753175.21192968     
   2603229889.5881009        844457.77850782871        1012066267.6776208     
   2378195848.8606801       -23285004.484044790        1010843098.1799424     
   2152180317.6834683       -50686101.579233408        1016601108.3316064     
   1925183296.0564728       -81358833.507034659        1029340298.1326128     
   1697204783.9796870       -115303200.26747084        1049060667.5829632     
   2388807152.7795706        47645924.070715070        1501615545.5377707     
   2200286230.6084242        36682755.776047707        1536668352.4041350     
   2012501155.2610888        28172410.227429986        1589788618.3641620     
   1825451926.7375736        22114887.424878359        1660976343.4178493     
   1639138545.0378792        18510187.368384182        1750231527.5651982     
   2262601926.7054348        120912643.58325386        1991013950.3989604     
   2142269207.2171812        132618294.49445438        2064346293.7819080     
   2024389671.8263431        152501225.73038870        2166832375.7028370     
   1908963320.5329370        180561437.29108620        2298472196.1617451     
   1795990153.3369479        216798929.17651206        2459265755.1586337     
   2458090803.5859203       -189503913.02240241       -329690949.54791212     
   2158761820.1431613       -344604110.45425010       -525182363.40350997     
   1821604759.4468627       -625797898.73122489       -780145588.54238713     
   1446619621.4970217       -1033085277.8533431       -1094580624.9645512     
   1033806406.2936345       -1566466247.8206165       -1468487472.6699727     
   1970188870.1623676       -184641233.73106396        355753175.21192968     
   1560555457.4797063       -323497184.75688231        217634799.38856912     
   1132142859.4482703       -524950420.27862555        50390001.647170164     
   684951076.06804729       -789000940.29631317       -145981218.01227003     
   218980107.33905220       -1115648744.8099225       -371478859.58974159     
   1697204783.9796870       -115303200.26747084        1049060667.5829632     
   1263968054.5292459       -211904571.14561647        990539037.01406157     
   831001031.63478243       -307606920.17049396        933236373.89235961     
   398303715.29630721       -402410247.34209454        877152678.21785903     
  -34123894.486190319       -496314552.66043311        822287949.99056292     
   1639138545.0378792        18510187.368384182        1750231527.5651982     
   1268999611.2917705       -9826269.6204484105        1793530349.4729731     
   918179276.00639749        26232601.593171418        1868393528.1931915     
   586677539.18177915        126686801.00928855        1974821063.7258561     
   274494400.81789470        291536328.62786436        2112812956.0709665     
   1795990153.3369479        216798929.17651206        2459265755.1586337     
   1575650127.7672849        282737719.81860662        2626608736.7653074     
   1393677592.5631220        476568145.01236367        2855861464.5496659     
   1250072547.7244687        798290204.75782049        3147023938.5117097     
   1144834993.2513165        1247903899.0549495        3500096158.6514349     
   3767903945.7195415        1130371183.7158625        800332145.12616944     
   3778242097.7131763        1010067834.4230759        884853749.87763488     
   3789143466.4990859        891641874.43787479        974277437.46462476     
   3800608052.0772710        775093303.76025903        1068603207.8871390     
   3812635854.4477320        660422122.39022934        1167831061.1451769     
   3207707962.2837887        962312388.68513668        757062871.63357365     
   3235124854.8470454        869331273.73925972        853573684.44375741     
   3262235175.3800707        775328252.02594531        952014776.16114724     
   3289038923.8828659        680303323.54519343        1052386146.7857431     
   3315536100.3554296        584256488.29700470        1154687796.3175452     
   2685584551.9290395        805675365.57871187        722838902.71411562     
   2721589316.6952963        737469224.46975780        830324169.95675921     
   2756417720.6088142        665341880.51834297        936767912.17829120     
   2790069763.6695938        589293333.72446775        1042170129.3787113     
   2822545445.8776360        509323584.08813250        1146530821.5580201     
   2201533714.6552939        660460114.39658821        697660238.36779547     
   2237635483.2579269        614481686.61456978        815105206.41664124     
   2271691102.1853142        561682759.91506791        928536845.51605713     
   2303700571.4374571        502063334.29808259        1037955155.6660432     
   2333663891.0143547        435623409.76361436        1143360136.8665991     
   1755555450.4625521        526666635.13876557        681526878.59461308     
   1783263354.5349383        500368660.17369610        807916793.82340288     
   1808055320.1095724        464350890.21612012        927321576.17444456     
   1829931347.1864545        418613325.26603794        1039741225.6477388     
   1848891435.7655849        363155965.32344913        1145175742.2432845     
   3812635854.4477320        660422122.39022934        1167831061.1451769     
   3793417749.7050190        543548452.12116051        1190600052.5151334     
   3778364746.7864566        440558454.59926689        1209312705.1736836     
   3767476845.6920457        351452129.82454085        1223969019.1208315     
   3760754046.4217877        276229477.79699004        1234568994.3565741     
   3315536100.3554296        584256488.29700470        1154687796.3175452     
   3290993634.5380363        478365401.60029471        1184347674.2529187     
   3270362778.9300838        385513015.60171795        1211433786.1717067     
   3253643533.5315709        305699330.30127418        1235946132.0739107     
   3240835898.3424988        238924345.69896090        1257884711.9595304     
   2822545445.8776360        509323584.08813250        1146530821.5580201     
   2796914540.9707642        415685857.55934107        1182785845.8416462     
   2774941754.6586208        334241859.67964387        1217949676.8035078     
   2756627086.9412055        264991590.44903803        1252022314.4436045     
   2741970537.8185172        207935049.86752701        1285003758.7619357     
   2333663891.0143547        435623409.76361436        1143360136.8665991     
   2311180469.0032039        355509819.99830109        1185914567.2813160     
   2292101673.9720688        286744986.83304083        1228860377.0690868     
   2276427505.9209504        229328910.26783764        1272197566.2299135     
   2264157964.8498468        183261590.30268586        1315926134.7637947     
   1848891435.7655849        363155965.32344913        1145175742.2432845     
   1833791418.6353540        297837288.91717499        1193733838.5719268     
   1821842536.8704264        243022397.06191283        1244165886.9684446     
   1813044790.4708037        198711289.75766718        1296471887.4328363     
   1807398179.4364860        164903967.00443661        1350651839.9651029     
   3760754046.4217877        276229477.79699004        1234568994.3565741     
   3648392280.4498138        186109676.34224987        1209248618.0801620     
   3542938736.1152210        119017280.34544516        1196801534.8594792     
   3444393413.4180136        74952289.806591153        1197227744.6945260     
   3352756312.3581867        53914704.725672841        1210527247.5853021     
   3240835898.3424988        238924345.69896090        1257884711.9595304     
   3163248479.9426050        166869327.39366555        1245541700.7922161     
   3091081693.9224558        112883083.68751693        1242906098.5901332     
   3024335540.2820506        76965614.580515385        1249977905.3532791     
   2963010019.0213885        59116920.072658658        1266757121.0816550     
   2741970537.8185172        207935049.86752701        1285003758.7619357     
   2690112083.8749919        151231199.77696240        1283902591.9031436     
   2642186673.0535712        107637493.42674923        1289342949.9190824     
   2598194305.3542566        77153930.816889524        1301324832.8097496     
   2558134980.7770486        59780511.947382689        1319848240.5751481     
   2264157964.8498468        183261590.30268586        1315926134.7637947     
   2228983092.2469735        139195293.49213529        1324331291.4129448     
   2196253673.5085697        103280509.56314886        1336112088.8463252     
   2165969708.6346302        75517238.515713453        1351268527.0639350     
   2138131197.6251605        55905480.349840403        1369800606.0657768     
   1807398179.4364860        164903967.00443661        1350651839.9651029     
   1779861505.0585530        130761608.53919071        1366827799.3216169     
   1753282695.2874496        99812132.096709549        1383213515.3718636     
   1727661750.1231747        72055537.676989794        1399808988.1158402     
   1702998669.5657296        47491825.280036747        1416614217.5535460     
   3352756312.3581867        53914704.725672841        1210527247.5853021     
   3262610993.6574769        44186051.699581504        1224385227.5667307     
   3172718814.2075734        35301196.176180124        1260103960.4997258     
   3083079774.0084815        27260138.155482292        1317683446.3842897     
   2993693873.0601926        20062877.637462616        1397123685.2204223     
   2963010019.0213885        59116920.072658658        1266757121.0816550     
   2921284816.2264080        56566399.928444147        1271862129.8116484     
   2880348703.3531780        56646179.523397207        1290696136.3909695     
   2840201680.4017000        59356258.857523084        1323259140.8196223     
   2800843747.3719726        64696637.930819392        1369551143.0975995     
   2558134980.7770486        59780511.947382689        1319848240.5751481     
   2541596307.8813968        57438048.883123040        1316825553.8364739     
   2526382675.5784402        59512387.794511914        1319400109.8448887     
   2512494083.8681793        66003528.681553245        1327571908.6003938     
   2499930532.7506108        76911471.544238806        1341340950.1029859     
   2138131197.6251605        55905480.349840403        1369800606.0657768     
   2123545468.6224413        46800998.563619018        1359275499.6412039     
   2110820730.8833578        43899820.989521503        1346215880.8614795     
   2099956984.4079161        47201947.627558589        1330621749.7266064     
   2090954229.1961083        56707378.477713466        1312493106.2365801     
   1702998669.5657296        47491825.280036747        1416614217.5535460     
   1667132298.4495418        24655248.969931960        1399211967.2258408     
   1633662869.2679350        9808479.1084325910        1371143449.4407444     
   1602590382.0209093        2951515.6955382824        1332408664.1982582     
   1573914836.7084661        4084358.7312462330        1283007611.4983819     
   2993693873.0601926        20062877.637462616        1397123685.2204223     
   2928868680.3590484        24117542.321416974        1480909397.0737531     
   2866351038.1177540        35864041.871533155        1563426568.2174907     
   2806140946.3362999        55302376.287788987        1644675198.6516309     
   2748238405.0146971        82432545.570210695        1724655288.3761723     
   2800843747.3719726        64696637.930819392        1369551143.0975995     
   2734559505.3314509        65395635.138305545        1418816837.6969128     
   2669752004.6905513        71017103.677865505        1469003112.1624105     
   2606421245.4492774        81561043.549505830        1520109966.4940906     
   2544567227.6076264        97027454.753227353        1572137400.6919513     
   2499930532.7506108        76911471.544238806        1341340950.1029859     
   2438441871.5872202        76131190.340195179        1355117350.2113566     
   2377599142.7632346        77504016.934165597        1372003450.7616878     
   2317402346.2786489        81029951.326137662        1391999251.7539828     
   2257851482.1334686        86708993.516127706        1415104753.1882415     
   2090954229.1961083        56707378.477713466        1312493106.2365801     
   2040515779.1263645        56324207.927102447        1289810934.6170805     
   1989892452.3358004        55324781.640431166        1272427584.0153251     
   1939084248.8244171        53709099.617690086        1260343054.4313097     
   1888091168.5922129        51477161.858890414        1253557345.8650372     
   1573914836.7084661        4084358.7312462330        1283007611.4983819     
   1540781227.9488769        5974687.8990186453        1222897590.9140878     
   1506631933.4082501        4479397.7966610193        1170275511.9233177     
   1471466953.0865798       -401511.57584100962        1125141374.5260677     
   1435286286.9838729       -8668040.2184622884        1087495178.7223377     
   2748238405.0146971        82432545.570210695        1724655288.3761723     
   2627313395.4785590        93666270.210731149        1782271189.8701828     
   2506065645.9149675        103824194.75973785        1845869600.7053161     
   2384495156.3239303        112906319.21725464        1915450520.8815711     
   2262601926.7054348        120912643.58325386        1991013950.3989604     
   2544567227.6076264        97027454.753227353        1572137400.6919513     
   2437359842.9178920        101122888.81705391        1600614783.0352807     
   2330149364.9040413        105208011.80048919        1635308972.9754908     
   2222935793.5660768        109282823.70354307        1676219970.5125883     
   2115719128.9039960        113347324.52621520        1723347775.6465635     
   2257851482.1334686        86708993.516127706        1415104753.1882415     
   2165031145.8780203        83866964.079616427        1414816537.5347757     
   2072527363.0017934        82080112.573837161        1420979427.7339587     
   1980340133.5047898        81348438.998808026        1433593423.7857838     
   1888469457.3870091        81671943.354516923        1452658525.6902544     
   1888091168.5922129        51477161.858890414        1253557345.8650372     
   1810327304.3589399        41898495.998413920        1224876453.3686762     
   1733199640.2082233        34440497.079791844        1202880964.9807184     
   1656708176.1400709        29103165.103046775        1187570880.7011695     
   1580852912.1544700        25886500.068147123        1178946200.5300217     
   1435286286.9838729       -8668040.2184622884        1087495178.7223377     
   1373248318.3606572       -24782515.426542461        1030794530.5369749     
   1312166196.5233335       -37710834.681649327        981013584.71577454     
   1252039921.4719095       -47452997.983757257        938152341.25873888     
   1192869493.2063816       -54009005.332880616        902210800.16586757     
   2262601926.7054348        120912643.58325386        1991013950.3989604     
   2142269207.2171812        132618294.49445438        2064346293.7819080     
   2024389671.8263431        152501225.73038870        2166832375.7028370     
   1908963320.5329370        180561437.29108620        2298472196.1617451     
   1795990153.3369479        216798929.17651206        2459265755.1586337     
   2115719128.9039960        113347324.52621520        1723347775.6465635     
   2059837187.0405662        135698428.66410905        1765501314.0071623     
   2005861318.5950689        164403110.86177063        1825621992.0273321     
   1953791523.5675077        199461371.11922175        1903709809.7070785     
   1903627801.9578767        240873209.43644589        1999764767.0463982     
   1888469457.3870091        81671943.354516923        1452658525.6902544     
   1865076582.0672503        105079987.39475650        1462994963.2357600     
   1843042669.4859347        133017907.22980547        1480111941.5624323     
   1822367719.6430626        165485702.85966271        1504009460.6702728     
   1803051732.5386293        202483374.28432500        1534687520.5592892     
   1580852912.1544700        25886500.068147123        1178946200.5300217     
   1557987392.2972279        40762970.686395466        1156827241.4676940     
   1535933724.4989359        58345614.834472239        1130302224.3081310     
   1514691908.7595973        78634432.512392521        1099371149.0513308     
   1494261945.0792093        101629423.72015327        1064034015.6973028     
   1192869493.2063816       -54009005.332880616        902210800.16586757     
   1138569617.7304959       -57252621.460986614        846998148.70297098     
   1084534483.6340735       -59613766.324222744        776192840.26443374     
   1030764090.9171156       -61092439.922576547        689794874.85025740     
   977258439.57961643       -61688642.256066978        587804252.46044302     
   1795990153.3369479        216798929.17651206        2459265755.1586337     
   1575650127.7672849        282737719.81860662        2626608736.7653074     
   1393677592.5631220        476568145.01236367        2855861464.5496659     
   1250072547.7244687        798290204.75782049        3147023938.5117097     
   1144834993.2513165        1247903899.0549495        3500096158.6514349     
   1903627801.9578767        240873209.43644589        1999764767.0463982     
   1815210883.7326634        311960136.54279494        2119565328.0393276     
   1752020451.0612607        467135348.82850653        2277747424.7047019     
   1714056503.9436703        706398846.29359055        2474311057.0425291     
   1701319042.3798842        1029750628.9380316        2709256225.0528002     
   1803051732.5386293        202483374.28432500        1534687520.5592892     
   1779334463.0714841        258551400.27902406        1591614488.6581626     
   1767702674.3464496        354904362.08075720        1663394781.9242449     
   1768156366.3635314        491542259.68954998        1750028400.3575392     
   1780695539.1227274        668465093.10538280        1851515343.9580588     
   1494261945.0792093        101629423.72015327        1064034015.6973028     
   1468020865.7837455        122511511.02728134        1042756218.6218077     
   1440724262.4186974        139875184.76912916        1012803536.2082899     
   1412372134.9840698        153720444.94571358        974175968.45675361     
   1382964483.4798579        164047291.55702358        926873515.36718953     
   977258439.57961643       -61688642.256066978        587804252.46044302     
   881270091.86944234       -96159531.212437451        472990517.93026668     
   771085215.27799368       -177952183.10639018        325973687.55683553     
   646703809.80527270       -307066597.93791997        146753761.34015760     
   508125875.45127350       -483502775.70704341       -64669260.719786033     
   1755555450.4625521        526666635.13876557        681526878.59461308     
   1783263354.5349383        500368660.17369610        807916793.82340288     
   1808055320.1095724        464350890.21612012        927321576.17444456     
   1829931347.1864545        418613325.26603794        1039741225.6477388     
   1848891435.7655849        363155965.32344913        1145175742.2432845     
   1325626751.5853345        397688025.47560036        671367509.54068828     
   1338774145.5640597        375674484.01437008        793580611.67203569     
   1349734585.6704988        346371096.31218666        910589738.87742877     
   1358508071.9046519        309777862.36904997        1022394891.1568677     
   1365094604.2665191        265894782.18496028        1128996068.5103521     
   889724610.25816381        266917383.07744914        664110817.35214067     
   893400516.86263812        250714981.93588123        782997588.44908917     
   895618454.22029245        229652683.30491340        898461542.57187724     
   896378422.33112681        203730487.18454576        1010502679.7205048     
   895680421.19514096        172948393.57477802        1119120999.8949716     
   447849026.48103911        134354707.94431174        659756802.02897036     
   447142468.43067318        125490153.93822946        776167724.15456390     
   445706925.75895315        114195651.19430035        890936987.25779045     
   443542398.46587920        100471199.71252452        1004064591.3386501     
   440648886.55145109        84316799.492901877        1115550536.3971426     
  0.25396088620344759        7.6188265861034277E-002   658305463.57117736     
  0.26816510321849207        2.1414566548599065E-002   773091018.78845930     
  0.28648116388298733       -1.9652640320971498E-002   888016072.93516803     
  0.30890923404412296       -4.7013409076929136E-002   1003080626.0113035     
  0.33544926223208144       -6.0667651076810492E-002   1118284678.0168650     
   1848891435.7655849        363155965.32344913        1145175742.2432845     
   1833791418.6353540        297837288.91717499        1193733838.5719268     
   1821842536.8704264        243022397.06191283        1244165886.9684446     
   1813044790.4708037        198711289.75766718        1296471887.4328363     
   1807398179.4364860        164903967.00443661        1350651839.9651029     
   1365094604.2665191        265894782.18496028        1128996068.5103521     
   1358711491.2742019        218388344.83447406        1185228320.8251877     
   1354691729.8068242        178759745.90045300        1242181415.2422862     
   1353035319.8643866        147008985.38289738        1299855351.7616463     
   1353742261.4468884        123136063.28180873        1358250130.3832684     
   895680421.19514096        172948393.57477802        1119120999.8949716     
   894719612.43898785        142265815.30955526        1182108327.0489092     
   895334371.36740875        116835129.32624757        1244663386.3394957     
   897524697.98040557        96656335.624858797        1306786177.7667320     
   901290592.27797699        81729434.205385357        1368476701.3306165     
   440648886.55145109        84316799.492901877        1115550536.3971426     
   441815782.12971097        69469700.342417762        1184373857.2430892     
   443770461.55218047        57248547.339299485        1251611800.2600722     
   446512924.81886065        47653340.483550400        1317264365.4480915     
   450043171.92975080        40684079.775166914        1381331552.8071482     
  0.33544926223208144       -6.0667651076810492E-002   1118284678.0168650     
  0.34637144915071155       -6.6938982401936881E-002   1192024911.4077289     
  0.36113888322116727       -6.0392996693325013E-002   1263026657.0040164     
  0.37975253808082832       -4.1026448493043266E-002   1331289914.8057275     
  0.40221113985171353       -8.8430636439858212E-003   1396814684.8128629     
   1807398179.4364860        164903967.00443661        1350651839.9651029     
   1779861505.0585530        130761608.53919071        1366827799.3216169     
   1753282695.2874496        99812132.096709549        1383213515.3718636     
   1727661750.1231747        72055537.676989794        1399808988.1158402     
   1702998669.5657296        47491825.280036747        1416614217.5535460     
   1353742261.4468884        123136063.28180873        1358250130.3832684     
   1329975916.9510968        96595142.831598103        1376188678.1305478     
   1306927970.9134648        72448883.908588946        1395063544.9361207     
   1284598423.3339930        50697286.512778580        1414874730.7999852     
   1262987274.2126813        31340350.644170165        1435622235.7221413     
   901290592.27797699        81729434.205385357        1368476701.3306165     
   883370470.13450301        63412719.511265159        1387898460.2952144     
   865929280.30051959        46692445.848780483        1408983100.6826653     
   848967022.77602780        31568613.217933267        1431730622.4929709     
   832483697.56102633        18041221.618722349        1456141025.7261322     
   450043171.92975080        40684079.775166914        1381331552.8071482     
   440045164.60877180        31214338.578189746        1401957145.8156149     
   430286623.44861507        22542817.917286605        1424972182.6114988     
   420767548.44927883        14669517.792451128        1450376663.1947999     
   411487939.61076534        7594438.2036923021        1478170587.5655167     
  0.40221113985171353       -8.8430636439858212E-003   1396814684.8128629     
  0.37390410136194019        3.2374852569856449E-002   1418364734.6917524     
  0.35774867500627516       0.11409814256405966        1443030790.7226217     
  0.35374813197755883       0.23633710316154197        1470812852.9054689     
  0.36189883507536019       0.39908143182051659        1501710921.2402933     
   1702998669.5657296        47491825.280036747        1416614217.5535460     
   1667132298.4495418        24655248.969931960        1399211967.2258408     
   1633662869.2679350        9808479.1084325910        1371143449.4407444     
   1602590382.0209093        2951515.6955382824        1332408664.1982582     
   1573914836.7084661        4084358.7312462330        1283007611.4983819     
   1262987274.2126813        31340350.644170165        1435622235.7221413     
   1207252761.0327988        5562498.0030619502        1427358652.5588219     
   1153315954.3035970       -14222999.802444279        1415156906.7264349     
   1101176854.0250733       -28016142.772356927        1399016998.2249842     
   1050835460.1972297       -35816930.906668186        1378938927.0544655     
   832483697.56102633        18041221.618722349        1456141025.7261322     
   776104198.85551953       -4910960.3919664621        1456317001.6626461     
   720923171.11678970       -23868239.180063725        1459282919.7184167     
   666940614.34483778       -38830614.745569319        1465038779.8934462     
   614156528.53966308       -49798087.088483363        1473584582.1877341     
   411487939.61076534        7594438.2036923021        1478170587.5655167     
   373686611.91770232       -6765126.2151591927        1486087014.5373104     
   336484519.70751584       -19127239.024422243        1503521488.4166863     
   299881662.98020458       -29491900.224101514        1530474009.2036445     
   263878041.73576877       -37859109.814195186        1566944576.8981869     
  0.36189883507536019       0.39908143182051659        1501710921.2402933     
  0.21934997316676749       0.53349171463274447        1516668691.1828156     
   7.5774665845991657E-002  0.66448051273769504        1547872612.8212457     
  -6.8827584428535760E-002  0.79204616766347380        1595322686.1555815     
 -0.21445624580203460       0.91619045225934770        1659018911.1858239     
   1573914836.7084661        4084358.7312462330        1283007611.4983819     
   1540781227.9488769        5974687.8990186453        1222897590.9140878     
   1506631933.4082501        4479397.7966610193        1170275511.9233177     
   1471466953.0865798       -401511.57584100962        1125141374.5260677     
   1435286286.9838729       -8668040.2184622884        1087495178.7223377     
   1050835460.1972297       -35816930.906668186        1378938927.0544655     
   1035087015.6434940       -31668655.384756804        1346970344.0198584     
   1018576806.7538061       -30059594.316019773        1320365958.0837400     
   1001304833.5281551       -30989747.700495243        1299125769.2461088     
   983271095.96655011       -34459115.538147867        1283249777.5069652     
   614156528.53966308       -49798087.088483363        1473584582.1877341     
   609725406.77740192       -45212217.636736602        1470053678.3887441     
   604786442.12426686       -42319157.821237087        1469763227.1932058     
   599339634.58025670       -41118907.641988277        1472713228.6011243     
   593384984.14537168       -41611467.098988533        1478903682.6124940     
   263878041.73576877       -37859109.814195186        1566944576.8981869     
   264696401.35059935       -34655998.856929511        1592147594.0207427     
   265260839.51963592       -32299292.718977913        1618467319.2517171     
   265571356.24288172       -30788991.400329262        1645903752.5911121     
   265627951.52033550       -30125094.900985673        1674456894.0389287     
 -0.21445624580203460       0.91619045225934770        1659018911.1858239     
 -0.63691744186437171       0.95465494483940683        1713252090.9158547     
  -1.0600872057465116       0.99075650385270420        1766478234.2592731     
  -1.4839658348296216        1.0244953523351152        1818697341.2160764     
  -1.9085568290612862        1.0558603442117349        1869909411.7862661     
   1435286286.9838729       -8668040.2184622884        1087495178.7223377     
   1373248318.3606572       -24782515.426542461        1030794530.5369749     
   1312166196.5233335       -37710834.681649327        981013584.71577454     
   1252039921.4719095       -47452997.983757257        938152341.25873888     
   1192869493.2063816       -54009005.332880616        902210800.16586757     
   983271095.96655011       -34459115.538147867        1283249777.5069652     
   939784091.68371308       -45632530.251742721        1248915228.8558080     
   897013972.48876858       -54416328.005697787        1220790705.6805141     
   854960738.38170838       -60810508.800035238        1198876207.9810820     
   813624389.36254692       -64815072.634714246        1183171735.7575102     
   593384984.14537168       -41611467.098988533        1478903682.6124940     
   566421295.95062184       -48452115.793780565        1466656444.8478727     
   539935531.14575613       -53699686.522293746        1459909555.6708102     
   513927689.73077625       -57354179.284519196        1458663015.0813055     
   488397771.70568132       -59415594.080463916        1462916823.0793624     
   265627951.52033550       -30125094.900985673        1674456894.0389287     
   253159931.16137990       -33241272.052665234        1684018178.5131686     
   240930872.49430269       -35560910.231417045        1698370134.6866636     
   228940775.51910692       -37084009.437229350        1717512762.5594170     
   217189640.23578888       -37810569.670118243        1741446062.1314266     
  -1.9085568290612862        1.0558603442117349        1869909411.7862661     
  -2.6840118497702994       0.97160514524018304        1901000429.8516963     
  -3.4655938375448816       0.86692672271673543        1936172442.7280779     
  -4.2533003218337955       0.74183331181217937        1975425450.4154134     
  -5.0471332241768936       0.59631850739367986        2018759452.9137018     
   1192869493.2063816       -54009005.332880616        902210800.16586757     
   1138569617.7304959       -57252621.460986614        846998148.70297098     
   1084534483.6340735       -59613766.324222744        776192840.26443374     
   1030764090.9171156       -61092439.922576547        689794874.85025740     
   977258439.57961643       -61688642.256066978        587804252.46044302     
   813624389.36254692       -64815072.634714246        1183171735.7575102     
   728498983.38407600       -80567934.578589708        1152315869.4855502     
   643572133.40251303       -95658943.199443638        1116227462.6831901     
   558843839.41785717       -110088098.49727005        1074906515.3504274     
   474314101.43010652       -123855400.47208163        1028353027.4872588     
   488397771.70568132       -59415594.080463916        1462916823.0793624     
   402047167.92530221       -78797602.029899687        1456340525.7186947     
   315828934.75927246       -97738374.598172292        1454891804.2728639     
   229743072.20759675       -116237911.78526425        1458570658.7418630     
   143789580.27026889       -134296213.59119618        1467377089.1256981     
   217189640.23578888       -37810569.670118243        1741446062.1314266     
   159214171.35417390       -51941623.814918987        1759072117.4024038     
   101304887.70435694       -65852060.520394884        1792185865.0334520     
   43461789.286334217       -79541879.786555737        1840787305.0245695     
  -14315123.899895960       -93011081.613408089        1904876437.3757560     
  -5.0471332241768936       0.59631850739367986        2018759452.9137018     
  -6.3293061268256317        6.6361202247630313E-002   2060510644.5366757     
  -7.7622405755786756      -0.96613458991276602        2128109644.9649537     
  -9.3459312862014325       -2.5011512549722137        2221556454.1985421     
  -11.080388072272427       -4.5387215048591179        2340851072.2374301     
   977258439.57961643       -61688642.256066978        587804252.46044302     
   881270091.86944234       -96159531.212437451        472990517.93026668     
   771085215.27799368       -177952183.10639018        325973687.55683553     
   646703809.80527270       -307066597.93791997        146753761.34015760     
   508125875.45127350       -483502775.70704341       -64669260.719786033     
   474314101.43010652       -123855400.47208163        1028353027.4872588     
   315669143.02003974       -175704677.16998065        969503536.91118383     
   146376787.78027391       -263045276.63354045        898670146.50341535     
  -33562964.289190307       -385877198.86277056        815852856.26395702     
  -224150113.18835381       -544200443.85764694        721051666.19279993     
   143789580.27026889       -134296213.59119618        1467377089.1256981     
  -19742857.378087856       -186193138.59214795        1468632496.5638950     
  -190373559.80456626       -261750946.18683723        1478123200.1819594     
  -368102527.00916588       -360969636.37526178        1495849199.9798973     
  -552929758.99188268       -483849209.15741432        1521810495.9576936     
  -14315123.899895960       -93011081.613408089        1904876437.3757560     
  -124965909.32493663       -127624915.47892493        1970377396.8883970     
  -239165827.47652289       -174069191.76626045        2064332848.5924735     
  -356914878.35465270       -232343910.47540957        2186742792.4879785     
  -478213061.95932245       -302449071.60635495        2337607228.5749059     
  -11.080388072272427       -4.5387215048591179        2340851072.2374301     
  -12.820509809452362       -7.8303292650272098        2474738237.8846951     
  -15.235600372884386       -13.371832418812874        2657299091.7349524     
  -18.325654798590552       -21.163215113512340        2888533633.7881904     
  -22.090672697687793       -31.204475358959339        3168441864.0444322     
  0.25396088620344759        7.6188265861034277E-002   658305463.57117736     
  0.26816510321849207        2.1414566548599065E-002   773091018.78845930     
  0.28648116388298733       -1.9652640320971498E-002   888016072.93516803     
  0.30890923404412296       -4.7013409076929136E-002   1003080626.0113035     
  0.33544926223208144       -6.0667651076810492E-002   1118284678.0168650     
  -447849025.98158371       -134354707.79447511        659756801.97952461     
  -447142467.90169913       -125490153.89465053        776167724.10844481     
  -445706925.19290340       -114195651.23178892        890936987.21509290     
  -443542397.85519671       -100471199.80589065        1004064591.2994689     
  -440648885.88857907       -84316799.616955683        1115550536.3615727     
  -889724609.78410721       -266917382.93523216        664110817.25477540     
  -893400516.35768139       -250714981.89655092        782997588.35759914     
  -895618453.67754555       -229652683.34550247        898461542.48645222     
  -896378421.74369955       -203730487.28208697        1010502679.6413344     
  -895680420.55614316       -172948393.70630419        1119120999.8222456     
  -1325626751.1536098       -397688025.34608293        671367509.39692962     
  -1338774145.0997820       -375674483.98428684        793580611.53592265     
  -1349734585.1674452       -346371096.36079341        910589738.74924636     
  -1358508071.3565989       -309777862.47560239        1022394891.0369004     
  -1365094603.6672435       -265894782.32871369        1128996068.3988848     
  -1755555450.0900910       -526666635.02702731        681526878.40598726     
  -1783263354.1280005       -500368660.15785825        807916793.64341521     
  -1808055319.6626022       -464350890.27766132        927321576.00347495     
  -1829931346.6938951       -418613325.38643652        1039741225.4861665     
  -1848891435.2218800       -363155965.48418397        1145175742.0914896     
  0.33544926223208144       -6.0667651076810492E-002   1118284678.0168650     
  0.34637144915071155       -6.6938982401936881E-002   1192024911.4077289     
  0.36113888322116727       -6.0392996693325013E-002   1263026657.0040164     
  0.37975253808082832       -4.1026448493043266E-002   1331289914.8057275     
  0.40221113985171353       -8.8430636439858212E-003   1396814684.8128629     
  -440648885.88857907       -84316799.616955683        1115550536.3615727     
  -441815781.44536924       -69469700.483797908        1184373857.2111418     
  -443770460.83904064       -57248547.473577559        1251611800.2325628     
  -446512924.06959349       -47653340.586295500        1317264365.4258366     
  -450043171.13702750       -40684079.821951225        1381331552.7909622     
  -895680420.55614316       -172948393.70630419        1119120999.8222456     
  -894719611.77656531       -142265815.46249428        1182108326.9830055     
  -895334370.67459500       -116835129.47737622        1244663386.2820458     
  -897524697.25023293       -96656335.750952989        1306786177.7193670     
  -901290591.50347924       -81729434.283222467        1368476701.2949684     
  -1365094603.6672435       -265894782.32871369        1128996068.3988848     
  -1358711490.6472163       -218388345.00302613        1185228320.7233212     
  -1354691729.1455240       -178759746.07178792        1242181415.1524668     
  -1353035319.1621666       -147008985.53499812        1299855351.6863203     
  -1353742260.6971438       -123136063.39265883        1358250130.3248830     
  -1848891435.2218800       -363155965.48418397        1145175742.0914896     
  -1833791418.0573235       -297837289.10539603        1193733838.4320881     
  -1821842536.2518272       -243022397.25681019        1244165886.8438237     
  -1813044789.8053939       -198711289.93843222        1296471887.3266957     
  -1807398178.7180207       -164903967.15025675        1350651839.8807058     
  0.40221113985171353       -8.8430636439858212E-003   1396814684.8128629     
  0.37390410136194019        3.2374852569856449E-002   1418364734.6917524     
  0.35774867500627516       0.11409814256405966        1443030790.7226217     
  0.35374813197755883       0.23633710316154197        1470812852.9054689     
  0.36189883507536019       0.39908143182051659        1501710921.2402933     
  -450043171.13702750       -40684079.821951225        1381331552.7909622     
  -440045163.86989653       -31214338.557432309        1401957145.8255112     
  -430286622.74403393       -22542817.763809353        1424972182.6530426     
  -420767547.75943971       -14669517.441080347        1450376663.2735541     
  -411487938.91611475       -7594437.5892498642        1478170587.6870496     
  -901290591.50347924       -81729434.283222467        1368476701.2949684     
  -883370469.39518559       -63412719.531684220        1387898460.3061860     
  -865929279.58158207       -46692445.762445569        1408983100.7513881     
  -848967022.06267011       -31568612.975510538        1431730622.6305742     
  -832483696.83844781       -18041221.170875758        1456141025.9437463     
  -1353742260.6971438       -123136063.39265883        1358250130.3248830     
  -1329975916.2019641       -96595142.890382230        1376188678.1337764     
  -1306927970.1548975       -72448883.881813705        1395063545.0176568     
  -1284598422.5559428       -50697286.366953373        1414874730.9765251     
  -1262987273.4050994       -31340350.345796943        1435622236.0103817     
  -1807398178.7180207       -164903967.15025675        1350651839.8807058     
  -1779861504.2902334       -130761608.63353038        1366827799.3082821     
  -1753282694.4639778       -99812132.121909499        1383213515.4518497     
  -1727661749.2392592       -72055537.615410864        1399808988.3114088     
  -1702998668.6160715       -47491825.114015877        1416614217.8869586     
  0.36189883507536019       0.39908143182051659        1501710921.2402933     
  0.21934997316676749       0.53349171463274447        1516668691.1828156     
   7.5774665845991657E-002  0.66448051273769504        1547872612.8212457     
  -6.8827584428535760E-002  0.79204616766347380        1595322686.1555815     
 -0.21445624580203460       0.91619045225934770        1659018911.1858239     
  -411487938.91611475       -7594437.5892498642        1478170587.6870496     
  -373686611.50270772        6765127.0467390418        1486087014.6894293     
  -336484519.56574529        19127240.094580054        1503521488.6155043     
  -299881663.10522956        29491901.554264024        1530474009.4652736     
  -263878042.12116045        37859111.425792724        1566944577.2387409     
  -832483696.83844781       -18041221.170875758        1456141025.9437463     
  -776104198.36111665        4910961.0190830827        1456317001.9513266     
  -720923170.83565128        23868240.036157191        1459282920.1103926     
  -666940614.26204979        38830615.880351454        1465038780.4209423     
  -614156528.64031386        49798088.551661104        1473584582.8829732     
  -1262987273.4050994       -31340350.345796943        1435622236.0103817     
  -1207252760.3558779       -5562497.5494787693        1427358652.9685085     
  -1153315953.7339406        14223000.489222586        1415156907.3059084     
  -1101176853.5392857        28016143.770316601        1399016999.0225797     
  -1050835459.7719148        35816932.293797195        1378938928.1185246     
  -1702998668.6160715       -47491825.114015877        1416614217.8869586     
  -1667132297.4869905       -24655248.658948541        1399211967.7409756     
  -1633662868.2606139       -9808478.5462267399        1371143450.2020540     
  -1602590380.9369392       -2951514.7758451104        1332408665.2701938     
  -1573914835.5159681       -4084357.3478088975        1283007612.9453950     
 -0.21445624580203460       0.91619045225934770        1659018911.1858239     
 -0.63691744186437171       0.95465494483940683        1713252090.9158547     
  -1.0600872057465116       0.99075650385270420        1766478234.2592731     
  -1.4839658348296216        1.0244953523351152        1818697341.2160764     
  -1.9085568290612862        1.0558603442117349        1869909411.7862661     
  -263878042.12116045        37859111.425792724        1566944577.2387409     
  -264696402.54828256        34656000.572832048        1592147594.4460912     
  -265260841.54366392        32299294.492339626        1618467319.7806447     
  -265571359.10730505        30788993.184316218        1645903753.2424009     
  -265627955.23920369        30125096.648765534        1674456894.8313615     
  -614156528.64031386        49798088.551661104        1473584582.8829732     
  -609725407.60404825        45212219.247692317        1470053679.2388349     
  -604786443.70359409        42319159.491020262        1469763228.2357166     
  -599339636.93894768        41118909.281656116        1472713229.8736176     
  -593384987.31011140        41611468.619590789        1478903684.1525378     
  -1050835459.7719148        35816932.293797195        1378938928.1185246     
  -1035087015.8042158        31668656.979232907        1346970345.2940891     
  -1018576807.5398772        30059595.986796618        1320365959.6244898     
  -1001304834.9788969        30989749.316502333        1299125771.1097260     
  -983271098.12127626        34459116.968339741        1283249779.7498002     
  -1573914835.5159681       -4084357.3478088975        1283007612.9453950     
  -1540781227.1487861       -5974686.2325515747        1222897592.6118517     
  -1506631933.0525167       -4479396.0203394294        1170275513.9469628     
  -1471466953.2271543        401513.28885143995        1125141376.9507267     
  -1435286287.6727014        8668041.6950106621        1087495181.6231441     
  -1.9085568290612862        1.0558603442117349        1869909411.7862661     
  -2.6840118497702994       0.97160514524018304        1901000429.8516963     
  -3.4655938375448816       0.86692672271673543        1936172442.7280779     
  -4.2533003218337955       0.74183331181217937        1975425450.4154134     
  -5.0471332241768936       0.59631850739367986        2018759452.9137018     
  -265627955.23920369        30125096.648765534        1674456894.8313615     
  -253159936.38310608        33241273.499469474        1684018179.4729598     
  -240930879.25115228        35560911.269694328        1698370135.8813479     
  -228940783.84333855        37084009.959451795        1717512764.0565221     
  -217189650.15966529        37810569.568741605        1741446063.9984856     
  -593384987.31011140        41611468.619590789        1478903684.1525378     
  -566421300.37721992        48452116.938822955        1466656446.6992879     
  -539935536.88648522        53699687.117532909        1459909557.9686611     
  -513927696.83790779        57354179.155717641        1458663017.9606578     
  -488397780.23149163        59415593.053366423        1462916826.6752789     
  -983271098.12127626        34459116.968339741        1283249779.7498002     
  -939784094.66634965        45632531.289674163        1248915231.5306835     
  -897013976.37159348        54416328.410438895        1220790708.9900239     
  -854960743.23701477        60810508.330612183        1198876212.1278226     
  -813624395.26260889        64815071.050208986        1183171740.9440799     
  -1435286287.6727014        8668041.6950106621        1087495181.6231441     
  -1373248319.2504973        24782516.552016556        1030794533.9671407     
  -1312166197.7064769        37710835.148412347        981013588.94543087     
  -1252039923.0406513        47452997.484158754        938152346.55801404     
  -1192869495.2530177        54009003.559264123        902210806.80488777     
  -5.0471332241768936       0.59631850739367986        2018759452.9137018     
  -6.3293061268256317        6.6361202247630313E-002   2060510644.5366757     
  -7.7622405755786756      -0.96613458991276602        2128109644.9649537     
  -9.3459312862014325       -2.5011512549722137        2221556454.1985421     
  -11.080388072272427       -4.5387215048591179        2340851072.2374301     
  -217189650.15966529        37810569.568741605        1741446063.9984856     
  -159214183.73668280        51941622.412913404        1759072119.4492402     
  -101304902.78970633        65852057.003734872        1792185867.3969312     
  -43461807.318741530        79541873.341184527        1840787307.8415585     
   14315102.676214447        93011071.425267637        1904876440.7831242     
  -488397780.23149163        59415593.053366423        1462916826.6752789     
  -402047178.41297519        78797599.578798383        1456340529.7410223     
  -315828947.39571643        97738370.100040615        1454891808.9953344     
  -229743087.17971778        116237904.61708042        1458570664.4382141     
  -143789597.76497760        134296203.12992674        1467377096.0696640     
  -813624395.26260889        64815071.050208986        1183171740.9440799     
  -728498990.35818541        80567931.564009249        1152315875.4120224     
  -643572141.58027291        95658938.322774321        1116227469.7601640     
  -558843848.92886472        110088091.32652676        1074906523.9885027     
  -474314112.40396774        123855390.57523888        1028353038.0970411     
  -1192869495.2530177        54009003.559264123        902210806.80488777     
  -1138569619.5723164        57252618.368535578        846998156.46223855     
  -1084534485.3433681        59613761.671964765        776192849.69141996     
  -1030764092.5661840        61092433.469513595        689794886.49243021     
  -977258441.24075270        61688633.761219382        587804266.86526775     
  -11.080388072272427       -4.5387215048591179        2340851072.2374301     
  -12.820509809452362       -7.8303292650272098        2474738237.8846951     
  -15.235600372884386       -13.371832418812874        2657299091.7349524     
  -18.325654798590552       -21.163215113512340        2888533633.7881904     
  -22.090672697687793       -31.204475358959339        3168441864.0444322     
   14315102.676214447        93011071.425267637        1904876440.7831242     
   124965885.01118737        127624899.32737538        1970377399.8406968     
   239165798.83273497        174069165.51806605        2064332851.2468102     
   356914844.14084756        232343869.99730614        2186742795.0014544     
   478213020.93553257        302449012.76512140        2337607231.1046214     
  -143789597.76497760        134296203.12992674        1467377096.0696640     
   19742837.632353105        186193122.92193225        1468632502.7260108     
   190373536.67779204        261750921.54096395        1478123205.8764300     
   368102499.37133819        360969598.98702204        1495849205.5209193     
   552929725.71298945        483849155.26009369        1521810501.6594956     
  -474314112.40396774        123855390.57523888        1028353038.0970411     
  -315669154.95701551        175704662.95332628        969503546.54061961     
  -146376801.70041978        263045254.69689304        898670155.62380862     
   33562947.365818679        385877165.80593252        815852865.34661949     
   224150092.24169517        544200396.28043723        721051675.70903707     
  -977258441.24075270        61688633.761219382        587804266.86526775     
  -881270092.75692058        96159519.421556056        472990531.28453308     
  -771085216.30190802        177952164.98582923        325973700.48895693     
  -646703811.87571526        307066570.45403779        146753774.47853035     
  -508125879.47834575        483502735.82616341       -64669246.746732555     
  -1755555450.0900910       -526666635.02702731        681526878.40598726     
  -1783263354.1280005       -500368660.15785825        807916793.64341521     
  -1808055319.6626022       -464350890.27766132        927321576.00347495     
  -1829931346.6938951       -418613325.38643652        1039741225.4861665     
  -1848891435.2218800       -363155965.48418397        1145175742.0914896     
  -2201533714.3557200       -660460114.30671597        697660238.13808942     
  -2237635482.9205589       -614481686.60586250        815105206.19687915     
  -2271691101.8059053       -561682759.97336674        928536845.30501032     
  -2303700571.0117598       -502063334.40922815        1037955155.4624834     
  -2333663890.5381193       -435623409.91344661        1143360136.6692982     
  -2685584551.7126651       -805675365.51379955        722838902.44937789     
  -2721589316.4424047       -737469224.47265315        830324169.70174396     
  -2756417720.3164673       -665341880.57924938        936767911.93016219     
  -2790069763.3348527       -589293333.83358836        1042170129.1346321     
  -2822545445.4975615       -509323584.23567027        1146530821.3151534     
  -3207707962.1609268       -962312388.64827812        757062871.33985198     
  -3235124854.6935391       -869331273.75823021        853573684.15801024     
  -3262235175.1942892       -775328252.09530997        952014775.87893009     
  -3289038923.6631789       -680303323.65951872        1052386146.5026121     
  -3315536100.1002049       -584256488.45085418        1154687796.0290554     
  -3767903945.7005053       -1130371183.7101514        800332144.80951226     
  -3778242097.6739616       -1010067834.4625938        884853749.56567776     
  -3789143466.4393706       -891641874.52154875        974277437.15131462     
  -3800608051.9967337       -775093303.88701701        1068603207.5664235     
  -3812635854.3460507       -660422122.55899847        1167831060.8110039     
  -1848891435.2218800       -363155965.48418397        1145175742.0914896     
  -1833791418.0573235       -297837289.10539603        1193733838.4320881     
  -1821842536.2518272       -243022397.25681019        1244165886.8438237     
  -1813044789.8053939       -198711289.93843222        1296471887.3266957     
  -1807398178.7180207       -164903967.15025675        1350651839.8807058     
  -2333663890.5381193       -435623409.91344661        1143360136.6692982     
  -2311180468.4854360       -355509820.17552739        1185914567.0919745     
  -2292101673.4077883       -286744987.02106088        1228860376.8899662     
  -2276427505.3051777       -229328910.45004946        1272197566.0632725     
  -2264157964.1776032       -183261590.46249211        1315926134.6118939     
  -2822545445.4975615       -509323584.23567027        1146530821.3151534     
  -2796914540.5448141       -415685857.73503822        1182785845.6012704     
  -2774941754.1830773       -334241859.87110960        1217949676.5668807     
  -2756627086.4123516       -264991590.64388442        1252022314.2119832     
  -2741970537.2326379       -207935050.05336320        1285003758.5365791     
  -3315536100.1002049       -584256488.45085418        1154687796.0290554     
  -3290993634.2354560       -478365401.78392863        1184347673.9599760     
  -3270362778.5776944       -385513015.80695677        1211433785.8745675     
  -3253643533.1269174       -305699330.51993716        1235946131.7728300     
  -3240835897.8831272       -238924345.92287135        1257884711.6547637     
  -3812635854.3460507       -660422122.55899847        1167831060.8110039     
  -3793417749.5573640       -543548452.32219851        1190600052.1680906     
  -3778364746.5916386       -440558454.82860184        1209312704.8130262     
  -3767476845.4488730       -351452130.07820499        1223969018.7458105     
  -3760754046.1290689       -276229478.07101321        1234568993.9664443     
  -1807398178.7180207       -164903967.15025675        1350651839.8807058     
  -1779861504.2902334       -130761608.63353038        1366827799.3082821     
  -1753282694.4639778       -99812132.121909499        1383213515.4518497     
  -1727661749.2392592       -72055537.615410864        1399808988.3114088     
  -1702998668.6160715       -47491825.114015877        1416614217.8869586     
  -2264157964.1776032       -183261590.46249211        1315926134.6118939     
  -2228983091.4778509       -139195293.60407841        1324331291.3196120     
  -2196253672.6387520       -103280509.61450207        1336112088.8263063     
  -2165969707.6603055       -75517238.493772507        1351268527.1319761     
  -2138131196.5425127       -55905480.241882920        1369800606.2366228     
  -2741970537.2326379       -207935050.05336320        1285003758.5365791     
  -2690112083.1666813       -151231199.92498946        1283902591.7221336     
  -2642186672.2204938       -107637493.52918601        1289342949.7896492     
  -2598194304.3940806       -77153930.865956783        1301324832.7391260     
  -2558134979.6874366       -59780511.935294747        1319848240.5705633     
  -3240835897.8831272       -238924345.92287135        1257884711.6547637     
  -3163248479.3567195       -166869327.59626377        1245541700.5158491     
  -3091081693.2092047       -112883083.86595917        1242906098.3418798     
  -3024335539.4405794       -76965614.731956244        1249977905.1328571     
  -2963010018.0508442       -59116920.194254994        1266757120.8887804     
  -3760754046.1290689       -276229478.07101321        1234568993.9664443     
  -3648392280.0479712       -186109676.61790097        1209248617.7007546     
  -3542938735.6048832       -119017280.62482357        1196801534.4829972     
  -3444393412.7998042       -74952290.091774940        1197227744.3131695     
  -3352756311.6327333       -53914705.018754125        1210527247.1912735     
  -1702998668.6160715       -47491825.114015877        1416614217.8869586     
  -1667132297.4869905       -24655248.658948541        1399211967.7409756     
  -1633662868.2606139       -9808478.5462267399        1371143450.2020540     
  -1602590380.9369392       -2951514.7758451104        1332408665.2701938     
  -1573914835.5159681       -4084357.3478088975        1283007612.9453950     
  -2138131196.5425127       -55905480.241882920        1369800606.2366228     
  -2123545467.3875010       -46800998.316910148        1359275499.9711232     
  -2110820729.4738688       -43899820.529867530        1346215881.3946841     
  -2099956982.8016188       -47201946.880764961        1330621750.5073082     
  -2090954227.3707457       -56707377.369587183        1312493107.3089902     
  -2558134979.6874366       -59780511.935294747        1319848240.5705633     
  -2541596306.5579238       -57438048.755849004        1316825553.9570904     
  -2526382674.0084653       -59512387.509919524        1319400110.1146789     
  -2512494082.0390639       -66003528.197513103        1327571909.0433278     
  -2499930530.6497183       -76911470.818626404        1341340950.7430398     
  -2963010018.0508442       -59116920.194254994        1266757120.8887804     
  -2921284814.9982562       -56566399.975757360        1271862129.6988766     
  -2880348701.8644004       -56646179.486372113        1290696136.3620369     
  -2840201678.6492777       -59356258.726093173        1323259140.8782580     
  -2800843745.3528881       -64696637.694922924        1369551143.2475398     
  -3352756311.6327333       -53914705.018754125        1210527247.1912735     
  -3262610992.7084999       -44186051.976642847        1224385227.1964858     
  -3172718813.0416722       -35301196.459219694        1260103960.1367602     
  -3083079772.6322565       -27260138.466500759        1317683446.0120959     
  -2993693871.4802485       -20062877.998479724        1397123684.8224938     
  -1573914835.5159681       -4084357.3478088975        1283007612.9453950     
  -1540781227.1487861       -5974686.2325515747        1222897592.6118517     
  -1506631933.0525167       -4479396.0203394294        1170275513.9469628     
  -1471466953.2271543        401513.28885143995        1125141376.9507267     
  -1435286287.6727014        8668041.6950106621        1087495181.6231441     
  -2090954227.3707457       -56707377.369587183        1312493107.3089902     
  -2040515777.5468817       -56324206.628539443        1289810935.7517109     
  -1989892451.0451717       -55324780.294669628        1272427585.2711210     
  -1939084247.8656111       -53709098.367965579        1260343055.8672185     
  -1888091168.0082037       -51477160.848442435        1253557347.5400071     
  -2499930530.6497183       -76911470.818626404        1341340950.7430398     
  -2438441869.6319265       -76131189.530605912        1355117350.7355747     
  -2377599140.9875321       -77504016.153910995        1372003451.2128327     
  -2317402344.7165294       -81029950.688527703        1391999252.1748147     
  -2257851480.8189235       -86708993.134464025        1415104753.6215224     
  -2800843745.3528881       -64696637.694922924        1369551143.2475398     
  -2734559503.4039211       -65395634.938761830        1418816837.5634384     
  -2669752002.8795977       -71017103.598065853        1469003111.7720962     
  -2606421243.7799087       -81561043.672823191        1520109965.8735135     
  -2544567226.1048608       -97027455.163047552        1572137399.8676910     
  -2993693871.4802485       -20062877.998479724        1397123684.8224938     
  -2928868678.8628688       -24117542.853000402        1480909396.2353058     
  -2866351036.7213683       -35864042.627131701        1563426566.9489107     
  -2806140945.0557494       -55302377.320861101        1644675196.9633143     
  -2748238403.8660111       -82432546.934194922        1724655286.2785103     
  -1435286287.6727014        8668041.6950106621        1087495181.6231441     
  -1373248319.2504973        24782516.552016556        1030794533.9671407     
  -1312166197.7064769        37710835.148412347        981013588.94543087     
  -1252039923.0406513        47452997.484158754        938152346.55801404     
  -1192869495.2530177        54009003.559264123        902210806.80488777     
  -1888091168.0082037       -51477160.848442435        1253557347.5400071     
  -1810327303.3284311       -41898495.162130952        1224876455.2432067     
  -1733199638.8077707       -34440496.672861814        1202880967.2419448     
  -1656708174.4462230       -29103165.380634606        1187570883.5362194     
  -1580852910.2437851       -25886501.285438597        1178946204.1260304     
  -2257851480.8189235       -86708993.134464025        1415104753.6215224     
  -2165031143.7066007       -83866963.766357541        1414816537.8561838     
  -2072527360.0343113       -82080112.531696558        1420979428.0476248     
  -1980340129.8020561       -81348439.430486321        1433593424.1958470     
  -1888469453.0098381       -81671944.462730467        1452658526.3008499     
  -2544567226.1048608       -97027455.163047552        1572137399.8676910     
  -2437359840.3850021       -101122889.26065111        1600614781.8060691     
  -2330149361.3861027       -105208012.42811322        1635308971.3624704     
  -2222935789.1081572       -109282824.66542518        1676219968.5368993     
  -2115719123.5511723       -113347325.97260141        1723347773.3293498     
  -2748238403.8660111       -82432546.934194922        1724655286.2785103     
  -2627313393.3636351       -93666271.645009279        1782271187.0928628     
  -2506065642.8631425       -103824196.36209881        1845869597.1864834     
  -2384495152.3645291       -112906321.08544874        1915450516.5593758     
  -2262601921.8677926       -120912645.81506169        1991013945.2115331     
  -1192869495.2530177        54009003.559264123        902210806.80488777     
  -1138569619.5723164        57252618.368535578        846998156.46223855     
  -1084534485.3433681        59613761.671964765        776192849.69141996     
  -1030764092.5661840        61092433.469513595        689794886.49243021     
  -977258441.24075270        61688633.761219382        587804266.86526775     
  -1580852910.2437851       -25886501.285438597        1178946204.1260304     
  -1557987388.8070624       -40762972.566119671        1156827245.5195668     
  -1535933719.4394534       -58345617.410508096        1130302229.1743550     
  -1514691902.1409588       -78634435.818616450        1099371155.0903978     
  -1494261936.9115844       -101629427.79045910        1064034023.2676959     
  -1888469453.0098381       -81671944.462730467        1452658526.3008499     
  -1865076575.2758832       -105079988.67099488        1462994963.7103229     
  -1843042660.2284009       -133017908.50083703        1480111942.0704679     
  -1822367707.8673918       -165485703.95225745        1504009461.3812919     
  -1803051718.1928594       -202483375.02526385        1534687521.6427913     
  -2115719123.5511723       -113347325.97260141        1723347773.3293498     
  -2059837178.9787791       -135698429.94609737        1765501311.0345054     
  -2005861307.7102165       -164403111.59903431        1825621988.3797603     
  -1953791509.7454786       -199461370.93138784        1903709805.3651145     
  -1903627785.0845804       -240873207.94320226        1999764761.9905682     
  -2262601921.8677926       -120912645.81506169        1991013945.2115331     
  -2142269199.9157443       -132618296.39141214        2064346287.4921200     
  -2024389661.8848898       -152501226.70507061        2166832368.1022282     
  -1908963307.7752204       -180561436.75601685        2298472187.0418611     
  -1795990137.5867465       -216798926.54427761        2459265744.3110185     
  -977258441.24075270        61688633.761219382        587804266.86526775     
  -881270092.75692058        96159519.421556056        472990531.28453308     
  -771085216.30190802        177952164.98582923        325973700.48895693     
  -646703811.87571526        307066570.45403779        146753774.47853035     
  -508125879.47834575        483502735.82616341       -64669246.746732555     
  -1494261936.9115844       -101629427.79045910        1064034023.2676959     
  -1468020854.7246432       -122511515.46209008        1042756223.1856145     
  -1440724248.4600475       -139875189.54153591        1012803538.0896856     
  -1412372118.1177974       -153720450.02881718        974175967.97990119     
  -1382964463.6979122       -164047296.92395633        926873512.85627520     
  -1803051718.1928594       -202483375.02526385        1534687521.6427913     
  -1779334444.5856872       -258551398.71371758        1591614485.8502522     
  -1767702650.7943890       -354904355.12176836        1663394775.2448559     
  -1768156336.8189714       -491542244.24941158        1750028389.8266022     
  -1780695502.6594393       -668465066.09666419        1851515329.5954912     
  -1903627785.0845804       -240873207.94320226        1999764761.9905682     
  -1815210862.3400536       -311960130.33334947        2119565319.2784534     
  -1752020423.3049333       -467135331.75485492        2277747411.9544687     
  -1714056467.9792175       -706398812.20772171        2474311040.0186191     
  -1701318996.3629196       -1029750571.6919546        2709256203.4709072     
  -1795990137.5867465       -216798926.54427761        2459265744.3110185     
  -1575650107.9877422       -282737710.32097453        2626608723.4702048     
  -1393677565.9916804       -476568119.44081312        2855861448.2185154     
  -1250072511.5985496       -798290153.90375030        3147023918.5559626     
  -1144834944.8083634       -1247903813.7098408        3500096134.4825273     
  -3767903945.7005053       -1130371183.7101514        800332144.80951226     
  -3778242097.6739616       -1010067834.4625938        884853749.56567776     
  -3789143466.4393706       -891641874.52154875        974277437.15131462     
  -3800608051.9967337       -775093303.88701701        1068603207.5664235     
  -3812635854.3460507       -660422122.55899847        1167831060.8110039     
  -4339294893.2314892       -1301788467.9694469        857942453.78580940     
  -4334193939.7935896       -1126681126.4558053        941668652.02996123     
  -4330238619.9076109       -955392563.44857121        1019721927.2381263     
  -4327428933.5735550       -787922778.94774508        1092102279.4103045     
  -4325764880.7914238       -624271772.95332789        1158809708.5464962     
  -4895003195.6539669       -1468500958.6961901        935189529.19619501     
  -4904677439.2774515       -1247653915.6582866        1017440834.7083700     
  -4916079733.2128239       -1032567040.3266851        1083444211.3190997     
  -4929210077.4600887       -823240332.70138705        1133199659.0283842     
  -4944068472.0192451       -619673792.78239274        1166707177.8362238     
  -5435028852.9679413       -1630508655.8903823        1032073371.0406687     
  -5489692596.1255445       -1372986202.0700374        1112170297.6009033     
  -5546666806.3550081       -1123165305.1558905        1165444289.3942347     
  -5605951483.6563311       -881045965.14794159        1191895346.4206626     
  -5667546628.0295124       -646628182.04619122        1191523468.6801867     
  -5959371865.1734095       -1787811559.5520227        1148593979.3192306     
  -6089239410.3378725       -1502677985.6910586        1225857040.7075620     
  -6221999839.3341637       -1227187357.9361873        1265722161.4635315     
  -6357653152.1622829       -961339676.28740859        1268189341.5871391     
  -6496199348.8222284       -705134940.74472356        1233258581.0783849     
  -3812635854.3460507       -660422122.55899847        1167831060.8110039     
  -3793417749.5573640       -543548452.32219851        1190600052.1680906     
  -3778364746.5916386       -440558454.82860184        1209312704.8130262     
  -3767476845.4488730       -351452130.07820499        1223969018.7458105     
  -3760754046.1290689       -276229478.07101321        1234568993.9664443     
  -4325764880.7914238       -624271772.95332789        1158809708.5464962     
  -4292037200.2102509       -469268068.02996469        1141218036.7488041     
  -4269207659.3150225       -350591495.39308608        1130044677.0375078     
  -4257276258.1057396       -268242055.04269338        1125289629.4126070     
  -4256242996.5824037       -222219746.97878289        1126952893.8741024     
  -4944068472.0192451       -619673792.78239274        1166707177.8362238     
  -4865903641.9354496       -417561781.05942416        1100899632.0436039     
  -4805369989.4005871       -274220361.16622543        1051985049.1359264     
  -4762467514.4146538       -189649533.10279131        1019963429.1131917     
  -4737196216.9776487       -163849296.86912632        1004834771.9753985     
  -5667546628.0295124       -646628182.04619122        1191523468.6801867     
  -5515017074.7329655       -388429591.41057849        1069644838.0524901     
  -5386851736.8483334       -211445052.14801836        975133821.10828304     
  -5283050614.3756161       -115674564.25850630        907990417.84756470     
  -5203613707.3148127       -101118127.74204588        868214628.27033544     
  -6496199348.8222284       -705134940.74472356        1233258581.0783849     
  -6239377498.6027946       -381871499.08342743        1047453654.7754633     
  -6013652901.6582603       -162265568.33846664        899490992.95457673     
  -5819025557.9886265       -46317148.509835005        789370595.61572623     
  -5655495467.5938902       -34026239.597537756        717092462.75891089     
  -3760754046.1290689       -276229478.07101321        1234568993.9664443     
  -3648392280.0479712       -186109676.61790097        1209248617.7007546     
  -3542938735.6048832       -119017280.62482357        1196801534.4829972     
  -3444393412.7998042       -74952290.091774940        1197227744.3131695     
  -3352756311.6327333       -53914705.018754125        1210527247.1912735     
  -4256242996.5824037       -222219746.97878289        1126952893.8741024     
  -4122602253.8855391       -159270452.33465052        1098702978.7702968     
  -3993132772.2314091       -110225361.16630077        1080218331.1250687     
  -3867834551.6200185       -75084473.473742247        1071498950.9384165     
  -3746707592.0513606       -53847789.256965637        1072544838.2103410     
  -4737196216.9776487       -163849296.86912632        1004834771.9753985     
  -4591156570.7774639       -130734530.96770287        976848438.72796369     
  -4446551225.0247364       -102400766.55782151        955519347.34975111     
  -4303380179.7194719       -78848003.639482260        940847497.84075892     
  -4161643434.8616729       -60076242.212683678        932832890.20098937     
  -5203613707.3148127       -101118127.74204588        868214628.27033544     
  -5054055230.7237444       -100501912.51706266        843684997.57375562     
  -4903194093.9848595       -95543496.799377680        822704583.15704203     
  -4751030297.0981674       -86242880.588993311        805273385.02019727     
  -4597563840.0636654       -72600063.885904312        791391403.16321790     
  -5655495467.5938902       -34026239.597537756        717092462.75891089     
  -5511298233.7243795       -68572596.982731581        699212655.30767262     
  -5363061379.1117849       -89653551.890977859        681774038.54694474     
  -5210784903.7561064       -97269104.322280169        664776612.47673130     
  -5054468807.6573410       -91419254.276630640        648220377.09702790     
  -3352756311.6327333       -53914705.018754125        1210527247.1912735     
  -3262610992.7084999       -44186051.976642847        1224385227.1964858     
  -3172718813.0416722       -35301196.459219694        1260103960.1367602     
  -3083079772.6322565       -27260138.466500759        1317683446.0120959     
  -2993693871.4802485       -20062877.998479724        1397123684.8224938     
  -3746707592.0513606       -53847789.256965637        1072544838.2103410     
  -3606280450.0585804       -32983052.406734228        1075167268.6511252     
  -3465744905.5464306       -11756973.825275421        1092037406.1000102     
  -3325100958.5149145        9830446.4874036312        1123155250.5569961     
  -3184348608.9640341        31779208.531301260        1168520802.0220814     
  -4161643434.8616729       -60076242.212683678        932832890.20098937     
  -3992686029.5916615       -34600889.491726637        924641569.81691754     
  -3823258680.0255084       -7559055.7836258411        923084910.51398456     
  -3653361386.1632123        21049258.911614418        928162912.29219270     
  -3482994148.0047760        51224054.593996286        939875575.15153944     
  -4597563840.0636654       -72600063.885904312        791391403.16321790     
  -4421827731.3077440       -49039563.231622219        772808130.69386375     
  -4245260136.4789033       -22707442.334271908        753246473.37868559     
  -4067861055.5771456        6396298.8061351776        732706431.21768677     
  -3889630488.6024671        38271660.189606190        711188004.21086454     
  -5054468807.6573410       -91419254.276630640        648220377.09702790     
  -4893705555.2068253       -76299073.626413107        619666951.28196180     
  -4731749274.9066181       -57202133.477213621        582522094.69410884     
  -4568599966.7567139       -34128433.829033852        536785807.33347642     
  -4404257630.7571173       -7077974.6818716526        482458089.20005858     
  -2993693871.4802485       -20062877.998479724        1397123684.8224938     
  -2928868678.8628688       -24117542.853000402        1480909396.2353058     
  -2866351036.7213683       -35864042.627131701        1563426566.9489107     
  -2806140945.0557494       -55302377.320861101        1644675196.9633143     
  -2748238403.8660111       -82432546.934194922        1724655286.2785103     
  -3184348608.9640341        31779208.531301260        1168520802.0220814     
  -3119839291.5969768        27630151.754336596        1213018018.8909185     
  -3057564690.4849243        16032040.794021368        1258562578.2485032     
  -2997524805.6278801       -3015124.3496428728        1305154480.0948372     
  -2939719637.0258350       -29511343.676656842        1352793724.4299197     
  -3482994148.0047760        51224054.593996286        939875575.15153944     
  -3412183896.7796054        48965648.627122402        945169270.73409116     
  -3343535527.5885630        39500969.213149548        953826191.99334276     
  -3277049040.4316511        22830016.352084637        965846338.92929792     
  -3212724435.3088689       -1047209.9560765028        981229711.54195416     
  -3889630488.6024671        38271660.189606190        711188004.21086454     
  -3805902494.4107475        39888947.765350103        677363151.76481795     
  -3724263548.0322800        34542742.630254269        649217408.18342805     
  -3644713649.4670658        22233044.784311533        626750773.46669459     
  -3567252798.7150989        2959854.2275390625        609963247.61461437     
  -4404257630.7571173       -7077974.6818716526        482458089.20005858     
  -4300995084.4904108        400049.16902136803        409599661.98310810     
  -4199748751.8160768        1157361.0453331470        344736226.81876415     
  -4100518632.7341199       -4806039.0529403687        287867783.70702791     
  -4003304727.2445393       -17490151.125801802        238994332.64790118     
  -2748238403.8660111       -82432546.934194922        1724655286.2785103     
  -2627313393.3636351       -93666271.645009279        1782271187.0928628     
  -2506065642.8631425       -103824196.36209881        1845869597.1864834     
  -2384495152.3645291       -112906321.08544874        1915450516.5593758     
  -2262601921.8677926       -120912645.81506169        1991013945.2115331     
  -2939719637.0258350       -29511343.676656842        1352793724.4299197     
  -2802331489.3598275       -35178237.071284294        1381903994.5690172     
  -2664716692.1114244       -40089631.857935667        1416411053.7125220     
  -2526875245.2806363       -44245528.036633372        1456314901.8604331     
  -2388807148.8674564       -47645925.607359529        1501615539.0127523     
  -3212724435.3088689       -1047209.9560765028        981229711.54195416     
  -3060546636.9788237       -1649317.9843863249        981722245.52077830     
  -2908238279.4821205       -1816228.7905030251        987025848.22914803     
  -2755799362.8187542       -1547942.3744115829        997140519.66706312     
  -2603229886.9887323       -844458.73612904549        1012066259.8345242     
  -3567252798.7150989        2959854.2275390625        609963247.61461437     
  -3401958836.2206278        6920485.6156589985        581725939.94814479     
  -3236630404.9752278        10996012.840209365        557713980.73636365     
  -3071267504.9788947        15186435.901198745        537927369.97926271     
  -2905870136.2316341        19491754.798611045        522366107.67684788     
  -4003304727.2445393       -17490151.125801802        238994332.64790118     
  -3826568087.0852399       -9468826.2711300850        181915077.85112128     
  -3649893068.5907474       -1652906.9658019543        128475451.23416661     
  -3473279671.7610517        5957606.7901990414        78675452.797033906     
  -3296727896.5961561        13362714.996861696        32515082.539725110     
  -2262601921.8677926       -120912645.81506169        1991013945.2115331     
  -2142269199.9157443       -132618296.39141214        2064346287.4921200     
  -2024389661.8848898       -152501226.70507061        2166832368.1022282     
  -1908963307.7752204       -180561436.75601685        2298472187.0418611     
  -1795990137.5867465       -216798926.54427761        2459265744.3110185     
  -2388807148.8674564       -47645925.607359529        1501615539.0127523     
  -2200286224.8944454       -36682757.162338734        1536668344.8078799     
  -2012501147.5932040       -28172410.956531763        1589788609.4385216     
  -1825451916.9637208       -22114886.989923835        1660976332.9046798     
  -1639138533.0059988       -18510185.262517214        1750231515.2063515     
  -2603229886.9887323       -844458.73612904549        1012066259.8345242     
  -2378195845.2633648        23285003.449665308        1010843089.2685269     
  -2152180312.9603295        50686100.894351244        1016601098.0440378     
  -1925183290.0796258        81358833.597944856        1029340286.1610541     
  -1697204776.6212435        115303201.56044376        1049060653.6195780     
  -2905870136.2316341        19491754.798611045        522366107.67684788     
  -2675998061.0225010        47284985.444604516        486870520.87406272     
  -2443427157.9862709        84074308.847599149        447269833.91877860     
  -2208157427.1229401        129859725.00758886        403564046.81098866     
  -1970188868.4325054        184641233.92459393        355753159.55069911     
  -3296727896.5961561        13362714.996861696        32515082.539725110     
  -3093692872.1718512        35317188.822486281       -35249360.375508510     
  -2886241682.6710186        71992212.903205037       -118205182.93725857     
  -2674374328.0936551        123387787.23902953       -216352385.14551771     
  -2458090808.4397569        189503911.82996380       -329690967.00028241     
  -1795990137.5867465       -216798926.54427761        2459265744.3110185     
  -1575650107.9877422       -282737710.32097453        2626608723.4702048     
  -1393677565.9916804       -476568119.44081312        2855861448.2185154     
  -1250072511.5985496       -798290153.90375030        3147023918.5559626     
  -1144834944.8083634       -1247903813.7098408        3500096134.4825273     
  -1639138533.0059988       -18510185.262517214        1750231515.2063515     
  -1268999597.3419280        9826276.1542488933        1793530337.0124981     
  -918179258.40558434       -26232584.854735076        1868393515.1579976     
  -586677516.19695652       -126686768.28943136        1974821049.6428521     
  -274494370.71604830       -291536274.14988130        2112812940.4670520     
  -1697204776.6212435        115303201.56044376        1049060653.6195780     
  -1263968047.0343277        211904574.52800655        990539024.09377301     
  -831001023.29991519        307606927.98721874        933236361.65754724     
  -398303705.41800267        402410261.93809426        877152666.31089139     
   34123906.611400679        496314576.38061851        822287938.05382669     
  -1970188868.4325054        184641233.92459393        355753159.55069911     
  -1560555457.0649469        323497184.80029917        217634784.71402773     
  -1132142860.6746786        524950419.08503419        50389987.717162654     
  -684951079.26169395        789000936.77883387       -145981231.43989909     
  -218980112.82599568        1115648737.8816614       -371478872.75716448     
  -2458090808.4397569        189503911.82996380       -329690967.00028241     
  -2158761827.4337811        344604106.97111416       -525182381.12673157     
  -1821604770.5298641        625797888.43873703       -780145606.66315031     
  -1446619637.7280223        1033085256.2327756       -1094580643.6095374     
  -1033806429.0282487        1566466210.3532536       -1468487491.9658966     
  -5959371865.1734095       -1787811559.5520227        1148593979.3192306     
  -6089239410.3378725       -1502677985.6910586        1225857040.7075620     
  -6221999839.3341637       -1227187357.9361873        1265722161.4635315     
  -6357653152.1622829       -961339676.28740859        1268189341.5871391     
  -6496199348.8222284       -705134940.74472356        1233258581.0783849     
  -6812551974.3884897       -2043765592.3165469        1352267618.1449666     
  -6830229988.5500298       -1396376581.5861468        1200944584.3315039     
  -6899289846.0256739       -920260381.90276003        1089721721.8750896     
  -7019731546.8154221       -615416993.26638627        1018599030.7757242     
  -7191555090.9192715       -481846415.67702484        987576511.03340709     
  -8339088922.7313032       -2501726676.8193908        1710610551.6309633     
  -8023154228.7773161       -1425655276.0857737        1274130969.8863842     
  -7807090337.6197109       -682486551.34009051        955249671.48826408     
  -7690897249.2584867       -272220502.58234119        753966656.43660319     
  -7674574963.6936417       -194857129.81252575        670281924.73140109     
  -10538982710.201847       -3161694813.0605545        2223622779.7772212     
  -9668012131.0197392       -1590514069.1899407        1445416197.3722034     
  -8945401314.1162796       -513865866.24817991        862306010.30305457     
  -8371150259.4914761        68249795.764726639        474292218.56977761     
  -7945258967.1453362        155832916.84877729        281374822.17236876     
  -13412233336.800125       -4023670001.0400376        2891304302.5837398     
  -11764803695.277285       -1890952960.8986461        1714800266.7889612     
  -10314222775.515373       -414398326.62702847        810890738.31946230     
  -9060490577.5143986        405993901.77481365        179575717.17524439     
  -8003607101.2743540        570223724.30688334       -179144796.64369234     
  -6496199348.8222284       -705134940.74472356        1233258581.0783849     
  -6239377498.6027946       -381871499.08342743        1047453654.7754633     
  -6013652901.6582603       -162265568.33846664        899490992.95457673     
  -5819025557.9886265       -46317148.509835005        789370595.61572623     
  -5655495467.5938902       -34026239.597537756        717092462.75891089     
  -7191555090.9192715       -481846415.67702484        987576511.03340709     
  -6903850970.0437937       -308173721.88257289        841619287.31402183     
  -6629219632.1984100       -178076971.52178073        716096333.74036860     
  -6367661077.3831263       -91556164.594650984        611007650.31244862     
  -6119175305.5979404       -48611301.101181984        526353237.03026265     
  -7674574963.6936417       -194857129.81252575        670281924.73140109     
  -7405725698.8372650       -185696321.88745928        585200952.21448767     
  -7131924746.7661839       -160029889.91338539        503146255.50700438     
  -6853172107.4804020       -117857833.89029884        424117834.60895002     
  -6569467780.9799147       -59180153.818202496        348115689.52032661     
  -7945258967.1453362        155832916.84877729        281374822.17236876     
  -7745001684.9832096       -14439299.098090649        278198649.47685969     
  -7521768245.3615818       -108124323.51327419        260640758.25448054     
  -7275558648.2804499       -125222156.39677715        228701148.50522670     
  -7006372893.7398129       -65732797.748602390        182379820.22910377     
  -8003607101.2743540        570223724.30688334       -179144796.64369234     
  -7921678928.4816351        205597346.48553658       -79387620.898858920     
  -7798750127.9846077       -22360272.321455479       -11420158.017199079     
  -7634820699.7832747       -113649132.11409283        24757592.001284104     
  -7429890643.8776360       -68269232.892374992        29145629.156593781     
  -5655495467.5938902       -34026239.597537756        717092462.75891089     
  -5511298233.7243795       -68572596.982731581        699212655.30767262     
  -5363061379.1117849       -89653551.890977859        681774038.54694474     
  -5210784903.7561064       -97269104.322280169        664776612.47673130     
  -5054468807.6573410       -91419254.276630640        648220377.09702790     
  -6119175305.5979404       -48611301.101181984        526353237.03026265     
  -5965150383.6381798       -53015469.420567751        515690149.22723967     
  -5810587256.8012199       -55625621.482628822        505189741.01871127     
  -5655485925.0870590       -56441757.287346840        494852012.40467554     
  -5499846388.4956942       -55463876.834736586        484676963.38513565     
  -6569467780.9799147       -59180153.818202496        348115689.52032661     
  -6406410916.9185266       -33680856.868372202        340584336.18865657     
  -6246317263.8458261       -18058929.880826950        332937151.35546041     
  -6089186821.7618084       -12314372.855561495        325174135.02074009     
  -5935019590.6664715       -16447185.792569160        317295287.18449533     
  -7006372893.7398129       -65732797.748602390        182379820.22910377     
  -6835079833.5654240       -10568759.326141834        173895216.19191992     
  -6670251400.2456007        23046522.914421558        165016269.55719325     
  -6511887593.7803497        35113048.973095417        155742980.32492080     
  -6359988414.1696634        25630818.849867344        146075348.49511006     
  -7429890643.8776360       -68269232.892374992        29145629.156593781     
  -7251157133.5788670        16320823.206128597        15622789.237028154     
  -7082389666.0005531        67690736.903115273        1427095.6239085232     
  -6923588241.1426878        85840508.198606014       -13441451.682775477     
  -6774752859.0052738        70770137.092590332       -28982852.683021244     
  -5054468807.6573410       -91419254.276630640        648220377.09702790     
  -4893705555.2068253       -76299073.626413107        619666951.28196180     
  -4731749274.9066181       -57202133.477213621        582522094.69410884     
  -4568599966.7567139       -34128433.829033852        536785807.33347642     
  -4404257630.7571173       -7077974.6818716526        482458089.20005858     
  -5499846388.4956942       -55463876.834736586        484676963.38513565     
  -5359928783.0835304       -55206233.105555534        463902887.35467601     
  -5217914431.3637333       -47959435.017591476        439114945.20312083     
  -5073803333.3363028       -33723482.570853949        410313136.93047500     
  -4927595489.0012379       -12498375.765334368        377497462.53673619     
  -5935019590.6664715       -16447185.792569160        317295287.18449533     
  -5802868876.1449680       -27128452.140119314        305354899.13957125     
  -5667717696.8578968       -27808169.269089222        293978209.62524539     
  -5529566052.8052492       -18486337.179483652        283165218.64151508     
  -5388413943.9870234        837044.12870335579        272915926.18838441     
  -6359988414.1696634        25630818.849867344        146075348.49511006     
  -6222525834.3911409        7934269.2698972225        144022986.63665295     
  -6081159071.3891010        3251663.7683033943        147111887.96048269     
  -5935888125.1635513        11583002.345082521        155342052.46660158     
  -5786712995.7144871        32928285.000237942        168713480.15500173     
  -6774752859.0052738        70770137.092590332       -28982852.683021244     
  -6618899657.8220377        49981931.124498367       -20092850.154084925     
  -6458238554.9573507        45220064.094584227       -1484019.7911699787     
  -6292769550.4112129        56484536.002836943        26843638.405723028     
  -6122492644.1836166        83775346.849275827        64890124.436596423     
  -4404257630.7571173       -7077974.6818716526        482458089.20005858     
  -4300995084.4904108        400049.16902136803        409599661.98310810     
  -4199748751.8160768        1157361.0453331470        344736226.81876415     
  -4100518632.7341199       -4806039.0529403687        287867783.70702791     
  -4003304727.2445393       -17490151.125801802        238994332.64790118     
  -4927595489.0012379       -12498375.765334368        377497462.53673619     
  -4803686266.5396280        1288590.9677560329        323051776.96073598     
  -4682367342.1507435        6441230.7917668819        275037248.04769540     
  -4563638715.8345861        2959543.7066814899        233453875.79761815     
  -4447500387.5911541       -9156470.2874829769        198301660.21050665     
  -5388413943.9870234        837044.12870335579        272915926.18838441     
  -5248326146.4437847        19592523.410010576        236213217.02625725     
  -5111402731.4536219        27800060.847740650        204377829.13744569     
  -4977643699.0165367        25459656.441858053        177409762.52195224     
  -4847049049.1325264        12571310.192408562        155309017.17977452     
  -5786712995.7144871        32928285.000237942        168713480.15500173     
  -5634914724.2028866        55311846.495794296        149083982.17967162     
  -5486854919.7247219        65233851.213234186        132757970.08801670     
  -5342533582.2799768        62694299.152610302        119735443.88002905     
  -5201950711.8686609        47693190.313875198        110016403.55571924     
  -6122492644.1836166        83775346.849275827        64890124.436596423     
  -5963451999.8169346        108446560.22507215        61664072.420989878     
  -5808723906.9640293        118742601.88828802        60177670.899405725     
  -5658308365.6249084        114663471.83888292        60430919.871856213     
  -5512205375.7995586        96209170.076912642        62423819.338327013     
  -4003304727.2445393       -17490151.125801802        238994332.64790118     
  -3826568087.0852399       -9468826.2711300850        181915077.85112128     
  -3649893068.5907474       -1652906.9658019543        128475451.23416661     
  -3473279671.7610517        5957606.7901990414        78675452.797033906     
  -3296727896.5961561        13362714.996861696        32515082.539725110     
  -4447500387.5911541       -9156470.2874829769        198301660.21050665     
  -4263776689.5843863       -4632889.0023119450        156376736.23394853     
  -4079860066.4607115        533776.00588846207        116994015.55319855     
  -3895750518.2201300        6343524.7371122837        80153498.168252975     
  -3711448044.8626361        12796357.191370964        45855184.079116464     
  -4847049049.1325264        12571310.192408562        155309017.17977452     
  -4659473792.9469099        12656498.007496119        128835395.26876660     
  -4471451064.8626728        14233258.817979813        103806551.76955001     
  -4282980864.8798285        17301592.623836279        80222486.682117239     
  -4094063192.9983549        21861499.425099850        58083200.006482862     
  -5201950711.8686609        47693190.313875198        110016403.55571924     
  -5013659397.1728058        42399334.758299351        99291054.955577463     
  -4824666063.7966356        39445541.470464468        88913059.883221045     
  -4634970711.7401314        38831810.450390577        78882418.338631839     
  -4444573341.0033092        40558141.698049545        69199130.321819738     
  -5512205375.7995586        96209170.076912642        62423819.338327013     
  -5326333502.2620916        84595621.250075817        67743715.294388279     
  -5139505063.2625856        76170623.963367224        72313539.894213125     
  -4951720058.8010616        70934178.216727257        76133293.137792513     
  -4762978488.8774843        68886284.010252714        79202975.025133714     
  -3296727896.5961561        13362714.996861696        32515082.539725110     
  -3093692872.1718512        35317188.822486281       -35249360.375508510     
  -2886241682.6710186        71992212.903205037       -118205182.93725857     
  -2674374328.0936551        123387787.23902953       -216352385.14551771     
  -2458090808.4397569        189503911.82996380       -329690967.00028241     
  -3711448044.8626361        12796357.191370964        45855184.079116464     
  -3542249053.8260407        22010439.100414991       -1756657.7552111747     
  -3368434881.8726768        46608457.398685694       -57264747.491290048     
  -3190005529.0025587        86590412.086151123       -120669085.12910959     
  -3006960995.2156668        141956303.16283607       -191969670.66868165     
  -4094063192.9983549        21861499.425099850        58083200.006482862     
  -3937857001.7929921        24588159.484530449        30856144.399996705     
  -3776836613.8306317        43362142.067273855        3027972.6365302885     
  -3611002029.1112814        78183447.173323631       -25401315.283924479     
  -3440353247.6349344        129052074.80269957       -54431719.361356467     
  -4444573341.0033092        40558141.698049545        69199130.321819738     
  -4280516716.0727072        43050349.974810600        62589046.090114489     
  -4111446878.5448852        62253266.908964396        62672977.446191758     
  -3937363828.4198260        98166892.500564575        69450924.390051886     
  -3758267565.6975541        150791226.74956512        82922886.921683148     
  -4762978488.8774843        68886284.010252714        79202975.025133714     
  -4570228196.6651878        77397010.571251154        93442047.315147936     
  -4372265676.0154228        103281831.92378283        121670266.93769439     
  -4169090926.9282045        146540748.06784034        163887633.89280123     
  -3960703949.4035296        207173759.00341678        220094148.18045056     
  -2458090808.4397569        189503911.82996380       -329690967.00028241     
  -2158761827.4337811        344604106.97111416       -525182381.12673157     
  -1821604770.5298641        625797888.43873703       -780145606.66315031     
  -1446619637.7280223        1033085256.2327756       -1094580643.6095374     
  -1033806429.0282487        1566466210.3532536       -1468487491.9658966     
  -3006960995.2156668        141956303.16283607       -191969670.66868165     
  -2833336866.6575642        211516958.75977349       -300129386.27351725     
  -2653105356.7598114        303102218.82220709       -425773437.07192719     
  -2466266465.5224071        416712083.35012090       -568901823.06390584     
  -2272820192.9453759        552346552.34351206       -729514544.24946463     
  -3440353247.6349344        129052074.80269957       -54431719.361356467     
  -3272469753.7635708        149062456.18374586       -111683880.09591444     
  -3129199573.1108365        87028460.169366717       -144432899.80765119     
  -3010542705.6767559       -57049913.240524650       -152678778.49656025     
  -2916499151.4613137       -283172664.04585910       -136421516.16264662     
  -3758267565.6975541        150791226.74956512        82922886.921683148     
  -3476160488.7517877        157240599.24308538        40154137.406071819     
  -3249887419.5829554       -22423387.519831538        63876005.129681975     
  -3079448358.1910391       -388200733.53912938        154088490.09251302     
  -2964843304.5760555       -940091438.81488848        310791592.29456097     
  -3960703949.4035296        207173759.00341678        220094148.18045056     
  -3444409071.6222429        236051387.93771982        155384666.23245367     
  -3015168896.1761556       -25253324.245322585        199153277.74006724     
  -2672983423.0652823       -576740377.54574966        351399982.70329595     
  -2417852652.2896271       -1418409771.9635468        612124781.12215519     
 </DataArray>
 <DataArray  type="Float64" Name="VM" NumberOfComponents="1" format="ascii">
   12930214388.810841     
   11338484844.241228     
   10210453081.695692     
   9275374212.1051102     
   8309212172.9056435     
   10128125121.775856     
   9321521774.7512989     
   8827130981.2071457     
   8445531558.7653208     
   8039096478.4764585     
   7982197979.3656139     
   7735339279.3468857     
   7669792635.2864351     
   7670448600.5267715     
   7667428388.2629032     
   6492339024.4712791     
   6587195133.7876282     
   6757249198.3951473     
   6960455368.2085419     
   7170169986.7148190     
   5658087457.5688486     
   5890236681.4937763     
   6114725589.5674076     
   6329058063.2954016     
   6532985864.1720667     
   8309212172.9056435     
   8027630450.3043337     
   7787619187.1019049     
   7578756579.3645096     
   7396164621.7543287     
   8039096478.4764585     
   7752780833.2109909     
   7481925093.2183065     
   7224630490.0416126     
   6980889671.9049501     
   7667428388.2629032     
   7384539300.3507404     
   7106905618.9952478     
   6834602123.2340689     
   6567813996.1073875     
   7170169986.7148190     
   6910536366.8057156     
   6658538492.2698536     
   6410341842.6176538     
   6162820100.1691017     
   6532985864.1720667     
   6323329379.8517656     
   6135290919.3976002     
   5955081935.5763750     
   5773735040.8207483     
   7396164621.7543287     
   7259381735.6662216     
   7116476914.0606909     
   6966944024.3466005     
   6810598716.4137392     
   6980889671.9049501     
   6836439740.9956713     
   6687914627.8028479     
   6535084757.5226622     
   6377862907.7429266     
   6567813996.1073875     
   6416810335.4811821     
   6263908133.3389664     
   6109057039.5668087     
   5952238449.4753428     
   6162820100.1691017     
   6005613496.7130709     
   5848799104.4630938     
   5692375311.6563444     
   5536341662.2708292     
   5773735040.8207483     
   5609623997.8862448     
   5448311218.0750303     
   5289676364.5120239     
   5133663955.3735924     
   6810598716.4137392     
   6644122770.4220114     
   6480967413.7476130     
   6321372081.5936508     
   6165831702.5846729     
   6377862907.7429266     
   6231491774.6787148     
   6088120054.5724478     
   5947776965.5215559     
   5810599864.0902376     
   5952238449.4753428     
   5813460683.2665424     
   5676747120.3852482     
   5542090638.6848803     
   5409525408.7021370     
   5536341662.2708292     
   5392735897.6699839     
   5249490325.6714144     
   5106719280.4708185     
   4964602657.8082409     
   5133663955.3735924     
   4973203373.5583553     
   4810410907.1068764     
   4645618176.6256180     
   4479359280.3692360     
   6165831702.5846729     
   6019355747.6217680     
   5869921657.2892618     
   5717460820.3850584     
   5561985186.0868835     
   5810599864.0902376     
   5668657597.4829006     
   5524548402.5287762     
   5378155051.5541515     
   5229433457.1897421     
   5409525408.7021370     
   5274042963.4329081     
   5137569356.8367825     
   4999873671.6800308     
   4860796120.9080305     
   4964602657.8082409     
   4836804805.1011677     
   4709745435.4037313     
   4582991980.3133106     
   4456185673.8519859     
   4479359280.3692360     
   4359311313.0757208     
   4242555919.6732888     
   4128337737.6841412     
   4015979470.2101355     
   5561985186.0868835     
   5370413122.3771324     
   5179525198.6040268     
   4989308387.6574593     
   4799753387.2420998     
   5229433457.1897421     
   5037929157.1760550     
   4846956437.5362902     
   4656512963.7123480     
   4466598962.9544420     
   4860796120.9080305     
   4671148090.7750969     
   4482192309.8976336     
   4293906581.9351988     
   4106270163.2162066     
   4456185673.8519859     
   4270060953.9028158     
   4085155928.2203755     
   3901397039.5386472     
   3718710989.6042256     
   4015979470.2101355     
   3834808881.2567401     
   3655845597.1270752     
   3478932175.4783430     
   3303909549.0202041     
   4799753387.2420998     
   4612254573.9668703     
   4429826269.5665283     
   4253740993.6525731     
   4086070836.3581452     
   4466598962.9544420     
   4303569046.6160593     
   4144346213.6499557     
   3989167787.4896789     
   3838574655.6737385     
   4106270163.2162066     
   3950569991.2880225     
   3798706918.4224954     
   3650986784.0527754     
   3507927875.6041632     
   3718710989.6042256     
   3553306699.4641910     
   3393429115.8343430     
   3240916551.5823874     
   3098286635.7529616     
   3303909549.0202041     
   3112100731.8158469     
   2930064543.1084428     
   2763677396.0027404     
   2621073887.5906959     
   4086070836.3581452     
   3578430487.9428577     
   3022370622.9883037     
   2511234389.2163653     
   2356370528.1367478     
   3838574655.6737385     
   3558067857.3459349     
   3240623073.7525291     
   2917102602.3519387     
   2678921065.4619689     
   3507927875.6041632     
   3355070797.5455837     
   3183453444.3651319     
   2994128121.4989581     
   2795731320.6363583     
   3098286635.7529616     
   2990329226.1167641     
   2911846505.8478327     
   2873115039.7544374     
   2884918900.1991835     
   2621073887.5906959     
   2519994509.9648733     
   2583738523.6209502     
   2872068102.9326611     
   3407544776.7653174     
   5658087457.5688486     
   5890236681.4937763     
   6114725589.5674076     
   6329058063.2954016     
   6532985864.1720667     
   5150899130.1116514     
   5309925803.1326981     
   5465525630.8551130     
   5614773071.4577703     
   5756179457.1017857     
   4642517940.9816914     
   4753810957.6737423     
   4866149074.3386211     
   4976880196.6177397     
   5084064901.3505650     
   4133217281.6985173     
   4222749401.7628169     
   4318120205.4311218     
   4417674254.3774519     
   4519958402.8191023     
   3624541866.4239750     
   3718597590.6949754     
   3823836298.0700979     
   3940216211.2485933     
   4067663781.2869630     
   6532985864.1720667     
   6323329379.8517656     
   6135290919.3976002     
   5955081935.5763750     
   5773735040.8207483     
   5756179457.1017857     
   5644157624.5718355     
   5547658551.5861387     
   5457676210.3847485     
   5368708479.4516726     
   5084064901.3505650     
   5045344458.3397818     
   5016878001.3168993     
   4993479770.9828959     
   4971998298.5441132     
   4519958402.8191023     
   4531535685.3930607     
   4547890000.5852308     
   4566530921.8171282     
   4585764200.2134800     
   4067663781.2869630     
   4108058209.4983044     
   4146426537.9486065     
   4181819352.8897934     
   4213457535.2310896     
   5773735040.8207483     
   5609623997.8862448     
   5448311218.0750303     
   5289676364.5120239     
   5133663955.3735924     
   5368708479.4516726     
   5213544458.3054056     
   5060879475.7467384     
   4910741273.4541826     
   4763190282.2314453     
   4971998298.5441132     
   4833041081.3747663     
   4697448789.8484783     
   4565256519.6231890     
   4436597901.8959761     
   4585764200.2134800     
   4470576294.7372112     
   4360932170.9583960     
   4256723797.5282183     
   4158127311.8245053     
   4213457535.2310896     
   4129557918.0072384     
   4054862612.9142280     
   3988904796.6595106     
   3931824954.1764617     
   5133663955.3735924     
   4973203373.5583553     
   4810410907.1068764     
   4645618176.6256180     
   4479359280.3692360     
   4763190282.2314453     
   4596718186.3714867     
   4430405286.6323757     
   4264285388.8819156     
   4098404299.9320130     
   4436597901.8959761     
   4285962501.9152503     
   4140618445.3799405     
   4001106374.6120634     
   3868124030.9903388     
   4158127311.8245053     
   4044175367.6542416     
   3943148032.1104031     
   3856619427.7375870     
   3786635005.7163272     
   3931824954.1764617     
   3872954758.5156426     
   3836531774.0124693     
   3825042198.7311645     
   3841667240.4321651     
   4479359280.3692360     
   4359311313.0757208     
   4242555919.6732888     
   4128337737.6841412     
   4015979470.2101355     
   4098404299.9320130     
   4001844686.0491166     
   3906971741.3692713     
   3813648460.5925856     
   3721830912.4385700     
   3868124030.9903388     
   3806903103.5927901     
   3747294527.1813006     
   3689575067.2437768     
   3634098273.4707155     
   3786635005.7163272     
   3772876942.3902125     
   3761637565.6527157     
   3753186754.9197474     
   3747828704.7468529     
   3841667240.4321651     
   3884262377.2483993     
   3930313406.3574982     
   3979594028.0607448     
   4031919240.1360707     
   4015979470.2101355     
   3834808881.2567401     
   3655845597.1270752     
   3478932175.4783430     
   3303909549.0202041     
   3721830912.4385700     
   3551356114.0597415     
   3382990097.0432730     
   3216776945.5871739     
   3052818496.4097891     
   3634098273.4707155     
   3500462306.3393865     
   3372718678.0135150     
   3251620274.0425935     
   3138063518.1488976     
   3747828704.7468529     
   3672151167.3169222     
   3607513768.4958439     
   3554970124.9905133     
   3515593913.2431898     
   4031919240.1360707     
   4024292507.3273349     
   4031458543.2290578     
   4054157435.2750549     
   4093020867.0155520     
   3303909549.0202041     
   3112100731.8158469     
   2930064543.1084428     
   2763677396.0027404     
   2621073887.5906959     
   3052818496.4097891     
   2828579992.0571055     
   2604416473.4899902     
   2380790907.9020133     
   2158516999.7003717     
   3138063518.1488976     
   2962624730.7734952     
   2800708530.2293591     
   2654845569.6213446     
   2528057931.0344954     
   3515593913.2431898     
   3441793345.7113400     
   3402431649.5319552     
   3401311714.8237963     
   3441904739.4609194     
   4093020867.0155520     
   4136106592.1431131     
   4230623582.1825352     
   4379609747.5084648     
   4585540080.2967844     
   2621073887.5906959     
   2519994509.9648733     
   2583738523.6209502     
   2872068102.9326611     
   3407544776.7653174     
   2158516999.7003717     
   1785192924.9472463     
   1469440956.4971406     
   1302320640.8204319     
   1396752991.9293599     
   2528057931.0344954     
   2203148236.0989389     
   1911438408.2626905     
   1670045453.3002145     
   1503006589.4830711     
   3441904739.4609194     
   3357555575.8325210     
   3360407449.9557347     
   3462032709.4170237     
   3670456549.1462831     
   4585540080.2967844     
   4776435761.8563242     
   5096381677.0253038     
   5559973647.7971544     
   6179909919.2962360     
   3624541866.4239750     
   3718597590.6949754     
   3823836298.0700979     
   3940216211.2485933     
   4067663781.2869630     
   3138160443.3400602     
   3255017447.4962797     
   3381272769.7923374     
   3516474846.9875064     
   3660180804.1346312     
   2695413901.8753986     
   2830571600.3529534     
   2973072599.6172123     
   3121849154.3741231     
   3276001086.5313306     
   2299809225.7928128     
   2450061992.2608552     
   2605118093.1056690     
   2763069496.0294876     
   2922494396.5111828     
   1956577844.3658409     
   2120447247.5143974     
   2285801743.2148676     
   2449701543.8999968     
   2610196981.8638201     
   4067663781.2869630     
   4108058209.4983044     
   4146426537.9486065     
   4181819352.8897934     
   4213457535.2310896     
   3660180804.1346312     
   3700434205.4538918     
   3739764836.0328255     
   3777260938.6649690     
   3812165973.8485222     
   3276001086.5313306     
   3321119530.1516833     
   3366707875.0030408     
   3411951065.1557384     
   3456181652.4610662     
   2922494396.5111828     
   2977494772.8868089     
   3034633023.2776852     
   3093238309.9472752     
   3152784116.8404694     
   2610196981.8638201     
   2679613402.1942911     
   2753047009.6118069     
   2829993495.5647140     
   2910088580.4424930     
   4213457535.2310896     
   4129557918.0072384     
   4054862612.9142280     
   3988904796.6595106     
   3931824954.1764617     
   3812165973.8485222     
   3763012032.5736480     
   3721967827.0080409     
   3688779420.6348920     
   3663574752.6185789     
   3456181652.4610662     
   3434816242.2616067     
   3419876258.3049946     
   3411223304.7975054     
   3408914754.7497377     
   3152784116.8404694     
   3152623844.9560313     
   3156414644.0874143     
   3164070081.0240698     
   3175572120.1810932     
   2910088580.4424930     
   2925221824.2508950     
   2940884675.5092888     
   2957011183.0443211     
   2973544845.9487643     
   3931824954.1764617     
   3872954758.5156426     
   3836531774.0124693     
   3825042198.7311645     
   3841667240.4321651     
   3663574752.6185789     
   3636586036.6067700     
   3624106268.0758314     
   3626944894.2547722     
   3646192147.8451362     
   3408914754.7497377     
   3393982204.7902374     
   3385003697.4623289     
   3382083829.4546852     
   3385392346.5783362     
   3175572120.1810932     
   3155176903.7759533     
   3130769600.8544068     
   3102352014.7078347     
   3069958834.2953310     
   2973544845.9487643     
   2934657868.9236255     
   2879762126.5299873     
   2808827712.5193229     
   2721970197.4636097     
   3841667240.4321651     
   3884262377.2483993     
   3930313406.3574982     
   3979594028.0607448     
   4031919240.1360707     
   3646192147.8451362     
   3652723323.5513325     
   3662912989.8594713     
   3676915066.5401282     
   3694887256.9011822     
   3385392346.5783362     
   3357853828.7907410     
   3334949996.4455175     
   3316945317.4387136     
   3304118660.5344629     
   3069958834.2953310     
   3007122107.1671834     
   2951246907.2584147     
   2902443757.7484984     
   2860867463.2942333     
   2721970197.4636097     
   2617493525.4796557     
   2524251446.5538816     
   2442055548.9717689     
   2370759429.1742787     
   4031919240.1360707     
   4024292507.3273349     
   4031458543.2290578     
   4054157435.2750549     
   4093020867.0155520     
   3694887256.9011822     
   3659286682.5546937     
   3635687103.9615684     
   3624858307.0344906     
   3627545535.6418624     
   3304118660.5344629     
   3243136821.9038954     
   3192106066.2410865     
   3151640421.8304381     
   3122403337.8226767     
   2860867463.2942333     
   2775636399.0278001     
   2699304119.8146906     
   2632163998.2338972     
   2574603993.4264359     
   2370759429.1742787     
   2260103926.1813412     
   2158668125.7325130     
   2066315137.1642182     
   1982985950.3050735     
   4093020867.0155520     
   4136106592.1431131     
   4230623582.1825352     
   4379609747.5084648     
   4585540080.2967844     
   3627545535.6418624     
   3651412233.6918969     
   3703974236.5308356     
   3786781395.6823540     
   3901341198.0678587     
   3122403337.8226767     
   3116830605.6557298     
   3121143451.5296674     
   3135756239.5459208     
   3161123918.0930185     
   2574603993.4264359     
   2525910912.8667965     
   2470957501.4860978     
   2409817168.1397834     
   2342603568.5952120     
   1982985950.3050735     
   1875372582.7506404     
   1746953922.8147991     
   1598946433.9832122     
   1433759676.5900741     
   4585540080.2967844     
   4776435761.8563242     
   5096381677.0253038     
   5559973647.7971544     
   6179909919.2962360     
   3901341198.0678587     
   4037785009.5751128     
   4246617524.8952618     
   4537932030.4404554     
   4921701572.3029966     
   3161123918.0930185     
   3220642883.4299569     
   3305149174.0504818     
   3418576510.6751237     
   3565349433.2444253     
   2342603568.5952120     
   2291782378.9896049     
   2229583571.9023776     
   2156008117.4269848     
   2071210814.7329841     
   1433759676.5900741     
   1241686852.3617797     
   1040303908.0242966     
   880742216.16695035     
   866137085.25552213     
   1956577844.3658409     
   2120447247.5143974     
   2285801743.2148676     
   2449701543.8999968     
   2610196981.8638201     
   1655433225.2828445     
   1822035895.9386535     
   1990419141.1843498     
   2157902852.1481919     
   2322737210.5907583     
   1395887294.8883185     
   1573622973.2061243     
   1752395794.2490947     
   1930214436.7694023     
   2105835584.9800060     
   1210077033.2426333     
   1402455416.9997194     
   1594397586.4207454     
   1785132542.7125719     
   1974205069.8571029     
   1140218509.8054619     
   1339032923.4167969     
   1538088956.2615008     
   1737386608.3395734     
   1936925879.6510131     
   2610196981.8638201     
   2679613402.1942911     
   2753047009.6118069     
   2829993495.5647140     
   2910088580.4424930     
   2322737210.5907583     
   2410676699.4873943     
   2500804747.5338163     
   2592735944.0431886     
   2686189933.3058319     
   2105835584.9800060     
   2210342738.7142239     
   2314784744.3790340     
   2418927846.2716088     
   2522603398.9188590     
   1974205069.8571029     
   2092261626.9902940     
   2207804497.7066064     
   2320759148.6173062     
   2431072815.6475496     
   1936925879.6510131     
   2064647710.4459763     
   2187626341.2448258     
   2305861772.0475621     
   2419354002.8541861     
   2910088580.4424930     
   2925221824.2508950     
   2940884675.5092888     
   2957011183.0443211     
   2973544845.9487643     
   2686189933.3058319     
   2707652706.8795590     
   2730793103.1704316     
   2755585088.7496295     
   2782008306.8654280     
   2522603398.9188590     
   2550908474.4309769     
   2582107953.0065789     
   2616199265.6671300     
   2653182170.5093980     
   2431072815.6475496     
   2465224103.2370744     
   2503515937.1578908     
   2545950797.4354224     
   2592531550.0566545     
   2419354002.8541861     
   2456679784.1500659     
   2499402646.4178724     
   2547522589.6576018     
   2601039613.8692527     
   2973544845.9487643     
   2934657868.9236255     
   2879762126.5299873     
   2808827712.5193229     
   2721970197.4636097     
   2782008306.8654280     
   2750060544.5037971     
   2711964381.9068508     
   2667577886.4025164     
   2616790670.2023416     
   2653182170.5093980     
   2639839178.8116179     
   2631734598.6096377     
   2628922059.2351189     
   2631464701.2460451     
   2592531550.0566545     
   2601457155.5732040     
   2627119011.6749835     
   2669587035.9660282     
   2728919390.9087477     
   2601039613.8692527     
   2626947231.3776278     
   2680994009.0507870     
   2763179946.8887253     
   2873505044.8914456     
   2721970197.4636097     
   2617493525.4796557     
   2524251446.5538816     
   2442055548.9717689     
   2370759429.1742787     
   2616790670.2023416     
   2558940243.6724095     
   2509804591.1698241     
   2469369395.4590092     
   2437638633.0880122     
   2631464701.2460451     
   2623842545.9840765     
   2621786306.4362416     
   2625299166.6313376     
   2634387439.3647041     
   2728919390.9087477     
   2772226618.5803585     
   2817495995.6054688     
   2864725164.7989173     
   2913912398.6837826     
   2873505044.8914456     
   2967439667.6398740     
   3059630052.2016182     
   3150076198.5766749     
   3238778106.7650466     
   2370759429.1742787     
   2260103926.1813412     
   2158668125.7325130     
   2066315137.1642182     
   1982985950.3050735     
   2437638633.0880122     
   2368022157.7081342     
   2308115519.5037642     
   2257998863.1195221     
   2217793235.0393820     
   2634387439.3647041     
   2608422585.3745675     
   2591797857.6864061     
   2584565814.1567540     
   2586785250.7941823     
   2913912398.6837826     
   2929396178.0111465     
   2953178512.7169147     
   2985268733.7984481     
   3025676156.6577892     
   3238778106.7650466     
   3292629329.7134132     
   3353549043.0197730     
   3421537246.6841297     
   3496593940.7064819     
   1982985950.3050735     
   1875372582.7506404     
   1746953922.8147991     
   1598946433.9832122     
   1433759676.5900741     
   2217793235.0393820     
   2139951216.3861277     
   2054942918.8677359     
   1962707296.6066179     
   1863220394.2234969     
   2586785250.7941823     
   2561701489.3639846     
   2547606680.6035347     
   2544657754.1885948     
   2552960610.2790575     
   3025676156.6577892     
   3052756306.9964724     
   3107581187.0682964     
   3190167170.7303243     
   3300482880.4170251     
   3496593940.7064819     
   3568909125.8740168     
   3685994029.1566648     
   3847848650.5544362     
   4054472990.0673132     
   1433759676.5900741     
   1241686852.3617797     
   1040303908.0242966     
   880742216.16695035     
   866137085.25552213     
   1863220394.2234969     
   1733722875.9381239     
   1597481392.9570162     
   1460795725.5382364     
   1335725017.0628710     
   2552960610.2790575     
   2549907039.5970793     
   2570888907.6432371     
   2616413423.1221189     
   2687011035.6666303     
   3300482880.4170251     
   3415130611.3288193     
   3581937925.7046723     
   3800523259.5099993     
   4070473036.6606512     
   4054472990.0673132     
   4286372363.4497662     
   4602577037.7915688     
   5003087013.0926991     
   5487902289.3531981     
   1140218509.8054619     
   1339032923.4167969     
   1538088956.2615008     
   1737386608.3395734     
   1936925879.6510131     
   1210077033.0157270     
   1402455416.7812095     
   1594397586.2086477     
   1785132542.5055664     
   1974205069.6544592     
   1395887294.5106449     
   1573622972.8279972     
   1752395793.8708239     
   1930214436.3909109     
   2105835584.6013420     
   1655433224.8348250     
   1822035895.4723790     
   1990419140.7030447     
   2157902851.6537404     
   2322737210.0845323     
   1956577843.9047182     
   2120447247.0173719     
   2285801742.6867986     
   2449701543.3440127     
   2610196981.2821627     
   1936925879.6510131     
   2064647710.4459763     
   2187626341.2448258     
   2305861772.0475621     
   2419354002.8541861     
   1974205069.6544592     
   2092261626.7926581     
   2207804497.5157118     
   2320759148.4351702     
   2431072815.4762955     
   2105835584.6013420     
   2210342738.3405538     
   2314784744.0142732     
   2418927845.9201531     
   2522603398.5852890     
   2322737210.0845323     
   2410676698.9799299     
   2500804747.0312214     
   2592735943.5522823     
   2686189932.8337555     
   2610196981.2821627     
   2679613401.6004672     
   2753047009.0135083     
   2829993494.9706917     
   2910088579.8620920     
   2419354002.8541861     
   2456679784.1500659     
   2499402646.4178724     
   2547522589.6576018     
   2601039613.8692527     
   2431072815.4762955     
   2465224103.1283360     
   2503515937.1227102     
   2545950797.4850049     
   2592531550.2022600     
   2522603398.5852890     
   2550908474.1990237     
   2582107952.8973937     
   2616199265.7022672     
   2653182170.7106457     
   2686189932.8337555     
   2707652706.5175371     
   2730793102.9481106     
   2755585088.6973200     
   2782008307.0139441     
   2910088579.8620920     
   2925221823.7574053     
   2940884675.1385345     
   2957011182.8328815     
   2973544845.9338722     
   2601039613.8692527     
   2626947231.3776278     
   2680994009.0507870     
   2763179946.8887253     
   2873505044.8914456     
   2592531550.2022600     
   2601457155.8356357     
   2627119012.0739899     
   2669587036.5201440     
   2728919391.6356015     
   2653182170.7106457     
   2639839179.2369246     
   2631734599.3084159     
   2628922060.2560949     
   2631464702.6368961     
   2782008307.0139441     
   2750060544.9438777     
   2711964382.7198763     
   2667577887.6707945     
   2616790672.0082822     
   2973544845.9338722     
   2934657869.2034101     
   2879762127.2052603     
   2808827713.6882944     
   2721970199.2190251     
   2873505044.8914456     
   2967439667.6398740     
   3059630052.2016182     
   3150076198.5766749     
   3238778106.7650466     
   2728919391.6356015     
   2772226619.5384297     
   2817495996.8229394     
   2864725166.3042955     
   2913912400.5058403     
   2631464702.6368961     
   2623842547.8270626     
   2621786308.7861285     
   2625299169.5426192     
   2634387442.8914852     
   2616790672.0082822     
   2558940246.0928116     
   2509804594.2842813     
   2469369399.3456168     
   2437638637.8231573     
   2721970199.2190251     
   2617493527.8758693     
   2524251449.6833954     
   2442055552.9242334     
   2370759434.0368237     
   3238778106.7650466     
   3292629329.7134132     
   3353549043.0197730     
   3421537246.6841297     
   3496593940.7064819     
   2913912400.5058403     
   2929396180.2262340     
   2953178515.4248848     
   2985268737.0990353     
   3025676160.6510396     
   2634387442.8914852     
   2608422589.6455379     
   2591797862.8991523     
   2584565820.5082636     
   2586785258.4821062     
   2437638637.8231573     
   2368022163.3787928     
   2308115526.3980474     
   2257998871.5268760     
   2217793245.2541094     
   2370759434.0368237     
   2260103931.7744718     
   2158668132.3785915     
   2066315145.1879044     
   1982985960.0441177     
   3496593940.7064819     
   3568909125.8740168     
   3685994029.1566648     
   3847848650.5544362     
   4054472990.0673132     
   3025676160.6510396     
   3052756311.2255096     
   3107581191.6772175     
   3190167175.8725562     
   3300482886.2587032     
   2586785258.4821062     
   2561701497.7636781     
   2547606690.0518451     
   2544657765.0265403     
   2552960622.8532910     
   2217793245.2541094     
   2139951227.8387918     
   2054942932.1610067     
   1962707312.3506801     
   1863220413.0315590     
   1982985960.0441177     
   1875372593.3770540     
   1746953934.8678412     
   1598946447.8187482     
   1433759692.2142975     
   4054472990.0673132     
   4286372363.4497662     
   4602577037.7915688     
   5003087013.0926991     
   5487902289.3531981     
   3300482886.2587032     
   3415130615.6953936     
   3581937928.6780691     
   3800523261.1074176     
   4070473036.8078046     
   2552960622.8532910     
   2549907049.7288504     
   2570888915.3332887     
   2616413428.1158209     
   2687011037.3427758     
   1863220413.0315590     
   1733722892.1358280     
   1597481406.1535621     
   1460795734.2501900     
   1335725017.8341160     
   1433759692.2142975     
   1241686863.1896474     
   1040303911.2121936     
   880742204.94325137     
   866137051.65132606     
   1956577843.9047182     
   2120447247.0173719     
   2285801742.6867986     
   2449701543.3440127     
   2610196981.2821627     
   2299809225.3572145     
   2450061991.7774997     
   2605118092.5772038     
   2763069495.4576983     
   2922494395.8973374     
   2695413901.4920993     
   2830571599.9176855     
   2973072599.1297331     
   3121849153.8339429     
   3276001085.9377952     
   3138160443.0282722     
   3255017447.1350522     
   3381272769.3784614     
   3516474846.5177307     
   3660180803.6056533     
   3624541866.1985784     
   3718597590.4284215     
   3823836297.7564549     
   3940216210.8816943     
   4067663780.8603940     
   2610196981.2821627     
   2679613401.6004672     
   2753047009.0135083     
   2829993494.9706917     
   2910088579.8620920     
   2922494395.8973374     
   2977494772.2419567     
   3034633022.6072927     
   3093238309.2577825     
   3152784116.1389413     
   3276001085.9377952     
   3321119529.5108075     
   3366707874.3179827     
   3411951064.4304371     
   3456181651.6999831     
   3660180803.6056533     
   3700434204.8651552     
   3739764835.3854885     
   3777260937.9607587     
   3812165973.0895615     
   4067663780.8603940     
   4108058209.0037661     
   4146426537.3857503     
   4181819352.2586942     
   4213457534.5321584     
   2910088579.8620920     
   2925221823.7574053     
   2940884675.1385345     
   2957011182.8328815     
   2973544845.9338722     
   3152784116.1389413     
   3152623844.2769718     
   3156414643.4548125     
   3164070080.4628816     
   3175572119.7171993     
   3456181651.6999831     
   3434816241.4680290     
   3419876257.4917297     
   3411223303.9786339     
   3408914753.9406176     
   3812165973.0895615     
   3763012031.7435346     
   3721967826.1091151     
   3688779419.6707721     
   3663574751.5941753     
   4213457534.5321584     
   4129557917.2186260     
   4054862612.0285978     
   3988904795.6703501     
   3931824953.0779462     
   2973544845.9338722     
   2934657869.2034101     
   2879762127.2052603     
   2808827713.6882944     
   2721970199.2190251     
   3175572119.7171993     
   3155176903.4597120     
   3130769600.7503204     
   3102352014.8786983     
   3069958834.8012924     
   3408914753.9406176     
   3393982203.9962425     
   3385003696.7210588     
   3382083828.8056560     
   3385392346.0630283     
   3663574751.5941753     
   3636586035.4931521     
   3624106266.8874459     
   3626944893.0103059     
   3646192146.5674524     
   3931824953.0779462     
   3872954757.2569466     
   3836531772.5815854     
   3825042197.1190195     
   3841667238.6321573     
   2721970199.2190251     
   2617493527.8758693     
   2524251449.6833954     
   2442055552.9242334     
   2370759434.0368237     
   3069958834.8012924     
   3007122107.9864473     
   2951246908.4530706     
   2902443759.3817062     
   2860867465.4310942     
   3385392346.0630283     
   3357853828.3032641     
   3334949996.0169997     
   3316945317.1033926     
   3304118660.3305154     
   3646192146.5674524     
   3652723322.0411544     
   3662912988.1150250     
   3676915064.5646443     
   3694887254.7035027     
   3841667238.6321573     
   3884262374.9687610     
   3930313403.5629902     
   3979594024.7235861     
   4031919236.2360444     
   2370759434.0368237     
   2260103931.7744718     
   2158668132.3785915     
   2066315145.1879044     
   1982985960.0441177     
   2860867465.4310942     
   2775636401.1052227     
   2699304122.0728440     
   2632164000.9301744     
   2574603996.8413510     
   3304118660.3305154     
   3243136820.9994926     
   3192106064.7840381     
   3151640419.9867020     
   3122403335.7786260     
   3694887254.7035027     
   3659286679.1541061     
   3635687099.3982430     
   3624858301.3611283     
   3627545528.9243913     
   4031919236.2360444     
   4024292501.8463378     
   4031458536.0810213     
   4054157426.3777871     
   4093020856.2917109     
   1982985960.0441177     
   1875372593.3770540     
   1746953934.8678412     
   1598946447.8187482     
   1433759692.2142975     
   2574603996.8413510     
   2525910915.7599239     
   2470957504.3390288     
   2409817171.4216027     
   2342603572.7566257     
   3122403335.7786260     
   3116830602.0357752     
   3121143446.6620007     
   3135756233.7763853     
   3161123911.7841191     
   3627545528.9243913     
   3651412224.6679769     
   3703974225.3174124     
   3786781382.4050174     
   3901341182.8530607     
   4093020856.2917109     
   4136106578.6302314     
   4230623565.7279878     
   4379609727.9465532     
   4585540057.4383354     
   1433759692.2142975     
   1241686863.1896474     
   1040303911.2121936     
   880742204.94325137     
   866137051.65132606     
   2342603572.7566257     
   2291782377.2474566     
   2229583564.6417403     
   2156008105.0304813     
   2071210797.5701976     
   3161123911.7841191     
   3220642870.1027746     
   3305149153.7475791     
   3418576483.1181250     
   3565349397.7562985     
   3901341182.8530607     
   4037784987.9037294     
   4246617496.0979624     
   4537931992.9397850     
   4921701523.4862547     
   4585540057.4383354     
   4776435734.9878807     
   5096381644.6520767     
   5559973606.7978868     
   6179909864.8192167     
   3624541866.1985784     
   3718597590.4284215     
   3823836297.7564549     
   3940216210.8816943     
   4067663780.8603940     
   4133217281.5688868     
   4222749401.6029897     
   4318120205.2380829     
   4417674254.1470490     
   4519958402.5462751     
   4642517940.9529495     
   4753810957.6271009     
   4866149074.2746382     
   4976880196.5350990     
   5084064901.2466106     
   5150899130.1891193     
   5309925803.2048769     
   5465525630.9264088     
   5614773071.5300732     
   5756179457.1753321     
   5658087457.7587852     
   5890236681.6904945     
   6114725589.7792034     
   6329058063.5274420     
   6532985864.4275475     
   4067663780.8603940     
   4108058209.0037661     
   4146426537.3857503     
   4181819352.2586942     
   4213457534.5321584     
   4519958402.5462751     
   4531535685.0639725     
   4547890000.1952066     
   4566530921.3621092     
   4585764199.6898355     
   5084064901.2466106     
   5045344458.2023640     
   5016878001.1373320     
   4993479770.7530642     
   4971998298.2560978     
   5756179457.1753321     
   5644157624.6447678     
   5547658551.6468086     
   5457676210.4220161     
   5368708479.4542475     
   6532985864.4275475     
   6323329380.1486940     
   6135290919.7227478     
   5955081935.9171896     
   5773735041.1644249     
   4213457534.5321584     
   4129557917.2186260     
   4054862612.0285978     
   3988904795.6703501     
   3931824953.0779462     
   4585764199.6898355     
   4470576294.1295366     
   4360932170.2595224     
   4256723796.7311082     
   4158127310.9218111     
   4971998298.2560978     
   4833041081.0209684     
   4697448789.4237385     
   4565256519.1221600     
   4436597901.3127031     
   5368708479.4542475     
   5213544458.2706032     
   5060879475.6727896     
   4910741273.3390188     
   4763190282.0726147     
   5773735041.1644249     
   5609623998.2288313     
   5448311218.4189882     
   5289676364.8593750     
   5133663955.7264013     
   3931824953.0779462     
   3872954757.2569466     
   3836531772.5815854     
   3825042197.1190195     
   3841667238.6321573     
   4158127310.9218111     
   4044175366.6080408     
   3943148030.8986487     
   3856619426.3362422     
   3786635004.0981855     
   4436597901.3127031     
   4285962501.2668347     
   4140618444.6448355     
   4001106373.7656779     
   3868124030.0036712     
   4763190282.0726147     
   4596718186.2819223     
   4430405286.6011534     
   4264285388.8988500     
   4098404299.9883208     
   5133663955.7264013     
   4973203374.1612577     
   4810410907.9651575     
   4645618177.7511854     
   4479359281.7844687     
   3841667238.6321573     
   3884262374.9687610     
   3930313403.5629902     
   3979594024.7235861     
   4031919236.2360444     
   3786635004.0981855     
   3772876940.2428713     
   3761637562.9216280     
   3753186751.5531478     
   3747828700.6973176     
   3868124030.0036712     
   3806903102.1223021     
   3747294525.1676736     
   3689575064.6232505     
   3634098270.1768970     
   4098404299.9883208     
   4001844685.7695074     
   3906971740.7171693     
   3813648459.5213823     
   3721830910.8927064     
   4479359281.7844687     
   4359311314.3763380     
   4242555920.8706417     
   4128337738.7774405     
   4015979471.1870952     
   4031919236.2360444     
   4024292501.8463378     
   4031458536.0810213     
   4054157426.3777871     
   4093020856.2917109     
   3747828700.6973176     
   3672151161.6154237     
   3607513761.0055437     
   3554970115.5699563     
   3515593901.7491279     
   3634098270.1768970     
   3500462301.5843005     
   3372718671.6440954     
   3251620265.8850656     
   3138063508.0074520     
   3721830910.8927064     
   3551356111.5829473     
   3382990093.5602827     
   3216776941.0067716     
   3052818490.6195126     
   4015979471.1870952     
   3834808882.0679998     
   3655845597.8446603     
   3478932176.1888981     
   3303909549.8257084     
   4093020856.2917109     
   4136106578.6302314     
   4230623565.7279878     
   4379609727.9465532     
   4585540057.4383354     
   3515593901.7491279     
   3441793331.4860158     
   3402431632.3071041     
   3401311694.3221097     
   3441904715.3997746     
   3138063508.0074520     
   2962624718.3266959     
   2800708515.0790806     
   2654845551.3064647     
   2528057909.0365729     
   3052818490.6195126     
   2828579985.4517927     
   2604416465.9903016     
   2380790899.4769540     
   2158516990.4087729     
   3303909549.8257084     
   3112100734.0218215     
   2930064547.2472072     
   2763677402.8589044     
   2621073898.2585421     
   4585540057.4383354     
   4776435734.9878807     
   5096381644.6520767     
   5559973606.7978868     
   6179909864.8192167     
   3441904715.3997746     
   3357555551.8252625     
   3360407425.6285920     
   3462032683.4178033     
   3670456518.8544888     
   2528057909.0365729     
   2203148215.3072238     
   1911438389.0050476     
   1670045436.2501297     
   1503006575.7282798     
   2158516990.4087729     
   1785192919.2069752     
   1469440955.3418288     
   1302320644.9269376     
   1396752999.4098945     
   2621073898.2585421     
   2519994525.8215499     
   2583738543.0701971     
   2872068122.1227188     
   3407544790.9276557     
   5658087457.7587852     
   5890236681.6904945     
   6114725589.7792034     
   6329058063.5274420     
   6532985864.4275475     
   6492339024.7435894     
   6587195134.1323700     
   6757249198.8079433     
   6960455368.6788378     
   7170169987.2289724     
   7982197979.6555605     
   7735339279.7693834     
   7669792635.8297215     
   7670448601.1725683     
   7667428388.9906998     
   10128125122.021349     
   9321521775.1839123     
   8827130981.8132076     
   8445531559.5242319     
   8039096479.3690424     
   12930214388.950714     
   11338484844.621170     
   10210453082.303263     
   9275374212.9178562     
   8309212173.9069166     
   6532985864.4275475     
   6323329380.1486940     
   6135290919.7227478     
   5955081935.9171896     
   5773735041.1644249     
   7170169987.2289724     
   6910536367.3892536     
   6658538492.9161263     
   6410341843.3210325     
   6162820100.9245567     
   7667428388.9906998     
   7384539301.1763391     
   7106905619.9163218     
   6834602124.2492085     
   6567813997.2160940     
   8039096479.3690424     
   7752780834.2309504     
   7481925094.3658953     
   7224630491.3175344     
   6980889673.3107567     
   8309212173.9069166     
   8027630451.4653645     
   7787619188.4244642     
   7578756580.8500195     
   7396164623.4048357     
   5773735041.1644249     
   5609623998.2288313     
   5448311218.4189882     
   5289676364.8593750     
   5133663955.7264013     
   6162820100.9245567     
   6005613497.5282736     
   5848799105.3394117     
   5692375312.5949640     
   5536341663.2727680     
   6567813997.2160940     
   6416810336.7304506     
   6263908134.7305632     
   6109057041.1026297     
   5952238451.1571398     
   6980889673.3107567     
   6836439742.6433754     
   6687914629.6953630     
   6535084759.6636257     
   6377862910.1362791     
   7396164623.4048357     
   7259381737.6805201     
   7116476916.4430132     
   6966944027.1028938     
   6810598719.5512695     
   5133663955.7264013     
   4973203374.1612577     
   4810410907.9651575     
   4645618177.7511854     
   4479359281.7844687     
   5536341663.2727680     
   5392735899.0368633     
   5249490327.4170332     
   5106719282.6103878     
   4964602660.3592396     
   5952238451.1571398     
   5813460685.2847309     
   5676747122.7520819     
   5542090641.4127731     
   5409525411.8040047     
   6377862910.1362791     
   6231491777.2426043     
   6088120057.3095493     
   5947776968.4369059     
   5810599867.1926718     
   6810598719.5512695     
   6644122773.4332838     
   6480967416.6185894     
   6321372084.3173218     
   6165831705.1650877     
   4479359281.7844687     
   4359311314.3763380     
   4242555920.8706417     
   4128337738.7774405     
   4015979471.1870952     
   4964602660.3592396     
   4836804807.5496683     
   4709745437.7532454     
   4582991982.5567122     
   4456185675.9728680     
   5409525411.8040047     
   5274042966.3589478     
   5137569359.5877819     
   4999873674.2488203     
   4860796123.2809372     
   5810599867.1926718     
   5668657600.2498960     
   5524548404.9629879     
   5378155053.6535606     
   5229433458.9486599     
   6165831705.1650877     
   6019355749.6193352     
   5869921658.7129087     
   5717460821.2424326     
   5561985186.3846207     
   4015979471.1870952     
   3834808882.0679998     
   3655845597.8446603     
   3478932176.1888981     
   3303909549.8257084     
   4456185675.9728680     
   4270060956.1311593     
   4085155930.5924020     
   3901397042.0999541     
   3718710992.4101548     
   4860796123.2809372     
   4671148093.5739422     
   4482192313.1417599     
   4293906585.6492858     
   4106270167.4305396     
   5229433458.9486599     
   5037929159.7217331     
   4846956440.8860579     
   4656512967.8850813     
   4466598967.9709320     
   5561985186.3846207     
   5370413123.8619671     
   5179525201.3041134     
   4989308391.5984211     
   4799753392.4476185     
   3303909549.8257084     
   3112100734.0218215     
   2930064547.2472072     
   2763677402.8589044     
   2621073898.2585421     
   3718710992.4101548     
   3553306704.0966249     
   3393429122.4844251     
   3240916560.5061889     
   3098286647.2877612     
   4106270167.4305396     
   3950569997.4922595     
   3798706926.6534581     
   3650986794.3472404     
   3507927887.9991980     
   4466598967.9709320     
   4303569053.4697123     
   4144346222.3317342     
   3989167797.9884534     
   3838574667.9789586     
   4799753392.4476185     
   4612254580.5179234     
   4429826277.4870253     
   4253741003.0070243     
   4086070847.2722011     
   2621073898.2585421     
   2519994525.8215499     
   2583738543.0701971     
   2872068122.1227188     
   3407544790.9276557     
   3098286647.2877612     
   2990329240.4843979     
   2911846522.1700234     
   2873115056.7234635     
   2884918915.9889097     
   3507927887.9991980     
   3355070811.7182550     
   3183453459.5761743     
   2994128137.4296803     
   2795731337.9412818     
   3838574667.9789586     
   3558067870.6537256     
   3240623087.5188603     
   2917102616.8232660     
   2678921082.7282476     
   4086070847.2722011     
   3578430498.9622393     
   3022370633.9838376     
   2511234401.2482862     
   2356370544.5454917     
 </DataArray>
 <DataArray  type="Float64" Name="strain" NumberOfComponents="3" format="ascii">
  0.20341887227061242        0.0000000000000000       0.12528985311754867     
  0.18662529677621323       -2.7308135792680297E-002   7.4308011564155438E-002
  0.16983172128181404       -4.4664475096748160E-002   3.5138598662588942E-002
  0.15303814578741481       -5.2069017912203572E-002   7.7816144128492089E-003
  0.13624457029301562       -4.9521764239046515E-002  -7.7629411850637930E-003
  0.15984123776469544        0.0000000000000000        9.6356987131417327E-002
  0.15318096516224960       -2.1831492833434260E-002   6.2634701892317957E-002
  0.14652069255980377       -3.6162575463184687E-002   3.7366593785298552E-002
  0.13986041995735790       -4.2993247889251282E-002   2.0552662810359092E-002
  0.13320014735491204       -4.2323510111634016E-002   1.2192908967499548E-002
  0.12647618198679761        0.0000000000000000        7.4126457246996319E-002
  0.12659096075655832       -1.6354849874188226E-002   5.5212342037262233E-002
  0.12670573952631900       -2.7660675829621222E-002   4.1394152439861269E-002
  0.12682051829607971       -3.3917477866298978E-002   3.2671888454793463E-002
  0.12693529706584039       -3.5125255984221511E-002   2.9045550082058790E-002
  0.10332370493691893        0.0000000000000000        5.8598263464285642E-002
  0.10685528355913934       -1.0878206914942193E-002   5.2040931998988224E-002
  0.11038686218135978       -1.9158776196057756E-002   4.7221274626277114E-002
  0.11391844080358023       -2.4841707843346689E-002   4.4139291346152361E-002
  0.11745001942580065       -2.7927001856809002E-002   4.2794982158613923E-002
   9.0383806615059376E-002   0.0000000000000000        4.9772405783285303E-002
   9.3973933569992743E-002  -5.4015639556961601E-003   5.3120471777495945E-002
   9.7564060524926083E-002  -1.0656876562494293E-002   5.4847960344546115E-002
  0.10115418747985944       -1.5765937820394402E-002   5.4954871484435806E-002
  0.10474431443479282       -2.0728747729396486E-002   5.3441205197165033E-002
  0.13624457029301562       -4.9521764239046515E-002  -7.7629411850637930E-003
  0.13305596885461929       -4.3035017077406583E-002  -3.4401302366613290E-003
  0.12986736741622298       -3.8621079427413316E-002  -4.9487351178221714E-004
  0.12667876597782665       -3.6279951289066609E-002   1.0728289895731297E-003
  0.12349016453943032       -3.6011632662366622E-002   1.2629772674051798E-003
  0.13320014735491204       -4.2323510111634016E-002   1.2192908967499548E-002
  0.12901116490362219       -3.8484353434611956E-002   1.2055274817303518E-002
  0.12482218245233231       -3.5806769162464037E-002   1.1294432864843943E-002
  0.12063320000104247       -3.4290757295190336E-002   9.9103831101208916E-003
  0.11644421754975262       -3.3936317832790788E-002   7.9031255531340633E-003
  0.12693529706584039       -3.5125255984221511E-002   2.9045550082058790E-002
  0.12250028002291695       -3.3933689791817281E-002   2.5358707940036695E-002
  0.11806526297999349       -3.2992458897514780E-002   2.1803004417011038E-002
  0.11363024593707005       -3.2301563301313965E-002   1.8378439512981709E-002
  0.10919522889414660       -3.1861003003214927E-002   1.5085013227948890E-002
  0.11745001942580065       -2.7927001856809002E-002   4.2794982158613923E-002
  0.11352331421250356       -2.9383026149022613E-002   3.6470169131538319E-002
  0.10959660899920648       -3.0178148632565512E-002   3.1030841144718969E-002
  0.10566990378590942       -3.0312369307437630E-002   2.6476998198156000E-002
  0.10174319857261234       -2.9785688173639052E-002   2.2808640291849324E-002
  0.10474431443479282       -2.0728747729396486E-002   5.3441205197165033E-002
  0.10208026747238205       -2.4832362506227945E-002   4.5389658391808238E-002
   9.9416220509971287E-002  -2.7363838367616251E-002   3.8977943047967700E-002
   9.6752173547560522E-002  -2.8323175313561304E-002   3.4206059165643482E-002
   9.4088126585149784E-002  -2.7710373344063219E-002   3.1074006744835500E-002
  0.12349016453943032       -3.6011632662366622E-002   1.2629772674051798E-003
  0.12093422297540188       -3.6527799378069284E-002   6.7698753498131314E-004
  0.11837828141137337       -3.6540127266930719E-002   6.1840811510255334E-005
  0.11582233984734491       -3.6048616328950719E-002  -5.8246290300784098E-004
  0.11326639828331642       -3.5053266564129659E-002  -1.2559236085730174E-003
  0.11644421754975262       -3.3936317832790788E-002   7.9031255531340633E-003
  0.11386515340154853       -3.3999253171537250E-002   7.5354593763652389E-003
  0.11128608925334442       -3.3735365707701359E-002   7.1507050222923557E-003
  0.10870702510514038       -3.3144655441283366E-002   6.7488624909152854E-003
  0.10612796095693630       -3.2227122372283146E-002   6.3299317822342049E-003
  0.10919522889414660       -3.1861003003214927E-002   1.5085013227948890E-002
  0.10660511097551001       -3.1470706965005098E-002   1.4758654582575925E-002
  0.10401499305687337       -3.0930604148472145E-002   1.4427276573642074E-002
  0.10142487513823673       -3.0240694553615992E-002   1.4090879201146964E-002
   9.8834757219600111E-002  -2.9400978180436577E-002   1.3749462465091192E-002
  0.10174319857261234       -2.9785688173639052E-002   2.2808640291849324E-002
   9.9154095697286199E-002  -2.8942160758473032E-002   2.2346573153613290E-002
   9.6564992821960086E-002  -2.8125842589242857E-002   2.1891555465559341E-002
   9.3975889946633945E-002  -2.7336733665948545E-002   2.1443587227687494E-002
   9.1386787071307818E-002  -2.6574833988590091E-002   2.1002668439997558E-002
   9.4088126585149784E-002  -2.7710373344063219E-002   3.1074006744835500E-002
   9.1512107566877221E-002  -2.6413614551940946E-002   3.0299215089477402E-002
   8.8936088548604644E-002  -2.5321081030013574E-002   2.9543541698044427E-002
   8.6360069530332040E-002  -2.4432772778281181E-002   2.8806986570536475E-002
   8.3784050512059477E-002  -2.3748689796743550E-002   2.8089549706953570E-002
  0.11326639828331642       -3.5053266564129659E-002  -1.2559236085730174E-003
  0.11056490390316820       -3.3927530456665661E-002  -8.7069016704124924E-004
  0.10786340952302009       -3.3044860490757208E-002  -6.4307525732942850E-005
  0.10516191514287190       -3.2405256666404550E-002   1.1632243153528871E-003
  0.10246042076272377       -3.2008718983607409E-002   2.8119053562151719E-003
  0.10612796095693630       -3.2227122372283146E-002   6.3299317822342049E-003
  0.10374843521028804       -3.1244866978042962E-002   6.2409960997037994E-003
  0.10136890946363981       -3.0459989735905330E-002   6.3748484843962755E-003
   9.8989383716991591E-002  -2.9872490645869991E-002   6.7314889363117927E-003
   9.6609857970343382E-002  -2.9482369707937217E-002   7.3109174554501499E-003
   9.8834757219600111E-002  -2.9400978180436577E-002   1.3749462465091192E-002
   9.6578838973897796E-002  -2.8562203499420361E-002   1.3232045647951843E-002
   9.4322920728195467E-002  -2.7875118981053292E-002   1.2739055765481309E-002
   9.2067002482493138E-002  -2.7339724625335661E-002   1.2270492817679841E-002
   8.9811084236790795E-002  -2.6956020432267164E-002   1.1826356804547092E-002
   9.1386787071307818E-002  -2.6574833988590091E-002   2.1002668439997558E-002
   8.9056115193997434E-002  -2.5879540020797655E-002   2.0102458477702409E-002
   8.6725443316687051E-002  -2.5290248226201278E-002   1.9028314317522207E-002
   8.4394771439376598E-002  -2.4806958604801106E-002   1.7780235959456828E-002
   8.2064099562066284E-002  -2.4429671156597124E-002   1.6358223403506515E-002
   8.3784050512059477E-002  -2.3748689796743550E-002   2.8089549706953570E-002
   8.1180263870587022E-002  -2.3196876542174921E-002   2.6852234588955859E-002
   7.8576477229114539E-002  -2.2705377471349313E-002   2.5242624140519046E-002
   7.5972690587642069E-002  -2.2274192584266703E-002   2.3260718361643055E-002
   7.3368903946169600E-002  -2.1903321880927001E-002   2.0906517252327950E-002
  0.10246042076272377       -3.2008718983607409E-002   2.8119053562151719E-003
   9.9933099433446859E-002  -3.1624702652600367E-002   2.6721097841908015E-003
   9.7405778104169949E-002  -3.1022662883618532E-002   2.6076990617398543E-003
   9.4878456774893066E-002  -3.0202599676661137E-002   2.6186731888611231E-003
   9.2351135445616128E-002  -2.9164513031728845E-002   2.7050321655555098E-003
   9.6609857970343382E-002  -2.9482369707937217E-002   7.3109174554501499E-003
   9.4191804591417350E-002  -2.9096437707575334E-002   6.4603059004999241E-003
   9.1773751212491428E-002  -2.8521505430252350E-002   5.7528453966786408E-003
   8.9355697833565367E-002  -2.7757572875968587E-002   5.1885359439868411E-003
   8.6937644454639473E-002  -2.6804640044723937E-002   4.7673775424238451E-003
   8.9811084236790795E-002  -2.6956020432267164E-002   1.1826356804547092E-002
   8.7570065009772019E-002  -2.6568172762550163E-002   1.0235906105656820E-002
   8.5329045782753229E-002  -2.6020347976886453E-002   8.8563726594517653E-003
   8.3088026555734384E-002  -2.5312546075276041E-002   7.6877564659319393E-003
   8.0847007328715581E-002  -2.4444767057719030E-002   6.7300575250971717E-003
   8.2064099562066284E-002  -2.4429671156597124E-002   1.6358223403506515E-002
   8.0067880688510812E-002  -2.4039907817524922E-002   1.3998910399661651E-002
   7.8071661814955326E-002  -2.3519190523520469E-002   1.1918280850058314E-002
   7.6075442941399882E-002  -2.2867519274583602E-002   1.0116334754696393E-002
   7.4079224067844424E-002  -2.2084894070714234E-002   8.5930721135759544E-003
   7.3368903946169600E-002  -2.1903321880927001E-002   2.0906517252327950E-002
   7.1685251627633728E-002  -2.1511642872499834E-002   1.7749318782514512E-002
   7.0001599309097842E-002  -2.1018033070154367E-002   1.4938569968498447E-002
   6.8317946990561929E-002  -2.0422492473890996E-002   1.2474270810280456E-002
   6.6634294672026084E-002  -1.9725021083709493E-002   1.0356421307859742E-002
   9.2351135445616128E-002  -2.9164513031728845E-002   2.7050321655555098E-003
   8.9195203121643418E-002  -2.8041594515826884E-002   2.9355609819105566E-003
   8.6039270797670597E-002  -2.6967035695960734E-002   3.1335867128960415E-003
   8.2883338473697860E-002  -2.5940836572131233E-002   3.2991093585119924E-003
   7.9727406149725066E-002  -2.4962997144337140E-002   3.4321289187579929E-003
   8.6937644454639473E-002  -2.6804640044723937E-002   4.7673775424238451E-003
   8.3772986584187276E-002  -2.5774952546340102E-002   4.3026124433627189E-003
   8.0608328713734939E-002  -2.4780755990638781E-002   3.8528993367127062E-003
   7.7443670843282700E-002  -2.3822050377620113E-002   3.4182382224730024E-003
   7.4279012972830460E-002  -2.2898835707283904E-002   2.9986291006447452E-003
   8.0847007328715581E-002  -2.4444767057719030E-002   6.7300575250971717E-003
   7.7721178989564405E-002  -2.3508310576853486E-002   5.5828672639735288E-003
   7.4595350650413242E-002  -2.2594476285316814E-002   4.4982840730412588E-003
   7.1469522311262135E-002  -2.1703264183109323E-002   3.4763079523001186E-003
   6.8343693972110875E-002  -2.0834674270230946E-002   2.5169389017506150E-003
   7.4079224067844424E-002  -2.2084894070714234E-002   8.5930721135759544E-003
   7.1039780337774944E-002  -2.1241668607366676E-002   6.7763254437430143E-003
   6.8000336607705381E-002  -2.0408196579994743E-002   5.0697409218818275E-003
   6.4960892877635831E-002  -1.9584477988598366E-002   3.4733185479926924E-003
   6.1921449147566331E-002  -1.8770512833177627E-002   1.9870583220753316E-003
   6.6634294672026084E-002  -1.9725021083709493E-002   1.0356421307859742E-002
   6.3728790628818754E-002  -1.8975026637880088E-002   7.8829869826708698E-003
   6.0823286585611452E-002  -1.8221916874672658E-002   5.5672698832344991E-003
   5.7917782542404136E-002  -1.7465691794087548E-002   3.4092700095508105E-003
   5.5012278499196765E-002  -1.6706351396124530E-002   1.4089873616192072E-003
   7.9727406149725066E-002  -2.4962997144337140E-002   3.4321289187579929E-003
   7.6557454890772703E-002  -2.4141091117392155E-002   4.0491553672539204E-003
   7.3387503631820450E-002  -2.3582692196108507E-002   5.2723781863048269E-003
   7.0217552372868114E-002  -2.3287800380486799E-002   7.1017973759114894E-003
   6.7047601113915833E-002  -2.3256415670526831E-002   9.5374129360736859E-003
   7.4279012972830460E-002  -2.2898835707283904E-002   2.9986291006447452E-003
   7.1557196900568110E-002  -2.2120089382268060E-002   2.7121921146400774E-003
   6.8835380828305676E-002  -2.1594788805210707E-002   2.7158291314590688E-003
   6.6113564756043283E-002  -2.1322933976111930E-002   3.0095401511030379E-003
   6.3391748683780891E-002  -2.1304524894970700E-002   3.5933251735709160E-003
   6.8343693972110875E-002  -2.0834674270230946E-002   2.5169389017506150E-003
   6.5753890718807217E-002  -2.0099087647144465E-002   1.3370998389484468E-003
   6.3164087465503491E-002  -1.9606885414312922E-002   1.3121241123936755E-004
   6.0574284212199771E-002  -1.9358067571736508E-002  -1.1007233813764075E-003
   5.7984480958896134E-002  -1.9352634119415013E-002  -2.3587075388993850E-003
   6.1921449147566331E-002  -1.8770512833177627E-002   1.9870583220753316E-003
   5.9147536345490206E-002  -1.8078085912020619E-002  -7.6121459820707726E-005
   5.6373623543413992E-002  -1.7618982023415129E-002  -2.4814719743547937E-003
   5.3599710741337868E-002  -1.7393201167361254E-002  -5.2289932215270202E-003
   5.0825797939261695E-002  -1.7400743343858993E-002  -8.3186852013371337E-003
   5.5012278499196765E-002  -1.6706351396124530E-002   1.4089873616192072E-003
   5.1738133780616952E-002  -1.6057084176896635E-002  -1.5274717816673444E-003
   4.8463989062037083E-002  -1.5631078632517365E-002  -5.1222240253232798E-003
   4.5189844343457242E-002  -1.5428334762986141E-002  -9.3752693693484046E-003
   4.1915699624877345E-002  -1.5448852568302973E-002  -1.4286607813742858E-002
   6.7047601113915833E-002  -2.3256415670526831E-002   9.5374129360736859E-003
   5.8587074618556390E-002  -2.1156235111982613E-002   6.7333354265335377E-003
   5.0126548123197057E-002  -1.4654955750608156E-002   8.6299752851708433E-003
   4.1666021627837696E-002  -3.7525775864045707E-003   1.5227332511987879E-002
   3.3205495132478280E-002   1.1550899380629254E-002   2.6525407106981813E-002
   6.3391748683780891E-002  -2.1304524894970700E-002   3.5933251735709160E-003
   5.8722210907793115E-002  -2.0001479069391981E-002   1.7400127403064958E-003
   5.4052673131805395E-002  -1.5875714006978403E-002   2.7679603776062378E-003
   4.9383135355817676E-002  -8.9272297077303275E-003   6.6771680854715854E-003
   4.4713597579829845E-002   8.4397382835232904E-004   1.3467635863901872E-002
   5.7984480958896134E-002  -1.9352634119415013E-002  -2.3587075388993850E-003
   5.5286474604666569E-002  -1.8846723026801404E-002  -4.8396344618836240E-003
   5.2588468250436990E-002  -1.7096472263347984E-002  -6.2587586119162292E-003
   4.9890461896207432E-002  -1.4101881829055973E-002  -6.6160799889976307E-003
   4.7192455541977818E-002  -9.8629517239245956E-003  -5.9115985931275095E-003
   5.0825797939261695E-002  -1.7400743343858993E-002  -8.3186852013371337E-003
   4.8279865709176882E-002  -1.7691966984210578E-002  -1.3005606180036405E-002
   4.5733933479092062E-002  -1.8317230519718120E-002  -1.8450181683397592E-002
   4.3188001249007318E-002  -1.9276533950382008E-002  -2.4652411711420533E-002
   4.0642069018922436E-002  -2.0569877276201631E-002  -3.1612296264105638E-002
   4.1915699624877345E-002  -1.5448852568302973E-002  -1.4286607813742858E-002
   3.7702384221323937E-002  -1.6537210941619973E-002  -2.2757902414152098E-002
   3.3489068817770501E-002  -1.9537988776088061E-002  -3.3806308836836774E-002
   2.9275753414217079E-002  -2.4451186071707494E-002  -4.7431827081797218E-002
   2.5062438010663657E-002  -3.1276802828478445E-002  -6.3634457149032153E-002
   9.0383806615059376E-002   0.0000000000000000        4.9772405783285303E-002
   9.3973933569992743E-002  -5.4015639556961601E-003   5.3120471777495945E-002
   9.7564060524926083E-002  -1.0656876562494293E-002   5.4847960344546115E-002
  0.10115418747985944       -1.5765937820394402E-002   5.4954871484435806E-002
  0.10474431443479282       -2.0728747729396486E-002   5.3441205197165033E-002
   8.2431270931777337E-002   0.0000000000000000        4.4723179425604470E-002
   8.4629945586637695E-002  -4.5653596121507734E-003   4.8194046243553196E-002
   8.6828620241498053E-002  -9.0139122781700987E-003   5.0502585888516402E-002
   8.9027294896358439E-002  -1.3345657998057979E-002   5.1648798360494123E-002
   9.1225969551218783E-002  -1.7560596771814416E-002   5.1632683659486311E-002
   7.4240881797631164E-002   0.0000000000000000        4.0524879612852310E-002
   7.5506354406593493E-002  -3.7291552686053871E-003   4.4089102851772533E-002
   7.6771827015555835E-002  -7.3709479938459041E-003   4.6949249171882208E-002
   7.8037299624518150E-002  -1.0925378175721553E-002   4.9105318573181365E-002
   7.9302772233480492E-002  -1.4392445814232331E-002   5.0557311055669941E-002
   6.5812639212620844E-002   0.0000000000000000        3.7177506345028824E-002
   6.6603160029860095E-002  -2.8929509250600000E-003   4.0805641602153976E-002
   6.7393680847099374E-002  -5.7279837095217095E-003   4.4187950194643555E-002
   6.8184201664338639E-002  -8.5050983533851276E-003   4.7324432122497553E-002
   6.8974722481577905E-002  -1.1224294856650252E-002   5.0215087385715979E-002
   5.7146543176746382E-002   0.0000000000000000        3.4681059622134011E-002
   5.7920362456437557E-002  -2.0567465815146150E-003   3.8343662494697513E-002
   5.8694181736128725E-002  -4.0850194251975166E-003   4.2218688956800407E-002
   5.9468001015819894E-002  -6.0848185310487055E-003   4.6306139008442687E-002
   6.0241820295511062E-002  -8.0561438990681741E-003   5.0606012649624332E-002
  0.10474431443479282       -2.0728747729396486E-002   5.3441205197165033E-002
  0.10208026747238205       -2.4832362506227945E-002   4.5389658391808238E-002
   9.9416220509971287E-002  -2.7363838367616251E-002   3.8977943047967700E-002
   9.6752173547560522E-002  -2.8323175313561304E-002   3.4206059165643482E-002
   9.4088126585149784E-002  -2.7710373344063219E-002   3.1074006744835500E-002
   9.1225969551218783E-002  -1.7560596771814416E-002   5.1632683659486311E-002
   8.9974803282948004E-002  -2.1101258849630735E-002   4.6351276333184893E-002
   8.8723637014677240E-002  -2.3410174481698319E-002   4.2255798933647115E-002
   8.7472470746406489E-002  -2.4487343668017126E-002   3.9346251460873019E-002
   8.6221304478135724E-002  -2.4332766408587184E-002   3.7622633914862584E-002
   7.9302772233480492E-002  -1.4392445814232331E-002   5.0557311055669941E-002
   7.9010585124597091E-002  -1.7370155193033518E-002   4.7705650738729476E-002
   7.8718398015713675E-002  -1.9456510595780383E-002   4.5586018813800061E-002
   7.8426210906830260E-002  -2.0651512022472927E-002   4.4198415280881670E-002
   7.8134023797946844E-002  -2.0955159473111155E-002   4.3542840139974351E-002
   6.8974722481577905E-002  -1.1224294856650252E-002   5.0215087385715979E-002
   6.9187612997329243E-002  -1.3639051536436292E-002   4.9452781608441979E-002
   6.9400503513080580E-002  -1.5502846709862454E-002   4.8968602688426455E-002
   6.9613394028831904E-002  -1.6815680376928731E-002   4.8762550625669324E-002
   6.9826284544583242E-002  -1.7577552537635144E-002   4.8834625420170620E-002
   6.0241820295511062E-002  -8.0561438990681741E-003   5.0606012649624332E-002
   6.0505886901144515E-002  -9.9079478798390873E-003   5.1592668942322450E-002
   6.0769953506777948E-002  -1.1549182823944501E-002   5.2403550557526296E-002
   6.1034020112411394E-002  -1.2979848731384549E-002   5.3038657495236036E-002
   6.1298086718044847E-002  -1.4199945602159106E-002   5.3497989755451544E-002
   9.4088126585149784E-002  -2.7710373344063219E-002   3.1074006744835500E-002
   9.1512107566877221E-002  -2.6413614551940946E-002   3.0299215089477402E-002
   8.8936088548604644E-002  -2.5321081030013574E-002   2.9543541698044427E-002
   8.6360069530332040E-002  -2.4432772778281181E-002   2.8806986570536475E-002
   8.3784050512059477E-002  -2.3748689796743550E-002   2.8089549706953570E-002
   8.6221304478135724E-002  -2.4332766408587184E-002   3.7622633914862584E-002
   8.3731744278182779E-002  -2.3595244279758620E-002   3.6559683252151087E-002
   8.1242184078229862E-002  -2.2923578857881519E-002   3.5650531962153800E-002
   7.8752623878276917E-002  -2.2317770142955932E-002   3.4895180044870737E-002
   7.6263063678324000E-002  -2.1777818134981752E-002   3.4293627500301876E-002
   7.8134023797946844E-002  -2.0955159473111155E-002   4.3542840139974351E-002
   7.5865603525102701E-002  -2.0776874007576263E-002   4.2330099033152824E-002
   7.3597183252258558E-002  -2.0526076685749448E-002   4.1405838407834725E-002
   7.1328762979414415E-002  -2.0202767507630684E-002   4.0770058264019880E-002
   6.9060342706570271E-002  -1.9806946473219983E-002   4.0422758601708471E-002
   6.9826284544583242E-002  -1.7577552537635144E-002   4.8834625420170620E-002
   6.7913685307637001E-002  -1.7958503735393948E-002   4.7610462432482549E-002
   6.6001086070690773E-002  -1.8128574513617338E-002   4.6809461035086965E-002
   6.4088486833744532E-002  -1.8087764872305446E-002   4.6431621227983937E-002
   6.2175887596798304E-002  -1.7836074811458158E-002   4.6476943011173236E-002
   6.1298086718044847E-002  -1.4199945602159106E-002   5.3497989755451544E-002
   5.9875989625785650E-002  -1.5140133463211573E-002   5.2400773450140353E-002
   5.8453892533526453E-002  -1.5731072341485349E-002   5.1861399843910770E-002
   5.7031795441267269E-002  -1.5972762236980215E-002   5.1879868936762788E-002
   5.5609698349008085E-002  -1.5865203149696389E-002   5.2456180728696428E-002
   8.3784050512059477E-002  -2.3748689796743550E-002   2.8089549706953570E-002
   8.1180263870587022E-002  -2.3196876542174921E-002   2.6852234588955859E-002
   7.8576477229114539E-002  -2.2705377471349313E-002   2.5242624140519046E-002
   7.5972690587642069E-002  -2.2274192584266703E-002   2.3260718361643055E-002
   7.3368903946169600E-002  -2.1903321880927001E-002   2.0906517252327950E-002
   7.6263063678324000E-002  -2.1777818134981752E-002   3.4293627500301876E-002
   7.3451931034538315E-002  -2.1291812599954850E-002   3.3488352361068847E-002
   7.0640798390752657E-002  -2.0847843303870663E-002   3.2640680547648473E-002
   6.7829665746966972E-002  -2.0445910246729454E-002   3.1750612060040782E-002
   6.5018533103181314E-002  -2.0086013428531030E-002   3.0818146898245760E-002
   6.9060342706570271E-002  -1.9806946473219983E-002   4.0422758601708471E-002
   6.6371762716723168E-002  -1.9386748657734640E-002   4.0067801386040221E-002
   6.3683182726876036E-002  -1.8990309136392072E-002   4.0000346152436500E-002
   6.0994602737028933E-002  -1.8617627909192212E-002   4.0220392900897073E-002
   5.8306022747181822E-002  -1.8268704976135128E-002   4.0727941631422258E-002
   6.2175887596798304E-002  -1.7836074811458158E-002   4.6476943011173236E-002
   5.9939758917141518E-002  -1.7481684715514471E-002   4.6590581663870000E-002
   5.7703630237484718E-002  -1.7132774968913481E-002   4.7321620954882994E-002
   5.5467501557827925E-002  -1.6789345571654967E-002   4.8670060884212177E-002
   5.3231372878171153E-002  -1.6451396523739177E-002   5.0635901451857646E-002
   5.5609698349008085E-002  -1.5865203149696389E-002   5.2456180728696428E-002
   5.4155919635793373E-002  -1.5576620773294358E-002   5.3056693194558330E-002
   5.2702140922578661E-002  -1.5275240801434865E-002   5.4604504954988115E-002
   5.1248362209363948E-002  -1.4961063234117703E-002   5.7099616009985886E-002
   4.9794583496149236E-002  -1.4634088071343254E-002   6.0542026359551637E-002
   7.3368903946169600E-002  -2.1903321880927001E-002   2.0906517252327950E-002
   7.1685251627633728E-002  -2.1511642872499834E-002   1.7749318782514512E-002
   7.0001599309097842E-002  -2.1018033070154367E-002   1.4938569968498447E-002
   6.8317946990561929E-002  -2.0422492473890996E-002   1.2474270810280456E-002
   6.6634294672026084E-002  -1.9725021083709493E-002   1.0356421307859742E-002
   6.5018533103181314E-002  -2.0086013428531030E-002   3.0818146898245760E-002
   6.3631152971291433E-002  -1.9694328245151049E-002   2.9352403327881388E-002
   6.2243772839401565E-002  -1.9197030092465033E-002   2.8132754475011297E-002
   6.0856392707511635E-002  -1.8594118970472764E-002   2.7159200339635588E-002
   5.9469012575621788E-002  -1.7885594879174627E-002   2.6431740921754043E-002
   5.8306022747181822E-002  -1.8268704976135128E-002   4.0727941631422258E-002
   5.7114559863634562E-002  -1.7877013617802383E-002   4.0957335135895050E-002
   5.5923096980087253E-002  -1.7376027114775480E-002   4.1332468419558746E-002
   5.4731634096540006E-002  -1.6765745467054699E-002   4.1853341482413334E-002
   5.3540171212992718E-002  -1.6046168674639733E-002   4.2519954324459000E-002
   5.3231372878171153E-002  -1.6451396523739177E-002   5.0635901451857646E-002
   5.2135472304663116E-002  -1.6059698990453657E-002   5.2564114206555539E-002
   5.1039571731155094E-002  -1.5555024137086064E-002   5.4537711802140877E-002
   4.9943671157647009E-002  -1.4937371963636467E-002   5.6556694238614064E-002
   4.8847770584139028E-002  -1.4206742470104908E-002   5.8621061515974474E-002
   4.9794583496149236E-002  -1.4634088071343254E-002   6.0542026359551637E-002
   4.8693890294377054E-002  -1.4242384363104960E-002   6.4172740539862633E-002
   4.7593197092604900E-002  -1.3734021159396551E-002   6.7748484622757926E-002
   4.6492503890832718E-002  -1.3108998460218350E-002   7.1269258608237337E-002
   4.5391810689060563E-002  -1.2367316265569972E-002   7.4735062496300797E-002
   6.6634294672026084E-002  -1.9725021083709493E-002   1.0356421307859742E-002
   6.3728790628818754E-002  -1.8975026637880088E-002   7.8829869826708698E-003
   6.0823286585611452E-002  -1.8221916874672658E-002   5.5672698832344991E-003
   5.7917782542404136E-002  -1.7465691794087548E-002   3.4092700095508105E-003
   5.5012278499196765E-002  -1.6706351396124530E-002   1.4089873616192072E-003
   5.9469012575621788E-002  -1.7885594879174627E-002   2.6431740921754043E-002
   5.6733916363879006E-002  -1.7125135596880253E-002   2.5208124301084600E-002
   5.3998820152136140E-002  -1.6366418901899174E-002   2.4167606117591681E-002
   5.1263723940393344E-002  -1.5609444794231975E-002   2.3310186371275327E-002
   4.8528627728650492E-002  -1.4854213273878369E-002   2.2635865062135607E-002
   5.3540171212992718E-002  -1.6046168674639733E-002   4.2519954324459000E-002
   5.1000864044138505E-002  -1.5275244555880363E-002   4.2541297503617556E-002
   4.8461556875284272E-002  -1.4510920929125919E-002   4.2771120331376679E-002
   4.5922249706430038E-002  -1.3753197794376460E-002   4.3209422807736514E-002
   4.3382942537575811E-002  -1.3002075151632042E-002   4.3856204932696902E-002
   4.8847770584139028E-002  -1.4206742470104908E-002   5.8621061515974474E-002
   4.6529633669597420E-002  -1.3425353514880445E-002   5.9882506590269807E-002
   4.4211496755055812E-002  -1.2655422956352493E-002   6.1377812524589626E-002
   4.1893359840514198E-002  -1.1896950794520890E-002   6.3106979318934178E-002
   3.9575222925972604E-002  -1.1149937029385937E-002   6.5070006973303396E-002
   4.5391810689060563E-002  -1.2367316265569972E-002   7.4735062496300797E-002
   4.3320225240255666E-002  -1.1575462473880610E-002   7.7231751561041256E-002
   4.1248639791450770E-002  -1.0799924983579207E-002   7.9987682697230361E-002
   3.9177054342645901E-002  -1.0040703794665408E-002   8.3002855904868084E-002
   3.7105468893840976E-002  -9.2977989071396094E-003   8.6277271183954951E-002
   5.5012278499196765E-002  -1.6706351396124530E-002   1.4089873616192072E-003
   5.1738133780616952E-002  -1.6057084176896635E-002  -1.5274717816673444E-003
   4.8463989062037083E-002  -1.5631078632517365E-002  -5.1222240253232798E-003
   4.5189844343457242E-002  -1.5428334762986141E-002  -9.3752693693484046E-003
   4.1915699624877345E-002  -1.5448852568302973E-002  -1.4286607813742858E-002
   4.8528627728650492E-002  -1.4854213273878369E-002   2.2635865062135607E-002
   4.4836392630994953E-002  -1.4168073414633692E-002   2.1097723014737585E-002
   4.1144157533339304E-002  -1.3618374290294222E-002   1.9381693309557260E-002
   3.7451922435683689E-002  -1.3205115900859432E-002   1.7487775946594862E-002
   3.3759687338028116E-002  -1.2928298246329573E-002   1.5415970925850286E-002
   4.3382942537575811E-002  -1.3002075151632042E-002   4.3856204932696902E-002
   3.9753022503431566E-002  -1.2279062652370817E-002   4.3803200921130839E-002
   3.6123102469287308E-002  -1.1605669948071232E-002   4.4052714694369610E-002
   3.2493182435143056E-002  -1.0981897038732941E-002   4.4604746252413223E-002
   2.8863262400998804E-002  -1.0407743924356283E-002   4.5459295595261739E-002
   3.9575222925972604E-002  -1.1149937029385937E-002   6.5070006973303396E-002
   3.6488023397926832E-002  -1.0390051890107992E-002   6.6588961937512514E-002
   3.3400823869880997E-002  -9.5929656058482762E-003   6.8890840129113687E-002
   3.0313624341835169E-002  -8.7586781766065634E-003   7.1975641548106803E-002
   2.7226424813789400E-002  -7.8871896023829935E-003   7.5843366194491918E-002
   3.7105468893840976E-002  -9.2977989071396094E-003   8.6277271183954951E-002
   3.5041395314480750E-002  -8.5010411278449993E-003   8.9455006063882681E-002
   3.2977321735120441E-002  -7.5802612636252376E-003   9.3896069613789601E-002
   3.0913248155760187E-002  -6.5354593144799147E-003   9.9600461833675630E-002
   2.8849174576399905E-002  -5.3666352804095374E-003  0.10656818272354079     
   4.1915699624877345E-002  -1.5448852568302973E-002  -1.4286607813742858E-002
   3.7702384221323937E-002  -1.6537210941619973E-002  -2.2757902414152098E-002
   3.3489068817770501E-002  -1.9537988776088061E-002  -3.3806308836836774E-002
   2.9275753414217079E-002  -2.4451186071707494E-002  -4.7431827081797218E-002
   2.5062438010663657E-002  -3.1276802828478445E-002  -6.3634457149032153E-002
   3.3759687338028116E-002  -1.2928298246329573E-002   1.5415970925850286E-002
   2.7626743548446187E-002  -1.3194397033346572E-002   9.4308413068379948E-003
   2.1493799758864299E-002  -1.4409887968551777E-002   2.1835667380440404E-003
   1.5360855969282355E-002  -1.6574771051945457E-002  -6.3258527805317016E-003
   9.2279121797004815E-003  -1.9689046283527301E-002  -1.6097417248888801E-002
   2.8863262400998804E-002  -1.0407743924356283E-002   4.5459295595261739E-002
   2.2125657097882181E-002  -9.8515831250731711E-003   4.2923358270609335E-002
   1.5388051794765510E-002  -9.2817871610154784E-003   4.0440242868668916E-002
   8.6504464916489256E-003  -8.6983560321831112E-003   3.8009949389440557E-002
   1.9128411885323271E-003  -8.1012897385762672E-003   3.5632477832924392E-002
   2.7226424813789400E-002  -7.8871896023829935E-003   7.5843366194491918E-002
   2.1199124869631752E-002  -6.5087692167996591E-003   7.7719648477162173E-002
   1.5171824925474102E-002  -4.1536863534791316E-003   8.0963719555038297E-002
   9.1445249813165430E-003  -8.2194101242075331E-004   8.5575579428120427E-002
   3.1172250371589230E-003   3.4864668063749327E-003   9.1555228096408550E-002
   2.8849174576399905E-002  -5.3666352804095374E-003  0.10656818272354079     
   2.4847146863695047E-002  -3.1659553085263137E-003  0.11381971192649665     
   2.0845119150990216E-002   9.7441445405711813E-004  0.12375399679715218     
   1.6843091438285378E-002   7.0544740073413305E-003  0.13637103733550743     
   1.2841063725580526E-002   1.5074223351325911E-002  0.15167083354156219     
   5.7146543176746382E-002   0.0000000000000000        3.4681059622134011E-002
   5.7920362456437557E-002  -2.0567465815146150E-003   3.8343662494697513E-002
   5.8694181736128725E-002  -4.0850194251975166E-003   4.2218688956800407E-002
   5.9468001015819894E-002  -6.0848185310487055E-003   4.6306139008442687E-002
   6.0241820295511062E-002  -8.0561438990681741E-003   5.0606012649624332E-002
   4.8650237427970797E-002   0.0000000000000000        3.2806057770788190E-002
   4.9572091212087797E-002  -1.6867697119142345E-003   3.6988192992562820E-002
   5.0493944996204791E-002  -3.3890383431345993E-003   4.1253973633649715E-002
   5.1415798780321792E-002  -5.1068058936611024E-003   4.5603399694048870E-002
   5.2337652564438800E-002  -6.8400723634937360E-003   5.0036471173760290E-002
   4.0731365704257103E-002   0.0000000000000000        3.1323019117611678E-002
   4.1672475822572816E-002  -1.3167928423138526E-003   3.5980714031459568E-002
   4.2613585940888522E-002  -2.6930572610716881E-003   4.0593276194392618E-002
   4.3554696059204222E-002  -4.1287932562735054E-003   4.5160705606410827E-002
   4.4495806177519942E-002  -5.6240008279193057E-003   4.9683002267514202E-002
   3.3389928005605293E-002   0.0000000000000000        3.0231943662604469E-002
   3.4221516287892599E-002  -9.4681597271347134E-004   3.5321225611387785E-002
   3.5053104570179898E-002  -1.9970761790087722E-003   4.0236596639029142E-002
   3.5884692852467204E-002  -3.1507806188859080E-003   4.4978056745528537E-002
   3.6716281134754510E-002  -4.4079292923448685E-003   4.9545605930885965E-002
   2.6625924332015372E-002   0.0000000000000000        2.9532831405766565E-002
   2.7219212608047157E-002  -5.7683910311309011E-004   3.5009727732347458E-002
   2.7812500884078939E-002  -1.3010950969458597E-003   4.0183934967559266E-002
   2.8405789160110721E-002  -2.1727679814983070E-003   4.5055453111402015E-002
   2.8999077436142506E-002  -3.1918577567704391E-003   4.9624282163875662E-002
   6.0241820295511062E-002  -8.0561438990681741E-003   5.0606012649624332E-002
   6.0505886901144515E-002  -9.9079478798390873E-003   5.1592668942322450E-002
   6.0769953506777948E-002  -1.1549182823944501E-002   5.2403550557526296E-002
   6.1034020112411394E-002  -1.2979848731384549E-002   5.3038657495236036E-002
   6.1298086718044847E-002  -1.4199945602159106E-002   5.3497989755451544E-002
   5.2337652564438800E-002  -6.8400723634937360E-003   5.0036471173760290E-002
   5.2458066900965800E-002  -8.4822114793519365E-003   5.1321732550959814E-002
   5.2578481237492806E-002  -9.9265969679551182E-003   5.2495464067440628E-002
   5.2698895574019813E-002  -1.1173228829303286E-002   5.3557665723202794E-002
   5.2819309910546841E-002  -1.2222107063396478E-002   5.4508337518246318E-002
   4.4495806177519942E-002  -5.6240008279193057E-003   4.9683002267514202E-002
   4.4536813061716030E-002  -7.0564750788648014E-003   5.1254053319804670E-002
   4.4577819945912131E-002  -8.3040111119657076E-003   5.2777819328152002E-002
   4.4618826830108232E-002  -9.3666089272220598E-003   5.4254300292556193E-002
   4.4659833714304320E-002  -1.0244268524633802E-002   5.5683496213017214E-002
   3.6716281134754510E-002  -4.4079292923448685E-003   4.9545605930885965E-002
   3.6742125383395226E-002  -5.6307386783776671E-003   5.1389631248857030E-002
   3.6767969632035942E-002  -6.6814252559763299E-003   5.3250616339660432E-002
   3.6793813880676651E-002  -7.5599890251407910E-003   5.5128561203296254E-002
   3.6819658129317354E-002  -8.2664299858711369E-003   5.7023465839764434E-002
   2.8999077436142506E-002  -3.1918577567704391E-003   4.9624282163875662E-002
   2.9074003866003360E-002  -4.2050022778905216E-003   5.1728466338116827E-002
   2.9148930295864212E-002  -5.0588393999869193E-003   5.3913855101965932E-002
   2.9223856725725059E-002  -5.7533691230595655E-003   5.6180448455422902E-002
   2.9298783155585914E-002  -6.2885914471084853E-003   5.8528246398487790E-002
   6.1298086718044847E-002  -1.4199945602159106E-002   5.3497989755451544E-002
   5.9875989625785650E-002  -1.5140133463211573E-002   5.2400773450140353E-002
   5.8453892533526453E-002  -1.5731072341485349E-002   5.1861399843910770E-002
   5.7031795441267269E-002  -1.5972762236980215E-002   5.1879868936762788E-002
   5.5609698349008085E-002  -1.5865203149696389E-002   5.2456180728696428E-002
   5.2819309910546841E-002  -1.2222107063396478E-002   5.4508337518246318E-002
   5.1886461362075087E-002  -1.3035086943151933E-002   5.3973473700996033E-002
   5.0953612813603347E-002  -1.3574023741486998E-002   5.3859264272239110E-002
   5.0020764265131600E-002  -1.3838917458401663E-002   5.4165709231975424E-002
   4.9087915716659852E-002  -1.3829768093895967E-002   5.4892808580205052E-002
   4.4659833714304320E-002  -1.0244268524633802E-002   5.5683496213017214E-002
   4.4079045399031722E-002  -1.0930040423092254E-002   5.5635778982469561E-002
   4.3498257083759109E-002  -1.1416975141488704E-002   5.5871527829826906E-002
   4.2917468768486497E-002  -1.1705072679823125E-002   5.6390742755089152E-002
   4.2336680453213899E-002  -1.1794333038095531E-002   5.7193423758256416E-002
   3.6819658129317354E-002  -8.2664299858711369E-003   5.7023465839764434E-002
   3.6453741736655554E-002  -8.8249939030326154E-003   5.7387689294560937E-002
   3.6087825343993754E-002  -9.2599265414903681E-003   5.7898190516674095E-002
   3.5721908951331940E-002  -9.5712279012445944E-003   5.8554969506103852E-002
   3.5355992558670141E-002  -9.7588979822951297E-003   5.9358026262850326E-002
   2.9298783155585914E-002  -6.2885914471084853E-003   5.8528246398487790E-002
   2.9010550374946598E-002  -6.7199473829729212E-003   5.9229204637270064E-002
   2.8722317594307281E-002  -7.1028779414920896E-003   5.9939252332780753E-002
   2.8434084813667965E-002  -7.4373831226660437E-003   6.0658389485019740E-002
   2.8145852033028641E-002  -7.7234629264947008E-003   6.1386616093986990E-002
   5.5609698349008085E-002  -1.5865203149696389E-002   5.2456180728696428E-002
   5.4155919635793373E-002  -1.5576620773294358E-002   5.3056693194558330E-002
   5.2702140922578661E-002  -1.5275240801434865E-002   5.4604504954988115E-002
   5.1248362209363948E-002  -1.4961063234117703E-002   5.7099616009985886E-002
   4.9794583496149236E-002  -1.4634088071343254E-002   6.0542026359551637E-002
   4.9087915716659852E-002  -1.3829768093895967E-002   5.4892808580205052E-002
   4.8405248270797917E-002  -1.3663650748991306E-002   5.5114025625171432E-002
   4.7722580824935981E-002  -1.3457640524709269E-002   5.5930165910275345E-002
   4.7039913379074046E-002  -1.3211737421049780E-002   5.7341229435516963E-002
   4.6357245933212110E-002  -1.2925941438012872E-002   5.9347216200895975E-002
   4.2336680453213899E-002  -1.1794333038095531E-002   5.7193423758256416E-002
   4.2072748220274334E-002  -1.1750680724688267E-002   5.7062440666247202E-002
   4.1808815987334776E-002  -1.1640040247983669E-002   5.7174004759945177E-002
   4.1544883754395218E-002  -1.1462411607981674E-002   5.7528116039350395E-002
   4.1280951521455653E-002  -1.1217794804682407E-002   5.8124774504462726E-002
   3.5355992558670141E-002  -9.7588979822951297E-003   5.9358026262850326E-002
   3.5158419484222589E-002  -9.8377107003852216E-003   5.8901938317785507E-002
   3.4960846409775023E-002  -9.8224399712580988E-003   5.8336021503997450E-002
   3.4763273335327478E-002  -9.7130857949136052E-003   5.7660275821486272E-002
   3.4565700260879906E-002  -9.5096481713519837E-003   5.6874701270251807E-002
   2.8145852033028641E-002  -7.7234629264947008E-003   6.1386616093986990E-002
   2.7662262062642703E-002  -7.9247406760821759E-003   6.0632518579786437E-002
   2.7178672092256755E-002  -8.0048396945324660E-003   5.9416216142432254E-002
   2.6695082121870800E-002  -7.9637599818455761E-003   5.7737708781924517E-002
   2.6211492151484869E-002  -7.8015015380215602E-003   5.5596996498263218E-002
   4.9794583496149236E-002  -1.4634088071343254E-002   6.0542026359551637E-002
   4.8693890294377054E-002  -1.4242384363104960E-002   6.4172740539862633E-002
   4.7593197092604900E-002  -1.3734021159396551E-002   6.7748484622757926E-002
   4.6492503890832718E-002  -1.3108998460218350E-002   7.1269258608237337E-002
   4.5391810689060563E-002  -1.2367316265569972E-002   7.4735062496300797E-002
   4.6357245933212110E-002  -1.2925941438012872E-002   5.9347216200895975E-002
   4.5249013579832652E-002  -1.2582870274352162E-002   6.1482062966866216E-002
   4.4140781226453193E-002  -1.2165141628821666E-002   6.3656801527037787E-002
   4.3032548873073763E-002  -1.1672755501421290E-002   6.5871431881410591E-002
   4.1924316519694305E-002  -1.1105711892151010E-002   6.8125954029984559E-002
   4.1280951521455653E-002  -1.1217794804682407E-002   5.8124774504462726E-002
   4.0260041908086033E-002  -1.0923356185599517E-002   5.8721751842492120E-002
   3.9239132294716414E-002  -1.0596262098246746E-002   5.9453482866339800E-002
   3.8218222681346795E-002  -1.0236512542624284E-002   6.0319967576005926E-002
   3.7197313067977175E-002  -9.8441075187318816E-003   6.1321205971490461E-002
   3.4565700260879906E-002  -9.5096481713519837E-003   5.6874701270251807E-002
   3.3726975279137233E-002  -9.2638420968467819E-003   5.5891807166740151E-002
   3.2888250297394520E-002  -9.0273825676718163E-003   5.5138528640664083E-002
   3.2049525315651833E-002  -8.8002695838272499E-003   5.4614865692023423E-002
   3.1210800333909099E-002  -8.5825031453128919E-003   5.4320818320818275E-002
   2.6211492151484869E-002  -7.8015015380215602E-003   5.5596996498263218E-002
   2.5649813692986190E-002  -7.6043280080940745E-003   5.2992228939610475E-002
   2.5088135234487531E-002  -7.4585030370969002E-003   5.0711938850010435E-002
   2.4526456775988869E-002  -7.3640266250302490E-003   4.8756126229462932E-002
   2.3964778317490193E-002  -7.3208987718937357E-003   4.7124791077967965E-002
   4.5391810689060563E-002  -1.2367316265569972E-002   7.4735062496300797E-002
   4.3320225240255666E-002  -1.1575462473880610E-002   7.7231751561041256E-002
   4.1248639791450770E-002  -1.0799924983579207E-002   7.9987682697230361E-002
   3.9177054342645901E-002  -1.0040703794665408E-002   8.3002855904868084E-002
   3.7105468893840976E-002  -9.2977989071396094E-003   8.6277271183954951E-002
   4.1924316519694305E-002  -1.1105711892151010E-002   6.8125954029984559E-002
   4.0117049604546262E-002  -1.0501417734305227E-002   6.9359973931528832E-002
   3.8309782689398247E-002  -9.8972799611787218E-003   7.0863388828937932E-002
   3.6502515774250233E-002  -9.2932985727713340E-003   7.2636198722212164E-002
   3.4695248859102190E-002  -8.6894735690830616E-003   7.4678403611351085E-002
   3.7197313067977175E-002  -9.8441075187318816E-003   6.1321205971490461E-002
   3.5664517610902259E-002  -9.4273729947298296E-003   6.1308716626506950E-002
   3.4131722153827371E-002  -8.9946349387783481E-003   6.1575775201804878E-002
   3.2598926696752462E-002  -8.5458933508771491E-003   6.2122381697383967E-002
   3.1066131239677566E-002  -8.0811482310264304E-003   6.2948536113244358E-002
   3.1210800333909099E-002  -8.5825031453128919E-003   5.4320818320818275E-002
   2.9962629259323595E-002  -8.3533282551544671E-003   5.3077979645975965E-002
   2.8714458184738095E-002  -8.0919899163779188E-003   5.2124841815831130E-002
   2.7466287110152615E-002  -7.7984881289829087E-003   5.1461404830384007E-002
   2.6218116035567094E-002  -7.4728228929698964E-003   5.1087668689634276E-002
   2.3964778317490193E-002  -7.3208987718937357E-003   4.7124791077967965E-002
   2.3011384549810332E-002  -7.2792835155789937E-003   4.4667762989935578E-002
   2.2057990782130471E-002  -7.1893448939774895E-003   4.2510588671016897E-002
   2.1104597014450610E-002  -7.0510829070888348E-003   4.0653268121212019E-002
   2.0151203246770763E-002  -6.8644975549132514E-003   3.9095801340520930E-002
   3.7105468893840976E-002  -9.2977989071396094E-003   8.6277271183954951E-002
   3.5041395314480750E-002  -8.5010411278449993E-003   8.9455006063882681E-002
   3.2977321735120441E-002  -7.5802612636252376E-003   9.3896069613789601E-002
   3.0913248155760187E-002  -6.5354593144799147E-003   9.9600461833675630E-002
   2.8849174576399905E-002  -5.3666352804095374E-003  0.10656818272354079     
   3.4695248859102190E-002  -8.6894735690830616E-003   7.4678403611351085E-002
   3.3652127640688895E-002  -8.0375454574676819E-003   7.6505056940310373E-002
   3.2609006422275627E-002  -7.2892547452791667E-003   7.9110286321184387E-002
   3.1565885203862352E-002  -6.4446014325171760E-003   8.2494091753973403E-002
   3.0522763985449050E-002  -5.5035855191819527E-003   8.6656473238677256E-002
   3.1066131239677566E-002  -8.0811482310264304E-003   6.2948536113244358E-002
   3.0559209764147055E-002  -7.5740497870903090E-003   6.3396448406882938E-002
   3.0052288288616551E-002  -6.9982482269329155E-003   6.4138184134372070E-002
   2.9545366813086064E-002  -6.3537435505542673E-003   6.5173743295711822E-002
   2.9038445337555528E-002  -5.6405357579543958E-003   6.6503125890902529E-002
   2.6218116035567094E-002  -7.4728228929698964E-003   5.1087668689634276E-002
   2.5762641684855151E-002  -7.1105541167128805E-003   5.0129180463600077E-002
   2.5307167334143239E-002  -6.7072417085868100E-003   4.8979763053352346E-002
   2.4851692983431324E-002  -6.2628856685914436E-003   4.7639416458891005E-002
   2.4396218632719388E-002  -5.7774859967268249E-003   4.6108140680216458E-002
   2.0151203246770763E-002  -6.8644975549132514E-003   3.9095801340520930E-002
   1.9262423402813200E-002  -6.6470584463355908E-003   3.6703253110462075E-002
   1.8373643558855672E-002  -6.4162351902407461E-003   3.3635023078125464E-002
   1.7484863714898140E-002  -6.1720277866285193E-003   2.9891111243511154E-002
   1.6596083870940609E-002  -5.9144362354991986E-003   2.5471517606619198E-002
   2.8849174576399905E-002  -5.3666352804095374E-003  0.10656818272354079     
   2.4847146863695047E-002  -3.1659553085263137E-003  0.11381971192649665     
   2.0845119150990216E-002   9.7441445405711813E-004  0.12375399679715218     
   1.6843091438285378E-002   7.0544740073413305E-003  0.13637103733550743     
   1.2841063725580526E-002   1.5074223351325911E-002  0.15167083354156219     
   3.0522763985449050E-002  -5.5035855191819527E-003   8.6656473238677256E-002
   2.8693714046163749E-002  -3.8767188096167360E-003   9.1847830881704201E-002
   2.6864664106878482E-002  -9.7451310816452918E-004   9.8702388403870411E-002
   2.5035614167593218E-002   3.2030315851748238E-003  0.10722014580517626     
   2.3206564228307913E-002   8.6559152704011044E-003  0.11740110308562135     
   2.9038445337555528E-002  -5.6405357579543958E-003   6.6503125890902529E-002
   2.8362817383129617E-002  -4.5874823107070195E-003   6.8969961175187042E-002
   2.7687189428703709E-002  -2.9234406703862945E-003   7.2080440550050612E-002
   2.7011561474277773E-002  -6.4841083699182338E-004   7.5834564015493364E-002
   2.6335933519851876E-002   2.2376071894760763E-003   8.0232331571515880E-002
   2.4396218632719388E-002  -5.7774859967268249E-003   4.6108140680216458E-002
   2.3854456874592686E-002  -5.2982458117973724E-003   4.5186102806945003E-002
   2.3312695116465977E-002  -4.8723682326080008E-003   4.3888153235692562E-002
   2.2770933358339261E-002  -4.4998532591584558E-003   4.2214291966459323E-002
   2.2229171600212514E-002  -4.1807008914488963E-003   4.0164518999244878E-002
   1.6596083870940609E-002  -5.9144362354991986E-003   2.5471517606619198E-002
   1.5168632520552894E-002  -6.0090093128878364E-003   2.0496255776978223E-002
   1.3741181170165179E-002  -6.8212957948298042E-003   1.4125526460796206E-002
   1.2313729819777477E-002  -8.3512956813250293E-003   6.3593296580734954E-003
   1.0886278469389776E-002  -1.0599008972373758E-002  -2.8023346311907282E-003
   2.6625924332015372E-002   0.0000000000000000        2.9532831405766565E-002
   2.7219212608047157E-002  -5.7683910311309011E-004   3.5009727732347458E-002
   2.7812500884078939E-002  -1.3010950969458597E-003   4.0183934967559266E-002
   2.8405789160110721E-002  -2.1727679814983070E-003   4.5055453111402015E-002
   2.8999077436142506E-002  -3.1918577567704391E-003   4.9624282163875662E-002
   2.0105339065710909E-002   0.0000000000000000        2.9092592080096492E-002
   2.0434530005995811E-002  -4.3262932758079704E-004   3.4388493172454883E-002
   2.0763720946280713E-002  -9.7582132314938223E-004   3.9458888684688581E-002
   2.1092911886565615E-002  -1.6295759867057599E-003   4.4303778616797601E-002
   2.1422102826850517E-002  -2.3938933182499240E-003   4.8923162968781929E-002
   1.3494156588915484E-002   0.0000000000000000        2.8778135418592761E-002
   1.3636433704697895E-002  -2.8841955204850309E-004   3.3929895499460530E-002
   1.3778710820480307E-002  -6.5054754935290476E-004   3.8933333511448016E-002
   1.3920987936262718E-002  -1.0863839919132050E-003   4.3788449454555206E-002
   1.4063265052045127E-002  -1.5959288797294047E-003   4.8495243328782106E-002
   6.7923769016290936E-003   0.0000000000000000        2.8589461421255385E-002
   6.8249237041534058E-003  -1.4420977651620828E-004   3.3633934713364434E-002
   6.8574705066777181E-003  -3.2527377555642643E-004   3.8607269447837586E-002
   6.8900173092020312E-003  -5.4319199712065400E-004   4.3509465624674837E-002
   6.9225641117263426E-003  -7.9796444120889100E-004   4.8340523243876186E-002
   3.8517401074189550E-012   0.0000000000000000        2.8526570088084353E-002
   4.3623455542318723E-012  -9.8391607361580924E-013   3.3500610814166568E-002
   4.8729492663213136E-012  -1.7599498247644618E-012   3.8480696493857283E-002
   5.3835542794533620E-012  -2.3281029881694337E-012   4.3466827127156486E-002
   5.8941592925854103E-012  -2.6883738291072490E-012   4.8459002714064156E-002
   2.8999077436142506E-002  -3.1918577567704391E-003   4.9624282163875662E-002
   2.9074003866003360E-002  -4.2050022778905216E-003   5.1728466338116827E-002
   2.9148930295864212E-002  -5.0588393999869193E-003   5.3913855101965932E-002
   2.9223856725725059E-002  -5.7533691230595655E-003   5.6180448455422902E-002
   2.9298783155585914E-002  -6.2885914471084853E-003   5.8528246398487790E-002
   2.1422102826850517E-002  -2.3938933182499240E-003   4.8923162968781929E-002
   2.1553249797064331E-002  -3.1537517091297764E-003   5.1359893902424805E-002
   2.1684396767278142E-002  -3.7941295506932387E-003   5.3827861327165737E-002
   2.1815543737491956E-002  -4.3150268429403100E-003   5.6327065243004668E-002
   2.1946690707705763E-002  -4.7164435858709636E-003   5.8857505649941633E-002
   1.4063265052045127E-002  -1.5959288797294047E-003   4.8495243328782106E-002
   1.4200664464102021E-002  -2.1025011403690177E-003   5.1224694172119403E-002
   1.4338063876158909E-002  -2.5294197013995849E-003   5.3935413408044808E-002
   1.4475463288215799E-002  -2.8766845628210485E-003   5.6627401036558382E-002
   1.4612862700272691E-002  -3.1442957246334627E-003   5.9300657057660050E-002
   6.9225641117263426E-003  -7.9796444120889100E-004   4.8340523243876186E-002
   7.0162478671164270E-003  -1.0512505716082589E-003   5.1322867147200538E-002
   7.1099316225065106E-003  -1.2647098521059107E-003   5.4236511344603132E-002
   7.2036153778965925E-003  -1.4383422827017969E-003   5.7081455836083962E-002
   7.2972991332866787E-003  -1.5721478633959722E-003   5.9857700621643091E-002
   5.8941592925854103E-012  -2.6883738291072490E-012   4.8459002714064156E-002
   6.1075523978548762E-012  -2.8475069524525054E-012   5.1654412827668257E-002
   6.3209463704860802E-012  -2.8122443609945869E-012   5.4731155136840709E-002
   6.5343412104790222E-012  -2.5825368319548625E-012   5.7689229641581526E-002
   6.7477343157484881E-012  -2.1584400933249981E-012   6.0528636341890721E-002
   2.9298783155585914E-002  -6.2885914471084853E-003   5.8528246398487790E-002
   2.9010550374946598E-002  -6.7199473829729212E-003   5.9229204637270064E-002
   2.8722317594307281E-002  -7.1028779414920896E-003   5.9939252332780753E-002
   2.8434084813667965E-002  -7.4373831226660437E-003   6.0658389485019740E-002
   2.8145852033028641E-002  -7.7234629264947008E-003   6.1386616093986990E-002
   2.1946690707705763E-002  -4.7164435858709636E-003   5.8857505649941633E-002
   2.1683289568360287E-002  -5.0399605375621818E-003   5.9634842718990402E-002
   2.1419888429014801E-002  -5.3271584560908407E-003   6.0452753613898562E-002
   2.1156487289669321E-002  -5.5780373414569878E-003   6.1311238334666021E-002
   2.0893086150323835E-002  -5.7925971936605702E-003   6.2210296881292787E-002
   1.4612862700272691E-002  -3.1442957246334627E-003   5.9300657057660050E-002
   1.4405777571352057E-002  -3.3599736921514287E-003   6.0142266612792622E-002
   1.4198692442431424E-002  -3.5514389706895900E-003   6.1055934362915495E-002
   1.3991607313510797E-002  -3.7186915602479176E-003   6.2041660308028747E-002
   1.3784522184590161E-002  -3.8617314608264258E-003   6.3099444448132397E-002
   7.2972991332866787E-003  -1.5721478633959722E-003   5.9857700621643091E-002
   7.1780143839219141E-003  -1.6799868467406963E-003   6.0751476318676646E-002
   7.0587296345571513E-003  -1.7757194852882985E-003   6.1748794579831616E-002
   6.9394448851923911E-003  -1.8593457790388754E-003   6.2849655405107993E-002
   6.8201601358276274E-003  -1.9308657279922883E-003   6.4054058794505722E-002
   6.7477343157484881E-012  -2.1584400933249981E-012   6.0528636341890721E-002
   6.0698607598497212E-012  -1.3299396306454270E-012   6.1462471836642607E-002
   5.3919872039509542E-012   1.1289233436961865E-013   6.2531334264646937E-002
   4.7141166838182702E-012   2.1702110594712387E-012   6.3735223625903656E-002
   4.0362400921534203E-012   4.8418630216318093E-012   6.5074139920412707E-002
   2.8145852033028641E-002  -7.7234629264947008E-003   6.1386616093986990E-002
   2.7662262062642703E-002  -7.9247406760821759E-003   6.0632518579786437E-002
   2.7178672092256755E-002  -8.0048396945324660E-003   5.9416216142432254E-002
   2.6695082121870800E-002  -7.9637599818455761E-003   5.7737708781924517E-002
   2.6211492151484869E-002  -7.8015015380215602E-003   5.5596996498263218E-002
   2.0893086150323835E-002  -5.7925971936605702E-003   6.2210296881292787E-002
   2.0093066860531337E-002  -5.9435555051129615E-003   6.1852208277548955E-002
   1.9293047570738835E-002  -6.0036297682253895E-003   6.1323465958145515E-002
   1.8493028280946337E-002  -5.9728199829979806E-003   6.0624069923082648E-002
   1.7693008991153836E-002  -5.8511261494306188E-003   5.9754020172360173E-002
   1.3784522184590161E-002  -3.8617314608264258E-003   6.3099444448132397E-002
   1.2959624782885159E-002  -3.9623703341437055E-003   6.3107070072047994E-002
   1.2134727381180148E-002  -4.0024198419183442E-003   6.3235593187798061E-002
   1.1309829979475144E-002  -3.9818799841503444E-003   6.3485013795382669E-002
   1.0484932577770136E-002  -3.9007507608397052E-003   6.3855331894801817E-002
   6.8201601358276274E-003  -1.9308657279922883E-003   6.4054058794505722E-002
   6.2619358297041679E-003  -1.9811851631744981E-003   6.4397103963283450E-002
   5.7037115235807085E-003  -2.0012099156112833E-003   6.5152597831389741E-002
   5.1454872174572499E-003  -1.9909399853027146E-003   6.6320540398824596E-002
   4.5872629113337888E-003  -1.9503753722487638E-003   6.7900931665588096E-002
   4.0362400921534203E-012   4.8418630216318093E-012   6.5074139920412707E-002
   9.8837431294906963E-013   7.7947787113785694E-012   6.5722309951255345E-002
  -2.0594914662552810E-012   1.0695801883064959E-011   6.7074479888920652E-002
  -5.1073572454596317E-012   1.3544907383200577E-011   6.9130649733408531E-002
  -8.1552230246639823E-012   1.6342122099999301E-011   7.1890819484719037E-002
   2.6211492151484869E-002  -7.8015015380215602E-003   5.5596996498263218E-002
   2.5649813692986190E-002  -7.6043280080940745E-003   5.2992228939610475E-002
   2.5088135234487531E-002  -7.4585030370969002E-003   5.0711938850010435E-002
   2.4526456775988869E-002  -7.3640266250302490E-003   4.8756126229462932E-002
   2.3964778317490193E-002  -7.3208987718937357E-003   4.7124791077967965E-002
   1.7693008991153836E-002  -5.8511261494306188E-003   5.9754020172360173E-002
   1.7409793537648682E-002  -5.7032460012967495E-003   5.8368714907527194E-002
   1.7126578084143532E-002  -5.5938772723693603E-003   5.7215858183628732E-002
   1.6843362630638396E-002  -5.5230199626490305E-003   5.6295450000664715E-002
   1.6560147177133243E-002  -5.4906740721352154E-003   5.5607490358635159E-002
   1.0484932577770136E-002  -3.9007507608397052E-003   6.3855331894801817E-002
   1.0388151201140380E-002  -3.8021639944992858E-003   6.3702326063512241E-002
   1.0291369824510633E-002  -3.7292515076419522E-003   6.3689739845038923E-002
   1.0194588447880886E-002  -3.6820133002677547E-003   6.3817573239382058E-002
   1.0097807071251137E-002  -3.6604493723766673E-003   6.4085826246541411E-002
   4.5872629113337888E-003  -1.9503753722487638E-003   6.7900931665588096E-002
   4.5848866834613030E-003  -1.9010819877018220E-003   6.8993062407565517E-002
   4.5825104555888216E-003  -1.8646257429144782E-003   7.0133583834241078E-002
   4.5801342277163419E-003  -1.8410066378865631E-003   7.1322495945614864E-002
   4.5777579998438536E-003  -1.8302246726181054E-003   7.2559798741686915E-002
  -8.1552230246639823E-012   1.6342122099999301E-011   7.1890819484719037E-002
  -1.5388565421936562E-011   1.9095502956645305E-011   7.4240923939687037E-002
  -2.2621902615038714E-011   2.1813044426277628E-011   7.6547390151235170E-002
  -2.9855240675502603E-011   2.4494751713066698E-011   7.8810218119363312E-002
  -3.7088582205413445E-011   2.7140456548835346E-011   8.1029407844071533E-002
   2.3964778317490193E-002  -7.3208987718937357E-003   4.7124791077967965E-002
   2.3011384549810332E-002  -7.2792835155789937E-003   4.4667762989935578E-002
   2.2057990782130471E-002  -7.1893448939774895E-003   4.2510588671016897E-002
   2.1104597014450610E-002  -7.0510829070888348E-003   4.0653268121212019E-002
   2.0151203246770763E-002  -6.8644975549132514E-003   3.9095801340520930E-002
   1.6560147177133243E-002  -5.4906740721352154E-003   5.5607490358635159E-002
   1.5891230845987266E-002  -5.4594626292809451E-003   5.4119659917085020E-002
   1.5222314514841299E-002  -5.3920086625388053E-003   5.2900930579488942E-002
   1.4553398183695316E-002  -5.2883121719091292E-003   5.1951302345846884E-002
   1.3884481852549355E-002  -5.1483731573913061E-003   5.1270775216158776E-002
   1.0097807071251137E-002  -3.6604493723766673E-003   6.4085826246541411E-002
   9.6826155114792672E-003  -3.6396417429827854E-003   6.3555112610074488E-002
   9.2674239517074042E-003  -3.5946724311003431E-003   6.3262747412401774E-002
   8.8522323919355342E-003  -3.5255414367292015E-003   6.3208730653523240E-002
   8.4370408321636746E-003  -3.4322487598694718E-003   6.3393062333439040E-002
   4.5777579998438536E-003  -1.8302246726181054E-003   7.2559798741686915E-002
   4.3855385462863248E-003  -1.8198208566846535E-003   7.2974121068903969E-002
   4.1933190927287969E-003  -1.7973361996617976E-003   7.3596039169755420E-002
   4.0010996391712621E-003  -1.7627707015493571E-003   7.4425553044241408E-002
   3.8088801856137394E-003  -1.7161243623475819E-003   7.5462662692361820E-002
  -3.7088582205413445E-011   2.7140456548835346E-011   8.1029407844071533E-002
  -4.9591556555705907E-011   2.9613478336187882E-011   8.2376685293573504E-002
  -6.2094530905998369E-011   3.1776747899669999E-011   8.3900805851550048E-002
  -7.4597505256290830E-011   3.3630390139371968E-011   8.5601769518001247E-002
  -8.7100479606583292E-011   3.5174307910779135E-011   8.7479576292927075E-002
   2.0151203246770763E-002  -6.8644975549132514E-003   3.9095801340520930E-002
   1.9262423402813200E-002  -6.6470584463355908E-003   3.6703253110462075E-002
   1.8373643558855672E-002  -6.4162351902407461E-003   3.3635023078125464E-002
   1.7484863714898140E-002  -6.1720277866285193E-003   2.9891111243511154E-002
   1.6596083870940609E-002  -5.9144362354991986E-003   2.5471517606619198E-002
   1.3884481852549355E-002  -5.1483731573913061E-003   5.1270775216158776E-002
   1.2544489395960881E-002  -4.9852938265635416E-003   4.9933687677707173E-002
   1.1204496939372435E-002  -4.8121763870032919E-003   4.8369856716271573E-002
   9.8645044827839687E-003  -4.6290208387104528E-003   4.6579282331851858E-002
   8.5245120261955160E-003  -4.4358271816852257E-003   4.4561964524447883E-002
   8.4370408321636746E-003  -3.4322487598694718E-003   6.3393062333439040E-002
   7.0947741422378689E-003  -3.3235292067915062E-003   6.3108089447810101E-002
   5.7525074523120685E-003  -3.2081175837659001E-003   6.3045311518490771E-002
   4.4102407623862671E-003  -3.0860138907923881E-003   6.3204728545480732E-002
   3.0679740724604623E-003  -2.9572181278712806E-003   6.3586340528780247E-002
   3.8088801856137394E-003  -1.7161243623475819E-003   7.5462662692361820E-002
   2.9132776416441603E-003  -1.6617645870195194E-003   7.6226458420770832E-002
   2.0176750976745902E-003  -1.6040587805283661E-003   7.7661387484782921E-002
   1.1220725537050156E-003  -1.5430069428742669E-003   7.9767449884398017E-002
   2.2647000973544107E-004  -1.4786090740573216E-003   8.2544645619616094E-002
  -8.7100479606583292E-011   3.5174307910779135E-011   8.7479576292927075E-002
  -1.0582024145833202E-010   3.2752550671588665E-011   8.9288794596589283E-002
  -1.2454000331008075E-010   2.2708959712680610E-011   9.2218084615147994E-002
  -1.4325976516182948E-010   5.0438021814702694E-012   9.6267446348603500E-002
  -1.6197952701357821E-010  -2.0243418052956486E-011  0.10143687979695531     
   1.6596083870940609E-002  -5.9144362354991986E-003   2.5471517606619198E-002
   1.5168632520552894E-002  -6.0090093128878364E-003   2.0496255776978223E-002
   1.3741181170165179E-002  -6.8212957948298042E-003   1.4125526460796206E-002
   1.2313729819777477E-002  -8.3512956813250293E-003   6.3593296580734954E-003
   1.0886278469389776E-002  -1.0599008972373758E-002  -2.8023346311907282E-003
   8.5245120261955160E-003  -4.4358271816852257E-003   4.4561964524447883E-002
   6.1396757695172319E-003  -4.5067570012665426E-003   4.2011819932817968E-002
   3.7548395128389339E-003  -5.1159718827937101E-003   3.8942373015147996E-002
   1.3700032561606811E-003  -6.2634718262668913E-003   3.5353623771438136E-002
  -1.0148330005176620E-003  -7.9492568316856804E-003   3.1245572201687999E-002
   3.0679740724604623E-003  -2.9572181278712806E-003   6.3586340528780247E-002
   6.0191806999260883E-004  -3.0045046896453598E-003   6.3640741517768787E-002
  -1.8641379324752516E-003  -3.4106479707577894E-003   6.4052005341218243E-002
  -4.3301939349431225E-003  -4.1756479712085331E-003   6.4820131999128880E-002
  -6.7962499374109725E-003  -5.2995046909974919E-003   6.5945121491500058E-002
   2.2647000973544107E-004  -1.4786090740573216E-003   8.2544645619616094E-002
  -1.4446405780209857E-003  -1.5022523780240660E-003   8.5383020531830542E-002
  -3.1157511657774126E-003  -1.7053240587217265E-003   8.9454423439007183E-002
  -4.7868617535338298E-003  -2.0878241161502295E-003   9.4758854341145726E-002
  -6.4579723412902662E-003  -2.6497525503093033E-003  0.10129631323824592     
  -1.6197952701357821E-010  -2.0243418052956486E-011  0.10143687979695531     
  -1.7452351716573666E-010  -6.6402938703191694E-011  0.10723865697500345     
  -1.8706751078734207E-010  -1.4668587178245929E-010  0.11514962730851461     
  -1.9961150440894748E-010  -2.6109197789891958E-010  0.12516979079748825     
  -2.1215550149999984E-010  -4.0962122582755001E-010  0.13729914744192540     
   3.8517401074189550E-012   0.0000000000000000        2.8526570088084353E-002
   4.3623455542318723E-012  -9.8391607361580924E-013   3.3500610814166568E-002
   4.8729492663213136E-012  -1.7599498247644618E-012   3.8480696493857283E-002
   5.3835542794533620E-012  -2.3281029881694337E-012   4.3466827127156486E-002
   5.8941592925854103E-012  -2.6883738291072490E-012   4.8459002714064156E-002
  -6.7923768940540193E-003   0.0000000000000000        2.8589461419112734E-002
  -6.8249236955550668E-003   1.4420977459765356E-004   3.3633934711365943E-002
  -6.8574704970561116E-003   3.2527377210136814E-004   3.8607269445987358E-002
  -6.8900172985571582E-003   5.4319199251113941E-004   4.3509465622976987E-002
  -6.9225641000582065E-003   7.9796443582696736E-004   4.8340523242334822E-002
  -1.3494156581725626E-002   0.0000000000000000        2.8778135414373601E-002
  -1.3636433696478602E-002   2.8841955017922492E-004   3.3929895495495965E-002
  -1.3778710811231580E-002   6.5054754596268610E-004   3.8933333507746262E-002
  -1.3920987925984557E-002   1.0863839873503818E-003   4.3788449451124492E-002
  -1.4063265040737532E-002   1.5959288743423120E-003   4.8495243325630641E-002
  -2.0105339059163081E-002   0.0000000000000000        2.9092592073866951E-002
  -2.0434529998408266E-002   4.3262932576079542E-004   3.4388493166556650E-002
  -2.0763720937653454E-002   9.7582131982400320E-004   3.9458888679134010E-002
  -2.1092911876898636E-002   1.6295759821896207E-003   4.4303778611599016E-002
  -2.1422102816143825E-002   2.3938933128576567E-003   4.8923162963951675E-002
  -2.6625924326366381E-002   0.0000000000000000        2.9532831397592781E-002
  -2.7219212601344051E-002   5.7683910134236505E-004   3.5009727724547995E-002
  -2.7812500876321731E-002   1.3010950936853220E-003   4.0183934960150582E-002
  -2.8405789151299401E-002   2.1727679770288666E-003   4.5055453104400546E-002
  -2.8999077426277078E-002   3.1918577513729987E-003   4.9624282157297882E-002
   5.8941592925854103E-012  -2.6883738291072490E-012   4.8459002714064156E-002
   6.1075523978548762E-012  -2.8475069524525054E-012   5.1654412827668257E-002
   6.3209463704860802E-012  -2.8122443609945869E-012   5.4731155136840709E-002
   6.5343412104790222E-012  -2.5825368319548625E-012   5.7689229641581526E-002
   6.7477343157484881E-012  -2.1584400933249981E-012   6.0528636341890721E-002
  -6.9225641000582065E-003   7.9796443582696736E-004   4.8340523242334822E-002
  -7.0162478550038314E-003   1.0512505658302144E-003   5.1322867145816145E-002
  -7.1099316099494554E-003   1.2647098463022439E-003   5.4236511343411051E-002
  -7.2036153648950812E-003   1.4383422772430425E-003   5.7081455835119581E-002
  -7.2972991198407026E-003   1.5721478586526172E-003   5.9857700620941701E-002
  -1.4063265040737532E-002   1.5959288743423120E-003   4.8495243325630641E-002
  -1.4200664452296950E-002   2.1025011345079218E-003   5.1224694169263577E-002
  -1.4338063863856368E-002   2.5294196954167045E-003   5.3935413405555320E-002
  -1.4475463275415785E-002   2.8766845570686152E-003   5.6627401034505906E-002
  -1.4612862686975208E-002   3.1442957194636884E-003   5.9300657056115300E-002
  -2.1422102816143825E-002   2.3938933128576567E-003   4.8923162963951675E-002
  -2.1553249785771809E-002   3.1537517031856466E-003   5.1359893898010586E-002
  -2.1684396755399793E-002   3.7941295445311548E-003   5.3827861323273558E-002
  -2.1815543725027784E-002   4.3150268368941976E-003   5.6327065239740542E-002
  -2.1946690694655768E-002   4.7164435802747387E-003   5.8857505647411601E-002
  -2.8999077426277078E-002   3.1918577513729987E-003   4.9624282157297882E-002
  -2.9074003855428410E-002   4.2050022718633498E-003   5.1728466332057153E-002
  -2.9148930284579735E-002   5.0588393936456325E-003   5.3913855096565690E-002
  -2.9223856713731070E-002   5.7533691167197653E-003   5.6180448450823484E-002
  -2.9298783142882395E-002   6.2885914410858237E-003   5.8528246394830584E-002
   6.7477343157484881E-012  -2.1584400933249981E-012   6.0528636341890721E-002
   6.0698607598497212E-012  -1.3299396306454270E-012   6.1462471836642607E-002
   5.3919872039509542E-012   1.1289233436961865E-013   6.2531334264646937E-002
   4.7141166838182702E-012   2.1702110594712387E-012   6.3735223625903656E-002
   4.0362400921534203E-012   4.8418630216318093E-012   6.5074139920412707E-002
  -7.2972991198407026E-003   1.5721478586526172E-003   5.9857700620941701E-002
  -7.1780143717111141E-003   1.6799868433922775E-003   6.0751476319105491E-002
  -7.0587296235815195E-003   1.7757194843233473E-003   6.1748794581631850E-002
  -6.9394448754519274E-003   1.8593457814458595E-003   6.2849655408520680E-002
  -6.8201601273223302E-003   1.9308657347597430E-003   6.4054058799772148E-002
  -1.4612862686975208E-002   3.1442957194636884E-003   5.9300657056115300E-002
  -1.4405777558928006E-002   3.3599736881145242E-003   6.0142266613268054E-002
  -1.4198692430880807E-002   3.5514389685338179E-003   6.1055934365893481E-002
  -1.3991607302833615E-002   3.7186915607215084E-003   6.2041660313991553E-002
  -1.3784522174786418E-002   3.8617314646776438E-003   6.3099444457562340E-002
  -2.1946690694655768E-002   4.7164435802747387E-003   5.8857505647411601E-002
  -2.1683289555580826E-002   5.0399605328367838E-003   5.9634842719130311E-002
  -2.1419888416505890E-002   5.3271584527442599E-003   6.0452753617431791E-002
  -2.1156487277430944E-002   5.5780373399971573E-003   6.1311238342316082E-002
  -2.0893086138356005E-002   5.7925971945955480E-003   6.2210296893783205E-002
  -2.9298783142882395E-002   6.2885914410858237E-003   5.8528246394830584E-002
  -2.9010550361669572E-002   6.7199473775589949E-003   5.9229204636692227E-002
  -2.8722317580456749E-002   7.1028779369547313E-003   5.9939252336246820E-002
  -2.8434084799243933E-002   7.4373831192727814E-003   6.0658389493494377E-002
  -2.8145852018031110E-002   7.7234629245134245E-003   6.1386616108434877E-002
   4.0362400921534203E-012   4.8418630216318093E-012   6.5074139920412707E-002
   9.8837431294906963E-013   7.7947787113785694E-012   6.5722309951255345E-002
  -2.0594914662552810E-012   1.0695801883064959E-011   6.7074479888920652E-002
  -5.1073572454596317E-012   1.3544907383200577E-011   6.9130649733408531E-002
  -8.1552230246639823E-012   1.6342122099999301E-011   7.1890819484719037E-002
  -6.8201601273223302E-003   1.9308657347597430E-003   6.4054058799772148E-002
  -6.2619358269454910E-003   1.9811851749591894E-003   6.4397103969875275E-002
  -5.7037115265686543E-003   2.0012099327383938E-003   6.5152597840005183E-002
  -5.1454872261918125E-003   1.9909400080972148E-003   6.6320540410161860E-002
  -4.5872629258149715E-003   1.9503754010356811E-003   6.7900931680345444E-002
  -1.3784522174786418E-002   3.8617314646776438E-003   6.3099444457562340E-002
  -1.2959624777780693E-002   3.9623703421236348E-003   6.3107070084557487E-002
  -1.2134727380774974E-002   4.0024198547808764E-003   6.3235593204783683E-002
  -1.1309829983769254E-002   3.9818800026494398E-003   6.3485013818240829E-002
  -1.0484932586763536E-002   3.9007507857292539E-003   6.3855331924928843E-002
  -2.0893086138356005E-002   5.7925971945955480E-003   6.2210296893783205E-002
  -2.0093066851517238E-002   5.9435555092880767E-003   6.1852208295302039E-002
  -1.9293047564678457E-002   6.0036297768234137E-003   6.1323465983256033E-002
  -1.8493028277839680E-002   5.9728199972017056E-003   6.0624069957645119E-002
  -1.7693008991000903E-002   5.8511261704228615E-003   5.9754020218469400E-002
  -2.8145852018031110E-002   7.7234629245134245E-003   6.1386616108434877E-002
  -2.7662262048155098E-002   7.9247406764524769E-003   6.0632518602108942E-002
  -2.7178672078279099E-002   8.0048396988659579E-003   5.9416216175422337E-002
  -2.6695082108403097E-002   7.9637599917539454E-003   5.7737708828375069E-002
  -2.6211492138527089E-002   7.8015015551163580E-003   5.5596996560967116E-002
  -8.1552230246639823E-012   1.6342122099999301E-011   7.1890819484719037E-002
  -1.5388565421936562E-011   1.9095502956645305E-011   7.4240923939687037E-002
  -2.2621902615038714E-011   2.1813044426277628E-011   7.6547390151235170E-002
  -2.9855240675502603E-011   2.4494751713066698E-011   7.8810218119363312E-002
  -3.7088582205413445E-011   2.7140456548835346E-011   8.1029407844071533E-002
  -4.5872629258149715E-003   1.9503754010356811E-003   6.7900931680345444E-002
  -4.5848867120022035E-003   1.9010820222886138E-003   6.8993062425997287E-002
  -4.5825104981894304E-003   1.8646257825906468E-003   7.0133583857161272E-002
  -4.5801342843766650E-003   1.8410066819417956E-003   7.1322495973837371E-002
  -4.5777580705638893E-003   1.8302247203421107E-003   7.2559798776025669E-002
  -1.0484932586763536E-002   3.9007507857292539E-003   6.3855331924928843E-002
  -1.0388151222972600E-002   3.8021640254817801E-003   6.3702326100349510E-002
  -1.0291369859181670E-002   3.7292515433683081E-003   6.3689739890214384E-002
  -1.0194588495390742E-002   3.6820133393890070E-003   6.3817573294523436E-002
  -1.0097807131599811E-002   3.6604494135437371E-003   6.4085826313276639E-002
  -1.7693008991000903E-002   5.8511261704228615E-003   5.9754020218469400E-002
  -1.7409793548299760E-002   5.7032460286749603E-003   5.8368714962743866E-002
  -1.7126578105598603E-002   5.5938773041459954E-003   5.7215858250394554E-002
  -1.6843362662897460E-002   5.5230199968361905E-003   5.6295450081421464E-002
  -1.6560147220196303E-002   5.4906741067453774E-003   5.5607490455824679E-002
  -2.6211492138527089E-002   7.8015015551163580E-003   5.5596996560967116E-002
  -2.5649813687983677E-002   7.6043280318680712E-003   5.2992229013180236E-002
  -2.5088135237440249E-002   7.4585030649235926E-003   5.0711938937701720E-002
  -2.4526456786896828E-002   7.3640266542832952E-003   4.8756126334531490E-002
  -2.3964778336353409E-002   7.3208987999470176E-003   4.7124791203669580E-002
  -3.7088582205413445E-011   2.7140456548835346E-011   8.1029407844071533E-002
  -4.9591556555705907E-011   2.9613478336187882E-011   8.2376685293573504E-002
  -6.2094530905998369E-011   3.1776747899669999E-011   8.3900805851550048E-002
  -7.4597505256290830E-011   3.3630390139371968E-011   8.5601769518001247E-002
  -8.7100479606583292E-011   3.5174307910779135E-011   8.7479576292927075E-002
  -4.5777580705638893E-003   1.8302247203421107E-003   7.2559798776025669E-002
  -4.3855386405491159E-003   1.8198209069066884E-003   7.2974121110494922E-002
  -4.1933192105343426E-003   1.7973362507506668E-003   7.3596039221525078E-002
  -4.0010997805195684E-003   1.7627707518742229E-003   7.4425553109115958E-002
  -3.8088803505047959E-003   1.7161244102773532E-003   7.5462662773267714E-002
  -1.0097807131599811E-002   3.6604494135437371E-003   6.4085826313276639E-002
  -9.6826155909811133E-003   3.6396417841998152E-003   6.3555112690302479E-002
  -9.2674240503624189E-003   3.5946724697246413E-003   6.3262747511975317E-002
  -8.8522325097437193E-003   3.5255414701181667E-003   6.3208730778295169E-002
  -8.4370409691250266E-003   3.4322487853802319E-003   6.3393062489262089E-002
  -1.6560147220196303E-002   5.4906741067453774E-003   5.5607490455824679E-002
  -1.5891230900887530E-002   5.4594626614929836E-003   5.4119660032996286E-002
  -1.5222314581578753E-002   5.3920086886986157E-003   5.2900930722901029E-002
  -1.4553398262269973E-002   5.2883121883619440E-003   5.1951302525538978E-002
  -1.3884481942961194E-002   5.1483731604831939E-003   5.1270775440910132E-002
  -2.3964778336353409E-002   7.3208987999470176E-003   4.7124791203669580E-002
  -2.3011384570268374E-002   7.2792835387860966E-003   4.4667763138576094E-002
  -2.2057990804183344E-002   7.1893449076725902E-003   4.2510588854302006E-002
  -2.1104597038098315E-002   7.0510829066059016E-003   4.0653268350847274E-002
  -2.0151203272013279E-002   6.8644975355861559E-003   3.9095801628211801E-002
  -8.7100479606583292E-011   3.5174307910779135E-011   8.7479576292927075E-002
  -1.0582024145833202E-010   3.2752550671588665E-011   8.9288794596589283E-002
  -1.2454000331008075E-010   2.2708959712680610E-011   9.2218084615147994E-002
  -1.4325976516182948E-010   5.0438021814702694E-012   9.6267446348603500E-002
  -1.6197952701357821E-010  -2.0243418052956486E-011  0.10143687979695531     
  -3.8088803505047959E-003   1.7161244102773532E-003   7.5462662773267714E-002
  -2.9132778410092802E-003   1.6617646255653040E-003   7.6226458509467077E-002
  -2.0176753315137800E-003   1.6040587973441128E-003   7.7661387587200356E-002
  -1.1220728220182816E-003   1.5430069256134500E-003   7.9767450006467538E-002
  -2.2647031252276406E-004   1.4786090103733884E-003   8.2544645767268721E-002
  -8.4370409691250266E-003   3.4322487853802319E-003   6.3393062489262089E-002
  -7.0947743047769119E-003   3.3235292183781823E-003   6.3108089622110966E-002
  -5.7525076404288103E-003   3.2081175719792590E-003   6.3045311723131159E-002
  -4.4102409760806982E-003   3.0860138461832626E-003   6.3204728792322612E-002
  -3.0679743117325940E-003   2.9572180409903337E-003   6.3586340829685437E-002
  -1.3884481942961194E-002   5.1483731604831939E-003   5.1270775440910132E-002
  -1.2544489497123137E-002   4.9852938111910813E-003   4.9933687934520965E-002
  -1.1204497051285088E-002   4.8121763466142699E-003   4.8369857022940443E-002
  -9.8645046054470480E-003   4.6290207667531039E-003   4.6579282706168457E-002
  -8.5245121596089907E-003   4.4358270716071541E-003   4.4561964984205116E-002
  -2.0151203272013279E-002   6.8644975355861559E-003   3.9095801628211801E-002
  -1.9262423418047951E-002   6.6470584040038416E-003   3.6703253446697004E-002
  -1.8373643564082623E-002   6.4162351212495861E-003   3.3635023486628196E-002
  -1.7484863710117302E-002   6.1720276873228133E-003   2.9891111748005308E-002
  -1.6596083856151973E-002   5.9144361022240854E-003   2.5471518230828272E-002
  -1.6197952701357821E-010  -2.0243418052956486E-011  0.10143687979695531     
  -1.7452351716573666E-010  -6.6402938703191694E-011  0.10723865697500345     
  -1.8706751078734207E-010  -1.4668587178245929E-010  0.11514962730851461     
  -1.9961150440894748E-010  -2.6109197789891958E-010  0.12516979079748825     
  -2.1215550149999984E-010  -4.0962122582755001E-010  0.13729914744192540     
  -2.2647031252276406E-004   1.4786090103733884E-003   8.2544645767268721E-002
   1.4446402535495794E-003   1.5022522304003194E-003   8.5383020659763526E-002
   3.1157508196219194E-003   1.7053237644707592E-003   8.9454423554028439E-002
   4.7868613856942620E-003   2.0878236125841977E-003   9.4758854450063032E-002
   6.4579719517666029E-003   2.6497517747410271E-003  0.10129631334786693     
  -3.0679743117325940E-003   2.9572180409903337E-003   6.3586340829685437E-002
  -6.0191832073710951E-004   3.0045045272037718E-003   6.3640741784793800E-002
   1.8641376702583810E-003   3.4106476756271056E-003   6.4052005587978633E-002
   4.3301936612538594E-003   4.1756474862603438E-003   6.4820132239239839E-002
   6.7962496522493560E-003   5.2995039591032800E-003   6.5945121738578139E-002
  -8.5245121596089907E-003   4.4358270716071541E-003   4.4561964984205116E-002
  -6.1396758973835570E-003   4.5067568240071826E-003   4.2011820350093515E-002
  -3.7548396351581282E-003   5.1159715867836499E-003   3.8942373410365043E-002
  -1.3700033729326848E-003   6.2634713599364492E-003   3.5353624165020178E-002
   1.0148328892927334E-003   7.9492561434654774E-003   3.1245572614058276E-002
  -1.6596083856151973E-002   5.9144361022240854E-003   2.5471518230828272E-002
  -1.5168632476389790E-002   6.0090091208105378E-003   2.0496256355663101E-002
  -1.3741181096627614E-002   6.8212954979400275E-003   1.4125527021188133E-002
  -1.2313729716865444E-002   8.3512952336125407E-003   6.3593302274029817E-003
  -1.0886278337103247E-002   1.0599008327827786E-002  -2.8023340256917439E-003
  -2.6625924326366381E-002   0.0000000000000000        2.9532831397592781E-002
  -2.7219212601344051E-002   5.7683910134236505E-004   3.5009727724547995E-002
  -2.7812500876321731E-002   1.3010950936853220E-003   4.0183934960150582E-002
  -2.8405789151299401E-002   2.1727679770288666E-003   4.5055453104400546E-002
  -2.8999077426277078E-002   3.1918577513729987E-003   4.9624282157297882E-002
  -3.3389928001061754E-002   0.0000000000000000        3.0231943652650542E-002
  -3.4221516282313333E-002   9.4681597117175168E-004   3.5321225601864764E-002
  -3.5053104563564925E-002   1.9970761761400830E-003   4.0236596629883783E-002
  -3.5884692844816518E-002   3.1507806149049947E-003   4.4978056736707614E-002
  -3.6716281126068090E-002   4.4079292874664869E-003   4.9545605922336255E-002
  -4.0731365700975422E-002   0.0000000000000000        3.1323019106139709E-002
  -4.1672475818343484E-002   1.3167928410011387E-003   3.5980714020408908E-002
  -4.2613585935711545E-002   2.6930572585948474E-003   4.0593276183640364E-002
  -4.3554696053079607E-002   4.1287932527811246E-003   4.5160705595834058E-002
  -4.4495806170447676E-002   5.6240008235599707E-003   4.9683002256989982E-002
  -4.8650237426107391E-002   0.0000000000000000        3.2806057758060253E-002
  -4.9572091209434503E-002   1.6867697108305256E-003   3.6988192980180447E-002
  -5.0493944992761601E-002   3.3890383410496113E-003   4.1253973621420303E-002
  -5.1415798776088720E-002   5.1068058906572483E-003   4.5603399681779858E-002
  -5.2337652559415811E-002   6.8400723596534537E-003   5.0036471161259068E-002
  -5.7146543176457662E-002   0.0000000000000000        3.4681059608412196E-002
  -5.7920362455586391E-002   2.0567465806599124E-003   3.8343662481179368E-002
  -5.8694181734715099E-002   4.0850194235043744E-003   4.2218688943223635E-002
  -5.9468001013843808E-002   6.0848185285333860E-003   4.6306138994545019E-002
  -6.0241820292972523E-002   8.0561438957469471E-003   5.0606012635143499E-002
  -2.8999077426277078E-002   3.1918577513729987E-003   4.9624282157297882E-002
  -2.9074003855428410E-002   4.2050022718633498E-003   5.1728466332057153E-002
  -2.9148930284579735E-002   5.0588393936456325E-003   5.3913855096565690E-002
  -2.9223856713731070E-002   5.7533691167197653E-003   5.6180448450823484E-002
  -2.9298783142882395E-002   6.2885914410858237E-003   5.8528246394830584E-002
  -3.6716281126068090E-002   4.4079292874664869E-003   4.9545605922336255E-002
  -3.6742125373879629E-002   5.6307386728350573E-003   5.1389631240652232E-002
  -3.6767969621691168E-002   6.6814252500212602E-003   5.3250616331898537E-002
  -3.6793813869502708E-002   7.5599890190250615E-003   5.5128561196075142E-002
  -3.6819658117314261E-002   8.2664299798464805E-003   5.7023465833182067E-002
  -4.4495806170447676E-002   5.6240008235599707E-003   4.9683002256989982E-002
  -4.4536813053738376E-002   7.0564750738067658E-003   5.1254053309388391E-002
  -4.4577819937029077E-002   8.3040111063968948E-003   5.2777819317898163E-002
  -4.4618826820319771E-002   9.3666089213303508E-003   5.4254300282519277E-002
  -4.4659833703610478E-002   1.0244268518607134E-002   5.5683496203251762E-002
  -5.2337652559415811E-002   6.8400723596534537E-003   5.0036471161259068E-002
  -5.2458066895004624E-002   8.4822114747784699E-003   5.1321732538265621E-002
  -5.2578481230593457E-002   9.9265969627725260E-003   5.2495464054564595E-002
  -5.2698895566182277E-002   1.1173228823635636E-002   5.3557665710155966E-002
  -5.2819309901771097E-002   1.2222107057367782E-002   5.4508337505039757E-002
  -6.0241820292972523E-002   8.0561438957469471E-003   5.0606012635143499E-002
  -6.0505886897678413E-002   9.9079478757501775E-003   5.1592668927283925E-002
  -6.0769953502384302E-002   1.1549182819148162E-002   5.2403550541897798E-002
  -6.1034020107090192E-002   1.2979848725940947E-002   5.3038657478985125E-002
  -6.1298086711796082E-002   1.4199945596128458E-002   5.3497989738545915E-002
  -2.9298783142882395E-002   6.2885914410858237E-003   5.8528246394830584E-002
  -2.9010550361669572E-002   6.7199473775589949E-003   5.9229204636692227E-002
  -2.8722317580456749E-002   7.1028779369547313E-003   5.9939252336246820E-002
  -2.8434084799243933E-002   7.4373831192727814E-003   6.0658389493494377E-002
  -2.8145852018031110E-002   7.7234629245134245E-003   6.1386616108434877E-002
  -3.6819658117314261E-002   8.2664299798464805E-003   5.7023465833182067E-002
  -3.6453741723277130E-002   8.8249938973212830E-003   5.7387689290516526E-002
  -3.6087825329240021E-002   9.2599265362853910E-003   5.7898190515806608E-002
  -3.5721908935202898E-002   9.5712278967386537E-003   5.8554969509052299E-002
  -3.5355992541165795E-002   9.7588979786811803E-003   5.9358026270253661E-002
  -4.4659833703610478E-002   1.0244268518607134E-002   5.5683496203251762E-002
  -4.4079045386486403E-002   1.0930040417083581E-002   5.5635778974625794E-002
  -4.3498257069362299E-002   1.1416975135616035E-002   5.5871527824218135E-002
  -4.2917468752238223E-002   1.1705072674204455E-002   5.6390742752028794E-002
  -4.2336680435114134E-002   1.1794333032848936E-002   5.7193423758057742E-002
  -5.2819309901771097E-002   1.2222107057367782E-002   5.4508337505039757E-002
  -5.1886461351297340E-002   1.3035086936845868E-002   5.3973473689020127E-002
  -5.0953612800823611E-002   1.3574023734946702E-002   5.3859264261481458E-002
  -5.0020764250349875E-002   1.3838917451670292E-002   5.4165709222423808E-002
  -4.9087915699876125E-002   1.3829768087016636E-002   5.4892808571847154E-002
  -6.1298086711796082E-002   1.4199945596128458E-002   5.3497989738545915E-002
  -5.9875989617710013E-002   1.5140133456608171E-002   5.2400773433699366E-002
  -5.8453892523623936E-002   1.5731072334277355E-002   5.1861399827596549E-002
  -5.7031795429537860E-002   1.5972762229136104E-002   5.1879868920237340E-002
  -5.5609698335451790E-002   1.5865203141184434E-002   5.2456180711621850E-002
  -2.8145852018031110E-002   7.7234629245134245E-003   6.1386616108434877E-002
  -2.7662262048155098E-002   7.9247406764524769E-003   6.0632518602108942E-002
  -2.7178672078279099E-002   8.0048396988659579E-003   5.9416216175422337E-002
  -2.6695082108403097E-002   7.9637599917539454E-003   5.7737708828375069E-002
  -2.6211492138527089E-002   7.8015015551163580E-003   5.5596996560967116E-002
  -3.5355992541165795E-002   9.7588979786811803E-003   5.9358026270253661E-002
  -3.5158419464873802E-002   9.8377106983223370E-003   5.8901938332082009E-002
  -3.4960846388581809E-002   9.8224399718715508E-003   5.8336021527102981E-002
  -3.4763273312289823E-002   9.7130857993286777E-003   5.7660275855316689E-002
  -3.4565700235997823E-002   9.5096481806939415E-003   5.6874701316722912E-002
  -4.2336680435114134E-002   1.1794333032848936E-002   5.7193423758057742E-002
  -4.2072748198852816E-002   1.1750680720192135E-002   5.7062440671473917E-002
  -4.1808815962591492E-002   1.1640040244877001E-002   5.7174004771636089E-002
  -4.1544883726330167E-002   1.1462411606903436E-002   5.7528116058544201E-002
  -4.1280951490068836E-002   1.1217794806271483E-002   5.8124774532198394E-002
  -4.9087915699876125E-002   1.3829768087016636E-002   5.4892808571847154E-002
  -4.8405248250092146E-002   1.3663650742061991E-002   5.5114025620284654E-002
  -4.7722580800308147E-002   1.3457640517882468E-002   5.5930165909021598E-002
  -4.7039913350524161E-002   1.3211737414478168E-002   5.7341229438057847E-002
  -4.6357245900740189E-002   1.2925941431849060E-002   5.9347216207393395E-002
  -5.5609698335451790E-002   1.5865203141184434E-002   5.2456180711621850E-002
  -5.4155919618591786E-002   1.5576620763931785E-002   5.3056693178514386E-002
  -5.2702140901731774E-002   1.5275240790888035E-002   5.4604504939259606E-002
  -5.1248362184871776E-002   1.4961063222052939E-002   5.7099615993857489E-002
  -4.9794583468011744E-002   1.4634088057426581E-002   6.0542026342308070E-002
  -2.6211492138527089E-002   7.8015015551163580E-003   5.5596996560967116E-002
  -2.5649813687983677E-002   7.6043280318680712E-003   5.2992229013180236E-002
  -2.5088135237440249E-002   7.4585030649235926E-003   5.0711938937701720E-002
  -2.4526456786896828E-002   7.3640266542832952E-003   4.8756126334531490E-002
  -2.3964778336353409E-002   7.3208987999470176E-003   4.7124791203669580E-002
  -3.4565700235997823E-002   9.5096481806939415E-003   5.6874701316722912E-002
  -3.3726975259305333E-002   9.2638421105920854E-003   5.5891807215907474E-002
  -3.2888250282612851E-002   9.0273825836480331E-003   5.5138528695081908E-002
  -3.2049525305920354E-002   8.8002695998619616E-003   5.4614865754246136E-002
  -3.1210800329227854E-002   8.5825031592336454E-003   5.4320818393400305E-002
  -4.1280951490068836E-002   1.1217794806271483E-002   5.8124774532198394E-002
  -4.0260041879545752E-002   1.0923356189316204E-002   5.8721751865208241E-002
  -3.9239132269022647E-002   1.0596262102372477E-002   5.9453482885889419E-002
  -3.8218222658499515E-002   1.0236512545440519E-002   6.0319967594241970E-002
  -3.7197313047976410E-002   9.8441075185202176E-003   6.1321205990265970E-002
  -4.6357245900740189E-002   1.2925941431849060E-002   5.9347216207393395E-002
  -4.5249013548704878E-002   1.2582870268040242E-002   6.1482062961082329E-002
  -4.4140781196669636E-002   1.2165141621096892E-002   6.3656801510124164E-002
  -4.3032548844634366E-002   1.1672755491019158E-002   6.5871431854518922E-002
  -4.1924316492599110E-002   1.1105711877806845E-002   6.8125953994266616E-002
  -4.9794583468011744E-002   1.4634088057426581E-002   6.0542026342308070E-002
  -4.8693890266782808E-002   1.4242384346764336E-002   6.4172740503529918E-002
  -4.7593197065553816E-002   1.3734021139821313E-002   6.7748484567786135E-002
  -4.6492503864324852E-002   1.3108998436597729E-002   7.1269258535076957E-002
  -4.5391810663095875E-002   1.2367316237093473E-002   7.4735062405402120E-002
  -2.3964778336353409E-002   7.3208987999470176E-003   4.7124791203669580E-002
  -2.3011384570268374E-002   7.2792835387860966E-003   4.4667763138576094E-002
  -2.2057990804183344E-002   7.1893449076725902E-003   4.2510588854302006E-002
  -2.1104597038098315E-002   7.0510829066059016E-003   4.0653268350847274E-002
  -2.0151203272013279E-002   6.8644975355861559E-003   3.9095801628211801E-002
  -3.1210800329227854E-002   8.5825031592336454E-003   5.4320818393400305E-002
  -2.9962629246329864E-002   8.3533282639399742E-003   5.3077979727205626E-002
  -2.8714458163431870E-002   8.0919899161578240E-003   5.2124841913817610E-002
  -2.7466287080533877E-002   7.7984881158872053E-003   5.1461404953236173E-002
  -2.6218115997635891E-002   7.4728228631282811E-003   5.1087668845461315E-002
  -3.7197313047976410E-002   9.8441075185202176E-003   6.1321205990265970E-002
  -3.5664517576278226E-002   9.4273729890937130E-003   6.1308716640434635E-002
  -3.4131722104580035E-002   8.9946349246432800E-003   6.1575775215397074E-002
  -3.2598926632881838E-002   8.5458933251688421E-003   6.2122381715153371E-002
  -3.1066131161183654E-002   8.0811481906703508E-003   6.2948536139703498E-002
  -4.1924316492599110E-002   1.1105711877806845E-002   6.8125953994266616E-002
  -4.0117049560113451E-002   1.0501417714247493E-002   6.9359973878262995E-002
  -3.8309782627627811E-002   9.8972799331286249E-003   7.0863388759040385E-002
  -3.6502515695142165E-002   9.2932985344503678E-003   7.2636198636598967E-002
  -3.4695248762656533E-002   8.6894735182125038E-003   7.4678403510938490E-002
  -4.5391810663095875E-002   1.2367316237093473E-002   7.4735062405402120E-002
  -4.3320225197835543E-002   1.1575462439401357E-002   7.7231751440690721E-002
  -4.1248639732575219E-002   1.0799924941614067E-002   7.9987682544747613E-002
  -3.9177054267314909E-002   1.0040703743731835E-002   8.3002855717572946E-002
  -3.7105468802054564E-002   9.2977988457546012E-003   8.6277270959166430E-002
  -2.0151203272013279E-002   6.8644975355861559E-003   3.9095801628211801E-002
  -1.9262423418047951E-002   6.6470584040038416E-003   3.6703253446697004E-002
  -1.8373643564082623E-002   6.4162351212495861E-003   3.3635023486628196E-002
  -1.7484863710117302E-002   6.1720276873228133E-003   2.9891111748005308E-002
  -1.6596083856151973E-002   5.9144361022240854E-003   2.5471518230828272E-002
  -2.6218115997635891E-002   7.4728228631282811E-003   5.1087668845461315E-002
  -2.5762641617287106E-002   7.1105540679333168E-003   5.0129180639181231E-002
  -2.5307167236938349E-002   6.7072416403554658E-003   4.8979763264222057E-002
  -2.4851692856589565E-002   6.2628855803945199E-003   4.7639416720583909E-002
  -2.4396218476240780E-002   5.7774858880502711E-003   4.6108141008266823E-002
  -3.1066131161183654E-002   8.0811481906703508E-003   6.2948536139703498E-002
  -3.0559209644576410E-002   7.5740497318628336E-003   6.3396448427447322E-002
  -3.0052288127969163E-002   6.9982481594613871E-003   6.4138184156386946E-002
  -2.9545366611361909E-002   6.3537434734660010E-003   6.5173743326522648E-002
  -2.9038445094754672E-002   5.6405356738765677E-003   6.6503125937854290E-002
  -3.4695248762656533E-002   8.6894735182125038E-003   7.4678403510938490E-002
  -3.3652127499915835E-002   8.0375453957922741E-003   7.6505056811495234E-002
  -3.2609006237175102E-002   7.2892546785671766E-003   7.9110286163122948E-002
  -3.1565884974434369E-002   6.4446013665375949E-003   8.2494091565821631E-002
  -3.0522763711693664E-002   5.5035854597028644E-003   8.6656473019591285E-002
  -3.7105468802054564E-002   9.2977988457546012E-003   8.6277270959166430E-002
  -3.5041395183305346E-002   8.5010410597218533E-003   8.9455005791325204E-002
  -3.2977321564556142E-002   7.5802611976732714E-003   9.3896069284429895E-002
  -3.0913247945806924E-002   6.5354592596091540E-003   9.9600461438480642E-002
  -2.8849174327057719E-002   5.3666352455291055E-003  0.10656818225347747     
  -1.6596083856151973E-002   5.9144361022240854E-003   2.5471518230828272E-002
  -1.5168632476389790E-002   6.0090091208105378E-003   2.0496256355663101E-002
  -1.3741181096627614E-002   6.8212954979400275E-003   1.4125527021188133E-002
  -1.2313729716865444E-002   8.3512952336125407E-003   6.3593302274029817E-003
  -1.0886278337103247E-002   1.0599008327827786E-002  -2.8023340256917439E-003
  -2.4396218476240780E-002   5.7774858880502711E-003   4.6108141008266823E-002
  -2.3854456668100269E-002   5.2982456825883817E-003   4.5186103004709960E-002
  -2.3312694859959779E-002   4.8723680832746391E-003   4.3888153317219708E-002
  -2.2770933051819202E-002   4.4998530901086999E-003   4.2214291945795721E-002
  -2.2229171243678757E-002   4.1807007030902898E-003   4.0164518890438594E-002
  -2.9038445094754672E-002   5.6405356738765677E-003   6.6503125937854290E-002
  -2.8362817082859530E-002   4.5874822443664753E-003   6.8969961053510928E-002
  -2.7687189070964312E-002   2.9234406686091396E-003   7.2080440260610418E-002
  -2.7011561059069135E-002   6.4841094660466475E-004   7.5834563559152759E-002
  -2.6335933047174003E-002  -2.2376069216472061E-003   8.0232330949137953E-002
  -3.0522763711693664E-002   5.5035854597028644E-003   8.6656473019591285E-002
  -2.8693713720667480E-002   3.8767188061444441E-003   9.1847830502066310E-002
  -2.6864663729641278E-002   9.7451325394375121E-004   9.8702387851360318E-002
  -2.5035613738615018E-002  -3.2030311968992732E-003  0.10722014506747350     
  -2.3206563747588890E-002  -8.6559145463846465E-003  0.11740110215040597     
  -2.8849174327057719E-002   5.3666352455291055E-003  0.10656818225347747     
  -2.4847146581524163E-002   3.1659553679224683E-003  0.11381971135037555     
  -2.0845118835990606E-002  -9.7441416072181763E-004  0.12375399608946899     
  -1.6843091090457077E-002  -7.0544733404030897E-003  0.13637103647075838     
  -1.2841063344923520E-002  -1.5074222171122198E-002  0.15167083249424285     
  -5.7146543176457662E-002   0.0000000000000000        3.4681059608412196E-002
  -5.7920362455586391E-002   2.0567465806599124E-003   3.8343662481179368E-002
  -5.8694181734715099E-002   4.0850194235043744E-003   4.2218688943223635E-002
  -5.9468001013843808E-002   6.0848185285333860E-003   4.6306138994545019E-002
  -6.0241820292972523E-002   8.0561438957469471E-003   5.0606012635143499E-002
  -6.5812639214010926E-002   0.0000000000000000        3.7177506330718410E-002
  -6.6603160030947475E-002   2.8929509247045300E-003   4.0805641587964986E-002
  -6.7393680847883997E-002   5.7279837087285375E-003   4.4187950180318805E-002
  -6.8184201664820532E-002   8.5050983520720234E-003   4.7324432107779868E-002
  -6.8974722481757081E-002   1.1224294854734983E-002   5.0215087370348167E-002
  -7.4240881800751835E-002   0.0000000000000000        4.0524879598501783E-002
  -7.5506354409666090E-002   3.7291552687491484E-003   4.4089102837362698E-002
  -7.6771827018580305E-002   7.3709479939527015E-003   4.6949249157160984E-002
  -7.8037299627494533E-002   1.0925378175610657E-002   4.9105318557896648E-002
  -7.9302772236408789E-002   1.4392445813723015E-002   5.0557311039569702E-002
  -8.2431270936680442E-002   0.0000000000000000        4.4723179411762314E-002
  -8.4629945591742223E-002   4.5653596127937669E-003   4.8194046229372477E-002
  -8.6828620246804017E-002   9.0139122791768646E-003   5.0502585873750172E-002
  -8.9027294901865797E-002   1.3345657999149291E-002   5.1648798344895379E-002
  -9.1225969556927591E-002   1.7560596772711046E-002   5.1632683642808097E-002
  -9.0383806621796708E-002   0.0000000000000000        4.9772405770499989E-002
  -9.3973933577175914E-002   5.4015639568383844E-003   5.3120471763994356E-002
  -9.7564060532555119E-002   1.0656876564401029E-002   5.4847960330086369E-002
 -0.10115418748793432        1.5765937822687932E-002   5.4954871468776034E-002
 -0.10474431444331353        2.0728747731699085E-002   5.3441205180063345E-002
  -6.0241820292972523E-002   8.0561438957469471E-003   5.0606012635143499E-002
  -6.0505886897678413E-002   9.9079478757501775E-003   5.1592668927283925E-002
  -6.0769953502384302E-002   1.1549182819148162E-002   5.2403550541897798E-002
  -6.1034020107090192E-002   1.2979848725940947E-002   5.3038657478985125E-002
  -6.1298086711796082E-002   1.4199945596128458E-002   5.3497989738545915E-002
  -6.8974722481757081E-002   1.1224294854734983E-002   5.0215087370348167E-002
  -6.9187612996687686E-002   1.3639051533885175E-002   4.9452781592448182E-002
  -6.9400503511618278E-002   1.5502846706690346E-002   4.8968602671625339E-002
  -6.9613394026548855E-002   1.6815680373150472E-002   4.8762550607879630E-002
  -6.9826284541479475E-002   1.7577552533265636E-002   4.8834625401211099E-002
  -7.9302772236408789E-002   1.4392445813723015E-002   5.0557311039569702E-002
  -7.9010585126960381E-002   1.7370155192020179E-002   4.7705650721889502E-002
  -7.8718398017511987E-002   1.9456510594232510E-002   4.5586018795890144E-002
  -7.8426210908063607E-002   2.0651512020360079E-002   4.4198415261571644E-002
  -7.8134023798615185E-002   2.0955159470402808E-002   4.3542840118933938E-002
  -9.1225969556927591E-002   1.7560596772711046E-002   5.1632683642808097E-002
  -8.9974803288496538E-002   2.1101258850155187E-002   4.6351276315607905E-002
  -8.8723637020065471E-002   2.3410174481774699E-002   4.2255798914692264E-002
  -8.7472470751634404E-002   2.4487343667569644E-002   3.9346251440061139E-002
  -8.6221304483203323E-002   2.4332766407539966E-002   3.7622633891714538E-002
 -0.10474431444331353        2.0728747731699085E-002   5.3441205180063345E-002
 -0.10208026748129612        2.4832362508290188E-002   4.5389658373603411E-002
  -9.9416220519278675E-002   2.7363838369316860E-002   3.8977943028031661E-002
  -9.6752173557261262E-002   2.8323175314779216E-002   3.4206059143348136E-002
  -9.4088126595243821E-002   2.7710373344677158E-002   3.1074006719552807E-002
  -6.1298086711796082E-002   1.4199945596128458E-002   5.3497989738545915E-002
  -5.9875989617710013E-002   1.5140133456608171E-002   5.2400773433699366E-002
  -5.8453892523623936E-002   1.5731072334277355E-002   5.1861399827596549E-002
  -5.7031795429537860E-002   1.5972762229136104E-002   5.1879868920237340E-002
  -5.5609698335451790E-002   1.5865203141184434E-002   5.2456180711621850E-002
  -6.9826284541479475E-002   1.7577552533265636E-002   4.8834625401211099E-002
  -6.7913685303085725E-002   1.7958503730516853E-002   4.7610462413379531E-002
  -6.6001086064691988E-002   1.8128574508385367E-002   4.6809461015419641E-002
  -6.4088486826298266E-002   1.8087764866871057E-002   4.6431621207331381E-002
  -6.2175887587904516E-002   1.7836074805974045E-002   4.6476942989114776E-002
  -7.8134023798615185E-002   2.0955159470402808E-002   4.3542840118933938E-002
  -7.5865603524785871E-002   2.0776874004425600E-002   4.2330099011545094E-002
  -7.3597183250956502E-002   2.0526076682493323E-002   4.1405838385155880E-002
  -7.1328762977127133E-002   2.0202767504605992E-002   4.0770058239766219E-002
  -6.9060342703297792E-002   1.9806946470763635E-002   4.0422758575376208E-002
  -8.6221304483203323E-002   2.4332766407539966E-002   3.7622633891714538E-002
  -8.3731744282810425E-002   2.3595244278334343E-002   3.6559683228196076E-002
  -8.1242184082417443E-002   2.2923578856601335E-002   3.5650531936805153E-002
  -7.8752623882024503E-002   2.2317770142340952E-002   3.4895180017541882E-002
  -7.6263063681631563E-002   2.1777818135553250E-002   3.4293627470406110E-002
  -9.4088126595243821E-002   2.7710373344677158E-002   3.1074006719552807E-002
  -9.1512107577159330E-002   2.6413614552243038E-002   3.0299215063332482E-002
  -8.8936088559074852E-002   2.5321081030709292E-002   2.9543541670367608E-002
  -8.6360069540990375E-002   2.4432772780075863E-002   2.8806986540658358E-002
  -8.3784050522905870E-002   2.3748689800342865E-002   2.8089549674204545E-002
  -5.5609698335451790E-002   1.5865203141184434E-002   5.2456180711621850E-002
  -5.4155919618591786E-002   1.5576620763931785E-002   5.3056693178514386E-002
  -5.2702140901731774E-002   1.5275240790888035E-002   5.4604504939259606E-002
  -5.1248362184871776E-002   1.4961063222052939E-002   5.7099615993857489E-002
  -4.9794583468011744E-002   1.4634088057426581E-002   6.0542026342308070E-002
  -6.2175887587904516E-002   1.7836074805974045E-002   4.6476942989114776E-002
  -5.9939758905609340E-002   1.7481684710180669E-002   4.6590581641548758E-002
  -5.7703630223314130E-002   1.7132774963977561E-002   4.7321620931000438E-002
  -5.5467501541018926E-002   1.6789345567364632E-002   4.8670060857469832E-002
  -5.3231372858723744E-002   1.6451396520341860E-002   5.0635901420956864E-002
  -6.9060342703297792E-002   1.9806946470763635E-002   4.0422758575376208E-002
  -6.6371762712402388E-002   1.9386748656429528E-002   4.0067801358733092E-002
  -6.3683182721507012E-002   1.8990309137067111E-002   4.0000346122272663E-002
  -6.0994602730611615E-002   1.8617627912676300E-002   4.0220392865995019E-002
  -5.8306022739716246E-002   1.8268704983257153E-002   4.0727941589900042E-002
  -7.6263063681631563E-002   2.1777818135553250E-002   3.4293627470406110E-002
  -7.3451931038970950E-002   2.1291812602678345E-002   3.3488352330067431E-002
  -7.0640798396310364E-002   2.0847843310156652E-002   3.2640680513076378E-002
  -6.7829665753649765E-002   2.0445910257987979E-002   3.1750612019433092E-002
  -6.5018533110989152E-002   2.0086013446172439E-002   3.0818146849137466E-002
  -8.3784050522905870E-002   2.3748689800342865E-002   2.8089549674204545E-002
  -8.1180263885315018E-002   2.3196876548927242E-002   2.6852234555551677E-002
  -7.8576477247724236E-002   2.2705377483246199E-002   2.5242624103411382E-002
  -7.5972690610133398E-002   2.2274192603299672E-002   2.3260718317783979E-002
  -7.3368903972542587E-002   2.1903321909087725E-002   2.0906517198669206E-002
  -4.9794583468011744E-002   1.4634088057426581E-002   6.0542026342308070E-002
  -4.8693890266782808E-002   1.4242384346764336E-002   6.4172740503529918E-002
  -4.7593197065553816E-002   1.3734021139821313E-002   6.7748484567786135E-002
  -4.6492503864324852E-002   1.3108998436597729E-002   7.1269258535076957E-002
  -4.5391810663095875E-002   1.2367316237093473E-002   7.4735062405402120E-002
  -5.3231372858723744E-002   1.6451396520341860E-002   5.0635901420956864E-002
  -5.2135472285387965E-002   1.6059698987223828E-002   5.2564114151939803E-002
  -5.1039571712052180E-002   1.5555024132324978E-002   5.4537711724101809E-002
  -4.9943671138716450E-002   1.4937371955645351E-002   5.6556694137442950E-002
  -4.8847770565380637E-002   1.4206742457184895E-002   5.8621061391963186E-002
  -5.8306022739716246E-002   1.8268704983257153E-002   4.0727941589900042E-002
  -5.7114559856129038E-002   1.7877013627683402E-002   4.0957335065143950E-002
  -5.5923096972541803E-002   1.7376027124828639E-002   4.1332468319711518E-002
  -5.4731634088954609E-002   1.6765745474692999E-002   4.1853341353602913E-002
  -5.3540171205367429E-002   1.6046168677276401E-002   4.2519954166818016E-002
  -6.5018533110989152E-002   2.0086013446172439E-002   3.0818146849137466E-002
  -6.3631152979005873E-002   1.9694328268142908E-002   2.9352403243142110E-002
  -6.2243772847022601E-002   1.9197030117332300E-002   2.8132754354615215E-002
  -6.0856392715039329E-002   1.8594118993740524E-002   2.7159200183556768E-002
  -5.9469012583056008E-002   1.7885594897367810E-002   2.6431740729966621E-002
  -7.3368903972542587E-002   2.1903321909087725E-002   2.0906517198669206E-002
  -7.1685251654018622E-002   2.1511642908602413E-002   1.7749318685934684E-002
  -7.0001599335494616E-002   2.1018033109835937E-002   1.4938569828813114E-002
  -6.8317947016970637E-002   2.0422492512788264E-002   1.2474270627304544E-002
  -6.6634294698446644E-002   1.9725021117459329E-002   1.0356421081409051E-002
  -4.5391810663095875E-002   1.2367316237093473E-002   7.4735062405402120E-002
  -4.3320225197835543E-002   1.1575462439401357E-002   7.7231751440690721E-002
  -4.1248639732575219E-002   1.0799924941614067E-002   7.9987682544747613E-002
  -3.9177054267314909E-002   1.0040703743731835E-002   8.3002855717572946E-002
  -3.7105468802054564E-002   9.2977988457546012E-003   8.6277270959166430E-002
  -4.8847770565380637E-002   1.4206742457184895E-002   5.8621061391963186E-002
  -4.6529633637307374E-002   1.3425353495611067E-002   5.9882506431324076E-002
  -4.4211496709234063E-002   1.2655422929591528E-002   6.1377812327542622E-002
  -4.1893359781160766E-002   1.1896950759125956E-002   6.3106979080618769E-002
  -3.9575222853087483E-002   1.1149936984214626E-002   6.5070006690552601E-002
  -5.3540171205367429E-002   1.6046168677276401E-002   4.2519954166818016E-002
  -5.1000864026391798E-002   1.5275244551821013E-002   4.2541297305900394E-002
  -4.8461556847416161E-002   1.4510920917568886E-002   4.2771120089929747E-002
  -4.5922249668440517E-002   1.3753197774520247E-002   4.3209422518906068E-002
  -4.3382942489464893E-002   1.3002075122674844E-002   4.3856204592829379E-002
  -5.9469012583056008E-002   1.7885594897367810E-002   2.6431740729966621E-002
  -5.6733916365088753E-002   1.7125135608030785E-002   2.5208124064419610E-002
  -5.3998820147121512E-002   1.6366418905546295E-002   2.4167605831909092E-002
  -5.1263723929154237E-002   1.5609444789914453E-002   2.3310186032434718E-002
  -4.8528627711186961E-002   1.4854213261135021E-002   2.2635864665996742E-002
  -6.6634294698446644E-002   1.9725021117459329E-002   1.0356421081409051E-002
  -6.3728790653398343E-002   1.8975026664240696E-002   7.8829867068819226E-003
  -6.0823286608350111E-002   1.8221916893523704E-002   5.5672695534805527E-003
  -5.7917782563301858E-002   1.7465691805308575E-002   3.4092696212048024E-003
  -5.5012278518253577E-002   1.6706351399595143E-002   1.4089869100547547E-003
  -3.7105468802054564E-002   9.2977988457546012E-003   8.6277270959166430E-002
  -3.5041395183305346E-002   8.5010410597218533E-003   8.9455005791325204E-002
  -3.2977321564556142E-002   7.5802611976732714E-003   9.3896069284429895E-002
  -3.0913247945806924E-002   6.5354592596091540E-003   9.9600461438480642E-002
  -2.8849174327057719E-002   5.3666352455291055E-003  0.10656818225347747     
  -3.9575222853087483E-002   1.1149936984214626E-002   6.5070006690552601E-002
  -3.6488023295762402E-002   1.0390051838433251E-002   6.6588961608341463E-002
  -3.3400823738437412E-002   9.5929655553571580E-003   6.8890839742335938E-002
  -3.0313624181112397E-002   8.7586781349865417E-003   7.1975641092536125E-002
  -2.7226424623787396E-002   7.8871895773213740E-003   7.5843365658941897E-002
  -4.3382942489464893E-002   1.3002075122674844E-002   4.3856204592829379E-002
  -3.9753022438304406E-002   1.2279062617144579E-002   4.3803200534969500E-002
  -3.6123102387143918E-002   1.1605669913040836E-002   4.4052714248574973E-002
  -3.2493182335983486E-002   1.0981897010363877E-002   4.4604745733645680E-002
  -2.8863262284822944E-002   1.0407743909113615E-002   4.5459294990181712E-002
  -4.8528627711186961E-002   1.4854213261135021E-002   2.2635864665996742E-002
  -4.4836392610931371E-002   1.4168073395855914E-002   2.1097722571209385E-002
  -4.1144157510675843E-002   1.3618374270724674E-002   1.9381692803147072E-002
  -3.7451922410420280E-002   1.3205115885741183E-002   1.7487775361809510E-002
  -3.3759687310164724E-002   1.2928298240905758E-002   1.5415970247196962E-002
  -5.5012278518253577E-002   1.6706351399595143E-002   1.4089869100547547E-003
  -5.1738133813643283E-002   1.6057084174567360E-002  -1.5274722829387022E-003
  -4.8463989109033004E-002   1.5631078628408512E-002  -5.1222245939478717E-003
  -4.5189844404422731E-002   1.5428334761118767E-002  -9.3752700229724345E-003
  -4.1915699699812431E-002   1.5448852572698180E-002  -1.4286608570012238E-002
  -2.8849174327057719E-002   5.3666352455291055E-003  0.10656818225347747     
  -2.4847146581524163E-002   3.1659553679224683E-003  0.11381971135037555     
  -2.0845118835990606E-002  -9.7441416072181763E-004  0.12375399608946899     
  -1.6843091090457077E-002  -7.0544733404030897E-003  0.13637103647075838     
  -1.2841063344923520E-002  -1.5074222171122198E-002  0.15167083249424285     
  -2.7226424623787396E-002   7.8871895773213740E-003   7.5843365658941897E-002
  -2.1199124669803379E-002   6.5087692559471222E-003   7.7719647937208258E-002
  -1.5171824715819397E-002   4.1536865444490034E-003   8.0963718990179900E-002
  -9.1445247618354535E-003   8.2194144282759368E-004   8.5575578817856920E-002
  -3.1172248078513987E-003  -3.4864660489177801E-003   9.1555227420238916E-002
  -2.8863262284822944E-002   1.0407743909113615E-002   4.5459294990181712E-002
  -2.2125656989878829E-002   9.8515831439717483E-003   4.2923357710730164E-002
  -1.5388051694934679E-002   9.2817872496198869E-003   4.0440242338493713E-002
  -8.6504463999905155E-003   8.6983562260582511E-003   3.8009948873471963E-002
  -1.9128411050464145E-003   8.1012900732866377E-003   3.5632477315665823E-002
  -3.3759687310164724E-002   1.2928298240905758E-002   1.5415970247196962E-002
  -2.7626743541750612E-002   1.3194397031996388E-002   9.4308406709412013E-003
  -2.1493799773336479E-002   1.4409887954790628E-002   2.1835661344103818E-003
  -1.5360856004922402E-002   1.6574771009289033E-002  -6.3258533623956267E-003
  -9.2279122365082344E-003   1.9689046195491000E-002  -1.6097417819477128E-002
  -4.1915699699812431E-002   1.5448852572698180E-002  -1.4286608570012238E-002
  -3.7702384325418586E-002   1.6537210920020806E-002  -2.2757903182158368E-002
  -3.3489068951024756E-002   1.9537988659961605E-002  -3.3806309622069847E-002
  -2.9275753576630918E-002   2.4451185792519706E-002  -4.7431827889746619E-002
  -2.5062438202237081E-002   3.1276802317695473E-002  -6.3634457985188853E-002
  -9.0383806621796708E-002   0.0000000000000000        4.9772405770499989E-002
  -9.3973933577175914E-002   5.4015639568383844E-003   5.3120471763994356E-002
  -9.7564060532555119E-002   1.0656876564401029E-002   5.4847960330086369E-002
 -0.10115418748793432        1.5765937822687932E-002   5.4954871468776034E-002
 -0.10474431444331353        2.0728747731699085E-002   5.3441205180063345E-002
 -0.10332370494489210        0.0000000000000000        5.8598263452948558E-002
 -0.10685528356790309        1.0878206916314371E-002   5.2040931987698505E-002
 -0.11038686219091411        1.9158776198415703E-002   4.7221274614587222E-002
 -0.11391844081392510        2.4841707846304004E-002   4.4139291333614716E-002
 -0.11745001943693607        2.7927001859979275E-002   4.2794982144780974E-002
 -0.12647618199475810        0.0000000000000000        7.4126457237341750E-002
 -0.12659096076585974        1.6354849875790355E-002   5.5212342028409987E-002
 -0.12670573953696140        2.7660675832430381E-002   4.1394152431158113E-002
 -0.12682051830806307        3.3917477869920075E-002   3.2671888445586141E-002
 -0.12693529707916473        3.5125255988259448E-002   2.9045550071694046E-002
 -0.15984123777139470        0.0000000000000000        9.6356987123679586E-002
 -0.15318096517104593        2.1831492835266343E-002   6.2634701886128810E-002
 -0.14652069257069708        3.6162575466445059E-002   3.7366593779799034E-002
 -0.13986041997034823        4.2993247893536153E-002   2.0552662804690362E-002
 -0.13320014736999949        4.2323510116539641E-002   1.2192908960802646E-002
 -0.20341887227480190        0.0000000000000000       0.12528985311196206     
 -0.18662529678346151        2.7308135794742321E-002   7.4308011560854981E-002
 -0.16983172129212110        4.4664475100459726E-002   3.5138598660510036E-002
 -0.15303814580078071        5.2069017917152217E-002   7.7816144109272567E-003
 -0.13624457030944032        4.9521764244819827E-002  -7.7629411878933352E-003
 -0.10474431444331353        2.0728747731699085E-002   5.3441205180063345E-002
 -0.10208026748129612        2.4832362508290188E-002   4.5389658373603411E-002
  -9.9416220519278675E-002   2.7363838369316860E-002   3.8977943028031661E-002
  -9.6752173557261262E-002   2.8323175314779216E-002   3.4206059143348136E-002
  -9.4088126595243821E-002   2.7710373344677158E-002   3.1074006719552807E-002
 -0.11745001943693607        2.7927001859979275E-002   4.2794982144780974E-002
 -0.11352331422465035        2.9383026152176084E-002   3.6470169116940947E-002
 -0.10959660901236459        3.0178148635629034E-002   3.1030841128749306E-002
 -0.10566990380007886        3.0312369310338119E-002   2.6476998180206109E-002
 -0.10174319858779310        2.9785688176303338E-002   2.2808640271311381E-002
 -0.12693529707916473        3.5125255988259448E-002   2.9045550071694046E-002
 -0.12250028003785045        3.3933689796062004E-002   2.5358707929294465E-002
 -0.11806526299653614        3.2992458901941163E-002   2.1803004405303524E-002
 -0.11363024595522186        3.2301563305897028E-002   1.8378439499721167E-002
 -0.10919522891390757        3.1861003007929531E-002   1.5085013212547488E-002
 -0.13320014736999949        4.2323510116539641E-002   1.2192908960802646E-002
 -0.12901116492089637        3.8484353439947869E-002   1.2055274810663921E-002
 -0.12482218247179333        3.5806769168253337E-002   1.1294432857694157E-002
 -0.12063320002269028        3.4290757301455962E-002   9.9103831018931571E-003
 -0.11644421757358721        3.3936317839555689E-002   7.9031255432611639E-003
 -0.13624457030944032        4.9521764244819827E-002  -7.7629411878933352E-003
 -0.13305596887378826        4.3035017083833782E-002  -3.4401302389505534E-003
 -0.12986736743813618        3.8621079434565442E-002  -4.9487351407862673E-004
 -0.12667876600248412        3.6279951297014834E-002   1.0728289867223111E-003
 -0.12349016456683207        3.6011632671181931E-002   1.2629772634523972E-003
  -9.4088126595243821E-002   2.7710373344677158E-002   3.1074006719552807E-002
  -9.1512107577159330E-002   2.6413614552243038E-002   3.0299215063332482E-002
  -8.8936088559074852E-002   2.5321081030709292E-002   2.9543541670367608E-002
  -8.6360069540990375E-002   2.4432772780075863E-002   2.8806986540658358E-002
  -8.3784050522905870E-002   2.3748689800342865E-002   2.8089549674204545E-002
 -0.10174319858779310        2.9785688176303338E-002   2.2808640271311381E-002
  -9.9154095713533480E-002   2.8942160761181432E-002   2.2346573133180385E-002
  -9.6564992839273847E-002   2.8125842592628951E-002   2.1891555444144156E-002
  -9.3975889965014242E-002   2.7336733670646179E-002   2.1443587204202606E-002
  -9.1386787090754554E-002   2.6574833995232860E-002   2.1002668413355879E-002
 -0.10919522891390757        3.1861003007929531E-002   1.5085013212547488E-002
 -0.10660511099763358        3.1470706970119763E-002   1.4758654568175118E-002
 -0.10401499308135963        3.0930604154548680E-002   1.4427276558736619E-002
 -0.10142487516508568        3.0240694561216353E-002   1.4090879184232071E-002
  -9.8834757248811675E-002   2.9400978190122870E-002   1.3749462444661464E-002
 -0.11644421757358721        3.3936317839555689E-002   7.9031255432611639E-003
 -0.11386515342945969        3.3999253179058088E-002   7.5354593683165296E-003
 -0.11128608928533212        3.3735365716468367E-002   7.1507050141450413E-003
 -0.10870702514120463        3.3144655451786666E-002   6.7488624807465689E-003
 -0.10612796099707707        3.2227122385012776E-002   6.3299317681214367E-003
 -0.12349016456683207        3.6011632671181931E-002   1.2629772634523972E-003
 -0.12093422300901177        3.6527799387996482E-002   6.7698753360455333E-004
 -0.11837828145119146        3.6540127278388020E-002   6.1840810369369337E-005
 -0.11582233989337115        3.6048616342356871E-002  -5.8246290625360402E-004
 -0.11326639833555086        3.5053266579902875E-002  -1.2559236162642540E-003
  -8.3784050522905870E-002   2.3748689800342865E-002   2.8089549674204545E-002
  -8.1180263885315018E-002   2.3196876548927242E-002   2.6852234555551677E-002
  -7.8576477247724236E-002   2.2705377483246199E-002   2.5242624103411382E-002
  -7.5972690610133398E-002   2.2274192603299672E-002   2.3260718317783979E-002
  -7.3368903972542587E-002   2.1903321909087725E-002   2.0906517198669206E-002
  -9.1386787090754554E-002   2.6574833995232860E-002   2.1002668413355879E-002
  -8.9056115219197735E-002   2.5879540030325061E-002   2.0102458452035961E-002
  -8.6725443347640929E-002   2.5290248239858808E-002   1.9028314292135237E-002
  -8.4394771476084110E-002   2.4806958623833947E-002   1.7780235933653916E-002
  -8.2064099604527291E-002   2.4429671182250617E-002   1.6358223376591902E-002
  -9.8834757248811675E-002   2.9400978190122870E-002   1.3749462444661464E-002
  -9.6578839008382211E-002   2.8562203511722853E-002   1.3232045629381420E-002
  -9.4322920767952831E-002   2.7875118996471330E-002   1.2739055750427299E-002
  -9.2067002527523409E-002   2.7339724644368187E-002   1.2270492807798987E-002
  -8.9811084287093917E-002   2.6956020455413510E-002   1.1826356801496657E-002
 -0.10612796099707707        3.2227122385012776E-002   6.3299317681214367E-003
 -0.10374843525286850        3.1244866993120658E-002   6.2409960875882946E-003
 -0.10136890950865986        3.0459989753083894E-002   6.3748484782875829E-003
  -9.8989383764451280E-002   2.9872490664902471E-002   6.7314889402194013E-003
  -9.6609858020242648E-002   2.9482369728576402E-002   7.3109174733834090E-003
 -0.11326639833555086        3.5053266579902875E-002  -1.2559236162642540E-003
 -0.11056490395265645        3.3927530474518491E-002  -8.7069017334368004E-004
 -0.10786340956976209        3.3044860509696489E-002  -6.4307524284032413E-005
 -0.10516191518686774        3.2405256685436680E-002   1.1632243309146646E-003
 -0.10246042080397333        3.2008719001739350E-002   2.8119053922525117E-003
  -7.3368903972542587E-002   2.1903321909087725E-002   2.0906517198669206E-002
  -7.1685251654018622E-002   2.1511642908602413E-002   1.7749318685934684E-002
  -7.0001599335494616E-002   2.1018033109835937E-002   1.4938569828813114E-002
  -6.8317947016970637E-002   2.0422492512788264E-002   1.2474270627304544E-002
  -6.6634294698446644E-002   1.9725021117459329E-002   1.0356421081409051E-002
  -8.2064099604527291E-002   2.4429671182250617E-002   1.6358223376591902E-002
  -8.0067880730499252E-002   2.4039907848827410E-002   1.3998910334965226E-002
  -7.8071661856471228E-002   2.3519190557283166E-002   1.1918280748733467E-002
  -7.6075442982443175E-002   2.2867519307617622E-002   1.0116334617896787E-002
  -7.4079224108415151E-002   2.2084894099831054E-002   8.5930719424552882E-003
  -8.9811084287093917E-002   2.6956020455413510E-002   1.1826356801496657E-002
  -8.7570065057779797E-002   2.6568172789052436E-002   1.0235906071137814E-002
  -8.5329045828465733E-002   2.6020348004730451E-002   8.8563725959559803E-003
  -8.3088026599151571E-002   2.5312546102446983E-002   7.6877563759512636E-003
  -8.0847007369837492E-002   2.4444767082202778E-002   6.7300574111235634E-003
  -9.6609858020242648E-002   2.9482369728576402E-002   7.3109174733834090E-003
  -9.4191804635860410E-002   2.9096437729277669E-002   6.4603058944524370E-003
  -9.1773751251478200E-002   2.8521505452177513E-002   5.7528453704807237E-003
  -8.9355697867095990E-002   2.7757572897276719E-002   5.1885359014679257E-003
  -8.6937644482713725E-002   2.6804640064574559E-002   4.7673774874145008E-003
 -0.10246042080397333        3.2008719001739350E-002   2.8119053922525117E-003
  -9.9933099464740938E-002   3.1624702669502541E-002   2.6721098049095615E-003
  -9.7405778125508602E-002   3.1022662899624950E-002   2.6076990723075816E-003
  -9.4878456786276211E-002   3.0202599692105921E-002   2.6186731944471027E-003
  -9.2351135447043875E-002   2.9164513046946339E-002   2.7050321713275038E-003
  -6.6634294698446644E-002   1.9725021117459329E-002   1.0356421081409051E-002
  -6.3728790653398343E-002   1.8975026664240696E-002   7.8829867068819226E-003
  -6.0823286608350111E-002   1.8221916893523704E-002   5.5672695534805527E-003
  -5.7917782563301858E-002   1.7465691805308575E-002   3.4092696212048024E-003
  -5.5012278518253577E-002   1.6706351399595143E-002   1.4089869100547547E-003
  -7.4079224108415151E-002   2.2084894099831054E-002   8.5930719424552882E-003
  -7.1039780381394885E-002   2.1241668631216737E-002   6.7763252368044369E-003
  -6.8000336654374632E-002   2.0408196599068368E-002   5.0697406739719370E-003
  -6.4960892927354394E-002   1.9584478003385856E-002   3.4733182539576288E-003
  -6.1921449200334128E-002   1.8770512844169362E-002   1.9870579767617136E-003
  -8.0847007369837492E-002   2.4444767082202778E-002   6.7300574111235634E-003
  -7.7721179039152655E-002   2.3508310598192819E-002   5.5828671283132195E-003
  -7.4595350708467789E-002   2.2594476304613031E-002   4.4982839100138339E-003
  -7.1469522377782993E-002   2.1703264201463082E-002   3.4763077562250805E-003
  -6.8343694047098086E-002   2.0834674288743443E-002   2.5169386669475907E-003
  -8.6937644482713725E-002   2.6804640064574559E-002   4.7673774874145008E-003
  -8.3772986626671597E-002   2.5774952565169020E-002   4.3026123814083571E-003
  -8.0608328770629581E-002   2.4780756010157584E-002   3.8528992616062453E-003
  -7.7443670914587481E-002   2.3822050399540502E-002   3.4182381280073795E-003
  -7.4279013058545396E-002   2.2898835733317371E-002   2.9986289806121884E-003
  -9.2351135447043875E-002   2.9164513046946339E-002   2.7050321713275038E-003
  -8.9195203143951907E-002   2.8041594532145053E-002   2.9355609960901585E-003
  -8.6039270840859938E-002   2.6967035715702387E-002   3.1335867287492353E-003
  -8.2883338537767998E-002   2.5940836597617430E-002   3.2991093693043420E-003
  -7.9727406234676002E-002   2.4962997177891633E-002   3.4321289177557945E-003
  -5.5012278518253577E-002   1.6706351399595143E-002   1.4089869100547547E-003
  -5.1738133813643283E-002   1.6057084174567360E-002  -1.5274722829387022E-003
  -4.8463989109033004E-002   1.5631078628408512E-002  -5.1222245939478717E-003
  -4.5189844404422731E-002   1.5428334761118767E-002  -9.3752700229724345E-003
  -4.1915699699812431E-002   1.5448852572698180E-002  -1.4286608570012238E-002
  -6.1921449200334128E-002   1.8770512844169362E-002   1.9870579767617136E-003
  -5.9147536425936093E-002   1.8078085920803788E-002  -7.6121836059150905E-005
  -5.6373623651538043E-002   1.7618982032674813E-002  -2.4814723912892356E-003
  -5.3599710877140064E-002   1.7393201179781978E-002  -5.2289936889280825E-003
  -5.0825798102741959E-002   1.7400743362125604E-002  -8.3186857289762051E-003
  -6.8343694047098086E-002   2.0834674288743443E-002   2.5169386669475907E-003
  -6.5753890827305844E-002   2.0099087667040466E-002   1.3370995906665240E-003
  -6.3164087607513561E-002   1.9606885436941057E-002   1.3121214758297917E-004
  -6.0574284387721312E-002   1.9358067598445133E-002  -1.1007236623033941E-003
  -5.7984481167929071E-002   1.9352634151553000E-002  -2.3587078389921134E-003
  -7.4279013058545396E-002   2.2898835733317371E-002   2.9986289806121884E-003
  -7.1557197017752511E-002   2.2120089413277047E-002   2.7121919972382946E-003
  -6.8835380976959570E-002   2.1594788841207163E-002   2.7158290226683094E-003
  -6.6113564936166588E-002   2.1322934017108539E-002   3.0095400569022483E-003
  -6.3391748895373731E-002   2.1304524940980521E-002   3.5933250999396031E-003
  -7.9727406234676002E-002   2.4962997177891633E-002   3.4321289177557945E-003
  -7.6557454997276064E-002   2.4141091159513461E-002   4.0491553836564109E-003
  -7.3387503759875961E-002   2.3582692245473491E-002   5.2723782339667569E-003
  -7.0217552522475940E-002   2.3287800435771694E-002   7.1017974686880536E-003
  -6.7047601285075920E-002   2.3256415730407931E-002   9.5374130878195240E-003
  -4.1915699699812431E-002   1.5448852572698180E-002  -1.4286608570012238E-002
  -3.7702384325418586E-002   1.6537210920020806E-002  -2.2757903182158368E-002
  -3.3489068951024756E-002   1.9537988659961605E-002  -3.3806309622069847E-002
  -2.9275753576630918E-002   2.4451185792519706E-002  -4.7431827889746619E-002
  -2.5062438202237081E-002   3.1276802317695473E-002  -6.3634457985188853E-002
  -5.0825798102741959E-002   1.7400743362125604E-002  -8.3186857289762051E-003
  -4.8279865904758273E-002   1.7691966979284046E-002  -1.3005606738519082E-002
  -4.5733933706774560E-002   1.8317230430835843E-002  -1.8450182273116844E-002
  -4.3188001508790728E-002   1.9276533716780720E-002  -2.4652412332769255E-002
  -4.0642069310807161E-002   2.0569876837118750E-002  -3.1612296917476801E-002
  -5.7984481167929071E-002   1.9352634151553000E-002  -2.3587078389921134E-003
  -5.5286474843644913E-002   1.8846723038546953E-002  -4.8396348041562925E-003
  -5.2588468519360776E-002   1.7096472201710296E-002  -6.2587589916648853E-003
  -4.9890462195076646E-002   1.4101881641041704E-002  -6.6160804015176107E-003
  -4.7192455870792599E-002   9.8629513565422489E-003  -5.9115990337146873E-003
  -6.3391748895373731E-002   2.1304524940980521E-002   3.5933250999396031E-003
  -5.8722211142078554E-002   2.0001479097810360E-002   1.7400126209297789E-003
  -5.4052673388783438E-002   1.5875713972584252E-002   2.7679602222862188E-003
  -4.9383135635488330E-002   8.9272295653030354E-003   6.6771679040088976E-003
  -4.4713597882193153E-002  -8.4397412403452998E-004   1.3467635666097641E-002
  -6.7047601285075920E-002   2.3256415730407931E-002   9.5374130878195240E-003
  -5.8587074800059313E-002   2.1156235157073211E-002   6.7333355367396597E-003
  -5.0126548315042652E-002   1.4654955743458736E-002   8.6299753687362479E-003
  -4.1666021830025962E-002   3.7525774895639172E-003   1.5227332583809490E-002
  -3.3205495345009384E-002  -1.1550899604610976E-002   2.6525407181960059E-002
 </DataArray>
 </PointData>
 </Piece>
 <Piece  NumberOfPoints="          1600 "  NumberOfCells="         1024 ">
 <Points>
 <DataArray  type="Float64" NumberOfComponents="3"  format="ascii" >
  0.50000000000000000        0.0000000000000000        0.0000000000000000     
  0.53125000000000000        0.0000000000000000        0.0000000000000000     
  0.56250000000000000        0.0000000000000000        0.0000000000000000     
  0.59375000000000000        0.0000000000000000        0.0000000000000000     
  0.62500000000000000        0.0000000000000000        0.0000000000000000     
  0.50000000000000000        3.1250000000000000E-002   0.0000000000000000     
  0.53125000000000000        3.1250000000000000E-002   0.0000000000000000     
  0.56250000000000000        3.1250000000000000E-002   0.0000000000000000     
  0.59375000000000000        3.1250000000000000E-002   0.0000000000000000     
  0.62500000000000000        3.1250000000000000E-002   0.0000000000000000     
  0.50000000000000000        6.2500000000000000E-002   0.0000000000000000     
  0.53125000000000000        6.2500000000000000E-002   0.0000000000000000     
  0.56250000000000000        6.2500000000000000E-002   0.0000000000000000     
  0.59375000000000000        6.2500000000000000E-002   0.0000000000000000     
  0.62500000000000000        6.2500000000000000E-002   0.0000000000000000     
  0.50000000000000000        9.3750000000000000E-002   0.0000000000000000     
  0.53125000000000000        9.3750000000000000E-002   0.0000000000000000     
  0.56250000000000000        9.3750000000000000E-002   0.0000000000000000     
  0.59375000000000000        9.3750000000000000E-002   0.0000000000000000     
  0.62500000000000000        9.3750000000000000E-002   0.0000000000000000     
  0.50000000000000000       0.12500000000000000        0.0000000000000000     
  0.53125000000000000       0.12500000000000000        0.0000000000000000     
  0.56250000000000000       0.12500000000000000        0.0000000000000000     
  0.59375000000000000       0.12500000000000000        0.0000000000000000     
  0.62500000000000000       0.12500000000000000        0.0000000000000000     
  0.62500000000000000        0.0000000000000000        0.0000000000000000     
  0.65625000000000000        0.0000000000000000        0.0000000000000000     
  0.68750000000000000        0.0000000000000000        0.0000000000000000     
  0.71875000000000000        0.0000000000000000        0.0000000000000000     
  0.75000000000000000        0.0000000000000000        0.0000000000000000     
  0.62500000000000000        3.1250000000000000E-002   0.0000000000000000     
  0.65625000000000000        3.1250000000000000E-002   0.0000000000000000     
  0.68750000000000000        3.1250000000000000E-002   0.0000000000000000     
  0.71875000000000000        3.1250000000000000E-002   0.0000000000000000     
  0.75000000000000000        3.1250000000000000E-002   0.0000000000000000     
  0.62500000000000000        6.2500000000000000E-002   0.0000000000000000     
  0.65625000000000000        6.2500000000000000E-002   0.0000000000000000     
  0.68750000000000000        6.2500000000000000E-002   0.0000000000000000     
  0.71875000000000000        6.2500000000000000E-002   0.0000000000000000     
  0.75000000000000000        6.2500000000000000E-002   0.0000000000000000     
  0.62500000000000000        9.3750000000000000E-002   0.0000000000000000     
  0.65625000000000000        9.3750000000000000E-002   0.0000000000000000     
  0.68750000000000000        9.3750000000000000E-002   0.0000000000000000     
  0.71875000000000000        9.3750000000000000E-002   0.0000000000000000     
  0.75000000000000000        9.3750000000000000E-002   0.0000000000000000     
  0.62500000000000000       0.12500000000000000        0.0000000000000000     
  0.65625000000000000       0.12500000000000000        0.0000000000000000     
  0.68750000000000000       0.12500000000000000        0.0000000000000000     
  0.71875000000000000       0.12500000000000000        0.0000000000000000     
  0.75000000000000000       0.12500000000000000        0.0000000000000000     
  0.75000000000000000        0.0000000000000000        0.0000000000000000     
  0.78125000000000000        0.0000000000000000        0.0000000000000000     
  0.81250000000000000        0.0000000000000000        0.0000000000000000     
  0.84375000000000000        0.0000000000000000        0.0000000000000000     
  0.87500000000000000        0.0000000000000000        0.0000000000000000     
  0.75000000000000000        3.1250000000000000E-002   0.0000000000000000     
  0.78125000000000000        3.1250000000000000E-002   0.0000000000000000     
  0.81250000000000000        3.1250000000000000E-002   0.0000000000000000     
  0.84375000000000000        3.1250000000000000E-002   0.0000000000000000     
  0.87500000000000000        3.1250000000000000E-002   0.0000000000000000     
  0.75000000000000000        6.2500000000000000E-002   0.0000000000000000     
  0.78125000000000000        6.2500000000000000E-002   0.0000000000000000     
  0.81250000000000000        6.2500000000000000E-002   0.0000000000000000     
  0.84375000000000000        6.2500000000000000E-002   0.0000000000000000     
  0.87500000000000000        6.2500000000000000E-002   0.0000000000000000     
  0.75000000000000000        9.3750000000000000E-002   0.0000000000000000     
  0.78125000000000000        9.3750000000000000E-002   0.0000000000000000     
  0.81250000000000000        9.3750000000000000E-002   0.0000000000000000     
  0.84375000000000000        9.3750000000000000E-002   0.0000000000000000     
  0.87500000000000000        9.3750000000000000E-002   0.0000000000000000     
  0.75000000000000000       0.12500000000000000        0.0000000000000000     
  0.78125000000000000       0.12500000000000000        0.0000000000000000     
  0.81250000000000000       0.12500000000000000        0.0000000000000000     
  0.84375000000000000       0.12500000000000000        0.0000000000000000     
  0.87500000000000000       0.12500000000000000        0.0000000000000000     
  0.87500000000000000        0.0000000000000000        0.0000000000000000     
  0.90625000000000000        0.0000000000000000        0.0000000000000000     
  0.93750000000000000        0.0000000000000000        0.0000000000000000     
  0.96875000000000000        0.0000000000000000        0.0000000000000000     
   1.0000000000000000        0.0000000000000000        0.0000000000000000     
  0.87500000000000000        3.1250000000000000E-002   0.0000000000000000     
  0.90625000000000000        3.1250000000000000E-002   0.0000000000000000     
  0.93750000000000000        3.1250000000000000E-002   0.0000000000000000     
  0.96875000000000000        3.1250000000000000E-002   0.0000000000000000     
   1.0000000000000000        3.1250000000000000E-002   0.0000000000000000     
  0.87500000000000000        6.2500000000000000E-002   0.0000000000000000     
  0.90625000000000000        6.2500000000000000E-002   0.0000000000000000     
  0.93750000000000000        6.2500000000000000E-002   0.0000000000000000     
  0.96875000000000000        6.2500000000000000E-002   0.0000000000000000     
   1.0000000000000000        6.2500000000000000E-002   0.0000000000000000     
  0.87500000000000000        9.3750000000000000E-002   0.0000000000000000     
  0.90625000000000000        9.3750000000000000E-002   0.0000000000000000     
  0.93750000000000000        9.3750000000000000E-002   0.0000000000000000     
  0.96875000000000000        9.3750000000000000E-002   0.0000000000000000     
   1.0000000000000000        9.3750000000000000E-002   0.0000000000000000     
  0.87500000000000000       0.12500000000000000        0.0000000000000000     
  0.90625000000000000       0.12500000000000000        0.0000000000000000     
  0.93750000000000000       0.12500000000000000        0.0000000000000000     
  0.96875000000000000       0.12500000000000000        0.0000000000000000     
   1.0000000000000000       0.12500000000000000        0.0000000000000000     
   1.0000000000000000        0.0000000000000000        0.0000000000000000     
   1.0312500000000000        0.0000000000000000        0.0000000000000000     
   1.0625000000000000        0.0000000000000000        0.0000000000000000     
   1.0937500000000000        0.0000000000000000        0.0000000000000000     
   1.1250000000000000        0.0000000000000000        0.0000000000000000     
   1.0000000000000000        3.1250000000000000E-002   0.0000000000000000     
   1.0312500000000000        3.1250000000000000E-002   0.0000000000000000     
   1.0625000000000000        3.1250000000000000E-002   0.0000000000000000     
   1.0937500000000000        3.1250000000000000E-002   0.0000000000000000     
   1.1250000000000000        3.1250000000000000E-002   0.0000000000000000     
   1.0000000000000000        6.2500000000000000E-002   0.0000000000000000     
   1.0312500000000000        6.2500000000000000E-002   0.0000000000000000     
   1.0625000000000000        6.2500000000000000E-002   0.0000000000000000     
   1.0937500000000000        6.2500000000000000E-002   0.0000000000000000     
   1.1250000000000000        6.2500000000000000E-002   0.0000000000000000     
   1.0000000000000000        9.3750000000000000E-002   0.0000000000000000     
   1.0312500000000000        9.3750000000000000E-002   0.0000000000000000     
   1.0625000000000000        9.3750000000000000E-002   0.0000000000000000     
   1.0937500000000000        9.3750000000000000E-002   0.0000000000000000     
   1.1250000000000000        9.3750000000000000E-002   0.0000000000000000     
   1.0000000000000000       0.12500000000000000        0.0000000000000000     
   1.0312500000000000       0.12500000000000000        0.0000000000000000     
   1.0625000000000000       0.12500000000000000        0.0000000000000000     
   1.0937500000000000       0.12500000000000000        0.0000000000000000     
   1.1250000000000000       0.12500000000000000        0.0000000000000000     
   1.1250000000000000        0.0000000000000000        0.0000000000000000     
   1.1562500000000000        0.0000000000000000        0.0000000000000000     
   1.1875000000000000        0.0000000000000000        0.0000000000000000     
   1.2187500000000000        0.0000000000000000        0.0000000000000000     
   1.2500000000000000        0.0000000000000000        0.0000000000000000     
   1.1250000000000000        3.1250000000000000E-002   0.0000000000000000     
   1.1562500000000000        3.1250000000000000E-002   0.0000000000000000     
   1.1875000000000000        3.1250000000000000E-002   0.0000000000000000     
   1.2187500000000000        3.1250000000000000E-002   0.0000000000000000     
   1.2500000000000000        3.1250000000000000E-002   0.0000000000000000     
   1.1250000000000000        6.2500000000000000E-002   0.0000000000000000     
   1.1562500000000000        6.2500000000000000E-002   0.0000000000000000     
   1.1875000000000000        6.2500000000000000E-002   0.0000000000000000     
   1.2187500000000000        6.2500000000000000E-002   0.0000000000000000     
   1.2500000000000000        6.2500000000000000E-002   0.0000000000000000     
   1.1250000000000000        9.3750000000000000E-002   0.0000000000000000     
   1.1562500000000000        9.3750000000000000E-002   0.0000000000000000     
   1.1875000000000000        9.3750000000000000E-002   0.0000000000000000     
   1.2187500000000000        9.3750000000000000E-002   0.0000000000000000     
   1.2500000000000000        9.3750000000000000E-002   0.0000000000000000     
   1.1250000000000000       0.12500000000000000        0.0000000000000000     
   1.1562500000000000       0.12500000000000000        0.0000000000000000     
   1.1875000000000000       0.12500000000000000        0.0000000000000000     
   1.2187500000000000       0.12500000000000000        0.0000000000000000     
   1.2500000000000000       0.12500000000000000        0.0000000000000000     
   1.2500000000000000        0.0000000000000000        0.0000000000000000     
   1.2812500000000000        0.0000000000000000        0.0000000000000000     
   1.3125000000000000        0.0000000000000000        0.0000000000000000     
   1.3437500000000000        0.0000000000000000        0.0000000000000000     
   1.3750000000000000        0.0000000000000000        0.0000000000000000     
   1.2500000000000000        3.1250000000000000E-002   0.0000000000000000     
   1.2812500000000000        3.1250000000000000E-002   0.0000000000000000     
   1.3125000000000000        3.1250000000000000E-002   0.0000000000000000     
   1.3437500000000000        3.1250000000000000E-002   0.0000000000000000     
   1.3750000000000000        3.1250000000000000E-002   0.0000000000000000     
   1.2500000000000000        6.2500000000000000E-002   0.0000000000000000     
   1.2812500000000000        6.2500000000000000E-002   0.0000000000000000     
   1.3125000000000000        6.2500000000000000E-002   0.0000000000000000     
   1.3437500000000000        6.2500000000000000E-002   0.0000000000000000     
   1.3750000000000000        6.2500000000000000E-002   0.0000000000000000     
   1.2500000000000000        9.3750000000000000E-002   0.0000000000000000     
   1.2812500000000000        9.3750000000000000E-002   0.0000000000000000     
   1.3125000000000000        9.3750000000000000E-002   0.0000000000000000     
   1.3437500000000000        9.3750000000000000E-002   0.0000000000000000     
   1.3750000000000000        9.3750000000000000E-002   0.0000000000000000     
   1.2500000000000000       0.12500000000000000        0.0000000000000000     
   1.2812500000000000       0.12500000000000000        0.0000000000000000     
   1.3125000000000000       0.12500000000000000        0.0000000000000000     
   1.3437500000000000       0.12500000000000000        0.0000000000000000     
   1.3750000000000000       0.12500000000000000        0.0000000000000000     
   1.3750000000000000        0.0000000000000000        0.0000000000000000     
   1.4062500000000000        0.0000000000000000        0.0000000000000000     
   1.4375000000000000        0.0000000000000000        0.0000000000000000     
   1.4687500000000000        0.0000000000000000        0.0000000000000000     
   1.5000000000000000        0.0000000000000000        0.0000000000000000     
   1.3750000000000000        3.1250000000000000E-002   0.0000000000000000     
   1.4062500000000000        3.1250000000000000E-002   0.0000000000000000     
   1.4375000000000000        3.1250000000000000E-002   0.0000000000000000     
   1.4687500000000000        3.1250000000000000E-002   0.0000000000000000     
   1.5000000000000000        3.1250000000000000E-002   0.0000000000000000     
   1.3750000000000000        6.2500000000000000E-002   0.0000000000000000     
   1.4062500000000000        6.2500000000000000E-002   0.0000000000000000     
   1.4375000000000000        6.2500000000000000E-002   0.0000000000000000     
   1.4687500000000000        6.2500000000000000E-002   0.0000000000000000     
   1.5000000000000000        6.2500000000000000E-002   0.0000000000000000     
   1.3750000000000000        9.3750000000000000E-002   0.0000000000000000     
   1.4062500000000000        9.3750000000000000E-002   0.0000000000000000     
   1.4375000000000000        9.3750000000000000E-002   0.0000000000000000     
   1.4687500000000000        9.3750000000000000E-002   0.0000000000000000     
   1.5000000000000000        9.3750000000000000E-002   0.0000000000000000     
   1.3750000000000000       0.12500000000000000        0.0000000000000000     
   1.4062500000000000       0.12500000000000000        0.0000000000000000     
   1.4375000000000000       0.12500000000000000        0.0000000000000000     
   1.4687500000000000       0.12500000000000000        0.0000000000000000     
   1.5000000000000000       0.12500000000000000        0.0000000000000000     
  0.50000000000000000       0.12500000000000000        0.0000000000000000     
  0.53125000000000000       0.12500000000000000        0.0000000000000000     
  0.56250000000000000       0.12500000000000000        0.0000000000000000     
  0.59375000000000000       0.12500000000000000        0.0000000000000000     
  0.62500000000000000       0.12500000000000000        0.0000000000000000     
  0.50000000000000000       0.15625000000000000        0.0000000000000000     
  0.53125000000000000       0.15625000000000000        0.0000000000000000     
  0.56250000000000000       0.15625000000000000        0.0000000000000000     
  0.59375000000000000       0.15625000000000000        0.0000000000000000     
  0.62500000000000000       0.15625000000000000        0.0000000000000000     
  0.50000000000000000       0.18750000000000000        0.0000000000000000     
  0.53125000000000000       0.18750000000000000        0.0000000000000000     
  0.56250000000000000       0.18750000000000000        0.0000000000000000     
  0.59375000000000000       0.18750000000000000        0.0000000000000000     
  0.62500000000000000       0.18750000000000000        0.0000000000000000     
  0.50000000000000000       0.21875000000000000        0.0000000000000000     
  0.53125000000000000       0.21875000000000000        0.0000000000000000     
  0.56250000000000000       0.21875000000000000        0.0000000000000000     
  0.59375000000000000       0.21875000000000000        0.0000000000000000     
  0.62500000000000000       0.21875000000000000        0.0000000000000000     
  0.50000000000000000       0.25000000000000000        0.0000000000000000     
  0.53125000000000000       0.25000000000000000        0.0000000000000000     
  0.56250000000000000       0.25000000000000000        0.0000000000000000     
  0.59375000000000000       0.25000000000000000        0.0000000000000000     
  0.62500000000000000       0.25000000000000000        0.0000000000000000     
  0.62500000000000000       0.12500000000000000        0.0000000000000000     
  0.65625000000000000       0.12500000000000000        0.0000000000000000     
  0.68750000000000000       0.12500000000000000        0.0000000000000000     
  0.71875000000000000       0.12500000000000000        0.0000000000000000     
  0.75000000000000000       0.12500000000000000        0.0000000000000000     
  0.62500000000000000       0.15625000000000000        0.0000000000000000     
  0.65625000000000000       0.15625000000000000        0.0000000000000000     
  0.68750000000000000       0.15625000000000000        0.0000000000000000     
  0.71875000000000000       0.15625000000000000        0.0000000000000000     
  0.75000000000000000       0.15625000000000000        0.0000000000000000     
  0.62500000000000000       0.18750000000000000        0.0000000000000000     
  0.65625000000000000       0.18750000000000000        0.0000000000000000     
  0.68750000000000000       0.18750000000000000        0.0000000000000000     
  0.71875000000000000       0.18750000000000000        0.0000000000000000     
  0.75000000000000000       0.18750000000000000        0.0000000000000000     
  0.62500000000000000       0.21875000000000000        0.0000000000000000     
  0.65625000000000000       0.21875000000000000        0.0000000000000000     
  0.68750000000000000       0.21875000000000000        0.0000000000000000     
  0.71875000000000000       0.21875000000000000        0.0000000000000000     
  0.75000000000000000       0.21875000000000000        0.0000000000000000     
  0.62500000000000000       0.25000000000000000        0.0000000000000000     
  0.65625000000000000       0.25000000000000000        0.0000000000000000     
  0.68750000000000000       0.25000000000000000        0.0000000000000000     
  0.71875000000000000       0.25000000000000000        0.0000000000000000     
  0.75000000000000000       0.25000000000000000        0.0000000000000000     
  0.75000000000000000       0.12500000000000000        0.0000000000000000     
  0.78125000000000000       0.12500000000000000        0.0000000000000000     
  0.81250000000000000       0.12500000000000000        0.0000000000000000     
  0.84375000000000000       0.12500000000000000        0.0000000000000000     
  0.87500000000000000       0.12500000000000000        0.0000000000000000     
  0.75000000000000000       0.15625000000000000        0.0000000000000000     
  0.78125000000000000       0.15625000000000000        0.0000000000000000     
  0.81250000000000000       0.15625000000000000        0.0000000000000000     
  0.84375000000000000       0.15625000000000000        0.0000000000000000     
  0.87500000000000000       0.15625000000000000        0.0000000000000000     
  0.75000000000000000       0.18750000000000000        0.0000000000000000     
  0.78125000000000000       0.18750000000000000        0.0000000000000000     
  0.81250000000000000       0.18750000000000000        0.0000000000000000     
  0.84375000000000000       0.18750000000000000        0.0000000000000000     
  0.87500000000000000       0.18750000000000000        0.0000000000000000     
  0.75000000000000000       0.21875000000000000        0.0000000000000000     
  0.78125000000000000       0.21875000000000000        0.0000000000000000     
  0.81250000000000000       0.21875000000000000        0.0000000000000000     
  0.84375000000000000       0.21875000000000000        0.0000000000000000     
  0.87500000000000000       0.21875000000000000        0.0000000000000000     
  0.75000000000000000       0.25000000000000000        0.0000000000000000     
  0.78125000000000000       0.25000000000000000        0.0000000000000000     
  0.81250000000000000       0.25000000000000000        0.0000000000000000     
  0.84375000000000000       0.25000000000000000        0.0000000000000000     
  0.87500000000000000       0.25000000000000000        0.0000000000000000     
  0.87500000000000000       0.12500000000000000        0.0000000000000000     
  0.90625000000000000       0.12500000000000000        0.0000000000000000     
  0.93750000000000000       0.12500000000000000        0.0000000000000000     
  0.96875000000000000       0.12500000000000000        0.0000000000000000     
   1.0000000000000000       0.12500000000000000        0.0000000000000000     
  0.87500000000000000       0.15625000000000000        0.0000000000000000     
  0.90625000000000000       0.15625000000000000        0.0000000000000000     
  0.93750000000000000       0.15625000000000000        0.0000000000000000     
  0.96875000000000000       0.15625000000000000        0.0000000000000000     
   1.0000000000000000       0.15625000000000000        0.0000000000000000     
  0.87500000000000000       0.18750000000000000        0.0000000000000000     
  0.90625000000000000       0.18750000000000000        0.0000000000000000     
  0.93750000000000000       0.18750000000000000        0.0000000000000000     
  0.96875000000000000       0.18750000000000000        0.0000000000000000     
   1.0000000000000000       0.18750000000000000        0.0000000000000000     
  0.87500000000000000       0.21875000000000000        0.0000000000000000     
  0.90625000000000000       0.21875000000000000        0.0000000000000000     
  0.93750000000000000       0.21875000000000000        0.0000000000000000     
  0.96875000000000000       0.21875000000000000        0.0000000000000000     
   1.0000000000000000       0.21875000000000000        0.0000000000000000     
  0.87500000000000000       0.25000000000000000        0.0000000000000000     
  0.90625000000000000       0.25000000000000000        0.0000000000000000     
  0.93750000000000000       0.25000000000000000        0.0000000000000000     
  0.96875000000000000       0.25000000000000000        0.0000000000000000     
   1.0000000000000000       0.25000000000000000        0.0000000000000000     
   1.0000000000000000       0.12500000000000000        0.0000000000000000     
   1.0312500000000000       0.12500000000000000        0.0000000000000000     
   1.0625000000000000       0.12500000000000000        0.0000000000000000     
   1.0937500000000000       0.12500000000000000        0.0000000000000000     
   1.1250000000000000       0.12500000000000000        0.0000000000000000     
   1.0000000000000000       0.15625000000000000        0.0000000000000000     
   1.0312500000000000       0.15625000000000000        0.0000000000000000     
   1.0625000000000000       0.15625000000000000        0.0000000000000000     
   1.0937500000000000       0.15625000000000000        0.0000000000000000     
   1.1250000000000000       0.15625000000000000        0.0000000000000000     
   1.0000000000000000       0.18750000000000000        0.0000000000000000     
   1.0312500000000000       0.18750000000000000        0.0000000000000000     
   1.0625000000000000       0.18750000000000000        0.0000000000000000     
   1.0937500000000000       0.18750000000000000        0.0000000000000000     
   1.1250000000000000       0.18750000000000000        0.0000000000000000     
   1.0000000000000000       0.21875000000000000        0.0000000000000000     
   1.0312500000000000       0.21875000000000000        0.0000000000000000     
   1.0625000000000000       0.21875000000000000        0.0000000000000000     
   1.0937500000000000       0.21875000000000000        0.0000000000000000     
   1.1250000000000000       0.21875000000000000        0.0000000000000000     
   1.0000000000000000       0.25000000000000000        0.0000000000000000     
   1.0312500000000000       0.25000000000000000        0.0000000000000000     
   1.0625000000000000       0.25000000000000000        0.0000000000000000     
   1.0937500000000000       0.25000000000000000        0.0000000000000000     
   1.1250000000000000       0.25000000000000000        0.0000000000000000     
   1.1250000000000000       0.12500000000000000        0.0000000000000000     
   1.1562500000000000       0.12500000000000000        0.0000000000000000     
   1.1875000000000000       0.12500000000000000        0.0000000000000000     
   1.2187500000000000       0.12500000000000000        0.0000000000000000     
   1.2500000000000000       0.12500000000000000        0.0000000000000000     
   1.1250000000000000       0.15625000000000000        0.0000000000000000     
   1.1562500000000000       0.15625000000000000        0.0000000000000000     
   1.1875000000000000       0.15625000000000000        0.0000000000000000     
   1.2187500000000000       0.15625000000000000        0.0000000000000000     
   1.2500000000000000       0.15625000000000000        0.0000000000000000     
   1.1250000000000000       0.18750000000000000        0.0000000000000000     
   1.1562500000000000       0.18750000000000000        0.0000000000000000     
   1.1875000000000000       0.18750000000000000        0.0000000000000000     
   1.2187500000000000       0.18750000000000000        0.0000000000000000     
   1.2500000000000000       0.18750000000000000        0.0000000000000000     
   1.1250000000000000       0.21875000000000000        0.0000000000000000     
   1.1562500000000000       0.21875000000000000        0.0000000000000000     
   1.1875000000000000       0.21875000000000000        0.0000000000000000     
   1.2187500000000000       0.21875000000000000        0.0000000000000000     
   1.2500000000000000       0.21875000000000000        0.0000000000000000     
   1.1250000000000000       0.25000000000000000        0.0000000000000000     
   1.1562500000000000       0.25000000000000000        0.0000000000000000     
   1.1875000000000000       0.25000000000000000        0.0000000000000000     
   1.2187500000000000       0.25000000000000000        0.0000000000000000     
   1.2500000000000000       0.25000000000000000        0.0000000000000000     
   1.2500000000000000       0.12500000000000000        0.0000000000000000     
   1.2812500000000000       0.12500000000000000        0.0000000000000000     
   1.3125000000000000       0.12500000000000000        0.0000000000000000     
   1.3437500000000000       0.12500000000000000        0.0000000000000000     
   1.3750000000000000       0.12500000000000000        0.0000000000000000     
   1.2500000000000000       0.15625000000000000        0.0000000000000000     
   1.2812500000000000       0.15625000000000000        0.0000000000000000     
   1.3125000000000000       0.15625000000000000        0.0000000000000000     
   1.3437500000000000       0.15625000000000000        0.0000000000000000     
   1.3750000000000000       0.15625000000000000        0.0000000000000000     
   1.2500000000000000       0.18750000000000000        0.0000000000000000     
   1.2812500000000000       0.18750000000000000        0.0000000000000000     
   1.3125000000000000       0.18750000000000000        0.0000000000000000     
   1.3437500000000000       0.18750000000000000        0.0000000000000000     
   1.3750000000000000       0.18750000000000000        0.0000000000000000     
   1.2500000000000000       0.21875000000000000        0.0000000000000000     
   1.2812500000000000       0.21875000000000000        0.0000000000000000     
   1.3125000000000000       0.21875000000000000        0.0000000000000000     
   1.3437500000000000       0.21875000000000000        0.0000000000000000     
   1.3750000000000000       0.21875000000000000        0.0000000000000000     
   1.2500000000000000       0.25000000000000000        0.0000000000000000     
   1.2812500000000000       0.25000000000000000        0.0000000000000000     
   1.3125000000000000       0.25000000000000000        0.0000000000000000     
   1.3437500000000000       0.25000000000000000        0.0000000000000000     
   1.3750000000000000       0.25000000000000000        0.0000000000000000     
   1.3750000000000000       0.12500000000000000        0.0000000000000000     
   1.4062500000000000       0.12500000000000000        0.0000000000000000     
   1.4375000000000000       0.12500000000000000        0.0000000000000000     
   1.4687500000000000       0.12500000000000000        0.0000000000000000     
   1.5000000000000000       0.12500000000000000        0.0000000000000000     
   1.3750000000000000       0.15625000000000000        0.0000000000000000     
   1.4062500000000000       0.15625000000000000        0.0000000000000000     
   1.4375000000000000       0.15625000000000000        0.0000000000000000     
   1.4687500000000000       0.15625000000000000        0.0000000000000000     
   1.5000000000000000       0.15625000000000000        0.0000000000000000     
   1.3750000000000000       0.18750000000000000        0.0000000000000000     
   1.4062500000000000       0.18750000000000000        0.0000000000000000     
   1.4375000000000000       0.18750000000000000        0.0000000000000000     
   1.4687500000000000       0.18750000000000000        0.0000000000000000     
   1.5000000000000000       0.18750000000000000        0.0000000000000000     
   1.3750000000000000       0.21875000000000000        0.0000000000000000     
   1.4062500000000000       0.21875000000000000        0.0000000000000000     
   1.4375000000000000       0.21875000000000000        0.0000000000000000     
   1.4687500000000000       0.21875000000000000        0.0000000000000000     
   1.5000000000000000       0.21875000000000000        0.0000000000000000     
   1.3750000000000000       0.25000000000000000        0.0000000000000000     
   1.4062500000000000       0.25000000000000000        0.0000000000000000     
   1.4375000000000000       0.25000000000000000        0.0000000000000000     
   1.4687500000000000       0.25000000000000000        0.0000000000000000     
   1.5000000000000000       0.25000000000000000        0.0000000000000000     
  0.50000000000000000       0.25000000000000000        0.0000000000000000     
  0.53125000000000000       0.25000000000000000        0.0000000000000000     
  0.56250000000000000       0.25000000000000000        0.0000000000000000     
  0.59375000000000000       0.25000000000000000        0.0000000000000000     
  0.62500000000000000       0.25000000000000000        0.0000000000000000     
  0.50000000000000000       0.28125000000000000        0.0000000000000000     
  0.53125000000000000       0.28125000000000000        0.0000000000000000     
  0.56250000000000000       0.28125000000000000        0.0000000000000000     
  0.59375000000000000       0.28125000000000000        0.0000000000000000     
  0.62500000000000000       0.28125000000000000        0.0000000000000000     
  0.50000000000000000       0.31250000000000000        0.0000000000000000     
  0.53125000000000000       0.31250000000000000        0.0000000000000000     
  0.56250000000000000       0.31250000000000000        0.0000000000000000     
  0.59375000000000000       0.31250000000000000        0.0000000000000000     
  0.62500000000000000       0.31250000000000000        0.0000000000000000     
  0.50000000000000000       0.34375000000000000        0.0000000000000000     
  0.53125000000000000       0.34375000000000000        0.0000000000000000     
  0.56250000000000000       0.34375000000000000        0.0000000000000000     
  0.59375000000000000       0.34375000000000000        0.0000000000000000     
  0.62500000000000000       0.34375000000000000        0.0000000000000000     
  0.50000000000000000       0.37500000000000000        0.0000000000000000     
  0.53125000000000000       0.37500000000000000        0.0000000000000000     
  0.56250000000000000       0.37500000000000000        0.0000000000000000     
  0.59375000000000000       0.37500000000000000        0.0000000000000000     
  0.62500000000000000       0.37500000000000000        0.0000000000000000     
  0.62500000000000000       0.25000000000000000        0.0000000000000000     
  0.65625000000000000       0.25000000000000000        0.0000000000000000     
  0.68750000000000000       0.25000000000000000        0.0000000000000000     
  0.71875000000000000       0.25000000000000000        0.0000000000000000     
  0.75000000000000000       0.25000000000000000        0.0000000000000000     
  0.62500000000000000       0.28125000000000000        0.0000000000000000     
  0.65625000000000000       0.28125000000000000        0.0000000000000000     
  0.68750000000000000       0.28125000000000000        0.0000000000000000     
  0.71875000000000000       0.28125000000000000        0.0000000000000000     
  0.75000000000000000       0.28125000000000000        0.0000000000000000     
  0.62500000000000000       0.31250000000000000        0.0000000000000000     
  0.65625000000000000       0.31250000000000000        0.0000000000000000     
  0.68750000000000000       0.31250000000000000        0.0000000000000000     
  0.71875000000000000       0.31250000000000000        0.0000000000000000     
  0.75000000000000000       0.31250000000000000        0.0000000000000000     
  0.62500000000000000       0.34375000000000000        0.0000000000000000     
  0.65625000000000000       0.34375000000000000        0.0000000000000000     
  0.68750000000000000       0.34375000000000000        0.0000000000000000     
  0.71875000000000000       0.34375000000000000        0.0000000000000000     
  0.75000000000000000       0.34375000000000000        0.0000000000000000     
  0.62500000000000000       0.37500000000000000        0.0000000000000000     
  0.65625000000000000       0.37500000000000000        0.0000000000000000     
  0.68750000000000000       0.37500000000000000        0.0000000000000000     
  0.71875000000000000       0.37500000000000000        0.0000000000000000     
  0.75000000000000000       0.37500000000000000        0.0000000000000000     
  0.75000000000000000       0.25000000000000000        0.0000000000000000     
  0.78125000000000000       0.25000000000000000        0.0000000000000000     
  0.81250000000000000       0.25000000000000000        0.0000000000000000     
  0.84375000000000000       0.25000000000000000        0.0000000000000000     
  0.87500000000000000       0.25000000000000000        0.0000000000000000     
  0.75000000000000000       0.28125000000000000        0.0000000000000000     
  0.78125000000000000       0.28125000000000000        0.0000000000000000     
  0.81250000000000000       0.28125000000000000        0.0000000000000000     
  0.84375000000000000       0.28125000000000000        0.0000000000000000     
  0.87500000000000000       0.28125000000000000        0.0000000000000000     
  0.75000000000000000       0.31250000000000000        0.0000000000000000     
  0.78125000000000000       0.31250000000000000        0.0000000000000000     
  0.81250000000000000       0.31250000000000000        0.0000000000000000     
  0.84375000000000000       0.31250000000000000        0.0000000000000000     
  0.87500000000000000       0.31250000000000000        0.0000000000000000     
  0.75000000000000000       0.34375000000000000        0.0000000000000000     
  0.78125000000000000       0.34375000000000000        0.0000000000000000     
  0.81250000000000000       0.34375000000000000        0.0000000000000000     
  0.84375000000000000       0.34375000000000000        0.0000000000000000     
  0.87500000000000000       0.34375000000000000        0.0000000000000000     
  0.75000000000000000       0.37500000000000000        0.0000000000000000     
  0.78125000000000000       0.37500000000000000        0.0000000000000000     
  0.81250000000000000       0.37500000000000000        0.0000000000000000     
  0.84375000000000000       0.37500000000000000        0.0000000000000000     
  0.87500000000000000       0.37500000000000000        0.0000000000000000     
  0.87500000000000000       0.25000000000000000        0.0000000000000000     
  0.90625000000000000       0.25000000000000000        0.0000000000000000     
  0.93750000000000000       0.25000000000000000        0.0000000000000000     
  0.96875000000000000       0.25000000000000000        0.0000000000000000     
   1.0000000000000000       0.25000000000000000        0.0000000000000000     
  0.87500000000000000       0.28125000000000000        0.0000000000000000     
  0.90625000000000000       0.28125000000000000        0.0000000000000000     
  0.93750000000000000       0.28125000000000000        0.0000000000000000     
  0.96875000000000000       0.28125000000000000        0.0000000000000000     
   1.0000000000000000       0.28125000000000000        0.0000000000000000     
  0.87500000000000000       0.31250000000000000        0.0000000000000000     
  0.90625000000000000       0.31250000000000000        0.0000000000000000     
  0.93750000000000000       0.31250000000000000        0.0000000000000000     
  0.96875000000000000       0.31250000000000000        0.0000000000000000     
   1.0000000000000000       0.31250000000000000        0.0000000000000000     
  0.87500000000000000       0.34375000000000000        0.0000000000000000     
  0.90625000000000000       0.34375000000000000        0.0000000000000000     
  0.93750000000000000       0.34375000000000000        0.0000000000000000     
  0.96875000000000000       0.34375000000000000        0.0000000000000000     
   1.0000000000000000       0.34375000000000000        0.0000000000000000     
  0.87500000000000000       0.37500000000000000        0.0000000000000000     
  0.90625000000000000       0.37500000000000000        0.0000000000000000     
  0.93750000000000000       0.37500000000000000        0.0000000000000000     
  0.96875000000000000       0.37500000000000000        0.0000000000000000     
   1.0000000000000000       0.37500000000000000        0.0000000000000000     
   1.0000000000000000       0.25000000000000000        0.0000000000000000     
   1.0312500000000000       0.25000000000000000        0.0000000000000000     
   1.0625000000000000       0.25000000000000000        0.0000000000000000     
   1.0937500000000000       0.25000000000000000        0.0000000000000000     
   1.1250000000000000       0.25000000000000000        0.0000000000000000     
   1.0000000000000000       0.28125000000000000        0.0000000000000000     
   1.0312500000000000       0.28125000000000000        0.0000000000000000     
   1.0625000000000000       0.28125000000000000        0.0000000000000000     
   1.0937500000000000       0.28125000000000000        0.0000000000000000     
   1.1250000000000000       0.28125000000000000        0.0000000000000000     
   1.0000000000000000       0.31250000000000000        0.0000000000000000     
   1.0312500000000000       0.31250000000000000        0.0000000000000000     
   1.0625000000000000       0.31250000000000000        0.0000000000000000     
   1.0937500000000000       0.31250000000000000        0.0000000000000000     
   1.1250000000000000       0.31250000000000000        0.0000000000000000     
   1.0000000000000000       0.34375000000000000        0.0000000000000000     
   1.0312500000000000       0.34375000000000000        0.0000000000000000     
   1.0625000000000000       0.34375000000000000        0.0000000000000000     
   1.0937500000000000       0.34375000000000000        0.0000000000000000     
   1.1250000000000000       0.34375000000000000        0.0000000000000000     
   1.0000000000000000       0.37500000000000000        0.0000000000000000     
   1.0312500000000000       0.37500000000000000        0.0000000000000000     
   1.0625000000000000       0.37500000000000000        0.0000000000000000     
   1.0937500000000000       0.37500000000000000        0.0000000000000000     
   1.1250000000000000       0.37500000000000000        0.0000000000000000     
   1.1250000000000000       0.25000000000000000        0.0000000000000000     
   1.1562500000000000       0.25000000000000000        0.0000000000000000     
   1.1875000000000000       0.25000000000000000        0.0000000000000000     
   1.2187500000000000       0.25000000000000000        0.0000000000000000     
   1.2500000000000000       0.25000000000000000        0.0000000000000000     
   1.1250000000000000       0.28125000000000000        0.0000000000000000     
   1.1562500000000000       0.28125000000000000        0.0000000000000000     
   1.1875000000000000       0.28125000000000000        0.0000000000000000     
   1.2187500000000000       0.28125000000000000        0.0000000000000000     
   1.2500000000000000       0.28125000000000000        0.0000000000000000     
   1.1250000000000000       0.31250000000000000        0.0000000000000000     
   1.1562500000000000       0.31250000000000000        0.0000000000000000     
   1.1875000000000000       0.31250000000000000        0.0000000000000000     
   1.2187500000000000       0.31250000000000000        0.0000000000000000     
   1.2500000000000000       0.31250000000000000        0.0000000000000000     
   1.1250000000000000       0.34375000000000000        0.0000000000000000     
   1.1562500000000000       0.34375000000000000        0.0000000000000000     
   1.1875000000000000       0.34375000000000000        0.0000000000000000     
   1.2187500000000000       0.34375000000000000        0.0000000000000000     
   1.2500000000000000       0.34375000000000000        0.0000000000000000     
   1.1250000000000000       0.37500000000000000        0.0000000000000000     
   1.1562500000000000       0.37500000000000000        0.0000000000000000     
   1.1875000000000000       0.37500000000000000        0.0000000000000000     
   1.2187500000000000       0.37500000000000000        0.0000000000000000     
   1.2500000000000000       0.37500000000000000        0.0000000000000000     
   1.2500000000000000       0.25000000000000000        0.0000000000000000     
   1.2812500000000000       0.25000000000000000        0.0000000000000000     
   1.3125000000000000       0.25000000000000000        0.0000000000000000     
   1.3437500000000000       0.25000000000000000        0.0000000000000000     
   1.3750000000000000       0.25000000000000000        0.0000000000000000     
   1.2500000000000000       0.28125000000000000        0.0000000000000000     
   1.2812500000000000       0.28125000000000000        0.0000000000000000     
   1.3125000000000000       0.28125000000000000        0.0000000000000000     
   1.3437500000000000       0.28125000000000000        0.0000000000000000     
   1.3750000000000000       0.28125000000000000        0.0000000000000000     
   1.2500000000000000       0.31250000000000000        0.0000000000000000     
   1.2812500000000000       0.31250000000000000        0.0000000000000000     
   1.3125000000000000       0.31250000000000000        0.0000000000000000     
   1.3437500000000000       0.31250000000000000        0.0000000000000000     
   1.3750000000000000       0.31250000000000000        0.0000000000000000     
   1.2500000000000000       0.34375000000000000        0.0000000000000000     
   1.2812500000000000       0.34375000000000000        0.0000000000000000     
   1.3125000000000000       0.34375000000000000        0.0000000000000000     
   1.3437500000000000       0.34375000000000000        0.0000000000000000     
   1.3750000000000000       0.34375000000000000        0.0000000000000000     
   1.2500000000000000       0.37500000000000000        0.0000000000000000     
   1.2812500000000000       0.37500000000000000        0.0000000000000000     
   1.3125000000000000       0.37500000000000000        0.0000000000000000     
   1.3437500000000000       0.37500000000000000        0.0000000000000000     
   1.3750000000000000       0.37500000000000000        0.0000000000000000     
   1.3750000000000000       0.25000000000000000        0.0000000000000000     
   1.4062500000000000       0.25000000000000000        0.0000000000000000     
   1.4375000000000000       0.25000000000000000        0.0000000000000000     
   1.4687500000000000       0.25000000000000000        0.0000000000000000     
   1.5000000000000000       0.25000000000000000        0.0000000000000000     
   1.3750000000000000       0.28125000000000000        0.0000000000000000     
   1.4062500000000000       0.28125000000000000        0.0000000000000000     
   1.4375000000000000       0.28125000000000000        0.0000000000000000     
   1.4687500000000000       0.28125000000000000        0.0000000000000000     
   1.5000000000000000       0.28125000000000000        0.0000000000000000     
   1.3750000000000000       0.31250000000000000        0.0000000000000000     
   1.4062500000000000       0.31250000000000000        0.0000000000000000     
   1.4375000000000000       0.31250000000000000        0.0000000000000000     
   1.4687500000000000       0.31250000000000000        0.0000000000000000     
   1.5000000000000000       0.31250000000000000        0.0000000000000000     
   1.3750000000000000       0.34375000000000000        0.0000000000000000     
   1.4062500000000000       0.34375000000000000        0.0000000000000000     
   1.4375000000000000       0.34375000000000000        0.0000000000000000     
   1.4687500000000000       0.34375000000000000        0.0000000000000000     
   1.5000000000000000       0.34375000000000000        0.0000000000000000     
   1.3750000000000000       0.37500000000000000        0.0000000000000000     
   1.4062500000000000       0.37500000000000000        0.0000000000000000     
   1.4375000000000000       0.37500000000000000        0.0000000000000000     
   1.4687500000000000       0.37500000000000000        0.0000000000000000     
   1.5000000000000000       0.37500000000000000        0.0000000000000000     
  0.50000000000000000       0.37500000000000000        0.0000000000000000     
  0.53125000000000000       0.37500000000000000        0.0000000000000000     
  0.56250000000000000       0.37500000000000000        0.0000000000000000     
  0.59375000000000000       0.37500000000000000        0.0000000000000000     
  0.62500000000000000       0.37500000000000000        0.0000000000000000     
  0.50000000000000000       0.40625000000000000        0.0000000000000000     
  0.53125000000000000       0.40625000000000000        0.0000000000000000     
  0.56250000000000000       0.40625000000000000        0.0000000000000000     
  0.59375000000000000       0.40625000000000000        0.0000000000000000     
  0.62500000000000000       0.40625000000000000        0.0000000000000000     
  0.50000000000000000       0.43750000000000000        0.0000000000000000     
  0.53125000000000000       0.43750000000000000        0.0000000000000000     
  0.56250000000000000       0.43750000000000000        0.0000000000000000     
  0.59375000000000000       0.43750000000000000        0.0000000000000000     
  0.62500000000000000       0.43750000000000000        0.0000000000000000     
  0.50000000000000000       0.46875000000000000        0.0000000000000000     
  0.53125000000000000       0.46875000000000000        0.0000000000000000     
  0.56250000000000000       0.46875000000000000        0.0000000000000000     
  0.59375000000000000       0.46875000000000000        0.0000000000000000     
  0.62500000000000000       0.46875000000000000        0.0000000000000000     
  0.50000000000000000       0.50000000000000000        0.0000000000000000     
  0.53125000000000000       0.50000000000000000        0.0000000000000000     
  0.56250000000000000       0.50000000000000000        0.0000000000000000     
  0.59375000000000000       0.50000000000000000        0.0000000000000000     
  0.62500000000000000       0.50000000000000000        0.0000000000000000     
  0.62500000000000000       0.37500000000000000        0.0000000000000000     
  0.65625000000000000       0.37500000000000000        0.0000000000000000     
  0.68750000000000000       0.37500000000000000        0.0000000000000000     
  0.71875000000000000       0.37500000000000000        0.0000000000000000     
  0.75000000000000000       0.37500000000000000        0.0000000000000000     
  0.62500000000000000       0.40625000000000000        0.0000000000000000     
  0.65625000000000000       0.40625000000000000        0.0000000000000000     
  0.68750000000000000       0.40625000000000000        0.0000000000000000     
  0.71875000000000000       0.40625000000000000        0.0000000000000000     
  0.75000000000000000       0.40625000000000000        0.0000000000000000     
  0.62500000000000000       0.43750000000000000        0.0000000000000000     
  0.65625000000000000       0.43750000000000000        0.0000000000000000     
  0.68750000000000000       0.43750000000000000        0.0000000000000000     
  0.71875000000000000       0.43750000000000000        0.0000000000000000     
  0.75000000000000000       0.43750000000000000        0.0000000000000000     
  0.62500000000000000       0.46875000000000000        0.0000000000000000     
  0.65625000000000000       0.46875000000000000        0.0000000000000000     
  0.68750000000000000       0.46875000000000000        0.0000000000000000     
  0.71875000000000000       0.46875000000000000        0.0000000000000000     
  0.75000000000000000       0.46875000000000000        0.0000000000000000     
  0.62500000000000000       0.50000000000000000        0.0000000000000000     
  0.65625000000000000       0.50000000000000000        0.0000000000000000     
  0.68750000000000000       0.50000000000000000        0.0000000000000000     
  0.71875000000000000       0.50000000000000000        0.0000000000000000     
  0.75000000000000000       0.50000000000000000        0.0000000000000000     
  0.75000000000000000       0.37500000000000000        0.0000000000000000     
  0.78125000000000000       0.37500000000000000        0.0000000000000000     
  0.81250000000000000       0.37500000000000000        0.0000000000000000     
  0.84375000000000000       0.37500000000000000        0.0000000000000000     
  0.87500000000000000       0.37500000000000000        0.0000000000000000     
  0.75000000000000000       0.40625000000000000        0.0000000000000000     
  0.78125000000000000       0.40625000000000000        0.0000000000000000     
  0.81250000000000000       0.40625000000000000        0.0000000000000000     
  0.84375000000000000       0.40625000000000000        0.0000000000000000     
  0.87500000000000000       0.40625000000000000        0.0000000000000000     
  0.75000000000000000       0.43750000000000000        0.0000000000000000     
  0.78125000000000000       0.43750000000000000        0.0000000000000000     
  0.81250000000000000       0.43750000000000000        0.0000000000000000     
  0.84375000000000000       0.43750000000000000        0.0000000000000000     
  0.87500000000000000       0.43750000000000000        0.0000000000000000     
  0.75000000000000000       0.46875000000000000        0.0000000000000000     
  0.78125000000000000       0.46875000000000000        0.0000000000000000     
  0.81250000000000000       0.46875000000000000        0.0000000000000000     
  0.84375000000000000       0.46875000000000000        0.0000000000000000     
  0.87500000000000000       0.46875000000000000        0.0000000000000000     
  0.75000000000000000       0.50000000000000000        0.0000000000000000     
  0.78125000000000000       0.50000000000000000        0.0000000000000000     
  0.81250000000000000       0.50000000000000000        0.0000000000000000     
  0.84375000000000000       0.50000000000000000        0.0000000000000000     
  0.87500000000000000       0.50000000000000000        0.0000000000000000     
  0.87500000000000000       0.37500000000000000        0.0000000000000000     
  0.90625000000000000       0.37500000000000000        0.0000000000000000     
  0.93750000000000000       0.37500000000000000        0.0000000000000000     
  0.96875000000000000       0.37500000000000000        0.0000000000000000     
   1.0000000000000000       0.37500000000000000        0.0000000000000000     
  0.87500000000000000       0.40625000000000000        0.0000000000000000     
  0.90625000000000000       0.40625000000000000        0.0000000000000000     
  0.93750000000000000       0.40625000000000000        0.0000000000000000     
  0.96875000000000000       0.40625000000000000        0.0000000000000000     
   1.0000000000000000       0.40625000000000000        0.0000000000000000     
  0.87500000000000000       0.43750000000000000        0.0000000000000000     
  0.90625000000000000       0.43750000000000000        0.0000000000000000     
  0.93750000000000000       0.43750000000000000        0.0000000000000000     
  0.96875000000000000       0.43750000000000000        0.0000000000000000     
   1.0000000000000000       0.43750000000000000        0.0000000000000000     
  0.87500000000000000       0.46875000000000000        0.0000000000000000     
  0.90625000000000000       0.46875000000000000        0.0000000000000000     
  0.93750000000000000       0.46875000000000000        0.0000000000000000     
  0.96875000000000000       0.46875000000000000        0.0000000000000000     
   1.0000000000000000       0.46875000000000000        0.0000000000000000     
  0.87500000000000000       0.50000000000000000        0.0000000000000000     
  0.90625000000000000       0.50000000000000000        0.0000000000000000     
  0.93750000000000000       0.50000000000000000        0.0000000000000000     
  0.96875000000000000       0.50000000000000000        0.0000000000000000     
   1.0000000000000000       0.50000000000000000        0.0000000000000000     
   1.0000000000000000       0.37500000000000000        0.0000000000000000     
   1.0312500000000000       0.37500000000000000        0.0000000000000000     
   1.0625000000000000       0.37500000000000000        0.0000000000000000     
   1.0937500000000000       0.37500000000000000        0.0000000000000000     
   1.1250000000000000       0.37500000000000000        0.0000000000000000     
   1.0000000000000000       0.40625000000000000        0.0000000000000000     
   1.0312500000000000       0.40625000000000000        0.0000000000000000     
   1.0625000000000000       0.40625000000000000        0.0000000000000000     
   1.0937500000000000       0.40625000000000000        0.0000000000000000     
   1.1250000000000000       0.40625000000000000        0.0000000000000000     
   1.0000000000000000       0.43750000000000000        0.0000000000000000     
   1.0312500000000000       0.43750000000000000        0.0000000000000000     
   1.0625000000000000       0.43750000000000000        0.0000000000000000     
   1.0937500000000000       0.43750000000000000        0.0000000000000000     
   1.1250000000000000       0.43750000000000000        0.0000000000000000     
   1.0000000000000000       0.46875000000000000        0.0000000000000000     
   1.0312500000000000       0.46875000000000000        0.0000000000000000     
   1.0625000000000000       0.46875000000000000        0.0000000000000000     
   1.0937500000000000       0.46875000000000000        0.0000000000000000     
   1.1250000000000000       0.46875000000000000        0.0000000000000000     
   1.0000000000000000       0.50000000000000000        0.0000000000000000     
   1.0312500000000000       0.50000000000000000        0.0000000000000000     
   1.0625000000000000       0.50000000000000000        0.0000000000000000     
   1.0937500000000000       0.50000000000000000        0.0000000000000000     
   1.1250000000000000       0.50000000000000000        0.0000000000000000     
   1.1250000000000000       0.37500000000000000        0.0000000000000000     
   1.1562500000000000       0.37500000000000000        0.0000000000000000     
   1.1875000000000000       0.37500000000000000        0.0000000000000000     
   1.2187500000000000       0.37500000000000000        0.0000000000000000     
   1.2500000000000000       0.37500000000000000        0.0000000000000000     
   1.1250000000000000       0.40625000000000000        0.0000000000000000     
   1.1562500000000000       0.40625000000000000        0.0000000000000000     
   1.1875000000000000       0.40625000000000000        0.0000000000000000     
   1.2187500000000000       0.40625000000000000        0.0000000000000000     
   1.2500000000000000       0.40625000000000000        0.0000000000000000     
   1.1250000000000000       0.43750000000000000        0.0000000000000000     
   1.1562500000000000       0.43750000000000000        0.0000000000000000     
   1.1875000000000000       0.43750000000000000        0.0000000000000000     
   1.2187500000000000       0.43750000000000000        0.0000000000000000     
   1.2500000000000000       0.43750000000000000        0.0000000000000000     
   1.1250000000000000       0.46875000000000000        0.0000000000000000     
   1.1562500000000000       0.46875000000000000        0.0000000000000000     
   1.1875000000000000       0.46875000000000000        0.0000000000000000     
   1.2187500000000000       0.46875000000000000        0.0000000000000000     
   1.2500000000000000       0.46875000000000000        0.0000000000000000     
   1.1250000000000000       0.50000000000000000        0.0000000000000000     
   1.1562500000000000       0.50000000000000000        0.0000000000000000     
   1.1875000000000000       0.50000000000000000        0.0000000000000000     
   1.2187500000000000       0.50000000000000000        0.0000000000000000     
   1.2500000000000000       0.50000000000000000        0.0000000000000000     
   1.2500000000000000       0.37500000000000000        0.0000000000000000     
   1.2812500000000000       0.37500000000000000        0.0000000000000000     
   1.3125000000000000       0.37500000000000000        0.0000000000000000     
   1.3437500000000000       0.37500000000000000        0.0000000000000000     
   1.3750000000000000       0.37500000000000000        0.0000000000000000     
   1.2500000000000000       0.40625000000000000        0.0000000000000000     
   1.2812500000000000       0.40625000000000000        0.0000000000000000     
   1.3125000000000000       0.40625000000000000        0.0000000000000000     
   1.3437500000000000       0.40625000000000000        0.0000000000000000     
   1.3750000000000000       0.40625000000000000        0.0000000000000000     
   1.2500000000000000       0.43750000000000000        0.0000000000000000     
   1.2812500000000000       0.43750000000000000        0.0000000000000000     
   1.3125000000000000       0.43750000000000000        0.0000000000000000     
   1.3437500000000000       0.43750000000000000        0.0000000000000000     
   1.3750000000000000       0.43750000000000000        0.0000000000000000     
   1.2500000000000000       0.46875000000000000        0.0000000000000000     
   1.2812500000000000       0.46875000000000000        0.0000000000000000     
   1.3125000000000000       0.46875000000000000        0.0000000000000000     
   1.3437500000000000       0.46875000000000000        0.0000000000000000     
   1.3750000000000000       0.46875000000000000        0.0000000000000000     
   1.2500000000000000       0.50000000000000000        0.0000000000000000     
   1.2812500000000000       0.50000000000000000        0.0000000000000000     
   1.3125000000000000       0.50000000000000000        0.0000000000000000     
   1.3437500000000000       0.50000000000000000        0.0000000000000000     
   1.3750000000000000       0.50000000000000000        0.0000000000000000     
   1.3750000000000000       0.37500000000000000        0.0000000000000000     
   1.4062500000000000       0.37500000000000000        0.0000000000000000     
   1.4375000000000000       0.37500000000000000        0.0000000000000000     
   1.4687500000000000       0.37500000000000000        0.0000000000000000     
   1.5000000000000000       0.37500000000000000        0.0000000000000000     
   1.3750000000000000       0.40625000000000000        0.0000000000000000     
   1.4062500000000000       0.40625000000000000        0.0000000000000000     
   1.4375000000000000       0.40625000000000000        0.0000000000000000     
   1.4687500000000000       0.40625000000000000        0.0000000000000000     
   1.5000000000000000       0.40625000000000000        0.0000000000000000     
   1.3750000000000000       0.43750000000000000        0.0000000000000000     
   1.4062500000000000       0.43750000000000000        0.0000000000000000     
   1.4375000000000000       0.43750000000000000        0.0000000000000000     
   1.4687500000000000       0.43750000000000000        0.0000000000000000     
   1.5000000000000000       0.43750000000000000        0.0000000000000000     
   1.3750000000000000       0.46875000000000000        0.0000000000000000     
   1.4062500000000000       0.46875000000000000        0.0000000000000000     
   1.4375000000000000       0.46875000000000000        0.0000000000000000     
   1.4687500000000000       0.46875000000000000        0.0000000000000000     
   1.5000000000000000       0.46875000000000000        0.0000000000000000     
   1.3750000000000000       0.50000000000000000        0.0000000000000000     
   1.4062500000000000       0.50000000000000000        0.0000000000000000     
   1.4375000000000000       0.50000000000000000        0.0000000000000000     
   1.4687500000000000       0.50000000000000000        0.0000000000000000     
   1.5000000000000000       0.50000000000000000        0.0000000000000000     
  0.50000000000000000       0.50000000000000000        0.0000000000000000     
  0.53125000000000000       0.50000000000000000        0.0000000000000000     
  0.56250000000000000       0.50000000000000000        0.0000000000000000     
  0.59375000000000000       0.50000000000000000        0.0000000000000000     
  0.62500000000000000       0.50000000000000000        0.0000000000000000     
  0.50000000000000000       0.53125000000000000        0.0000000000000000     
  0.53125000000000000       0.53125000000000000        0.0000000000000000     
  0.56250000000000000       0.53125000000000000        0.0000000000000000     
  0.59375000000000000       0.53125000000000000        0.0000000000000000     
  0.62500000000000000       0.53125000000000000        0.0000000000000000     
  0.50000000000000000       0.56250000000000000        0.0000000000000000     
  0.53125000000000000       0.56250000000000000        0.0000000000000000     
  0.56250000000000000       0.56250000000000000        0.0000000000000000     
  0.59375000000000000       0.56250000000000000        0.0000000000000000     
  0.62500000000000000       0.56250000000000000        0.0000000000000000     
  0.50000000000000000       0.59375000000000000        0.0000000000000000     
  0.53125000000000000       0.59375000000000000        0.0000000000000000     
  0.56250000000000000       0.59375000000000000        0.0000000000000000     
  0.59375000000000000       0.59375000000000000        0.0000000000000000     
  0.62500000000000000       0.59375000000000000        0.0000000000000000     
  0.50000000000000000       0.62500000000000000        0.0000000000000000     
  0.53125000000000000       0.62500000000000000        0.0000000000000000     
  0.56250000000000000       0.62500000000000000        0.0000000000000000     
  0.59375000000000000       0.62500000000000000        0.0000000000000000     
  0.62500000000000000       0.62500000000000000        0.0000000000000000     
  0.62500000000000000       0.50000000000000000        0.0000000000000000     
  0.65625000000000000       0.50000000000000000        0.0000000000000000     
  0.68750000000000000       0.50000000000000000        0.0000000000000000     
  0.71875000000000000       0.50000000000000000        0.0000000000000000     
  0.75000000000000000       0.50000000000000000        0.0000000000000000     
  0.62500000000000000       0.53125000000000000        0.0000000000000000     
  0.65625000000000000       0.53125000000000000        0.0000000000000000     
  0.68750000000000000       0.53125000000000000        0.0000000000000000     
  0.71875000000000000       0.53125000000000000        0.0000000000000000     
  0.75000000000000000       0.53125000000000000        0.0000000000000000     
  0.62500000000000000       0.56250000000000000        0.0000000000000000     
  0.65625000000000000       0.56250000000000000        0.0000000000000000     
  0.68750000000000000       0.56250000000000000        0.0000000000000000     
  0.71875000000000000       0.56250000000000000        0.0000000000000000     
  0.75000000000000000       0.56250000000000000        0.0000000000000000     
  0.62500000000000000       0.59375000000000000        0.0000000000000000     
  0.65625000000000000       0.59375000000000000        0.0000000000000000     
  0.68750000000000000       0.59375000000000000        0.0000000000000000     
  0.71875000000000000       0.59375000000000000        0.0000000000000000     
  0.75000000000000000       0.59375000000000000        0.0000000000000000     
  0.62500000000000000       0.62500000000000000        0.0000000000000000     
  0.65625000000000000       0.62500000000000000        0.0000000000000000     
  0.68750000000000000       0.62500000000000000        0.0000000000000000     
  0.71875000000000000       0.62500000000000000        0.0000000000000000     
  0.75000000000000000       0.62500000000000000        0.0000000000000000     
  0.75000000000000000       0.50000000000000000        0.0000000000000000     
  0.78125000000000000       0.50000000000000000        0.0000000000000000     
  0.81250000000000000       0.50000000000000000        0.0000000000000000     
  0.84375000000000000       0.50000000000000000        0.0000000000000000     
  0.87500000000000000       0.50000000000000000        0.0000000000000000     
  0.75000000000000000       0.53125000000000000        0.0000000000000000     
  0.78125000000000000       0.53125000000000000        0.0000000000000000     
  0.81250000000000000       0.53125000000000000        0.0000000000000000     
  0.84375000000000000       0.53125000000000000        0.0000000000000000     
  0.87500000000000000       0.53125000000000000        0.0000000000000000     
  0.75000000000000000       0.56250000000000000        0.0000000000000000     
  0.78125000000000000       0.56250000000000000        0.0000000000000000     
  0.81250000000000000       0.56250000000000000        0.0000000000000000     
  0.84375000000000000       0.56250000000000000        0.0000000000000000     
  0.87500000000000000       0.56250000000000000        0.0000000000000000     
  0.75000000000000000       0.59375000000000000        0.0000000000000000     
  0.78125000000000000       0.59375000000000000        0.0000000000000000     
  0.81250000000000000       0.59375000000000000        0.0000000000000000     
  0.84375000000000000       0.59375000000000000        0.0000000000000000     
  0.87500000000000000       0.59375000000000000        0.0000000000000000     
  0.75000000000000000       0.62500000000000000        0.0000000000000000     
  0.78125000000000000       0.62500000000000000        0.0000000000000000     
  0.81250000000000000       0.62500000000000000        0.0000000000000000     
  0.84375000000000000       0.62500000000000000        0.0000000000000000     
  0.87500000000000000       0.62500000000000000        0.0000000000000000     
  0.87500000000000000       0.50000000000000000        0.0000000000000000     
  0.90625000000000000       0.50000000000000000        0.0000000000000000     
  0.93750000000000000       0.50000000000000000        0.0000000000000000     
  0.96875000000000000       0.50000000000000000        0.0000000000000000     
   1.0000000000000000       0.50000000000000000        0.0000000000000000     
  0.87500000000000000       0.53125000000000000        0.0000000000000000     
  0.90625000000000000       0.53125000000000000        0.0000000000000000     
  0.93750000000000000       0.53125000000000000        0.0000000000000000     
  0.96875000000000000       0.53125000000000000        0.0000000000000000     
   1.0000000000000000       0.53125000000000000        0.0000000000000000     
  0.87500000000000000       0.56250000000000000        0.0000000000000000     
  0.90625000000000000       0.56250000000000000        0.0000000000000000     
  0.93750000000000000       0.56250000000000000        0.0000000000000000     
  0.96875000000000000       0.56250000000000000        0.0000000000000000     
   1.0000000000000000       0.56250000000000000        0.0000000000000000     
  0.87500000000000000       0.59375000000000000        0.0000000000000000     
  0.90625000000000000       0.59375000000000000        0.0000000000000000     
  0.93750000000000000       0.59375000000000000        0.0000000000000000     
  0.96875000000000000       0.59375000000000000        0.0000000000000000     
   1.0000000000000000       0.59375000000000000        0.0000000000000000     
  0.87500000000000000       0.62500000000000000        0.0000000000000000     
  0.90625000000000000       0.62500000000000000        0.0000000000000000     
  0.93750000000000000       0.62500000000000000        0.0000000000000000     
  0.96875000000000000       0.62500000000000000        0.0000000000000000     
   1.0000000000000000       0.62500000000000000        0.0000000000000000     
   1.0000000000000000       0.50000000000000000        0.0000000000000000     
   1.0312500000000000       0.50000000000000000        0.0000000000000000     
   1.0625000000000000       0.50000000000000000        0.0000000000000000     
   1.0937500000000000       0.50000000000000000        0.0000000000000000     
   1.1250000000000000       0.50000000000000000        0.0000000000000000     
   1.0000000000000000       0.53125000000000000        0.0000000000000000     
   1.0312500000000000       0.53125000000000000        0.0000000000000000     
   1.0625000000000000       0.53125000000000000        0.0000000000000000     
   1.0937500000000000       0.53125000000000000        0.0000000000000000     
   1.1250000000000000       0.53125000000000000        0.0000000000000000     
   1.0000000000000000       0.56250000000000000        0.0000000000000000     
   1.0312500000000000       0.56250000000000000        0.0000000000000000     
   1.0625000000000000       0.56250000000000000        0.0000000000000000     
   1.0937500000000000       0.56250000000000000        0.0000000000000000     
   1.1250000000000000       0.56250000000000000        0.0000000000000000     
   1.0000000000000000       0.59375000000000000        0.0000000000000000     
   1.0312500000000000       0.59375000000000000        0.0000000000000000     
   1.0625000000000000       0.59375000000000000        0.0000000000000000     
   1.0937500000000000       0.59375000000000000        0.0000000000000000     
   1.1250000000000000       0.59375000000000000        0.0000000000000000     
   1.0000000000000000       0.62500000000000000        0.0000000000000000     
   1.0312500000000000       0.62500000000000000        0.0000000000000000     
   1.0625000000000000       0.62500000000000000        0.0000000000000000     
   1.0937500000000000       0.62500000000000000        0.0000000000000000     
   1.1250000000000000       0.62500000000000000        0.0000000000000000     
   1.1250000000000000       0.50000000000000000        0.0000000000000000     
   1.1562500000000000       0.50000000000000000        0.0000000000000000     
   1.1875000000000000       0.50000000000000000        0.0000000000000000     
   1.2187500000000000       0.50000000000000000        0.0000000000000000     
   1.2500000000000000       0.50000000000000000        0.0000000000000000     
   1.1250000000000000       0.53125000000000000        0.0000000000000000     
   1.1562500000000000       0.53125000000000000        0.0000000000000000     
   1.1875000000000000       0.53125000000000000        0.0000000000000000     
   1.2187500000000000       0.53125000000000000        0.0000000000000000     
   1.2500000000000000       0.53125000000000000        0.0000000000000000     
   1.1250000000000000       0.56250000000000000        0.0000000000000000     
   1.1562500000000000       0.56250000000000000        0.0000000000000000     
   1.1875000000000000       0.56250000000000000        0.0000000000000000     
   1.2187500000000000       0.56250000000000000        0.0000000000000000     
   1.2500000000000000       0.56250000000000000        0.0000000000000000     
   1.1250000000000000       0.59375000000000000        0.0000000000000000     
   1.1562500000000000       0.59375000000000000        0.0000000000000000     
   1.1875000000000000       0.59375000000000000        0.0000000000000000     
   1.2187500000000000       0.59375000000000000        0.0000000000000000     
   1.2500000000000000       0.59375000000000000        0.0000000000000000     
   1.1250000000000000       0.62500000000000000        0.0000000000000000     
   1.1562500000000000       0.62500000000000000        0.0000000000000000     
   1.1875000000000000       0.62500000000000000        0.0000000000000000     
   1.2187500000000000       0.62500000000000000        0.0000000000000000     
   1.2500000000000000       0.62500000000000000        0.0000000000000000     
   1.2500000000000000       0.50000000000000000        0.0000000000000000     
   1.2812500000000000       0.50000000000000000        0.0000000000000000     
   1.3125000000000000       0.50000000000000000        0.0000000000000000     
   1.3437500000000000       0.50000000000000000        0.0000000000000000     
   1.3750000000000000       0.50000000000000000        0.0000000000000000     
   1.2500000000000000       0.53125000000000000        0.0000000000000000     
   1.2812500000000000       0.53125000000000000        0.0000000000000000     
   1.3125000000000000       0.53125000000000000        0.0000000000000000     
   1.3437500000000000       0.53125000000000000        0.0000000000000000     
   1.3750000000000000       0.53125000000000000        0.0000000000000000     
   1.2500000000000000       0.56250000000000000        0.0000000000000000     
   1.2812500000000000       0.56250000000000000        0.0000000000000000     
   1.3125000000000000       0.56250000000000000        0.0000000000000000     
   1.3437500000000000       0.56250000000000000        0.0000000000000000     
   1.3750000000000000       0.56250000000000000        0.0000000000000000     
   1.2500000000000000       0.59375000000000000        0.0000000000000000     
   1.2812500000000000       0.59375000000000000        0.0000000000000000     
   1.3125000000000000       0.59375000000000000        0.0000000000000000     
   1.3437500000000000       0.59375000000000000        0.0000000000000000     
   1.3750000000000000       0.59375000000000000        0.0000000000000000     
   1.2500000000000000       0.62500000000000000        0.0000000000000000     
   1.2812500000000000       0.62500000000000000        0.0000000000000000     
   1.3125000000000000       0.62500000000000000        0.0000000000000000     
   1.3437500000000000       0.62500000000000000        0.0000000000000000     
   1.3750000000000000       0.62500000000000000        0.0000000000000000     
   1.3750000000000000       0.50000000000000000        0.0000000000000000     
   1.4062500000000000       0.50000000000000000        0.0000000000000000     
   1.4375000000000000       0.50000000000000000        0.0000000000000000     
   1.4687500000000000       0.50000000000000000        0.0000000000000000     
   1.5000000000000000       0.50000000000000000        0.0000000000000000     
   1.3750000000000000       0.53125000000000000        0.0000000000000000     
   1.4062500000000000       0.53125000000000000        0.0000000000000000     
   1.4375000000000000       0.53125000000000000        0.0000000000000000     
   1.4687500000000000       0.53125000000000000        0.0000000000000000     
   1.5000000000000000       0.53125000000000000        0.0000000000000000     
   1.3750000000000000       0.56250000000000000        0.0000000000000000     
   1.4062500000000000       0.56250000000000000        0.0000000000000000     
   1.4375000000000000       0.56250000000000000        0.0000000000000000     
   1.4687500000000000       0.56250000000000000        0.0000000000000000     
   1.5000000000000000       0.56250000000000000        0.0000000000000000     
   1.3750000000000000       0.59375000000000000        0.0000000000000000     
   1.4062500000000000       0.59375000000000000        0.0000000000000000     
   1.4375000000000000       0.59375000000000000        0.0000000000000000     
   1.4687500000000000       0.59375000000000000        0.0000000000000000     
   1.5000000000000000       0.59375000000000000        0.0000000000000000     
   1.3750000000000000       0.62500000000000000        0.0000000000000000     
   1.4062500000000000       0.62500000000000000        0.0000000000000000     
   1.4375000000000000       0.62500000000000000        0.0000000000000000     
   1.4687500000000000       0.62500000000000000        0.0000000000000000     
   1.5000000000000000       0.62500000000000000        0.0000000000000000     
  0.50000000000000000       0.62500000000000000        0.0000000000000000     
  0.53125000000000000       0.62500000000000000        0.0000000000000000     
  0.56250000000000000       0.62500000000000000        0.0000000000000000     
  0.59375000000000000       0.62500000000000000        0.0000000000000000     
  0.62500000000000000       0.62500000000000000        0.0000000000000000     
  0.50000000000000000       0.65625000000000000        0.0000000000000000     
  0.53125000000000000       0.65625000000000000        0.0000000000000000     
  0.56250000000000000       0.65625000000000000        0.0000000000000000     
  0.59375000000000000       0.65625000000000000        0.0000000000000000     
  0.62500000000000000       0.65625000000000000        0.0000000000000000     
  0.50000000000000000       0.68750000000000000        0.0000000000000000     
  0.53125000000000000       0.68750000000000000        0.0000000000000000     
  0.56250000000000000       0.68750000000000000        0.0000000000000000     
  0.59375000000000000       0.68750000000000000        0.0000000000000000     
  0.62500000000000000       0.68750000000000000        0.0000000000000000     
  0.50000000000000000       0.71875000000000000        0.0000000000000000     
  0.53125000000000000       0.71875000000000000        0.0000000000000000     
  0.56250000000000000       0.71875000000000000        0.0000000000000000     
  0.59375000000000000       0.71875000000000000        0.0000000000000000     
  0.62500000000000000       0.71875000000000000        0.0000000000000000     
  0.50000000000000000       0.75000000000000000        0.0000000000000000     
  0.53125000000000000       0.75000000000000000        0.0000000000000000     
  0.56250000000000000       0.75000000000000000        0.0000000000000000     
  0.59375000000000000       0.75000000000000000        0.0000000000000000     
  0.62500000000000000       0.75000000000000000        0.0000000000000000     
  0.62500000000000000       0.62500000000000000        0.0000000000000000     
  0.65625000000000000       0.62500000000000000        0.0000000000000000     
  0.68750000000000000       0.62500000000000000        0.0000000000000000     
  0.71875000000000000       0.62500000000000000        0.0000000000000000     
  0.75000000000000000       0.62500000000000000        0.0000000000000000     
  0.62500000000000000       0.65625000000000000        0.0000000000000000     
  0.65625000000000000       0.65625000000000000        0.0000000000000000     
  0.68750000000000000       0.65625000000000000        0.0000000000000000     
  0.71875000000000000       0.65625000000000000        0.0000000000000000     
  0.75000000000000000       0.65625000000000000        0.0000000000000000     
  0.62500000000000000       0.68750000000000000        0.0000000000000000     
  0.65625000000000000       0.68750000000000000        0.0000000000000000     
  0.68750000000000000       0.68750000000000000        0.0000000000000000     
  0.71875000000000000       0.68750000000000000        0.0000000000000000     
  0.75000000000000000       0.68750000000000000        0.0000000000000000     
  0.62500000000000000       0.71875000000000000        0.0000000000000000     
  0.65625000000000000       0.71875000000000000        0.0000000000000000     
  0.68750000000000000       0.71875000000000000        0.0000000000000000     
  0.71875000000000000       0.71875000000000000        0.0000000000000000     
  0.75000000000000000       0.71875000000000000        0.0000000000000000     
  0.62500000000000000       0.75000000000000000        0.0000000000000000     
  0.65625000000000000       0.75000000000000000        0.0000000000000000     
  0.68750000000000000       0.75000000000000000        0.0000000000000000     
  0.71875000000000000       0.75000000000000000        0.0000000000000000     
  0.75000000000000000       0.75000000000000000        0.0000000000000000     
  0.75000000000000000       0.62500000000000000        0.0000000000000000     
  0.78125000000000000       0.62500000000000000        0.0000000000000000     
  0.81250000000000000       0.62500000000000000        0.0000000000000000     
  0.84375000000000000       0.62500000000000000        0.0000000000000000     
  0.87500000000000000       0.62500000000000000        0.0000000000000000     
  0.75000000000000000       0.65625000000000000        0.0000000000000000     
  0.78125000000000000       0.65625000000000000        0.0000000000000000     
  0.81250000000000000       0.65625000000000000        0.0000000000000000     
  0.84375000000000000       0.65625000000000000        0.0000000000000000     
  0.87500000000000000       0.65625000000000000        0.0000000000000000     
  0.75000000000000000       0.68750000000000000        0.0000000000000000     
  0.78125000000000000       0.68750000000000000        0.0000000000000000     
  0.81250000000000000       0.68750000000000000        0.0000000000000000     
  0.84375000000000000       0.68750000000000000        0.0000000000000000     
  0.87500000000000000       0.68750000000000000        0.0000000000000000     
  0.75000000000000000       0.71875000000000000        0.0000000000000000     
  0.78125000000000000       0.71875000000000000        0.0000000000000000     
  0.81250000000000000       0.71875000000000000        0.0000000000000000     
  0.84375000000000000       0.71875000000000000        0.0000000000000000     
  0.87500000000000000       0.71875000000000000        0.0000000000000000     
  0.75000000000000000       0.75000000000000000        0.0000000000000000     
  0.78125000000000000       0.75000000000000000        0.0000000000000000     
  0.81250000000000000       0.75000000000000000        0.0000000000000000     
  0.84375000000000000       0.75000000000000000        0.0000000000000000     
  0.87500000000000000       0.75000000000000000        0.0000000000000000     
  0.87500000000000000       0.62500000000000000        0.0000000000000000     
  0.90625000000000000       0.62500000000000000        0.0000000000000000     
  0.93750000000000000       0.62500000000000000        0.0000000000000000     
  0.96875000000000000       0.62500000000000000        0.0000000000000000     
   1.0000000000000000       0.62500000000000000        0.0000000000000000     
  0.87500000000000000       0.65625000000000000        0.0000000000000000     
  0.90625000000000000       0.65625000000000000        0.0000000000000000     
  0.93750000000000000       0.65625000000000000        0.0000000000000000     
  0.96875000000000000       0.65625000000000000        0.0000000000000000     
   1.0000000000000000       0.65625000000000000        0.0000000000000000     
  0.87500000000000000       0.68750000000000000        0.0000000000000000     
  0.90625000000000000       0.68750000000000000        0.0000000000000000     
  0.93750000000000000       0.68750000000000000        0.0000000000000000     
  0.96875000000000000       0.68750000000000000        0.0000000000000000     
   1.0000000000000000       0.68750000000000000        0.0000000000000000     
  0.87500000000000000       0.71875000000000000        0.0000000000000000     
  0.90625000000000000       0.71875000000000000        0.0000000000000000     
  0.93750000000000000       0.71875000000000000        0.0000000000000000     
  0.96875000000000000       0.71875000000000000        0.0000000000000000     
   1.0000000000000000       0.71875000000000000        0.0000000000000000     
  0.87500000000000000       0.75000000000000000        0.0000000000000000     
  0.90625000000000000       0.75000000000000000        0.0000000000000000     
  0.93750000000000000       0.75000000000000000        0.0000000000000000     
  0.96875000000000000       0.75000000000000000        0.0000000000000000     
   1.0000000000000000       0.75000000000000000        0.0000000000000000     
   1.0000000000000000       0.62500000000000000        0.0000000000000000     
   1.0312500000000000       0.62500000000000000        0.0000000000000000     
   1.0625000000000000       0.62500000000000000        0.0000000000000000     
   1.0937500000000000       0.62500000000000000        0.0000000000000000     
   1.1250000000000000       0.62500000000000000        0.0000000000000000     
   1.0000000000000000       0.65625000000000000        0.0000000000000000     
   1.0312500000000000       0.65625000000000000        0.0000000000000000     
   1.0625000000000000       0.65625000000000000        0.0000000000000000     
   1.0937500000000000       0.65625000000000000        0.0000000000000000     
   1.1250000000000000       0.65625000000000000        0.0000000000000000     
   1.0000000000000000       0.68750000000000000        0.0000000000000000     
   1.0312500000000000       0.68750000000000000        0.0000000000000000     
   1.0625000000000000       0.68750000000000000        0.0000000000000000     
   1.0937500000000000       0.68750000000000000        0.0000000000000000     
   1.1250000000000000       0.68750000000000000        0.0000000000000000     
   1.0000000000000000       0.71875000000000000        0.0000000000000000     
   1.0312500000000000       0.71875000000000000        0.0000000000000000     
   1.0625000000000000       0.71875000000000000        0.0000000000000000     
   1.0937500000000000       0.71875000000000000        0.0000000000000000     
   1.1250000000000000       0.71875000000000000        0.0000000000000000     
   1.0000000000000000       0.75000000000000000        0.0000000000000000     
   1.0312500000000000       0.75000000000000000        0.0000000000000000     
   1.0625000000000000       0.75000000000000000        0.0000000000000000     
   1.0937500000000000       0.75000000000000000        0.0000000000000000     
   1.1250000000000000       0.75000000000000000        0.0000000000000000     
   1.1250000000000000       0.62500000000000000        0.0000000000000000     
   1.1562500000000000       0.62500000000000000        0.0000000000000000     
   1.1875000000000000       0.62500000000000000        0.0000000000000000     
   1.2187500000000000       0.62500000000000000        0.0000000000000000     
   1.2500000000000000       0.62500000000000000        0.0000000000000000     
   1.1250000000000000       0.65625000000000000        0.0000000000000000     
   1.1562500000000000       0.65625000000000000        0.0000000000000000     
   1.1875000000000000       0.65625000000000000        0.0000000000000000     
   1.2187500000000000       0.65625000000000000        0.0000000000000000     
   1.2500000000000000       0.65625000000000000        0.0000000000000000     
   1.1250000000000000       0.68750000000000000        0.0000000000000000     
   1.1562500000000000       0.68750000000000000        0.0000000000000000     
   1.1875000000000000       0.68750000000000000        0.0000000000000000     
   1.2187500000000000       0.68750000000000000        0.0000000000000000     
   1.2500000000000000       0.68750000000000000        0.0000000000000000     
   1.1250000000000000       0.71875000000000000        0.0000000000000000     
   1.1562500000000000       0.71875000000000000        0.0000000000000000     
   1.1875000000000000       0.71875000000000000        0.0000000000000000     
   1.2187500000000000       0.71875000000000000        0.0000000000000000     
   1.2500000000000000       0.71875000000000000        0.0000000000000000     
   1.1250000000000000       0.75000000000000000        0.0000000000000000     
   1.1562500000000000       0.75000000000000000        0.0000000000000000     
   1.1875000000000000       0.75000000000000000        0.0000000000000000     
   1.2187500000000000       0.75000000000000000        0.0000000000000000     
   1.2500000000000000       0.75000000000000000        0.0000000000000000     
   1.2500000000000000       0.62500000000000000        0.0000000000000000     
   1.2812500000000000       0.62500000000000000        0.0000000000000000     
   1.3125000000000000       0.62500000000000000        0.0000000000000000     
   1.3437500000000000       0.62500000000000000        0.0000000000000000     
   1.3750000000000000       0.62500000000000000        0.0000000000000000     
   1.2500000000000000       0.65625000000000000        0.0000000000000000     
   1.2812500000000000       0.65625000000000000        0.0000000000000000     
   1.3125000000000000       0.65625000000000000        0.0000000000000000     
   1.3437500000000000       0.65625000000000000        0.0000000000000000     
   1.3750000000000000       0.65625000000000000        0.0000000000000000     
   1.2500000000000000       0.68750000000000000        0.0000000000000000     
   1.2812500000000000       0.68750000000000000        0.0000000000000000     
   1.3125000000000000       0.68750000000000000        0.0000000000000000     
   1.3437500000000000       0.68750000000000000        0.0000000000000000     
   1.3750000000000000       0.68750000000000000        0.0000000000000000     
   1.2500000000000000       0.71875000000000000        0.0000000000000000     
   1.2812500000000000       0.71875000000000000        0.0000000000000000     
   1.3125000000000000       0.71875000000000000        0.0000000000000000     
   1.3437500000000000       0.71875000000000000        0.0000000000000000     
   1.3750000000000000       0.71875000000000000        0.0000000000000000     
   1.2500000000000000       0.75000000000000000        0.0000000000000000     
   1.2812500000000000       0.75000000000000000        0.0000000000000000     
   1.3125000000000000       0.75000000000000000        0.0000000000000000     
   1.3437500000000000       0.75000000000000000        0.0000000000000000     
   1.3750000000000000       0.75000000000000000        0.0000000000000000     
   1.3750000000000000       0.62500000000000000        0.0000000000000000     
   1.4062500000000000       0.62500000000000000        0.0000000000000000     
   1.4375000000000000       0.62500000000000000        0.0000000000000000     
   1.4687500000000000       0.62500000000000000        0.0000000000000000     
   1.5000000000000000       0.62500000000000000        0.0000000000000000     
   1.3750000000000000       0.65625000000000000        0.0000000000000000     
   1.4062500000000000       0.65625000000000000        0.0000000000000000     
   1.4375000000000000       0.65625000000000000        0.0000000000000000     
   1.4687500000000000       0.65625000000000000        0.0000000000000000     
   1.5000000000000000       0.65625000000000000        0.0000000000000000     
   1.3750000000000000       0.68750000000000000        0.0000000000000000     
   1.4062500000000000       0.68750000000000000        0.0000000000000000     
   1.4375000000000000       0.68750000000000000        0.0000000000000000     
   1.4687500000000000       0.68750000000000000        0.0000000000000000     
   1.5000000000000000       0.68750000000000000        0.0000000000000000     
   1.3750000000000000       0.71875000000000000        0.0000000000000000     
   1.4062500000000000       0.71875000000000000        0.0000000000000000     
   1.4375000000000000       0.71875000000000000        0.0000000000000000     
   1.4687500000000000       0.71875000000000000        0.0000000000000000     
   1.5000000000000000       0.71875000000000000        0.0000000000000000     
   1.3750000000000000       0.75000000000000000        0.0000000000000000     
   1.4062500000000000       0.75000000000000000        0.0000000000000000     
   1.4375000000000000       0.75000000000000000        0.0000000000000000     
   1.4687500000000000       0.75000000000000000        0.0000000000000000     
   1.5000000000000000       0.75000000000000000        0.0000000000000000     
  0.50000000000000000       0.75000000000000000        0.0000000000000000     
  0.53125000000000000       0.75000000000000000        0.0000000000000000     
  0.56250000000000000       0.75000000000000000        0.0000000000000000     
  0.59375000000000000       0.75000000000000000        0.0000000000000000     
  0.62500000000000000       0.75000000000000000        0.0000000000000000     
  0.50000000000000000       0.78125000000000000        0.0000000000000000     
  0.53125000000000000       0.78125000000000000        0.0000000000000000     
  0.56250000000000000       0.78125000000000000        0.0000000000000000     
  0.59375000000000000       0.78125000000000000        0.0000000000000000     
  0.62500000000000000       0.78125000000000000        0.0000000000000000     
  0.50000000000000000       0.81250000000000000        0.0000000000000000     
  0.53125000000000000       0.81250000000000000        0.0000000000000000     
  0.56250000000000000       0.81250000000000000        0.0000000000000000     
  0.59375000000000000       0.81250000000000000        0.0000000000000000     
  0.62500000000000000       0.81250000000000000        0.0000000000000000     
  0.50000000000000000       0.84375000000000000        0.0000000000000000     
  0.53125000000000000       0.84375000000000000        0.0000000000000000     
  0.56250000000000000       0.84375000000000000        0.0000000000000000     
  0.59375000000000000       0.84375000000000000        0.0000000000000000     
  0.62500000000000000       0.84375000000000000        0.0000000000000000     
  0.50000000000000000       0.87500000000000000        0.0000000000000000     
  0.53125000000000000       0.87500000000000000        0.0000000000000000     
  0.56250000000000000       0.87500000000000000        0.0000000000000000     
  0.59375000000000000       0.87500000000000000        0.0000000000000000     
  0.62500000000000000       0.87500000000000000        0.0000000000000000     
  0.62500000000000000       0.75000000000000000        0.0000000000000000     
  0.65625000000000000       0.75000000000000000        0.0000000000000000     
  0.68750000000000000       0.75000000000000000        0.0000000000000000     
  0.71875000000000000       0.75000000000000000        0.0000000000000000     
  0.75000000000000000       0.75000000000000000        0.0000000000000000     
  0.62500000000000000       0.78125000000000000        0.0000000000000000     
  0.65625000000000000       0.78125000000000000        0.0000000000000000     
  0.68750000000000000       0.78125000000000000        0.0000000000000000     
  0.71875000000000000       0.78125000000000000        0.0000000000000000     
  0.75000000000000000       0.78125000000000000        0.0000000000000000     
  0.62500000000000000       0.81250000000000000        0.0000000000000000     
  0.65625000000000000       0.81250000000000000        0.0000000000000000     
  0.68750000000000000       0.81250000000000000        0.0000000000000000     
  0.71875000000000000       0.81250000000000000        0.0000000000000000     
  0.75000000000000000       0.81250000000000000        0.0000000000000000     
  0.62500000000000000       0.84375000000000000        0.0000000000000000     
  0.65625000000000000       0.84375000000000000        0.0000000000000000     
  0.68750000000000000       0.84375000000000000        0.0000000000000000     
  0.71875000000000000       0.84375000000000000        0.0000000000000000     
  0.75000000000000000       0.84375000000000000        0.0000000000000000     
  0.62500000000000000       0.87500000000000000        0.0000000000000000     
  0.65625000000000000       0.87500000000000000        0.0000000000000000     
  0.68750000000000000       0.87500000000000000        0.0000000000000000     
  0.71875000000000000       0.87500000000000000        0.0000000000000000     
  0.75000000000000000       0.87500000000000000        0.0000000000000000     
  0.75000000000000000       0.75000000000000000        0.0000000000000000     
  0.78125000000000000       0.75000000000000000        0.0000000000000000     
  0.81250000000000000       0.75000000000000000        0.0000000000000000     
  0.84375000000000000       0.75000000000000000        0.0000000000000000     
  0.87500000000000000       0.75000000000000000        0.0000000000000000     
  0.75000000000000000       0.78125000000000000        0.0000000000000000     
  0.78125000000000000       0.78125000000000000        0.0000000000000000     
  0.81250000000000000       0.78125000000000000        0.0000000000000000     
  0.84375000000000000       0.78125000000000000        0.0000000000000000     
  0.87500000000000000       0.78125000000000000        0.0000000000000000     
  0.75000000000000000       0.81250000000000000        0.0000000000000000     
  0.78125000000000000       0.81250000000000000        0.0000000000000000     
  0.81250000000000000       0.81250000000000000        0.0000000000000000     
  0.84375000000000000       0.81250000000000000        0.0000000000000000     
  0.87500000000000000       0.81250000000000000        0.0000000000000000     
  0.75000000000000000       0.84375000000000000        0.0000000000000000     
  0.78125000000000000       0.84375000000000000        0.0000000000000000     
  0.81250000000000000       0.84375000000000000        0.0000000000000000     
  0.84375000000000000       0.84375000000000000        0.0000000000000000     
  0.87500000000000000       0.84375000000000000        0.0000000000000000     
  0.75000000000000000       0.87500000000000000        0.0000000000000000     
  0.78125000000000000       0.87500000000000000        0.0000000000000000     
  0.81250000000000000       0.87500000000000000        0.0000000000000000     
  0.84375000000000000       0.87500000000000000        0.0000000000000000     
  0.87500000000000000       0.87500000000000000        0.0000000000000000     
  0.87500000000000000       0.75000000000000000        0.0000000000000000     
  0.90625000000000000       0.75000000000000000        0.0000000000000000     
  0.93750000000000000       0.75000000000000000        0.0000000000000000     
  0.96875000000000000       0.75000000000000000        0.0000000000000000     
   1.0000000000000000       0.75000000000000000        0.0000000000000000     
  0.87500000000000000       0.78125000000000000        0.0000000000000000     
  0.90625000000000000       0.78125000000000000        0.0000000000000000     
  0.93750000000000000       0.78125000000000000        0.0000000000000000     
  0.96875000000000000       0.78125000000000000        0.0000000000000000     
   1.0000000000000000       0.78125000000000000        0.0000000000000000     
  0.87500000000000000       0.81250000000000000        0.0000000000000000     
  0.90625000000000000       0.81250000000000000        0.0000000000000000     
  0.93750000000000000       0.81250000000000000        0.0000000000000000     
  0.96875000000000000       0.81250000000000000        0.0000000000000000     
   1.0000000000000000       0.81250000000000000        0.0000000000000000     
  0.87500000000000000       0.84375000000000000        0.0000000000000000     
  0.90625000000000000       0.84375000000000000        0.0000000000000000     
  0.93750000000000000       0.84375000000000000        0.0000000000000000     
  0.96875000000000000       0.84375000000000000        0.0000000000000000     
   1.0000000000000000       0.84375000000000000        0.0000000000000000     
  0.87500000000000000       0.87500000000000000        0.0000000000000000     
  0.90625000000000000       0.87500000000000000        0.0000000000000000     
  0.93750000000000000       0.87500000000000000        0.0000000000000000     
  0.96875000000000000       0.87500000000000000        0.0000000000000000     
   1.0000000000000000       0.87500000000000000        0.0000000000000000     
   1.0000000000000000       0.75000000000000000        0.0000000000000000     
   1.0312500000000000       0.75000000000000000        0.0000000000000000     
   1.0625000000000000       0.75000000000000000        0.0000000000000000     
   1.0937500000000000       0.75000000000000000        0.0000000000000000     
   1.1250000000000000       0.75000000000000000        0.0000000000000000     
   1.0000000000000000       0.78125000000000000        0.0000000000000000     
   1.0312500000000000       0.78125000000000000        0.0000000000000000     
   1.0625000000000000       0.78125000000000000        0.0000000000000000     
   1.0937500000000000       0.78125000000000000        0.0000000000000000     
   1.1250000000000000       0.78125000000000000        0.0000000000000000     
   1.0000000000000000       0.81250000000000000        0.0000000000000000     
   1.0312500000000000       0.81250000000000000        0.0000000000000000     
   1.0625000000000000       0.81250000000000000        0.0000000000000000     
   1.0937500000000000       0.81250000000000000        0.0000000000000000     
   1.1250000000000000       0.81250000000000000        0.0000000000000000     
   1.0000000000000000       0.84375000000000000        0.0000000000000000     
   1.0312500000000000       0.84375000000000000        0.0000000000000000     
   1.0625000000000000       0.84375000000000000        0.0000000000000000     
   1.0937500000000000       0.84375000000000000        0.0000000000000000     
   1.1250000000000000       0.84375000000000000        0.0000000000000000     
   1.0000000000000000       0.87500000000000000        0.0000000000000000     
   1.0312500000000000       0.87500000000000000        0.0000000000000000     
   1.0625000000000000       0.87500000000000000        0.0000000000000000     
   1.0937500000000000       0.87500000000000000        0.0000000000000000     
   1.1250000000000000       0.87500000000000000        0.0000000000000000     
   1.1250000000000000       0.75000000000000000        0.0000000000000000     
   1.1562500000000000       0.75000000000000000        0.0000000000000000     
   1.1875000000000000       0.75000000000000000        0.0000000000000000     
   1.2187500000000000       0.75000000000000000        0.0000000000000000     
   1.2500000000000000       0.75000000000000000        0.0000000000000000     
   1.1250000000000000       0.78125000000000000        0.0000000000000000     
   1.1562500000000000       0.78125000000000000        0.0000000000000000     
   1.1875000000000000       0.78125000000000000        0.0000000000000000     
   1.2187500000000000       0.78125000000000000        0.0000000000000000     
   1.2500000000000000       0.78125000000000000        0.0000000000000000     
   1.1250000000000000       0.81250000000000000        0.0000000000000000     
   1.1562500000000000       0.81250000000000000        0.0000000000000000     
   1.1875000000000000       0.81250000000000000        0.0000000000000000     
   1.2187500000000000       0.81250000000000000        0.0000000000000000     
   1.2500000000000000       0.81250000000000000        0.0000000000000000     
   1.1250000000000000       0.84375000000000000        0.0000000000000000     
   1.1562500000000000       0.84375000000000000        0.0000000000000000     
   1.1875000000000000       0.84375000000000000        0.0000000000000000     
   1.2187500000000000       0.84375000000000000        0.0000000000000000     
   1.2500000000000000       0.84375000000000000        0.0000000000000000     
   1.1250000000000000       0.87500000000000000        0.0000000000000000     
   1.1562500000000000       0.87500000000000000        0.0000000000000000     
   1.1875000000000000       0.87500000000000000        0.0000000000000000     
   1.2187500000000000       0.87500000000000000        0.0000000000000000     
   1.2500000000000000       0.87500000000000000        0.0000000000000000     
   1.2500000000000000       0.75000000000000000        0.0000000000000000     
   1.2812500000000000       0.75000000000000000        0.0000000000000000     
   1.3125000000000000       0.75000000000000000        0.0000000000000000     
   1.3437500000000000       0.75000000000000000        0.0000000000000000     
   1.3750000000000000       0.75000000000000000        0.0000000000000000     
   1.2500000000000000       0.78125000000000000        0.0000000000000000     
   1.2812500000000000       0.78125000000000000        0.0000000000000000     
   1.3125000000000000       0.78125000000000000        0.0000000000000000     
   1.3437500000000000       0.78125000000000000        0.0000000000000000     
   1.3750000000000000       0.78125000000000000        0.0000000000000000     
   1.2500000000000000       0.81250000000000000        0.0000000000000000     
   1.2812500000000000       0.81250000000000000        0.0000000000000000     
   1.3125000000000000       0.81250000000000000        0.0000000000000000     
   1.3437500000000000       0.81250000000000000        0.0000000000000000     
   1.3750000000000000       0.81250000000000000        0.0000000000000000     
   1.2500000000000000       0.84375000000000000        0.0000000000000000     
   1.2812500000000000       0.84375000000000000        0.0000000000000000     
   1.3125000000000000       0.84375000000000000        0.0000000000000000     
   1.3437500000000000       0.84375000000000000        0.0000000000000000     
   1.3750000000000000       0.84375000000000000        0.0000000000000000     
   1.2500000000000000       0.87500000000000000        0.0000000000000000     
   1.2812500000000000       0.87500000000000000        0.0000000000000000     
   1.3125000000000000       0.87500000000000000        0.0000000000000000     
   1.3437500000000000       0.87500000000000000        0.0000000000000000     
   1.3750000000000000       0.87500000000000000        0.0000000000000000     
   1.3750000000000000       0.75000000000000000        0.0000000000000000     
   1.4062500000000000       0.75000000000000000        0.0000000000000000     
   1.4375000000000000       0.75000000000000000        0.0000000000000000     
   1.4687500000000000       0.75000000000000000        0.0000000000000000     
   1.5000000000000000       0.75000000000000000        0.0000000000000000     
   1.3750000000000000       0.78125000000000000        0.0000000000000000     
   1.4062500000000000       0.78125000000000000        0.0000000000000000     
   1.4375000000000000       0.78125000000000000        0.0000000000000000     
   1.4687500000000000       0.78125000000000000        0.0000000000000000     
   1.5000000000000000       0.78125000000000000        0.0000000000000000     
   1.3750000000000000       0.81250000000000000        0.0000000000000000     
   1.4062500000000000       0.81250000000000000        0.0000000000000000     
   1.4375000000000000       0.81250000000000000        0.0000000000000000     
   1.4687500000000000       0.81250000000000000        0.0000000000000000     
   1.5000000000000000       0.81250000000000000        0.0000000000000000     
   1.3750000000000000       0.84375000000000000        0.0000000000000000     
   1.4062500000000000       0.84375000000000000        0.0000000000000000     
   1.4375000000000000       0.84375000000000000        0.0000000000000000     
   1.4687500000000000       0.84375000000000000        0.0000000000000000     
   1.5000000000000000       0.84375000000000000        0.0000000000000000     
   1.3750000000000000       0.87500000000000000        0.0000000000000000     
   1.4062500000000000       0.87500000000000000        0.0000000000000000     
   1.4375000000000000       0.87500000000000000        0.0000000000000000     
   1.4687500000000000       0.87500000000000000        0.0000000000000000     
   1.5000000000000000       0.87500000000000000        0.0000000000000000     
  0.50000000000000000       0.87500000000000000        0.0000000000000000     
  0.53125000000000000       0.87500000000000000        0.0000000000000000     
  0.56250000000000000       0.87500000000000000        0.0000000000000000     
  0.59375000000000000       0.87500000000000000        0.0000000000000000     
  0.62500000000000000       0.87500000000000000        0.0000000000000000     
  0.50000000000000000       0.90625000000000000        0.0000000000000000     
  0.53125000000000000       0.90625000000000000        0.0000000000000000     
  0.56250000000000000       0.90625000000000000        0.0000000000000000     
  0.59375000000000000       0.90625000000000000        0.0000000000000000     
  0.62500000000000000       0.90625000000000000        0.0000000000000000     
  0.50000000000000000       0.93750000000000000        0.0000000000000000     
  0.53125000000000000       0.93750000000000000        0.0000000000000000     
  0.56250000000000000       0.93750000000000000        0.0000000000000000     
  0.59375000000000000       0.93750000000000000        0.0000000000000000     
  0.62500000000000000       0.93750000000000000        0.0000000000000000     
  0.50000000000000000       0.96875000000000000        0.0000000000000000     
  0.53125000000000000       0.96875000000000000        0.0000000000000000     
  0.56250000000000000       0.96875000000000000        0.0000000000000000     
  0.59375000000000000       0.96875000000000000        0.0000000000000000     
  0.62500000000000000       0.96875000000000000        0.0000000000000000     
  0.50000000000000000        1.0000000000000000        0.0000000000000000     
  0.53125000000000000        1.0000000000000000        0.0000000000000000     
  0.56250000000000000        1.0000000000000000        0.0000000000000000     
  0.59375000000000000        1.0000000000000000        0.0000000000000000     
  0.62500000000000000        1.0000000000000000        0.0000000000000000     
  0.62500000000000000       0.87500000000000000        0.0000000000000000     
  0.65625000000000000       0.87500000000000000        0.0000000000000000     
  0.68750000000000000       0.87500000000000000        0.0000000000000000     
  0.71875000000000000       0.87500000000000000        0.0000000000000000     
  0.75000000000000000       0.87500000000000000        0.0000000000000000     
  0.62500000000000000       0.90625000000000000        0.0000000000000000     
  0.65625000000000000       0.90625000000000000        0.0000000000000000     
  0.68750000000000000       0.90625000000000000        0.0000000000000000     
  0.71875000000000000       0.90625000000000000        0.0000000000000000     
  0.75000000000000000       0.90625000000000000        0.0000000000000000     
  0.62500000000000000       0.93750000000000000        0.0000000000000000     
  0.65625000000000000       0.93750000000000000        0.0000000000000000     
  0.68750000000000000       0.93750000000000000        0.0000000000000000     
  0.71875000000000000       0.93750000000000000        0.0000000000000000     
  0.75000000000000000       0.93750000000000000        0.0000000000000000     
  0.62500000000000000       0.96875000000000000        0.0000000000000000     
  0.65625000000000000       0.96875000000000000        0.0000000000000000     
  0.68750000000000000       0.96875000000000000        0.0000000000000000     
  0.71875000000000000       0.96875000000000000        0.0000000000000000     
  0.75000000000000000       0.96875000000000000        0.0000000000000000     
  0.62500000000000000        1.0000000000000000        0.0000000000000000     
  0.65625000000000000        1.0000000000000000        0.0000000000000000     
  0.68750000000000000        1.0000000000000000        0.0000000000000000     
  0.71875000000000000        1.0000000000000000        0.0000000000000000     
  0.75000000000000000        1.0000000000000000        0.0000000000000000     
  0.75000000000000000       0.87500000000000000        0.0000000000000000     
  0.78125000000000000       0.87500000000000000        0.0000000000000000     
  0.81250000000000000       0.87500000000000000        0.0000000000000000     
  0.84375000000000000       0.87500000000000000        0.0000000000000000     
  0.87500000000000000       0.87500000000000000        0.0000000000000000     
  0.75000000000000000       0.90625000000000000        0.0000000000000000     
  0.78125000000000000       0.90625000000000000        0.0000000000000000     
  0.81250000000000000       0.90625000000000000        0.0000000000000000     
  0.84375000000000000       0.90625000000000000        0.0000000000000000     
  0.87500000000000000       0.90625000000000000        0.0000000000000000     
  0.75000000000000000       0.93750000000000000        0.0000000000000000     
  0.78125000000000000       0.93750000000000000        0.0000000000000000     
  0.81250000000000000       0.93750000000000000        0.0000000000000000     
  0.84375000000000000       0.93750000000000000        0.0000000000000000     
  0.87500000000000000       0.93750000000000000        0.0000000000000000     
  0.75000000000000000       0.96875000000000000        0.0000000000000000     
  0.78125000000000000       0.96875000000000000        0.0000000000000000     
  0.81250000000000000       0.96875000000000000        0.0000000000000000     
  0.84375000000000000       0.96875000000000000        0.0000000000000000     
  0.87500000000000000       0.96875000000000000        0.0000000000000000     
  0.75000000000000000        1.0000000000000000        0.0000000000000000     
  0.78125000000000000        1.0000000000000000        0.0000000000000000     
  0.81250000000000000        1.0000000000000000        0.0000000000000000     
  0.84375000000000000        1.0000000000000000        0.0000000000000000     
  0.87500000000000000        1.0000000000000000        0.0000000000000000     
  0.87500000000000000       0.87500000000000000        0.0000000000000000     
  0.90625000000000000       0.87500000000000000        0.0000000000000000     
  0.93750000000000000       0.87500000000000000        0.0000000000000000     
  0.96875000000000000       0.87500000000000000        0.0000000000000000     
   1.0000000000000000       0.87500000000000000        0.0000000000000000     
  0.87500000000000000       0.90625000000000000        0.0000000000000000     
  0.90625000000000000       0.90625000000000000        0.0000000000000000     
  0.93750000000000000       0.90625000000000000        0.0000000000000000     
  0.96875000000000000       0.90625000000000000        0.0000000000000000     
   1.0000000000000000       0.90625000000000000        0.0000000000000000     
  0.87500000000000000       0.93750000000000000        0.0000000000000000     
  0.90625000000000000       0.93750000000000000        0.0000000000000000     
  0.93750000000000000       0.93750000000000000        0.0000000000000000     
  0.96875000000000000       0.93750000000000000        0.0000000000000000     
   1.0000000000000000       0.93750000000000000        0.0000000000000000     
  0.87500000000000000       0.96875000000000000        0.0000000000000000     
  0.90625000000000000       0.96875000000000000        0.0000000000000000     
  0.93750000000000000       0.96875000000000000        0.0000000000000000     
  0.96875000000000000       0.96875000000000000        0.0000000000000000     
   1.0000000000000000       0.96875000000000000        0.0000000000000000     
  0.87500000000000000        1.0000000000000000        0.0000000000000000     
  0.90625000000000000        1.0000000000000000        0.0000000000000000     
  0.93750000000000000        1.0000000000000000        0.0000000000000000     
  0.96875000000000000        1.0000000000000000        0.0000000000000000     
   1.0000000000000000        1.0000000000000000        0.0000000000000000     
   1.0000000000000000       0.87500000000000000        0.0000000000000000     
   1.0312500000000000       0.87500000000000000        0.0000000000000000     
   1.0625000000000000       0.87500000000000000        0.0000000000000000     
   1.0937500000000000       0.87500000000000000        0.0000000000000000     
   1.1250000000000000       0.87500000000000000        0.0000000000000000     
   1.0000000000000000       0.90625000000000000        0.0000000000000000     
   1.0312500000000000       0.90625000000000000        0.0000000000000000     
   1.0625000000000000       0.90625000000000000        0.0000000000000000     
   1.0937500000000000       0.90625000000000000        0.0000000000000000     
   1.1250000000000000       0.90625000000000000        0.0000000000000000     
   1.0000000000000000       0.93750000000000000        0.0000000000000000     
   1.0312500000000000       0.93750000000000000        0.0000000000000000     
   1.0625000000000000       0.93750000000000000        0.0000000000000000     
   1.0937500000000000       0.93750000000000000        0.0000000000000000     
   1.1250000000000000       0.93750000000000000        0.0000000000000000     
   1.0000000000000000       0.96875000000000000        0.0000000000000000     
   1.0312500000000000       0.96875000000000000        0.0000000000000000     
   1.0625000000000000       0.96875000000000000        0.0000000000000000     
   1.0937500000000000       0.96875000000000000        0.0000000000000000     
   1.1250000000000000       0.96875000000000000        0.0000000000000000     
   1.0000000000000000        1.0000000000000000        0.0000000000000000     
   1.0312500000000000        1.0000000000000000        0.0000000000000000     
   1.0625000000000000        1.0000000000000000        0.0000000000000000     
   1.0937500000000000        1.0000000000000000        0.0000000000000000     
   1.1250000000000000        1.0000000000000000        0.0000000000000000     
   1.1250000000000000       0.87500000000000000        0.0000000000000000     
   1.1562500000000000       0.87500000000000000        0.0000000000000000     
   1.1875000000000000       0.87500000000000000        0.0000000000000000     
   1.2187500000000000       0.87500000000000000        0.0000000000000000     
   1.2500000000000000       0.87500000000000000        0.0000000000000000     
   1.1250000000000000       0.90625000000000000        0.0000000000000000     
   1.1562500000000000       0.90625000000000000        0.0000000000000000     
   1.1875000000000000       0.90625000000000000        0.0000000000000000     
   1.2187500000000000       0.90625000000000000        0.0000000000000000     
   1.2500000000000000       0.90625000000000000        0.0000000000000000     
   1.1250000000000000       0.93750000000000000        0.0000000000000000     
   1.1562500000000000       0.93750000000000000        0.0000000000000000     
   1.1875000000000000       0.93750000000000000        0.0000000000000000     
   1.2187500000000000       0.93750000000000000        0.0000000000000000     
   1.2500000000000000       0.93750000000000000        0.0000000000000000     
   1.1250000000000000       0.96875000000000000        0.0000000000000000     
   1.1562500000000000       0.96875000000000000        0.0000000000000000     
   1.1875000000000000       0.96875000000000000        0.0000000000000000     
   1.2187500000000000       0.96875000000000000        0.0000000000000000     
   1.2500000000000000       0.96875000000000000        0.0000000000000000     
   1.1250000000000000        1.0000000000000000        0.0000000000000000     
   1.1562500000000000        1.0000000000000000        0.0000000000000000     
   1.1875000000000000        1.0000000000000000        0.0000000000000000     
   1.2187500000000000        1.0000000000000000        0.0000000000000000     
   1.2500000000000000        1.0000000000000000        0.0000000000000000     
   1.2500000000000000       0.87500000000000000        0.0000000000000000     
   1.2812500000000000       0.87500000000000000        0.0000000000000000     
   1.3125000000000000       0.87500000000000000        0.0000000000000000     
   1.3437500000000000       0.87500000000000000        0.0000000000000000     
   1.3750000000000000       0.87500000000000000        0.0000000000000000     
   1.2500000000000000       0.90625000000000000        0.0000000000000000     
   1.2812500000000000       0.90625000000000000        0.0000000000000000     
   1.3125000000000000       0.90625000000000000        0.0000000000000000     
   1.3437500000000000       0.90625000000000000        0.0000000000000000     
   1.3750000000000000       0.90625000000000000        0.0000000000000000     
   1.2500000000000000       0.93750000000000000        0.0000000000000000     
   1.2812500000000000       0.93750000000000000        0.0000000000000000     
   1.3125000000000000       0.93750000000000000        0.0000000000000000     
   1.3437500000000000       0.93750000000000000        0.0000000000000000     
   1.3750000000000000       0.93750000000000000        0.0000000000000000     
   1.2500000000000000       0.96875000000000000        0.0000000000000000     
   1.2812500000000000       0.96875000000000000        0.0000000000000000     
   1.3125000000000000       0.96875000000000000        0.0000000000000000     
   1.3437500000000000       0.96875000000000000        0.0000000000000000     
   1.3750000000000000       0.96875000000000000        0.0000000000000000     
   1.2500000000000000        1.0000000000000000        0.0000000000000000     
   1.2812500000000000        1.0000000000000000        0.0000000000000000     
   1.3125000000000000        1.0000000000000000        0.0000000000000000     
   1.3437500000000000        1.0000000000000000        0.0000000000000000     
   1.3750000000000000        1.0000000000000000        0.0000000000000000     
   1.3750000000000000       0.87500000000000000        0.0000000000000000     
   1.4062500000000000       0.87500000000000000        0.0000000000000000     
   1.4375000000000000       0.87500000000000000        0.0000000000000000     
   1.4687500000000000       0.87500000000000000        0.0000000000000000     
   1.5000000000000000       0.87500000000000000        0.0000000000000000     
   1.3750000000000000       0.90625000000000000        0.0000000000000000     
   1.4062500000000000       0.90625000000000000        0.0000000000000000     
   1.4375000000000000       0.90625000000000000        0.0000000000000000     
   1.4687500000000000       0.90625000000000000        0.0000000000000000     
   1.5000000000000000       0.90625000000000000        0.0000000000000000     
   1.3750000000000000       0.93750000000000000        0.0000000000000000     
   1.4062500000000000       0.93750000000000000        0.0000000000000000     
   1.4375000000000000       0.93750000000000000        0.0000000000000000     
   1.4687500000000000       0.93750000000000000        0.0000000000000000     
   1.5000000000000000       0.93750000000000000        0.0000000000000000     
   1.3750000000000000       0.96875000000000000        0.0000000000000000     
   1.4062500000000000       0.96875000000000000        0.0000000000000000     
   1.4375000000000000       0.96875000000000000        0.0000000000000000     
   1.4687500000000000       0.96875000000000000        0.0000000000000000     
   1.5000000000000000       0.96875000000000000        0.0000000000000000     
   1.3750000000000000        1.0000000000000000        0.0000000000000000     
   1.4062500000000000        1.0000000000000000        0.0000000000000000     
   1.4375000000000000        1.0000000000000000        0.0000000000000000     
   1.4687500000000000        1.0000000000000000        0.0000000000000000     
   1.5000000000000000        1.0000000000000000        0.0000000000000000     
 </DataArray>
 </Points>
 <Cells>
 <DataArray  type="Int32"  Name="connectivity"  format="ascii">
           0           1           6           5
           1           2           7           6
           2           3           8           7
           3           4           9           8
           5           6          11          10
           6           7          12          11
           7           8          13          12
           8           9          14          13
          10          11          16          15
          11          12          17          16
          12          13          18          17
          13          14          19          18
          15          16          21          20
          16          17          22          21
          17          18          23          22
          18          19          24          23
          25          26          31          30
          26          27          32          31
          27          28          33          32
          28          29          34          33
          30          31          36          35
          31          32          37          36
          32          33          38          37
          33          34          39          38
          35          36          41          40
          36          37          42          41
          37          38          43          42
          38          39          44          43
          40          41          46          45
          41          42          47          46
          42          43          48          47
          43          44          49          48
          50          51          56          55
          51          52          57          56
          52          53          58          57
          53          54          59          58
          55          56          61          60
          56          57          62          61
          57          58          63          62
          58          59          64          63
          60          61          66          65
          61          62          67          66
          62          63          68          67
          63          64          69          68
          65          66          71          70
          66          67          72          71
          67          68          73          72
          68          69          74          73
          75          76          81          80
          76          77          82          81
          77          78          83          82
          78          79          84          83
          80          81          86          85
          81          82          87          86
          82          83          88          87
          83          84          89          88
          85          86          91          90
          86          87          92          91
          87          88          93          92
          88          89          94          93
          90          91          96          95
          91          92          97          96
          92          93          98          97
          93          94          99          98
         100         101         106         105
         101         102         107         106
         102         103         108         107
         103         104         109         108
         105         106         111         110
         106         107         112         111
         107         108         113         112
         108         109         114         113
         110         111         116         115
         111         112         117         116
         112         113         118         117
         113         114         119         118
         115         116         121         120
         116         117         122         121
         117         118         123         122
         118         119         124         123
         125         126         131         130
         126         127         132         131
         127         128         133         132
         128         129         134         133
         130         131         136         135
         131         132         137         136
         132         133         138         137
         133         134         139         138
         135         136         141         140
         136         137         142         141
         137         138         143         142
         138         139         144         143
         140         141         146         145
         141         142         147         146
         142         143         148         147
         143         144         149         148
         150         151         156         155
         151         152         157         156
         152         153         158         157
         153         154         159         158
         155         156         161         160
         156         157         162         161
         157         158         163         162
         158         159         164         163
         160         161         166         165
         161         162         167         166
         162         163         168         167
         163         164         169         168
         165         166         171         170
         166         167         172         171
         167         168         173         172
         168         169         174         173
         175         176         181         180
         176         177         182         181
         177         178         183         182
         178         179         184         183
         180         181         186         185
         181         182         187         186
         182         183         188         187
         183         184         189         188
         185         186         191         190
         186         187         192         191
         187         188         193         192
         188         189         194         193
         190         191         196         195
         191         192         197         196
         192         193         198         197
         193         194         199         198
         200         201         206         205
         201         202         207         206
         202         203         208         207
         203         204         209         208
         205         206         211         210
         206         207         212         211
         207         208         213         212
         208         209         214         213
         210         211         216         215
         211         212         217         216
         212         213         218         217
         213         214         219         218
         215         216         221         220
         216         217         222         221
         217         218         223         222
         218         219         224         223
         225         226         231         230
         226         227         232         231
         227         228         233         232
         228         229         234         233
         230         231         236         235
         231         232         237         236
         232         233         238         237
         233         234         239         238
         235         236         241         240
         236         237         242         241
         237         238         243         242
         238         239         244         243
         240         241         246         245
         241         242         247         246
         242         243         248         247
         243         244         249         248
         250         251         256         255
         251         252         257         256
         252         253         258         257
         253         254         259         258
         255         256         261         260
         256         257         262         261
         257         258         263         262
         258         259         264         263
         260         261         266         265
         261         262         267         266
         262         263         268         267
         263         264         269         268
         265         266         271         270
         266         267         272         271
         267         268         273         272
         268         269         274         273
         275         276         281         280
         276         277         282         281
         277         278         283         282
         278         279         284         283
         280         281         286         285
         281         282         287         286
         282         283         288         287
         283         284         289         288
         285         286         291         290
         286         287         292         291
         287         288         293         292
         288         289         294         293
         290         291         296         295
         291         292         297         296
         292         293         298         297
         293         294         299         298
         300         301         306         305
         301         302         307         306
         302         303         308         307
         303         304         309         308
         305         306         311         310
         306         307         312         311
         307         308         313         312
         308         309         314         313
         310         311         316         315
         311         312         317         316
         312         313         318         317
         313         314         319         318
         315         316         321         320
         316         317         322         321
         317         318         323         322
         318         319         324         323
         325         326         331         330
         326         327         332         331
         327         328         333         332
         328         329         334         333
         330         331         336         335
         331         332         337         336
         332         333         338         337
         333         334         339         338
         335         336         341         340
         336         337         342         341
         337         338         343         342
         338         339         344         343
         340         341         346         345
         341         342         347         346
         342         343         348         347
         343         344         349         348
         350         351         356         355
         351         352         357         356
         352         353         358         357
         353         354         359         358
         355         356         361         360
         356         357         362         361
         357         358         363         362
         358         359         364         363
         360         361         366         365
         361         362         367         366
         362         363         368         367
         363         364         369         368
         365         366         371         370
         366         367         372         371
         367         368         373         372
         368         369         374         373
         375         376         381         380
         376         377         382         381
         377         378         383         382
         378         379         384         383
         380         381         386         385
         381         382         387         386
         382         383         388         387
         383         384         389         388
         385         386         391         390
         386         387         392         391
         387         388         393         392
         388         389         394         393
         390         391         396         395
         391         392         397         396
         392         393         398         397
         393         394         399         398
         400         401         406         405
         401         402         407         406
         402         403         408         407
         403         404         409         408
         405         406         411         410
         406         407         412         411
         407         408         413         412
         408         409         414         413
         410         411         416         415
         411         412         417         416
         412         413         418         417
         413         414         419         418
         415         416         421         420
         416         417         422         421
         417         418         423         422
         418         419         424         423
         425         426         431         430
         426         427         432         431
         427         428         433         432
         428         429         434         433
         430         431         436         435
         431         432         437         436
         432         433         438         437
         433         434         439         438
         435         436         441         440
         436         437         442         441
         437         438         443         442
         438         439         444         443
         440         441         446         445
         441         442         447         446
         442         443         448         447
         443         444         449         448
         450         451         456         455
         451         452         457         456
         452         453         458         457
         453         454         459         458
         455         456         461         460
         456         457         462         461
         457         458         463         462
         458         459         464         463
         460         461         466         465
         461         462         467         466
         462         463         468         467
         463         464         469         468
         465         466         471         470
         466         467         472         471
         467         468         473         472
         468         469         474         473
         475         476         481         480
         476         477         482         481
         477         478         483         482
         478         479         484         483
         480         481         486         485
         481         482         487         486
         482         483         488         487
         483         484         489         488
         485         486         491         490
         486         487         492         491
         487         488         493         492
         488         489         494         493
         490         491         496         495
         491         492         497         496
         492         493         498         497
         493         494         499         498
         500         501         506         505
         501         502         507         506
         502         503         508         507
         503         504         509         508
         505         506         511         510
         506         507         512         511
         507         508         513         512
         508         509         514         513
         510         511         516         515
         511         512         517         516
         512         513         518         517
         513         514         519         518
         515         516         521         520
         516         517         522         521
         517         518         523         522
         518         519         524         523
         525         526         531         530
         526         527         532         531
         527         528         533         532
         528         529         534         533
         530         531         536         535
         531         532         537         536
         532         533         538         537
         533         534         539         538
         535         536         541         540
         536         537         542         541
         537         538         543         542
         538         539         544         543
         540         541         546         545
         541         542         547         546
         542         543         548         547
         543         544         549         548
         550         551         556         555
         551         552         557         556
         552         553         558         557
         553         554         559         558
         555         556         561         560
         556         557         562         561
         557         558         563         562
         558         559         564         563
         560         561         566         565
         561         562         567         566
         562         563         568         567
         563         564         569         568
         565         566         571         570
         566         567         572         571
         567         568         573         572
         568         569         574         573
         575         576         581         580
         576         577         582         581
         577         578         583         582
         578         579         584         583
         580         581         586         585
         581         582         587         586
         582         583         588         587
         583         584         589         588
         585         586         591         590
         586         587         592         591
         587         588         593         592
         588         589         594         593
         590         591         596         595
         591         592         597         596
         592         593         598         597
         593         594         599         598
         600         601         606         605
         601         602         607         606
         602         603         608         607
         603         604         609         608
         605         606         611         610
         606         607         612         611
         607         608         613         612
         608         609         614         613
         610         611         616         615
         611         612         617         616
         612         613         618         617
         613         614         619         618
         615         616         621         620
         616         617         622         621
         617         618         623         622
         618         619         624         623
         625         626         631         630
         626         627         632         631
         627         628         633         632
         628         629         634         633
         630         631         636         635
         631         632         637         636
         632         633         638         637
         633         634         639         638
         635         636         641         640
         636         637         642         641
         637         638         643         642
         638         639         644         643
         640         641         646         645
         641         642         647         646
         642         643         648         647
         643         644         649         648
         650         651         656         655
         651         652         657         656
         652         653         658         657
         653         654         659         658
         655         656         661         660
         656         657         662         661
         657         658         663         662
         658         659         664         663
         660         661         666         665
         661         662         667         666
         662         663         668         667
         663         664         669         668
         665         666         671         670
         666         667         672         671
         667         668         673         672
         668         669         674         673
         675         676         681         680
         676         677         682         681
         677         678         683         682
         678         679         684         683
         680         681         686         685
         681         682         687         686
         682         683         688         687
         683         684         689         688
         685         686         691         690
         686         687         692         691
         687         688         693         692
         688         689         694         693
         690         691         696         695
         691         692         697         696
         692         693         698         697
         693         694         699         698
         700         701         706         705
         701         702         707         706
         702         703         708         707
         703         704         709         708
         705         706         711         710
         706         707         712         711
         707         708         713         712
         708         709         714         713
         710         711         716         715
         711         712         717         716
         712         713         718         717
         713         714         719         718
         715         716         721         720
         716         717         722         721
         717         718         723         722
         718         719         724         723
         725         726         731         730
         726         727         732         731
         727         728         733         732
         728         729         734         733
         730         731         736         735
         731         732         737         736
         732         733         738         737
         733         734         739         738
         735         736         741         740
         736         737         742         741
         737         738         743         742
         738         739         744         743
         740         741         746         745
         741         742         747         746
         742         743         748         747
         743         744         749         748
         750         751         756         755
         751         752         757         756
         752         753         758         757
         753         754         759         758
         755         756         761         760
         756         757         762         761
         757         758         763         762
         758         759         764         763
         760         761         766         765
         761         762         767         766
         762         763         768         767
         763         764         769         768
         765         766         771         770
         766         767         772         771
         767         768         773         772
         768         769         774         773
         775         776         781         780
         776         777         782         781
         777         778         783         782
         778         779         784         783
         780         781         786         785
         781         782         787         786
         782         783         788         787
         783         784         789         788
         785         786         791         790
         786         787         792         791
         787         788         793         792
         788         789         794         793
         790         791         796         795
         791         792         797         796
         792         793         798         797
         793         794         799         798
         800         801         806         805
         801         802         807         806
         802         803         808         807
         803         804         809         808
         805         806         811         810
         806         807         812         811
         807         808         813         812
         808         809         814         813
         810         811         816         815
         811         812         817         816
         812         813         818         817
         813         814         819         818
         815         816         821         820
         816         817         822         821
         817         818         823         822
         818         819         824         823
         825         826         831         830
         826         827         832         831
         827         828         833         832
         828         829         834         833
         830         831         836         835
         831         832         837         836
         832         833         838         837
         833         834         839         838
         835         836         841         840
         836         837         842         841
         837         838         843         842
         838         839         844         843
         840         841         846         845
         841         842         847         846
         842         843         848         847
         843         844         849         848
         850         851         856         855
         851         852         857         856
         852         853         858         857
         853         854         859         858
         855         856         861         860
         856         857         862         861
         857         858         863         862
         858         859         864         863
         860         861         866         865
         861         862         867         866
         862         863         868         867
         863         864         869         868
         865         866         871         870
         866         867         872         871
         867         868         873         872
         868         869         874         873
         875         876         881         880
         876         877         882         881
         877         878         883         882
         878         879         884         883
         880         881         886         885
         881         882         887         886
         882         883         888         887
         883         884         889         888
         885         886         891         890
         886         887         892         891
         887         888         893         892
         888         889         894         893
         890         891         896         895
         891         892         897         896
         892         893         898         897
         893         894         899         898
         900         901         906         905
         901         902         907         906
         902         903         908         907
         903         904         909         908
         905         906         911         910
         906         907         912         911
         907         908         913         912
         908         909         914         913
         910         911         916         915
         911         912         917         916
         912         913         918         917
         913         914         919         918
         915         916         921         920
         916         917         922         921
         917         918         923         922
         918         919         924         923
         925         926         931         930
         926         927         932         931
         927         928         933         932
         928         929         934         933
         930         931         936         935
         931         932         937         936
         932         933         938         937
         933         934         939         938
         935         936         941         940
         936         937         942         941
         937         938         943         942
         938         939         944         943
         940         941         946         945
         941         942         947         946
         942         943         948         947
         943         944         949         948
         950         951         956         955
         951         952         957         956
         952         953         958         957
         953         954         959         958
         955         956         961         960
         956         957         962         961
         957         958         963         962
         958         959         964         963
         960         961         966         965
         961         962         967         966
         962         963         968         967
         963         964         969         968
         965         966         971         970
         966         967         972         971
         967         968         973         972
         968         969         974         973
         975         976         981         980
         976         977         982         981
         977         978         983         982
         978         979         984         983
         980         981         986         985
         981         982         987         986
         982         983         988         987
         983         984         989         988
         985         986         991         990
         986         987         992         991
         987         988         993         992
         988         989         994         993
         990         991         996         995
         991         992         997         996
         992         993         998         997
         993         994         999         998
        1000        1001        1006        1005
        1001        1002        1007        1006
        1002        1003        1008        1007
        1003        1004        1009        1008
        1005        1006        1011        1010
        1006        1007        1012        1011
        1007        1008        1013        1012
        1008        1009        1014        1013
        1010        1011        1016        1015
        1011        1012        1017        1016
        1012        1013        1018        1017
        1013        1014        1019        1018
        1015        1016        1021        1020
        1016        1017        1022        1021
        1017        1018        1023        1022
        1018        1019        1024        1023
        1025        1026        1031        1030
        1026        1027        1032        1031
        1027        1028        1033        1032
        1028        1029        1034        1033
        1030        1031        1036        1035
        1031        1032        1037        1036
        1032        1033        1038        1037
        1033        1034        1039        1038
        1035        1036        1041        1040
        1036        1037        1042        1041
        1037        1038        1043        1042
        1038        1039        1044        1043
        1040        1041        1046        1045
        1041        1042        1047        1046
        1042        1043        1048        1047
        1043        1044        1049        1048
        1050        1051        1056        1055
        1051        1052        1057        1056
        1052        1053        1058        1057
        1053        1054        1059        1058
        1055        1056        1061        1060
        1056        1057        1062        1061
        1057        1058        1063        1062
        1058        1059        1064        1063
        1060        1061        1066        1065
        1061        1062        1067        1066
        1062        1063        1068        1067
        1063        1064        1069        1068
        1065        1066        1071        1070
        1066        1067        1072        1071
        1067        1068        1073        1072
        1068        1069        1074        1073
        1075        1076        1081        1080
        1076        1077        1082        1081
        1077        1078        1083        1082
        1078        1079        1084        1083
        1080        1081        1086        1085
        1081        1082        1087        1086
        1082        1083        1088        1087
        1083        1084        1089        1088
        1085        1086        1091        1090
        1086        1087        1092        1091
        1087        1088        1093        1092
        1088        1089        1094        1093
        1090        1091        1096        1095
        1091        1092        1097        1096
        1092        1093        1098        1097
        1093        1094        1099        1098
        1100        1101        1106        1105
        1101        1102        1107        1106
        1102        1103        1108        1107
        1103        1104        1109        1108
        1105        1106        1111        1110
        1106        1107        1112        1111
        1107        1108        1113        1112
        1108        1109        1114        1113
        1110        1111        1116        1115
        1111        1112        1117        1116
        1112        1113        1118        1117
        1113        1114        1119        1118
        1115        1116        1121        1120
        1116        1117        1122        1121
        1117        1118        1123        1122
        1118        1119        1124        1123
        1125        1126        1131        1130
        1126        1127        1132        1131
        1127        1128        1133        1132
        1128        1129        1134        1133
        1130        1131        1136        1135
        1131        1132        1137        1136
        1132        1133        1138        1137
        1133        1134        1139        1138
        1135        1136        1141        1140
        1136        1137        1142        1141
        1137        1138        1143        1142
        1138        1139        1144        1143
        1140        1141        1146        1145
        1141        1142        1147        1146
        1142        1143        1148        1147
        1143        1144        1149        1148
        1150        1151        1156        1155
        1151        1152        1157        1156
        1152        1153        1158        1157
        1153        1154        1159        1158
        1155        1156        1161        1160
        1156        1157        1162        1161
        1157        1158        1163        1162
        1158        1159        1164        1163
        1160        1161        1166        1165
        1161        1162        1167        1166
        1162        1163        1168        1167
        1163        1164        1169        1168
        1165        1166        1171        1170
        1166        1167        1172        1171
        1167        1168        1173        1172
        1168        1169        1174        1173
        1175        1176        1181        1180
        1176        1177        1182        1181
        1177        1178        1183        1182
        1178        1179        1184        1183
        1180        1181        1186        1185
        1181        1182        1187        1186
        1182        1183        1188        1187
        1183        1184        1189        1188
        1185        1186        1191        1190
        1186        1187        1192        1191
        1187        1188        1193        1192
        1188        1189        1194        1193
        1190        1191        1196        1195
        1191        1192        1197        1196
        1192        1193        1198        1197
        1193        1194        1199        1198
        1200        1201        1206        1205
        1201        1202        1207        1206
        1202        1203        1208        1207
        1203        1204        1209        1208
        1205        1206        1211        1210
        1206        1207        1212        1211
        1207        1208        1213        1212
        1208        1209        1214        1213
        1210        1211        1216        1215
        1211        1212        1217        1216
        1212        1213        1218        1217
        1213        1214        1219        1218
        1215        1216        1221        1220
        1216        1217        1222        1221
        1217        1218        1223        1222
        1218        1219        1224        1223
        1225        1226        1231        1230
        1226        1227        1232        1231
        1227        1228        1233        1232
        1228        1229        1234        1233
        1230        1231        1236        1235
        1231        1232        1237        1236
        1232        1233        1238        1237
        1233        1234        1239        1238
        1235        1236        1241        1240
        1236        1237        1242        1241
        1237        1238        1243        1242
        1238        1239        1244        1243
        1240        1241        1246        1245
        1241        1242        1247        1246
        1242        1243        1248        1247
        1243        1244        1249        1248
        1250        1251        1256        1255
        1251        1252        1257        1256
        1252        1253        1258        1257
        1253        1254        1259        1258
        1255        1256        1261        1260
        1256        1257        1262        1261
        1257        1258        1263        1262
        1258        1259        1264        1263
        1260        1261        1266        1265
        1261        1262        1267        1266
        1262        1263        1268        1267
        1263        1264        1269        1268
        1265        1266        1271        1270
        1266        1267        1272        1271
        1267        1268        1273        1272
        1268        1269        1274        1273
        1275        1276        1281        1280
        1276        1277        1282        1281
        1277        1278        1283        1282
        1278        1279        1284        1283
        1280        1281        1286        1285
        1281        1282        1287        1286
        1282        1283        1288        1287
        1283        1284        1289        1288
        1285        1286        1291        1290
        1286        1287        1292        1291
        1287        1288        1293        1292
        1288        1289        1294        1293
        1290        1291        1296        1295
        1291        1292        1297        1296
        1292        1293        1298        1297
        1293        1294        1299        1298
        1300        1301        1306        1305
        1301        1302        1307        1306
        1302        1303        1308        1307
        1303        1304        1309        1308
        1305        1306        1311        1310
        1306        1307        1312        1311
        1307        1308        1313        1312
        1308        1309        1314        1313
        1310        1311        1316        1315
        1311        1312        1317        1316
        1312        1313        1318        1317
        1313        1314        1319        1318
        1315        1316        1321        1320
        1316        1317        1322        1321
        1317        1318        1323        1322
        1318        1319        1324        1323
        1325        1326        1331        1330
        1326        1327        1332        1331
        1327        1328        1333        1332
        1328        1329        1334        1333
        1330        1331        1336        1335
        1331        1332        1337        1336
        1332        1333        1338        1337
        1333        1334        1339        1338
        1335        1336        1341        1340
        1336        1337        1342        1341
        1337        1338        1343        1342
        1338        1339        1344        1343
        1340        1341        1346        1345
        1341        1342        1347        1346
        1342        1343        1348        1347
        1343        1344        1349        1348
        1350        1351        1356        1355
        1351        1352        1357        1356
        1352        1353        1358        1357
        1353        1354        1359        1358
        1355        1356        1361        1360
        1356        1357        1362        1361
        1357        1358        1363        1362
        1358        1359        1364        1363
        1360        1361        1366        1365
        1361        1362        1367        1366
        1362        1363        1368        1367
        1363        1364        1369        1368
        1365        1366        1371        1370
        1366        1367        1372        1371
        1367        1368        1373        1372
        1368        1369        1374        1373
        1375        1376        1381        1380
        1376        1377        1382        1381
        1377        1378        1383        1382
        1378        1379        1384        1383
        1380        1381        1386        1385
        1381        1382        1387        1386
        1382        1383        1388        1387
        1383        1384        1389        1388
        1385        1386        1391        1390
        1386        1387        1392        1391
        1387        1388        1393        1392
        1388        1389        1394        1393
        1390        1391        1396        1395
        1391        1392        1397        1396
        1392        1393        1398        1397
        1393        1394        1399        1398
        1400        1401        1406        1405
        1401        1402        1407        1406
        1402        1403        1408        1407
        1403        1404        1409        1408
        1405        1406        1411        1410
        1406        1407        1412        1411
        1407        1408        1413        1412
        1408        1409        1414        1413
        1410        1411        1416        1415
        1411        1412        1417        1416
        1412        1413        1418        1417
        1413        1414        1419        1418
        1415        1416        1421        1420
        1416        1417        1422        1421
        1417        1418        1423        1422
        1418        1419        1424        1423
        1425        1426        1431        1430
        1426        1427        1432        1431
        1427        1428        1433        1432
        1428        1429        1434        1433
        1430        1431        1436        1435
        1431        1432        1437        1436
        1432        1433        1438        1437
        1433        1434        1439        1438
        1435        1436        1441        1440
        1436        1437        1442        1441
        1437        1438        1443        1442
        1438        1439        1444        1443
        1440        1441        1446        1445
        1441        1442        1447        1446
        1442        1443        1448        1447
        1443        1444        1449        1448
        1450        1451        1456        1455
        1451        1452        1457        1456
        1452        1453        1458        1457
        1453        1454        1459        1458
        1455        1456        1461        1460
        1456        1457        1462        1461
        1457        1458        1463        1462
        1458        1459        1464        1463
        1460        1461        1466        1465
        1461        1462        1467        1466
        1462        1463        1468        1467
        1463        1464        1469        1468
        1465        1466        1471        1470
        1466        1467        1472        1471
        1467        1468        1473        1472
        1468        1469        1474        1473
        1475        1476        1481        1480
        1476        1477        1482        1481
        1477        1478        1483        1482
        1478        1479        1484        1483
        1480        1481        1486        1485
        1481        1482        1487        1486
        1482        1483        1488        1487
        1483        1484        1489        1488
        1485        1486        1491        1490
        1486        1487        1492        1491
        1487        1488        1493        1492
        1488        1489        1494        1493
        1490        1491        1496        1495
        1491        1492        1497        1496
        1492        1493        1498        1497
        1493        1494        1499        1498
        1500        1501        1506        1505
        1501        1502        1507        1506
        1502        1503        1508        1507
        1503        1504        1509        1508
        1505        1506        1511        1510
        1506        1507        1512        1511
        1507        1508        1513        1512
        1508        1509        1514        1513
        1510        1511        1516        1515
        1511        1512        1517        1516
        1512        1513        1518        1517
        1513        1514        1519        1518
        1515        1516        1521        1520
        1516        1517        1522        1521
        1517        1518        1523        1522
        1518        1519        1524        1523
        1525        1526        1531        1530
        1526        1527        1532        1531
        1527        1528        1533        1532
        1528        1529        1534        1533
        1530        1531        1536        1535
        1531        1532        1537        1536
        1532        1533        1538        1537
        1533        1534        1539        1538
        1535        1536        1541        1540
        1536        1537        1542        1541
        1537        1538        1543        1542
        1538        1539        1544        1543
        1540        1541        1546        1545
        1541        1542        1547        1546
        1542        1543        1548        1547
        1543        1544        1549        1548
        1550        1551        1556        1555
        1551        1552        1557        1556
        1552        1553        1558        1557
        1553        1554        1559        1558
        1555        1556        1561        1560
        1556        1557        1562        1561
        1557        1558        1563        1562
        1558        1559        1564        1563
        1560        1561        1566        1565
        1561        1562        1567        1566
        1562        1563        1568        1567
        1563        1564        1569        1568
        1565        1566        1571        1570
        1566        1567        1572        1571
        1567        1568        1573        1572
        1568        1569        1574        1573
        1575        1576        1581        1580
        1576        1577        1582        1581
        1577        1578        1583        1582
        1578        1579        1584        1583
        1580        1581        1586        1585
        1581        1582        1587        1586
        1582        1583        1588        1587
        1583        1584        1589        1588
        1585        1586        1591        1590
        1586        1587        1592        1591
        1587        1588        1593        1592
        1588        1589        1594        1593
        1590        1591        1596        1595
        1591        1592        1597        1596
        1592        1593        1598        1597
        1593        1594        1599        1598
 </DataArray>
 <DataArray  type="Int32"  Name="offsets"  format="ascii"> 
           4
           8
          12
          16
          20
          24
          28
          32
          36
          40
          44
          48
          52
          56
          60
          64
          68
          72
          76
          80
          84
          88
          92
          96
         100
         104
         108
         112
         116
         120
         124
         128
         132
         136
         140
         144
         148
         152
         156
         160
         164
         168
         172
         176
         180
         184
         188
         192
         196
         200
         204
         208
         212
         216
         220
         224
         228
         232
         236
         240
         244
         248
         252
         256
         260
         264
         268
         272
         276
         280
         284
         288
         292
         296
         300
         304
         308
         312
         316
         320
         324
         328
         332
         336
         340
         344
         348
         352
         356
         360
         364
         368
         372
         376
         380
         384
         388
         392
         396
         400
         404
         408
         412
         416
         420
         424
         428
         432
         436
         440
         444
         448
         452
         456
         460
         464
         468
         472
         476
         480
         484
         488
         492
         496
         500
         504
         508
         512
         516
         520
         524
         528
         532
         536
         540
         544
         548
         552
         556
         560
         564
         568
         572
         576
         580
         584
         588
         592
         596
         600
         604
         608
         612
         616
         620
         624
         628
         632
         636
         640
         644
         648
         652
         656
         660
         664
         668
         672
         676
         680
         684
         688
         692
         696
         700
         704
         708
         712
         716
         720
         724
         728
         732
         736
         740
         744
         748
         752
         756
         760
         764
         768
         772
         776
         780
         784
         788
         792
         796
         800
         804
         808
         812
         816
         820
         824
         828
         832
         836
         840
         844
         848
         852
         856
         860
         864
         868
         872
         876
         880
         884
         888
         892
         896
         900
         904
         908
         912
         916
         920
         924
         928
         932
         936
         940
         944
         948
         952
         956
         960
         964
         968
         972
         976
         980
         984
         988
         992
         996
        1000
        1004
        1008
        1012
        1016
        1020
        1024
        1028
        1032
        1036
        1040
        1044
        1048
        1052
        1056
        1060
        1064
        1068
        1072
        1076
        1080
        1084
        1088
        1092
        1096
        1100
        1104
        1108
        1112
        1116
        1120
        1124
        1128
        1132
        1136
        1140
        1144
        1148
        1152
        1156
        1160
        1164
        1168
        1172
        1176
        1180
        1184
        1188
        1192
        1196
        1200
        1204
        1208
        1212
        1216
        1220
        1224
        1228
        1232
        1236
        1240
        1244
        1248
        1252
        1256
        1260
        1264
        1268
        1272
        1276
        1280
        1284
        1288
        1292
        1296
        1300
        1304
        1308
        1312
        1316
        1320
        1324
        1328
        1332
        1336
        1340
        1344
        1348
        1352
        1356
        1360
        1364
        1368
        1372
        1376
        1380
        1384
        1388
        1392
        1396
        1400
        1404
        1408
        1412
        1416
        1420
        1424
        1428
        1432
        1436
        1440
        1444
        1448
        1452
        1456
        1460
        1464
        1468
        1472
        1476
        1480
        1484
        1488
        1492
        1496
        1500
        1504
        1508
        1512
        1516
        1520
        1524
        1528
        1532
        1536
        1540
        1544
        1548
        1552
        1556
        1560
        1564
        1568
        1572
        1576
        1580
        1584
        1588
        1592
        1596
        1600
        1604
        1608
        1612
        1616
        1620
        1624
        1628
        1632
        1636
        1640
        1644
        1648
        1652
        1656
        1660
        1664
        1668
        1672
        1676
        1680
        1684
        1688
        1692
        1696
        1700
        1704
        1708
        1712
        1716
        1720
        1724
        1728
        1732
        1736
        1740
        1744
        1748
        1752
        1756
        1760
        1764
        1768
        1772
        1776
        1780
        1784
        1788
        1792
        1796
        1800
        1804
        1808
        1812
        1816
        1820
        1824
        1828
        1832
        1836
        1840
        1844
        1848
        1852
        1856
        1860
        1864
        1868
        1872
        1876
        1880
        1884
        1888
        1892
        1896
        1900
        1904
        1908
        1912
        1916
        1920
        1924
        1928
        1932
        1936
        1940
        1944
        1948
        1952
        1956
        1960
        1964
        1968
        1972
        1976
        1980
        1984
        1988
        1992
        1996
        2000
        2004
        2008
        2012
        2016
        2020
        2024
        2028
        2032
        2036
        2040
        2044
        2048
        2052
        2056
        2060
        2064
        2068
        2072
        2076
        2080
        2084
        2088
        2092
        2096
        2100
        2104
        2108
        2112
        2116
        2120
        2124
        2128
        2132
        2136
        2140
        2144
        2148
        2152
        2156
        2160
        2164
        2168
        2172
        2176
        2180
        2184
        2188
        2192
        2196
        2200
        2204
        2208
        2212
        2216
        2220
        2224
        2228
        2232
        2236
        2240
        2244
        2248
        2252
        2256
        2260
        2264
        2268
        2272
        2276
        2280
        2284
        2288
        2292
        2296
        2300
        2304
        2308
        2312
        2316
        2320
        2324
        2328
        2332
        2336
        2340
        2344
        2348
        2352
        2356
        2360
        2364
        2368
        2372
        2376
        2380
        2384
        2388
        2392
        2396
        2400
        2404
        2408
        2412
        2416
        2420
        2424
        2428
        2432
        2436
        2440
        2444
        2448
        2452
        2456
        2460
        2464
        2468
        2472
        2476
        2480
        2484
        2488
        2492
        2496
        2500
        2504
        2508
        2512
        2516
        2520
        2524
        2528
        2532
        2536
        2540
        2544
        2548
        2552
        2556
        2560
        2564
        2568
        2572
        2576
        2580
        2584
        2588
        2592
        2596
        2600
        2604
        2608
        2612
        2616
        2620
        2624
        2628
        2632
        2636
        2640
        2644
        2648
        2652
        2656
        2660
        2664
        2668
        2672
        2676
        2680
        2684
        2688
        2692
        2696
        2700
        2704
        2708
        2712
        2716
        2720
        2724
        2728
        2732
        2736
        2740
        2744
        2748
        2752
        2756
        2760
        2764
        2768
        2772
        2776
        2780
        2784
        2788
        2792
        2796
        2800
        2804
        2808
        2812
        2816
        2820
        2824
        2828
        2832
        2836
        2840
        2844
        2848
        2852
        2856
        2860
        2864
        2868
        2872
        2876
        2880
        2884
        2888
        2892
        2896
        2900
        2904
        2908
        2912
        2916
        2920
        2924
        2928
        2932
        2936
        2940
        2944
        2948
        2952
        2956
        2960
        2964
        2968
        2972
        2976
        2980
        2984
        2988
        2992
        2996
        3000
        3004
        3008
        3012
        3016
        3020
        3024
        3028
        3032
        3036
        3040
        3044
        3048
        3052
        3056
        3060
        3064
        3068
        3072
        3076
        3080
        3084
        3088
        3092
        3096
        3100
        3104
        3108
        3112
        3116
        3120
        3124
        3128
        3132
        3136
        3140
        3144
        3148
        3152
        3156
        3160
        3164
        3168
        3172
        3176
        3180
        3184
        3188
        3192
        3196
        3200
        3204
        3208
        3212
        3216
        3220
        3224
        3228
        3232
        3236
        3240
        3244
        3248
        3252
        3256
        3260
        3264
        3268
        3272
        3276
        3280
        3284
        3288
        3292
        3296
        3300
        3304
        3308
        3312
        3316
        3320
        3324
        3328
        3332
        3336
        3340
        3344
        3348
        3352
        3356
        3360
        3364
        3368
        3372
        3376
        3380
        3384
        3388
        3392
        3396
        3400
        3404
        3408
        3412
        3416
        3420
        3424
        3428
        3432
        3436
        3440
        3444
        3448
        3452
        3456
        3460
        3464
        3468
        3472
        3476
        3480
        3484
        3488
        3492
        3496
        3500
        3504
        3508
        3512
        3516
        3520
        3524
        3528
        3532
        3536
        3540
        3544
        3548
        3552
        3556
        3560
        3564
        3568
        3572
        3576
        3580
        3584
        3588
        3592
        3596
        3600
        3604
        3608
        3612
        3616
        3620
        3624
        3628
        3632
        3636
        3640
        3644
        3648
        3652
        3656
        3660
        3664
        3668
        3672
        3676
        3680
        3684
        3688
        3692
        3696
        3700
        3704
        3708
        3712
        3716
        3720
        3724
        3728
        3732
        3736
        3740
        3744
        3748
        3752
        3756
        3760
        3764
        3768
        3772
        3776
        3780
        3784
        3788
        3792
        3796
        3800
        3804
        3808
        3812
        3816
        3820
        3824
        3828
        3832
        3836
        3840
        3844
        3848
        3852
        3856
        3860
        3864
        3868
        3872
        3876
        3880
        3884
        3888
        3892
        3896
        3900
        3904
        3908
        3912
        3916
        3920
        3924
        3928
        3932
        3936
        3940
        3944
        3948
        3952
        3956
        3960
        3964
        3968
        3972
        3976
        3980
        3984
        3988
        3992
        3996
        4000
        4004
        4008
        4012
        4016
        4020
        4024
        4028
        4032
        4036
        4040
        4044
        4048
        4052
        4056
        4060
        4064
        4068
        4072
        4076
        4080
        4084
        4088
        4092
        4096
 </DataArray>
 <DataArray  type="UInt8"  Name="types"  format="ascii">
 9
 9
 9
 9
 9
 9
 9
 9
 9
 9
 9
 9
 9
 9
 9
 9
 9
 9
 9
 9
 9
 9
 9
 9
 9
 9
 9
 9
 9
 9
 9
 9
 9
 9
 9
 9
 9
 9
 9
 9
 9
 9
 9
 9
 9
 9
 9
 9
 9
 9
 9
 9
 9
 9
 9
 9
 9
 9
 9
 9
 9
 9
 9
 9
 9
 9
 9
 9
 9
 9
 9
 9
 9
 9
 9
 9
 9
 9
 9
 9
 9
 9
 9
 9
 9
 9
 9
 9
 9
 9
 9
 9
 9
 9
 9
 9
 9
 9
 9
 9
 9
 9
 9
 9
 9
 9
 9
 9
 9
 9
 9
 9
 9
 9
 9
 9
 9
 9
 9
 9
 9
 9
 9
 9
 9
 9
 9
 9
 9
 9
 9
 9
 9
 9
 9
 9
 9
 9
 9
 9
 9
 9
 9
 9
 9
 9
 9
 9
 9
 9
 9
 9
 9
 9
 9
 9
 9
 9
 9
 9
 9
 9
 9
 9
 9
 9
 9
 9
 9
 9
 9
 9
 9
 9
 9
 9
 9
 9
 9
 9
 9
 9
 9
 9
 9
 9
 9
 9
 9
 9
 9
 9
 9
 9
 9
 9
 9
 9
 9
 9
 9
 9
 9
 9
 9
 9
 9
 9
 9
 9
 9
 9
 9
 9
 9
 9
 9
 9
 9
 9
 9
 9
 9
 9
 9
 9
 9
 9
 9
 9
 9
 9
 9
 9
 9
 9
 9
 9
 9
 9
 9
 9
 9
 9
 9
 9
 9
 9
 9
 9
 9
 9
 9
 9
 9
 9
 9
 9
 9
 9
 9
 9
 9
 9
 9
 9
 9
 9
 9
 9
 9
 9
 9
 9
 9
 9
 9
 9
 9
 9
 9
 9
 9
 9
 9
 9
 9
 9
 9
 9
 9
 9
 9
 9
 9
 9
 9
 9
 9
 9
 9
 9
 9
 9
 9
 9
 9
 9
 9
 9
 9
 9
 9
 9
 9
 9
 9
 9
 9
 9
 9
 9
 9
 9
 9
 9
 9
 9
 9
 9
 9
 9
 9
 9
 9
 9
 9
 9
 9
 9
 9
 9
 9
 9
 9
 9
 9
 9
 9
 9
 9
 9
 9
 9
 9
 9
 9
 9
 9
 9
 9
 9
 9
 9
 9
 9
 9
 9
 9
 9
 9
 9
 9
 9
 9
 9
 9
 9
 9
 9
 9
 9
 9
 9
 9
 9
 9
 9
 9
 9
 9
 9
 9
 9
 9
 9
 9
 9
 9
 9
 9
 9
 9
 9
 9
 9
 9
 9
 9
 9
 9
 9
 9
 9
 9
 9
 9
 9
 9
 9
 9
 9
 9
 9
 9
 9
 9
 9
 9
 9
 9
 9
 9
 9
 9
 9
 9
 9
 9
 9
 9
 9
 9
 9
 9
 9
 9
 9
 9
 9
 9
 9
 9
 9
 9
 9
 9
 9
 9
 9
 9
 9
 9
 9
 9
 9
 9
 9
 9
 9
 9
 9
 9
 9
 9
 9
 9
 9
 9
 9
 9
 9
 9
 9
 9
 9
 9
 9
 9
 9
 9
 9
 9
 9
 9
 9
 9
 9
 9
 9
 9
 9
 9
 9
 9
 9
 9
 9
 9
 9
 9
 9
 9
 9
 9
 9
 9
 9
 9
 9
 9
 9
 9
 9
 9
 9
 9
 9
 9
 9
 9
 9
 9
 9
 9
 9
 9
 9
 9
 9
 9
 9
 9
 9
 9
 9
 9
 9
 9
 9
 9
 9
 9
 9
 9
 9
 9
 9
 9
 9
 9
 9
 9
 9
 9
 9
 9
 9
 9
 9
 9
 9
 9
 9
 9
 9
 9
 9
 9
 9
 9
 9
 9
 9
 9
 9
 9
 9
 9
 9
 9
 9
 9
 9
 9
 9
 9
 9
 9
 9
 9
 9
 9
 9
 9
 9
 9
 9
 9
 9
 9
 9
 9
 9
 9
 9
 9
 9
 9
 9
 9
 9
 9
 9
 9
 9
 9
 9
 9
 9
 9
 9
 9
 9
 9
 9
 9
 9
 9
 9
 9
 9
 9
 9
 9
 9
 9
 9
 9
 9
 9
 9
 9
 9
 9
 9
 9
 9
 9
 9
 9
 9
 9
 9
 9
 9
 9
 9
 9
 9
 9
 9
 9
 9
 9
 9
 9
 9
 9
 9
 9
 9
 9
 9
 9
 9
 9
 9
 9
 9
 9
 9
 9
 9
 9
 9
 9
 9
 9
 9
 9
 9
 9
 9
 9
 9
 9
 9
 9
 9
 9
 9
 9
 9
 9
 9
 9
 9
 9
 9
 9
 9
 9
 9
 9
 9
 9
 9
 9
 9
 9
 9
 9
 9
 9
 9
 9
 9
 9
 9
 9
 9
 9
 9
 9
 9
 9
 9
 9
 9
 9
 9
 9
 9
 9
 9
 9
 9
 9
 9
 9
 9
 9
 9
 9
 9
 9
 9
 9
 9
 9
 9
 9
 9
 9
 9
 9
 9
 9
 9
 9
 9
 9
 9
 9
 9
 9
 9
 9
 9
 9
 9
 9
 9
 9
 9
 9
 9
 9
 9
 9
 9
 9
 9
 9
 9
 9
 9
 9
 9
 9
 9
 9
 9
 9
 9
 9
 9
 9
 9
 9
 9
 9
 9
 9
 9
 9
 9
 9
 9
 9
 9
 9
 9
 9
 9
 9
 9
 9
 9
 9
 9
 9
 9
 9
 9
 9
 9
 9
 9
 9
 9
 9
 9
 9
 9
 9
 9
 9
 9
 9
 9
 9
 9
 9
 9
 9
 9
 9
 9
 9
 9
 9
 9
 9
 9
 9
 9
 9
 9
 9
 9
 9
 9
 9
 9
 9
 9
 9
 9
 9
 9
 9
 9
 9
 9
 9
 9
 9
 9
 9
 9
 9
 9
 9
 9
 9
 9
 9
 9
 9
 9
 9
 9
 9
 9
 9
 9
 9
 9
 9
 9
 9
 9
 9
 9
 9
 9
 9
 9
 9
 9
 9
 9
 9
 9
 9
 9
 9
 9
 9
 9
 9
 9
 9
 9
 9
 9
 9
 9
 9
 9
 9
 9
 9
 9
 9
 9
 9
 9
 9
 9
 9
 9
 9
 9
 9
 9
 9
 9
 9
 9
 9
 9
 9
 9
 9
 9
 9
 9
 9
 9
 9
 9
 9
 9
 9
 9
 9
 9
 9
 9
 9
 9
 9
 9
 9
 9
 9
 9
 9
 9
 9
 9
 9
 9
 9
 9
 9
 9
 9
 9
 9
 9
 9
 9
 9
 9
 9
 9
 9
 9
 9
 9
 </DataArray>
 </Cells> 
 <PointData>
 <DataArray  type="Float64" Name="disp" NumberOfComponents="3" format="ascii">
   6.7899047781381255E-002   5.9849565929673595E-002   0.0000000000000000     
   7.0056313721820251E-002   6.6752920326332954E-002   0.0000000000000000     
   7.2407000046505798E-002   7.3385127795930788E-002   0.0000000000000000     
   7.4951106755437868E-002   7.9746188338467111E-002   0.0000000000000000     
   7.7688633848616517E-002   8.5836101953941910E-002   0.0000000000000000     
   6.0716620957045005E-002   6.1008904548121218E-002   0.0000000000000000     
   6.3471199988303598E-002   6.6958098605750083E-002   0.0000000000000000     
   6.6215150931275765E-002   7.2929976022959295E-002   0.0000000000000000     
   6.8948473785961528E-002   7.8924536799748840E-002   0.0000000000000000     
   7.1671168552360887E-002   8.4941780936118733E-002   0.0000000000000000     
   5.5610164707784668E-002   6.1525875249525241E-002   0.0000000000000000     
   5.8465377890438069E-002   6.6863060175897049E-002   0.0000000000000000     
   6.1215324742539150E-002   7.2414151841046506E-002   0.0000000000000000     
   6.3860005264087916E-002   7.8179150244973614E-002   0.0000000000000000     
   6.6399419455084346E-002   8.4158055387678357E-002   0.0000000000000000     
   5.2579679033600231E-002   6.1400478033885680E-002   0.0000000000000000     
   5.5038847428223674E-002   6.6467805036773867E-002   0.0000000000000000     
   5.7407521480295938E-002   7.1837655250192436E-002   0.0000000000000000     
   5.9685701189817024E-002   7.7510028674141446E-002   0.0000000000000000     
   6.1873386556786932E-002   8.3484925308620811E-002   0.0000000000000000     
   5.1625163934491708E-002   6.0632712901202535E-002   0.0000000000000000     
   5.3191608601660410E-002   6.5772333188380508E-002   0.0000000000000000     
   5.4791741144546130E-002   7.1200486250397099E-002   0.0000000000000000     
   5.6425561563148853E-002   7.6917172087252281E-002   0.0000000000000000     
   5.8093069857468600E-002   8.2922390698946094E-002   0.0000000000000000     
   7.7688633848616517E-002   8.5836101953941910E-002   0.0000000000000000     
   8.0482155361222676E-002   9.1891741220031214E-002   0.0000000000000000     
   8.3194245328437333E-002   9.8149978714411015E-002   0.0000000000000000     
   8.5824903750260528E-002  0.10461081443708134        0.0000000000000000     
   8.8374130626692221E-002  0.11127424838804217        0.0000000000000000     
   7.1671168552360887E-002   8.4941780936118733E-002   0.0000000000000000     
   7.4341509834740221E-002   9.1064448362902672E-002   0.0000000000000000     
   7.6917772237365983E-002   9.7375279010934387E-002   0.0000000000000000     
   7.9399955760238158E-002  0.10387427288021393        0.0000000000000000     
   8.1788060403356733E-002  0.11056142997074125        0.0000000000000000     
   6.6399419455084346E-002   8.4158055387678357E-002   0.0000000000000000     
   6.8842685345275323E-002   9.0332902956771433E-002   0.0000000000000000     
   7.1198920964407678E-002   9.6685728639863550E-002   0.0000000000000000     
   7.3468126312481410E-002  0.10321653243695471        0.0000000000000000     
   7.5650301389496508E-002  0.10992531434804488        0.0000000000000000     
   6.1873386556786932E-002   8.3484925308620811E-002   0.0000000000000000     
   6.3985681892827967E-002   8.9697105001637523E-002   0.0000000000000000     
   6.6037691509562402E-002   9.6081327601198460E-002   0.0000000000000000     
   6.8029415406990257E-002  0.10263759310730365        0.0000000000000000     
   6.9960853585111560E-002  0.10936590151995308        0.0000000000000000     
   5.8093069857468600E-002   8.2922390698946094E-002   0.0000000000000000     
   5.9770499477398112E-002   8.9157054497500915E-002   0.0000000000000000     
   6.1434083872830170E-002   9.5562075894939147E-002   0.0000000000000000     
   6.3083823043764767E-002  0.10213745489126079        0.0000000000000000     
   6.4719716990201889E-002  0.10888319148646584        0.0000000000000000     
   8.8374130626692221E-002  0.11127424838804217        0.0000000000000000     
   9.0830206419645718E-002  0.11810731701505486        0.0000000000000000     
   9.3181411591034338E-002  0.12507705676588074        0.0000000000000000     
   9.5427746140858083E-002  0.13218346764051986        0.0000000000000000     
   9.7569210069116938E-002  0.13942654963897216        0.0000000000000000     
   8.1788060403356733E-002  0.11056142997074125        0.0000000000000000     
   8.4081700854889335E-002  0.11741306202821440        0.0000000000000000     
   8.6280491803003664E-002  0.12440548079833146        0.0000000000000000     
   8.8384433247699679E-002  0.13153868628109239        0.0000000000000000     
   9.0393525188977350E-002  0.13881267847649723        0.0000000000000000     
   7.5650301389496508E-002  0.10992531434804488        0.0000000000000000     
   7.7747909817500210E-002  0.11679480004095662        0.0000000000000000     
   7.9763415218539649E-002  0.12380771518351244        0.0000000000000000     
   8.1696817592614851E-002  0.13096405977571232        0.0000000000000000     
   8.3548116939725831E-002  0.13826383381755630        0.0000000000000000     
   6.9960853585111560E-002  0.10936590151995308        0.0000000000000000     
   7.1828833307478246E-002  0.11625253105328152        0.0000000000000000     
   7.3630181837642278E-002  0.12328375992142372        0.0000000000000000     
   7.5364899175603656E-002  0.13045958812437972        0.0000000000000000     
   7.7032985321362352E-002  0.13778001566214945        0.0000000000000000     
   6.4719716990201889E-002  0.10888319148646584        0.0000000000000000     
   6.6324471324823511E-002  0.11578625506518908        0.0000000000000000     
   6.7880791660311565E-002  0.12283361501206529        0.0000000000000000     
   6.9388677996666065E-002  0.13002527132709446        0.0000000000000000     
   7.0848130333886983E-002  0.13736122401027662        0.0000000000000000     
   9.7569210069116938E-002  0.13942654963897216        0.0000000000000000     
   9.9605071950343071E-002  0.14679169191166910        0.0000000000000000     
  0.10153460035906862       0.15426428360904207        0.0000000000000000     
  0.10335779529529363       0.16184432473109103        0.0000000000000000     
  0.10507465675901805       0.16953181527781602        0.0000000000000000     
   9.0393525188977350E-002  0.13881267847649723        0.0000000000000000     
   9.2305819783286350E-002  0.14620986629970070        0.0000000000000000     
   9.4119369187076279E-002  0.15371265866585762        0.0000000000000000     
   9.5834173400347153E-002  0.16132105557496793        0.0000000000000000     
   9.7450232423098956E-002  0.16903505702703167        0.0000000000000000     
   8.3548116939725831E-002  0.13826383381755630        0.0000000000000000     
   8.5312890179196146E-002  0.14568793507786987        0.0000000000000000     
   8.6986714230349413E-002  0.15321726132547850        0.0000000000000000     
   8.8569589093185602E-002  0.16085181256038225        0.0000000000000000     
   9.0061514767704742E-002  0.16859158878258107        0.0000000000000000     
   7.7032985321362352E-002  0.13778001566214945        0.0000000000000000     
   7.8626283138072475E-002  0.14522589824617654        0.0000000000000000     
   8.0136635488888011E-002  0.15277809158790473        0.0000000000000000     
   8.1564042373808987E-002  0.16043659568733395        0.0000000000000000     
   8.2908503792835389E-002  0.16820141054446422        0.0000000000000000     
   7.0848130333886983E-002  0.13736122401027662        0.0000000000000000     
   7.2245998659915336E-002  0.14482375580462087        0.0000000000000000     
   7.3569132962692116E-002  0.15239514945313637        0.0000000000000000     
   7.4817533242217307E-002  0.16007540495582312        0.0000000000000000     
   7.5991199498490924E-002  0.16786452231268112        0.0000000000000000     
  0.10507465675901805       0.16953181527781602        0.0000000000000000     
  0.10669057058682646       0.17732178014103275        0.0000000000000000     
  0.10821092261530343       0.18520924421255688        0.0000000000000000     
  0.10963571284444894       0.19319420749238844        0.0000000000000000     
  0.11096494127426301       0.20127666998052740        0.0000000000000000     
   9.7450232423098956E-002  0.16903505702703167        0.0000000000000000     
   9.8968234231091717E-002  0.17685187838553890        0.0000000000000000     
  0.10038886680008545       0.18476873501397964        0.0000000000000000     
  0.10171213013008015       0.19278562691235390        0.0000000000000000     
  0.10293802422107580       0.20090255408066171        0.0000000000000000     
   9.0061514767704742E-002  0.16859158878258107        0.0000000000000000     
   9.1461231671382023E-002  0.17643452398901840        0.0000000000000000     
   9.2767480221692664E-002  0.18437855217663771        0.0000000000000000     
   9.3980260418636691E-002  0.19242367334543889        0.0000000000000000     
   9.5099572262214035E-002  0.20056988749542204        0.0000000000000000     
   8.2908503792835389E-002  0.16820141054446422        0.0000000000000000     
   8.4169562907697393E-002  0.17606971695147131        0.0000000000000000     
   8.5346762880125077E-002  0.18403869570053102        0.0000000000000000     
   8.6440103710118524E-002  0.19210834679164340        0.0000000000000000     
   8.7449585397677693E-002  0.20027867022480839        0.0000000000000000     
   7.5991199498490924E-002  0.16786452231268112        0.0000000000000000     
   7.7093227940037770E-002  0.17575745727289760        0.0000000000000000     
   7.8126714775382716E-002  0.18374916558565968        0.0000000000000000     
   7.9091660004525693E-002  0.19183964725096739        0.0000000000000000     
   7.9988063627466771E-002  0.20002890226882075        0.0000000000000000     
  0.11096494127426301       0.20127666998052740        0.0000000000000000     
  0.11220494897710832       0.20945080137903299        0.0000000000000000     
  0.11336207702534756       0.21771077138996450        0.0000000000000000     
  0.11443632541898070       0.22605658001332196        0.0000000000000000     
  0.11542769415800776       0.23448822724910523        0.0000000000000000     
  0.10293802422107580       0.20090255408066171        0.0000000000000000     
  0.10407646037173575       0.20910918293938235        0.0000000000000000     
  0.10513734988072321       0.21739517990899518        0.0000000000000000     
  0.10612069274803826       0.22576054498950027        0.0000000000000000     
  0.10702648897368085       0.23420527818089751        0.0000000000000000     
   9.5099572262214035E-002  0.20056988749542204        0.0000000000000000     
   9.6135332395408932E-002  0.20880446240081846        0.0000000000000000     
   9.7097457461205558E-002  0.21711466583585937        0.0000000000000000     
   9.7985947459603942E-002  0.22550049780054493        0.0000000000000000     
   9.8800802390604070E-002  0.23396195829487507        0.0000000000000000     
   8.7449585397677693E-002  0.20027867022480839        0.0000000000000000     
   8.8381565048127914E-002  0.20853663976334125        0.0000000000000000     
   8.9242399766794614E-002  0.21686922917055709        0.0000000000000000     
   9.0032089553677752E-002  0.22527643844645598        0.0000000000000000     
   9.0750634408777328E-002  0.23375826759103788        0.0000000000000000     
   7.9988063627466771E-002  0.20002890226882075        0.0000000000000000     
   8.0815158329892722E-002  0.20830571502695075        0.0000000000000000     
   8.1572176797490362E-002  0.21665886991308825        0.0000000000000000     
   8.2259119030259689E-002  0.22508836692723339        0.0000000000000000     
   8.2875985028200705E-002  0.23359420606938605        0.0000000000000000     
  0.11542769415800776       0.23448822724910523        0.0000000000000000     
  0.11636750754425496       0.24301913907728756        0.0000000000000000     
  0.11728708987954851       0.25166274147784201        0.0000000000000000     
  0.11818644116388841       0.26041903445076858        0.0000000000000000     
  0.11906556139727467       0.26928801799606722        0.0000000000000000     
  0.10702648897368085       0.23420527818089751        0.0000000000000000     
  0.10786131517286394       0.24275115216173074        0.0000000000000000     
  0.10863174796080044       0.25141993961054371        0.0000000000000000     
  0.10933778733749036       0.26021164052733647        0.0000000000000000     
  0.10997943330293372       0.26912625491210901        0.0000000000000000     
   9.8800802390604070E-002  0.23396195829487507        0.0000000000000000     
   9.9533128605331145E-002  0.24252467422452137        0.0000000000000000     
  0.10017403245491051       0.25121427249515554        0.0000000000000000     
  0.10072351393934216       0.26003075310677753        0.0000000000000000     
  0.10118157305862606       0.26897411605938737        0.0000000000000000     
   9.0750634408777328E-002  0.23375826759103788        0.0000000000000000     
   9.1382947841656570E-002  0.24233970526565948        0.0000000000000000     
   9.1913943361878719E-002  0.25104574013167746        0.0000000000000000     
   9.2343620969443735E-002  0.25987637218909171        0.0000000000000000     
   9.2671980664351658E-002  0.26883160143790230        0.0000000000000000     
   8.2875985028200705E-002  0.23359420606938605        0.0000000000000000     
   8.3410772881840220E-002  0.24219624528514511        0.0000000000000000     
   8.3851480681705018E-002  0.25091434252010947        0.0000000000000000     
   8.4198108427795126E-002  0.25974849777427905        0.0000000000000000     
   8.4450656120110545E-002  0.26869871104765386        0.0000000000000000     
  0.11906556139727467       0.26928801799606722        0.0000000000000000     
  0.11986525173436269       0.27843551428342278        0.0000000000000000     
  0.12052631332980790       0.28802734548251996        0.0000000000000000     
  0.12104874618361026       0.29806351159335881        0.0000000000000000     
  0.12143255029576983       0.30854401261593933        0.0000000000000000     
  0.10997943330293372       0.26912625491210901        0.0000000000000000     
  0.11053817973077247       0.27829652456077625        0.0000000000000000     
  0.11099552049464859       0.28785519126925313        0.0000000000000000     
  0.11135145559456210       0.29780225503753965        0.0000000000000000     
  0.11160598503051299       0.30813771586563588        0.0000000000000000     
  0.10118157305862606       0.26897411605938737        0.0000000000000000     
  0.10155959738726994       0.27814280838071270        0.0000000000000000     
  0.10186897449978152       0.28763527709848113        0.0000000000000000     
  0.10210970439616082       0.29745152221269278        0.0000000000000000     
  0.10228178707640778       0.30759154372334752        0.0000000000000000     
   9.2671980664351658E-002  0.26883160143790230        0.0000000000000000     
   9.2929504703855081E-002  0.27797436574323220        0.0000000000000000     
   9.3146675345206695E-002  0.28736760297020408        0.0000000000000000     
   9.3323492588406359E-002  0.29701131311881807        0.0000000000000000     
   9.3459956433454228E-002  0.30690549618907415        0.0000000000000000     
   8.4450656120110545E-002  0.26869871104765386        0.0000000000000000     
   8.4647901680527937E-002  0.27779119664833463        0.0000000000000000     
   8.4828623030924033E-002  0.28705216888442181        0.0000000000000000     
   8.4992820171298819E-002  0.29648162775591563        0.0000000000000000     
   8.5140493101652309E-002  0.30607957326281593        0.0000000000000000     
   5.1625163934491708E-002   6.0632712901202535E-002   0.0000000000000000     
   5.3191608601660410E-002   6.5772333188380508E-002   0.0000000000000000     
   5.4791741144546130E-002   7.1200486250397099E-002   0.0000000000000000     
   5.6425561563148853E-002   7.6917172087252281E-002   0.0000000000000000     
   5.8093069857468600E-002   8.2922390698946094E-002   0.0000000000000000     
   5.0508340525512750E-002   5.9610890092955116E-002   0.0000000000000000     
   5.1180971789126173E-002   6.4961229324815059E-002   0.0000000000000000     
   5.2023088355578909E-002   7.0544988053647950E-002   0.0000000000000000     
   5.3034690224870971E-002   7.6362166279453761E-002   0.0000000000000000     
   5.4215777397002334E-002   8.2412764002232533E-002   0.0000000000000000     
   4.6990929921717030E-002   5.8723319850622770E-002   0.0000000000000000     
   4.7264247368998862E-002   6.4219078140175606E-002   0.0000000000000000     
   4.7756667733683471E-002   6.9913503871932500E-002   0.0000000000000000     
   4.8468191015770885E-002   7.5806597045893459E-002   0.0000000000000000     
   4.9398817215261091E-002   8.1898357662058427E-002   0.0000000000000000     
   4.1072932123104561E-002   5.7970002174205490E-002   0.0000000000000000     
   4.1441435341278456E-002   6.3545879634462163E-002   0.0000000000000000     
   4.1992479278859816E-002   6.9306033705250777E-002   0.0000000000000000     
   4.2726063935848629E-002   7.5250464386571320E-002   0.0000000000000000     
   4.3642189312244888E-002   8.1379171678423803E-002   0.0000000000000000     
   3.2754347129675322E-002   5.7350937063703276E-002   0.0000000000000000     
   3.3712535705964990E-002   6.2941633807674702E-002   0.0000000000000000     
   3.4730522991107939E-002   6.8722577553602754E-002   0.0000000000000000     
   3.5808308985104176E-002   7.4693768301487398E-002   0.0000000000000000     
   3.6945893687953708E-002   8.0855206051328649E-002   0.0000000000000000     
   5.8093069857468600E-002   8.2922390698946094E-002   0.0000000000000000     
   5.9770499477398112E-002   8.9157054497500915E-002   0.0000000000000000     
   6.1434083872830170E-002   9.5562075894939147E-002   0.0000000000000000     
   6.3083823043764767E-002  0.10213745489126079        0.0000000000000000     
   6.4719716990201889E-002  0.10888319148646584        0.0000000000000000     
   5.4215777397002334E-002   8.2412764002232533E-002   0.0000000000000000     
   5.5495851488186872E-002   8.8665185695237639E-002   0.0000000000000000     
   5.6804414114638435E-002   9.5087835831722478E-002   0.0000000000000000     
   5.8141465276357031E-002  0.10168071441168709        0.0000000000000000     
   5.9507004973342652E-002  0.10844382143513148        0.0000000000000000     
   4.9398817215261091E-002   8.1898357662058427E-002   0.0000000000000000     
   5.0460451314395284E-002   8.8173932845723668E-002   0.0000000000000000     
   5.1564998295414680E-002   9.4618469722185419E-002   0.0000000000000000     
   5.2712458158319264E-002  0.10123196829144358        0.0000000000000000     
   5.3902830903109003E-002  0.10801442855349830        0.0000000000000000     
   4.3642189312244888E-002   8.1379171678423803E-002   0.0000000000000000     
   4.4664298956023384E-002   8.7683295948959045E-002   0.0000000000000000     
   4.5715836415158903E-002   9.4153977566327859E-002   0.0000000000000000     
   4.6796801689651439E-002  0.10079121653053030        0.0000000000000000     
   4.7907194779500985E-002  0.10759501284156628        0.0000000000000000     
   3.6945893687953708E-002   8.0855206051328649E-002   0.0000000000000000     
   3.8107394413071143E-002   8.7193275004943741E-002   0.0000000000000000     
   3.9256928473871092E-002   9.3694359364149910E-002   0.0000000000000000     
   4.0394495870353563E-002  0.10035845912894716        0.0000000000000000     
   4.1520096602518555E-002  0.10718557429933546        0.0000000000000000     
   6.4719716990201889E-002  0.10888319148646584        0.0000000000000000     
   6.6324471324823511E-002  0.11578625506518908        0.0000000000000000     
   6.7880791660311565E-002  0.12283361501206529        0.0000000000000000     
   6.9388677996666065E-002  0.13002527132709446        0.0000000000000000     
   7.0848130333886983E-002  0.13736122401027662        0.0000000000000000     
   5.9507004973342652E-002  0.10844382143513148        0.0000000000000000     
   6.0870199558353690E-002  0.11536370002649998        0.0000000000000000     
   6.2200215384148522E-002  0.12242689331023703        0.0000000000000000     
   6.3497052450727148E-002  0.12963340128634263        0.0000000000000000     
   6.4760710758089590E-002  0.13698322395481677        0.0000000000000000     
   5.3902830903109003E-002  0.10801442855349830        0.0000000000000000     
   5.5101393696886471E-002  0.11495259388703490        0.0000000000000000     
   5.6273423706754144E-002  0.12203320767073883        0.0000000000000000     
   5.7418920932712045E-002  0.12925626990461017        0.0000000000000000     
   5.8537885374760144E-002  0.13662178058864885        0.0000000000000000     
   4.7907194779500985E-002  0.10759501284156628        0.0000000000000000     
   4.9018053740421882E-002  0.11455293664679378        0.0000000000000000     
   5.0100416628128454E-002  0.12165255809357070        0.0000000000000000     
   5.1154283442620706E-002  0.12889387718189707        0.0000000000000000     
   5.2179654183898631E-002  0.13627689391177289        0.0000000000000000     
   4.1520096602518555E-002  0.10718557429933546        0.0000000000000000     
   4.2620179688959904E-002  0.11416472830577669        0.0000000000000000     
   4.3681194148271429E-002  0.12128494457873266        0.0000000000000000     
   4.4703139980453152E-002  0.12854622311820335        0.0000000000000000     
   4.5686017185505051E-002  0.13594856392418880        0.0000000000000000     
   7.0848130333886983E-002  0.13736122401027662        0.0000000000000000     
   7.2245998659915336E-002  0.14482375580462087        0.0000000000000000     
   7.3569132962692116E-002  0.15239514945313637        0.0000000000000000     
   7.4817533242217307E-002  0.16007540495582312        0.0000000000000000     
   7.5991199498490924E-002  0.16786452231268112        0.0000000000000000     
   6.4760710758089590E-002  0.13698322395481677        0.0000000000000000     
   6.5974113029341794E-002  0.14446073123407407        0.0000000000000000     
   6.7120181987589719E-002  0.15205029304252926        0.0000000000000000     
   6.8198917632833395E-002  0.15975190938018233        0.0000000000000000     
   6.9210319965072778E-002  0.16756558024703322        0.0000000000000000     
   5.8537885374760144E-002  0.13662178058864885        0.0000000000000000     
   5.9612702530968953E-002  0.14411604801540770        0.0000000000000000     
   6.0625757899408939E-002  0.15172538047743950        0.0000000000000000     
   6.1577051480080101E-002  0.15944977797474427        0.0000000000000000     
   6.2466583272982455E-002  0.16728924050732194        0.0000000000000000     
   5.2179654183898631E-002  0.13627689391177289        0.0000000000000000     
   5.3161767164796786E-002  0.14378970614862169        0.0000000000000000     
   5.4085860698149718E-002  0.15142041175786700        0.0000000000000000     
   5.4951934783957442E-002  0.15916901073950893        0.0000000000000000     
   5.5759989422219956E-002  0.16703550309354731        0.0000000000000000     
   4.5686017185505051E-002  0.13594856392418880        0.0000000000000000     
   4.6621306930825307E-002  0.14348170563371598        0.0000000000000000     
   4.7500490383812093E-002  0.15113538688381181        0.0000000000000000     
   4.8323567544465415E-002  0.15890960767447623        0.0000000000000000     
   4.9090538412785253E-002  0.16680436800570933        0.0000000000000000     
   7.5991199498490924E-002  0.16786452231268112        0.0000000000000000     
   7.7093227940037770E-002  0.17575745727289760        0.0000000000000000     
   7.8126714775382716E-002  0.18374916558565968        0.0000000000000000     
   7.9091660004525693E-002  0.19183964725096739        0.0000000000000000     
   7.9988063627466771E-002  0.20002890226882075        0.0000000000000000     
   6.9210319965072778E-002  0.16756558024703322        0.0000000000000000     
   7.0160993227816687E-002  0.17548333650479703        0.0000000000000000     
   7.1057541664573939E-002  0.18349720901518882        0.0000000000000000     
   7.1899965275344521E-002  0.19160719777820862        0.0000000000000000     
   7.2688264060128419E-002  0.19981330279385637        0.0000000000000000     
   6.2466583272982455E-002  0.16728924050732194        0.0000000000000000     
   6.3301625230447620E-002  0.17523294619866953        0.0000000000000000     
   6.4089449304807214E-002  0.18327007317228378        0.0000000000000000     
   6.4830055496061273E-002  0.19140062142816475        0.0000000000000000     
   6.5523443804209769E-002  0.19962459096631244        0.0000000000000000     
   5.5759989422219956E-002  0.16703550309354731        0.0000000000000000     
   5.6515123947930547E-002  0.17500628635451498        0.0000000000000000     
   5.7222437696082547E-002  0.18306775805694445        0.0000000000000000     
   5.7881930666675969E-002  0.19121991820083578        0.0000000000000000     
   5.8493602859710808E-002  0.19946276678618899        0.0000000000000000     
   4.9090538412785253E-002  0.16680436800570933        0.0000000000000000     
   4.9801489380265476E-002  0.17480335697233343        0.0000000000000000     
   5.0456506838399931E-002  0.18289026366917088        0.0000000000000000     
   5.1055590787188618E-002  0.19106508809622175        0.0000000000000000     
   5.1598741226631543E-002  0.19932783025348594        0.0000000000000000     
   7.9988063627466771E-002  0.20002890226882075        0.0000000000000000     
   8.0815158329892722E-002  0.20830571502695075        0.0000000000000000     
   8.1572176797490362E-002  0.21665886991308825        0.0000000000000000     
   8.2259119030259689E-002  0.22508836692723339        0.0000000000000000     
   8.2875985028200705E-002  0.23359420606938605        0.0000000000000000     
   7.2688264060128419E-002  0.19981330279385637        0.0000000000000000     
   7.3414985566703686E-002  0.20810674026286438        0.0000000000000000     
   7.4072677342848350E-002  0.21647872638596488        0.0000000000000000     
   7.4661339388562425E-002  0.22492926116315787        0.0000000000000000     
   7.5180971703845897E-002  0.23345834459444334        0.0000000000000000     
   6.5523443804209769E-002  0.19962459096631244        0.0000000000000000     
   6.6159920084561216E-002  0.20793476754229956        0.0000000000000000     
   6.6729790192424199E-002  0.21632393691169879        0.0000000000000000     
   6.7233054127798647E-002  0.22479209907451020        0.0000000000000000     
   6.7669711890684603E-002  0.23333925403073372        0.0000000000000000     
   5.8493602859710808E-002  0.19946276678618899        0.0000000000000000     
   5.9049961883465341E-002  0.20778979686525631        0.0000000000000000     
   5.9543515346217858E-002  0.21619450149029007        0.0000000000000000     
   5.9974263247968361E-002  0.22467688066129035        0.0000000000000000     
   6.0342205588716842E-002  0.23323693437825713        0.0000000000000000     
   5.1598741226631543E-002  0.19932783025348594        0.0000000000000000     
   5.2085110963416018E-002  0.20767182823173455        0.0000000000000000     
   5.2513852804229350E-002  0.21609042012173871        0.0000000000000000     
   5.2884966749071546E-002  0.22458360592349835        0.0000000000000000     
   5.3198452797942608E-002  0.23315138563701351        0.0000000000000000     
   8.2875985028200705E-002  0.23359420606938605        0.0000000000000000     
   8.3410772881840220E-002  0.24219624528514511        0.0000000000000000     
   8.3851480681705018E-002  0.25091434252010947        0.0000000000000000     
   8.4198108427795126E-002  0.25974849777427905        0.0000000000000000     
   8.4450656120110545E-002  0.26869871104765386        0.0000000000000000     
   7.5180971703845897E-002  0.23345834459444334        0.0000000000000000     
   7.5626556588152885E-002  0.24207846188407922        0.0000000000000000     
   7.5993076340937549E-002  0.25080209823632338        0.0000000000000000     
   7.6280530962199875E-002  0.25962925365117573        0.0000000000000000     
   7.6488920451939849E-002  0.26855992812863627        0.0000000000000000     
   6.7669711890684603E-002  0.23333925403073372        0.0000000000000000     
   6.8040251822865383E-002  0.24197052266356275        0.0000000000000000     
   6.8345162266124346E-002  0.25069102585619080        0.0000000000000000     
   6.8584443220461477E-002  0.25950076360861779        0.0000000000000000     
   6.8758094685876764E-002  0.26839973592084371        0.0000000000000000     
   6.0342205588716842E-002  0.23323693437825713        0.0000000000000000     
   6.0651858585977728E-002  0.24187242762359576        0.0000000000000000     
   6.0907738457265430E-002  0.25058112537971183        0.0000000000000000     
   6.1109845202579949E-002  0.25936302764660524        0.0000000000000000     
   6.1258178821921257E-002  0.26821813442427622        0.0000000000000000     
   5.3198452797942608E-002  0.23315138563701351        0.0000000000000000     
   5.3461376877489905E-002  0.24178417676417818        0.0000000000000000     
   5.3680804914360794E-002  0.25047239680688649        0.0000000000000000     
   5.3856736908555275E-002  0.25921604576513829        0.0000000000000000     
   5.3989172860073348E-002  0.26801512363893376        0.0000000000000000     
   8.4450656120110545E-002  0.26869871104765386        0.0000000000000000     
   8.4647901680527937E-002  0.27779119664833463        0.0000000000000000     
   8.4828623030924033E-002  0.28705216888442181        0.0000000000000000     
   8.4992820171298819E-002  0.29648162775591563        0.0000000000000000     
   8.5140493101652309E-002  0.30607957326281593        0.0000000000000000     
   7.6488920451939849E-002  0.26855992812863627        0.0000000000000000     
   7.6658679950784639E-002  0.27758760577541547        0.0000000000000000     
   7.6830244599361330E-002  0.28670577069822356        0.0000000000000000     
   7.7003614397669951E-002  0.29591442289706060        0.0000000000000000     
   7.7178789345710500E-002  0.30521356237192654        0.0000000000000000     
   6.8758094685876764E-002  0.26839973592084371        0.0000000000000000     
   6.8905731148121332E-002  0.27735789780387005        0.0000000000000000     
   6.9066967092946269E-002  0.28634520426869814        0.0000000000000000     
   6.9241802520351586E-002  0.29536165531532804        0.0000000000000000     
   6.9430237430337285E-002  0.30440725094375970        0.0000000000000000     
   6.1258178821921257E-002  0.26821813442427622        0.0000000000000000     
   6.1389055272538025E-002  0.27710207273369841        0.0000000000000000     
   6.1538790511678848E-002  0.28597046959584560        0.0000000000000000     
   6.1707384539343740E-002  0.29482332501071801        0.0000000000000000     
   6.1894837355532688E-002  0.30366063897831547        0.0000000000000000     
   5.3989172860073348E-002  0.26801512363893376        0.0000000000000000     
   5.4108652324034730E-002  0.27682013056490046        0.0000000000000000     
   5.4245714855559068E-002  0.28558156667966605        0.0000000000000000     
   5.4400360454646385E-002  0.29429943198323050        0.0000000000000000     
   5.4572589121296672E-002  0.30297372647559395        0.0000000000000000     
   3.2754347129675322E-002   5.7350937063703276E-002   0.0000000000000000     
   3.3712535705964990E-002   6.2941633807674702E-002   0.0000000000000000     
   3.4730522991107939E-002   6.8722577553602754E-002   0.0000000000000000     
   3.5808308985104176E-002   7.4693768301487398E-002   0.0000000000000000     
   3.6945893687953708E-002   8.0855206051328649E-002   0.0000000000000000     
   2.4456921143216188E-002   5.6840969099657884E-002   0.0000000000000000     
   2.6026677586989948E-002   6.2418532282665473E-002   0.0000000000000000     
   2.7528467120687097E-002   6.8199522121545328E-002   0.0000000000000000     
   2.8962289744307635E-002   7.4183938616297462E-002   0.0000000000000000     
   3.0328145457851563E-002   8.0371781766921863E-002   0.0000000000000000     
   1.8602400365514013E-002   5.6414942862611075E-002   0.0000000000000000     
   2.0332990108284862E-002   6.1988766682286672E-002   0.0000000000000000     
   2.1943979917856550E-002   6.7773254113635426E-002   0.0000000000000000     
   2.3435369794229083E-002   7.3768405156657321E-002   0.0000000000000000     
   2.4807159737402454E-002   7.9974219811352373E-002   0.0000000000000000     
   1.5190784796568803E-002   5.6072858352562843E-002   0.0000000000000000     
   1.6631473269849727E-002   6.1652337006538320E-002   0.0000000000000000     
   1.7977061382616299E-002   6.7443773529873019E-002   0.0000000000000000     
   1.9227549134868519E-002   7.3447167922566961E-002   0.0000000000000000     
   2.0382936526606374E-002   7.9662520184620167E-002   0.0000000000000000     
   1.4222074436380549E-002   5.5814715569513187E-002   0.0000000000000000     
   1.4922127071684542E-002   6.1409243255420409E-002   0.0000000000000000     
   1.5627711514966336E-002   6.7211080370258164E-002   0.0000000000000000     
   1.6338827766225934E-002   7.3220226914026437E-002   0.0000000000000000     
   1.7055475825463337E-002   7.9436682886725243E-002   0.0000000000000000     
   3.6945893687953708E-002   8.0855206051328649E-002   0.0000000000000000     
   3.8107394413071143E-002   8.7193275004943741E-002   0.0000000000000000     
   3.9256928473871092E-002   9.3694359364149910E-002   0.0000000000000000     
   4.0394495870353563E-002  0.10035845912894716        0.0000000000000000     
   4.1520096602518555E-002  0.10718557429933546        0.0000000000000000     
   3.0328145457851563E-002   8.0371781766921863E-002   0.0000000000000000     
   3.1633020705034619E-002   8.6741307444614502E-002   0.0000000000000000     
   3.2883901929572551E-002   9.3270771520571311E-002   0.0000000000000000     
   3.4080789131465374E-002   9.9960173994792276E-002   0.0000000000000000     
   3.5223682310713052E-002  0.10680951486727744        0.0000000000000000     
   2.4807159737402454E-002   7.9974219811352373E-002   0.0000000000000000     
   2.6084460851409877E-002   8.6364830698908060E-002   0.0000000000000000     
   2.7292384240284573E-002   9.2914370440511859E-002   0.0000000000000000     
   2.8430929904026535E-002   9.9622839036163771E-002   0.0000000000000000     
   2.9500097842635770E-002  0.10649023648586380        0.0000000000000000     
   2.0382936526606374E-002   7.9662520184620167E-002   0.0000000000000000     
   2.1461714852196907E-002   8.6063844767824402E-002   0.0000000000000000     
   2.2482375406007143E-002   9.2625156123971569E-002   0.0000000000000000     
   2.3444918188037078E-002   9.9346454253061600E-002   0.0000000000000000     
   2.4349343198286712E-002  0.10622773915509452        0.0000000000000000     
   1.7055475825463337E-002   7.9436682886725243E-002   0.0000000000000000     
   1.7764782707395722E-002   8.5838349651363555E-002   0.0000000000000000     
   1.8453875426740273E-002   9.2403128570950427E-002   0.0000000000000000     
   1.9122753983496991E-002   9.9131019645485791E-002   0.0000000000000000     
   1.9771418377665877E-002  0.10602202287496970        0.0000000000000000     
   4.1520096602518555E-002  0.10718557429933546        0.0000000000000000     
   4.2620179688959904E-002  0.11416472830577669        0.0000000000000000     
   4.3681194148271429E-002  0.12128494457873266        0.0000000000000000     
   4.4703139980453152E-002  0.12854622311820335        0.0000000000000000     
   4.5686017185505051E-002  0.13594856392418880        0.0000000000000000     
   3.5223682310713052E-002  0.10680951486727744        0.0000000000000000     
   3.6314769122819654E-002  0.11380912829604393        0.0000000000000000     
   3.7356237223289207E-002  0.12094934843910898        0.0000000000000000     
   3.8348086612121718E-002  0.12823017529647257        0.0000000000000000     
   3.9290317289317186E-002  0.13565160886813468        0.0000000000000000     
   2.9500097842635770E-002  0.10649023648586380        0.0000000000000000     
   3.0508819622320237E-002  0.11350729604965588        0.0000000000000000     
   3.1466026809287888E-002  0.12066475098758403        0.0000000000000000     
   3.2371719403538744E-002  0.12796260129964823        0.0000000000000000     
   3.3225897405072799E-002  0.13540084698584848        0.0000000000000000     
   2.4349343198286712E-002  0.10622773915509452        0.0000000000000000     
   2.5202331187461648E-002  0.11325923156661256        0.0000000000000000     
   2.6010562906267489E-002  0.12043115222415783        0.0000000000000000     
   2.6774038354704242E-002  0.12774350112773036        0.0000000000000000     
   2.7492757532771896E-002  0.13519627827733016        0.0000000000000000     
   1.9771418377665877E-002  0.10602202287496970        0.0000000000000000     
   2.0395303818243893E-002  0.11306493484691395        0.0000000000000000     
   2.0989845514227994E-002  0.12024855214883036        0.0000000000000000     
   2.1555043465618193E-002  0.12757287478071896        0.0000000000000000     
   2.2090897672414476E-002  0.13503790274257974        0.0000000000000000     
   4.5686017185505051E-002  0.13594856392418880        0.0000000000000000     
   4.6621306930825307E-002  0.14348170563371598        0.0000000000000000     
   4.7500490383812093E-002  0.15113538688381181        0.0000000000000000     
   4.8323567544465415E-002  0.15890960767447623        0.0000000000000000     
   4.9090538412785253E-002  0.16680436800570933        0.0000000000000000     
   3.9290317289317186E-002  0.13565160886813468        0.0000000000000000     
   4.0180809360511320E-002  0.14320463726943627        0.0000000000000000     
   4.1017442931339847E-002  0.15088024861571819        0.0000000000000000     
   4.1800218001802759E-002  0.15867844290698049        0.0000000000000000     
   4.2529134571900065E-002  0.16659922014322318        0.0000000000000000     
   3.3225897405072799E-002  0.13540084698584848        0.0000000000000000     
   3.4029761985311616E-002  0.14297109185452811        0.0000000000000000     
   3.4784514315676772E-002  0.15066493971403064        0.0000000000000000     
   3.5490154396168261E-002  0.15848239056435598        0.0000000000000000     
   3.6146682226786096E-002  0.16642344440550419        0.0000000000000000     
   2.7492757532771896E-002  0.13519627827733016        0.0000000000000000     
   2.8168164805226190E-002  0.14278106938899157        0.0000000000000000     
   2.8801704536822868E-002  0.15048946017874909        0.0000000000000000     
   2.9393376727561912E-002  0.15832145064660266        0.0000000000000000     
   2.9943181377443340E-002  0.16627704079255232        0.0000000000000000     
   2.2090897672414476E-002  0.13503790274257974        0.0000000000000000     
   2.2596017820255054E-002  0.14263456987282663        0.0000000000000000     
   2.3069013594778132E-002  0.15035381000987355        0.0000000000000000     
   2.3509884995983707E-002  0.15819562315372054        0.0000000000000000     
   2.3918632023871782E-002  0.16616000930436758        0.0000000000000000     
   4.9090538412785253E-002  0.16680436800570933        0.0000000000000000     
   4.9801489380265476E-002  0.17480335697233343        0.0000000000000000     
   5.0456506838399931E-002  0.18289026366917088        0.0000000000000000     
   5.1055590787188618E-002  0.19106508809622175        0.0000000000000000     
   5.1598741226631543E-002  0.19932783025348594        0.0000000000000000     
   4.2529134571900065E-002  0.16659922014322318        0.0000000000000000     
   4.3199341536581358E-002  0.17462414026139136        0.0000000000000000     
   4.3805987790796225E-002  0.18273476319843013        0.0000000000000000     
   4.4349073334544672E-002  0.19093108895433947        0.0000000000000000     
   4.4828598167826701E-002  0.19921311752911941        0.0000000000000000     
   3.6146682226786096E-002  0.16642344440550419        0.0000000000000000     
   3.6747300426007157E-002  0.17446861843095526        0.0000000000000000     
   3.7285211612308328E-002  0.18259842983418914        0.0000000000000000     
   3.7760415785689609E-002  0.19081287861520591        0.0000000000000000     
   3.8172912946151015E-002  0.19911196477400547        0.0000000000000000     
   2.9943181377443340E-002  0.16627704079255232        0.0000000000000000     
   3.0445366048542866E-002  0.17433679148102507        0.0000000000000000     
   3.0894178302936229E-002  0.18248126357644795        0.0000000000000000     
   3.1289618140623435E-002  0.19071045707882095        0.0000000000000000     
   3.1631685561604478E-002  0.19902437198814410        0.0000000000000000     
   2.3918632023871782E-002  0.16616000930436758        0.0000000000000000     
   2.4293538404188481E-002  0.17422865941160087        0.0000000000000000     
   2.4632887862679937E-002  0.18238326442520661        0.0000000000000000     
   2.4936680399346139E-002  0.19062382434518471        0.0000000000000000     
   2.5204916014187097E-002  0.19895033917153532        0.0000000000000000     
   5.1598741226631543E-002  0.19932783025348594        0.0000000000000000     
   5.2085110963416018E-002  0.20767182823173455        0.0000000000000000     
   5.2513852804229350E-002  0.21609042012173871        0.0000000000000000     
   5.2884966749071546E-002  0.22458360592349835        0.0000000000000000     
   5.3198452797942608E-002  0.23315138563701351        0.0000000000000000     
   4.4828598167826701E-002  0.19921311752911941        0.0000000000000000     
   4.5250572156256205E-002  0.20757328860909632        0.0000000000000000     
   4.5621005165447086E-002  0.21600404188059660        0.0000000000000000     
   4.5939897195399336E-002  0.22450537734362019        0.0000000000000000     
   4.6207248246112970E-002  0.23307729499816712        0.0000000000000000     
   3.8172912946151015E-002  0.19911196477400547        0.0000000000000000     
   3.8531550293828862E-002  0.20748660496470353        0.0000000000000000     
   3.8845175028859473E-002  0.21592771584141568        0.0000000000000000     
   3.9113787151242849E-002  0.22443529740414192        0.0000000000000000     
   3.9337386660979003E-002  0.23300934965288220        0.0000000000000000     
   3.1631685561604478E-002  0.19902437198814410        0.0000000000000000     
   3.1928045376133959E-002  0.20741177729855617        0.0000000000000000     
   3.2186362394466490E-002  0.21586144200419594        0.0000000000000000     
   3.2406636616602064E-002  0.22437336610506342        0.0000000000000000     
   3.2588868042540686E-002  0.23294754960115868        0.0000000000000000     
   2.5204916014187097E-002  0.19895033917153532        0.0000000000000000     
   2.5440057403171529E-002  0.20734880561065425        0.0000000000000000     
   2.5644567262268166E-002  0.21580522036893743        0.0000000000000000     
   2.5818445591476998E-002  0.22431958344638486        0.0000000000000000     
   2.5961692390798041E-002  0.23289189484299652        0.0000000000000000     
   5.3198452797942608E-002  0.23315138563701351        0.0000000000000000     
   5.3461376877489905E-002  0.24178417676417818        0.0000000000000000     
   5.3680804914360794E-002  0.25047239680688649        0.0000000000000000     
   5.3856736908555275E-002  0.25921604576513829        0.0000000000000000     
   5.3989172860073348E-002  0.26801512363893376        0.0000000000000000     
   4.6207248246112970E-002  0.23307729499816712        0.0000000000000000     
   4.6431489238565042E-002  0.24170359692100646        0.0000000000000000     
   4.6621051093732616E-002  0.25036808518890713        0.0000000000000000     
   4.6775933811615704E-002  0.25907075980186922        0.0000000000000000     
   4.6896137392214300E-002  0.26781162075989273        0.0000000000000000     
   3.9337386660979003E-002  0.23300934965288220        0.0000000000000000     
   3.9524878210366293E-002  0.24162851492977691        0.0000000000000000     
   3.9685166451703120E-002  0.25027143557696635        0.0000000000000000     
   3.9818251384989463E-002  0.25893811159445052        0.0000000000000000     
   3.9924133010225349E-002  0.26762854298222949        0.0000000000000000     
   3.2588868042540686E-002  0.23294754960115868        0.0000000000000000     
   3.2741543792893658E-002  0.24155893079048954        0.0000000000000000     
   3.2873150988272273E-002  0.25018244797106404        0.0000000000000000     
   3.2983689628676559E-002  0.25881810114288217        0.0000000000000000     
   3.3073159714106494E-002  0.26746589030594392        0.0000000000000000     
   2.5961692390798041E-002  0.23289189484299652        0.0000000000000000     
   2.6081485986147127E-002  0.24149484450314440        0.0000000000000000     
   2.6185004703440110E-002  0.25010112237120025        0.0000000000000000     
   2.6272248542676981E-002  0.25871072844716420        0.0000000000000000     
   2.6343217503857749E-002  0.26732366273103619        0.0000000000000000     
   5.3989172860073348E-002  0.26801512363893376        0.0000000000000000     
   5.4108652324034730E-002  0.27682013056490046        0.0000000000000000     
   5.4245714855559068E-002  0.28558156667966605        0.0000000000000000     
   5.4400360454646385E-002  0.29429943198323050        0.0000000000000000     
   5.4572589121296672E-002  0.30297372647559395        0.0000000000000000     
   4.6896137392214300E-002  0.26781162075989273        0.0000000000000000     
   4.7005785366061210E-002  0.27654041314074651        0.0000000000000000     
   4.7129001263689282E-002  0.28520688202219946        0.0000000000000000     
   4.7265785085098488E-002  0.29381102740425158        0.0000000000000000     
   4.7416136830288849E-002  0.30235284928690287        0.0000000000000000     
   3.9924133010225349E-002  0.26762854298222949        0.0000000000000000     
   4.0021717462067286E-002  0.27629126230450674        0.0000000000000000     
   4.0129910875171843E-002  0.28487480212548594        0.0000000000000000     
   4.0248713249539006E-002  0.29337916244516715        0.0000000000000000     
   4.0378124585168776E-002  0.30180434326355016        0.0000000000000000     
   3.3073159714106494E-002  0.26746589030594392        0.0000000000000000     
   3.3156448612052941E-002  0.27607267805618119        0.0000000000000000     
   3.3248443690006742E-002  0.28458532698952549        0.0000000000000000     
   3.3349144947967931E-002  0.29300383710597694        0.0000000000000000     
   3.3458552385936473E-002  0.30132820840553581        0.0000000000000000     
   2.6343217503857749E-002  0.26732366273103619        0.0000000000000000     
   2.6409978816018170E-002  0.27588466039576970        0.0000000000000000     
   2.6484599708194008E-002  0.28433845661431811        0.0000000000000000     
   2.6567080180385259E-002  0.29268505138668149        0.0000000000000000     
   2.6657420232591926E-002  0.30092444471285984        0.0000000000000000     
   1.4222074436380549E-002   5.5814715569513187E-002   0.0000000000000000     
   1.4922127071684542E-002   6.1409243255420409E-002   0.0000000000000000     
   1.5627711514966336E-002   6.7211080370258164E-002   0.0000000000000000     
   1.6338827766225934E-002   7.3220226914026437E-002   0.0000000000000000     
   1.7055475825463337E-002   7.9436682886725243E-002   0.0000000000000000     
   1.3522751466528508E-002   5.5625565139465538E-002   0.0000000000000000     
   1.3454548470571932E-002   6.1237370689861320E-002   0.0000000000000000     
   1.3495555394377547E-002   6.7049818353377061E-002   0.0000000000000000     
   1.3645772237945358E-002   7.3062908130012733E-002   0.0000000000000000     
   1.3905199001275362E-002   7.9276640019768363E-002   0.0000000000000000     
   1.0919298068591932E-002   5.5490457688423304E-002   0.0000000000000000     
   1.0478334423294525E-002   6.1114604570789460E-002   0.0000000000000000     
   1.0180218100320812E-002   6.6934631197816008E-002   0.0000000000000000     
   1.0024949099670801E-002   7.2950537569502955E-002   0.0000000000000000     
   1.0012527421344482E-002   7.9162323685850328E-002   0.0000000000000000     
   6.4117142425708148E-003   5.5409393216386493E-002   0.0000000000000000     
   5.9934849298523170E-003   6.1040944898204788E-002   0.0000000000000000     
   5.6816996327961325E-003   6.6865518903574991E-002   0.0000000000000000     
   5.4763583514022621E-003   7.2883115232497117E-002   0.0000000000000000     
   5.3774610856707006E-003   7.9093733884971110E-002   0.0000000000000000     
  -1.1534837321414138E-011   5.5382371723355098E-002   0.0000000000000000     
  -9.7546875091336638E-012   6.1016391672107338E-002   0.0000000000000000     
  -8.1964964329661605E-012   6.6842481470654025E-002   0.0000000000000000     
  -6.8602601897838067E-012   7.2860641118995151E-002   0.0000000000000000     
  -5.7459844174378993E-012   7.9070870617130723E-002   0.0000000000000000     
   1.7055475825463337E-002   7.9436682886725243E-002   0.0000000000000000     
   1.7764782707395722E-002   8.5838349651363555E-002   0.0000000000000000     
   1.8453875426740273E-002   9.2403128570950427E-002   0.0000000000000000     
   1.9122753983496991E-002   9.9131019645485791E-002   0.0000000000000000     
   1.9771418377665877E-002  0.10602202287496970        0.0000000000000000     
   1.3905199001275362E-002   7.9276640019768363E-002   0.0000000000000000     
   1.4228964874689665E-002   8.5674068655736929E-002   0.0000000000000000     
   1.4572199048510381E-002   9.2238248671011436E-002   0.0000000000000000     
   1.4934901522737506E-002   9.8969180065591897E-002   0.0000000000000000     
   1.5317072297371047E-002  0.10586686283947831        0.0000000000000000     
   1.0012527421344482E-002   7.9162323685850328E-002   0.0000000000000000     
   1.0089561811762099E-002   8.5556725087155922E-002   0.0000000000000000     
   1.0202661017343888E-002   9.2120477313717669E-002   0.0000000000000000     
   1.0351825038089858E-002   9.8853580365535501E-002   0.0000000000000000     
   1.0537053873999997E-002  0.10575603424260947        0.0000000000000000     
   5.3774610856707006E-003   7.9093733884971110E-002   0.0000000000000000     
   5.3465735186130252E-003   8.5486318945620574E-002   0.0000000000000000     
   5.3452613332408035E-003   9.2049814499069071E-002   0.0000000000000000     
   5.3735245295540388E-003   9.8784220545316603E-002   0.0000000000000000     
   5.4313631075527296E-003  0.10568953708436317        0.0000000000000000     
  -5.7459844174378993E-012   7.9070870617130723E-002   0.0000000000000000     
  -4.7575591469867229E-012   8.5462850231130844E-002   0.0000000000000000     
  -3.7988804810207277E-012   9.2026260227065684E-002   0.0000000000000000     
  -2.8699466848164379E-012   9.8761100604935204E-002   0.0000000000000000     
  -1.9707586257355914E-012  0.10566737136473943        0.0000000000000000     
   1.9771418377665877E-002  0.10602202287496970        0.0000000000000000     
   2.0395303818243893E-002  0.11306493484691395        0.0000000000000000     
   2.0989845514227994E-002  0.12024855214883036        0.0000000000000000     
   2.1555043465618193E-002  0.12757287478071896        0.0000000000000000     
   2.2090897672414476E-002  0.13503790274257974        0.0000000000000000     
   1.5317072297371047E-002  0.10586686283947831        0.0000000000000000     
   1.5702624702230855E-002  0.11291844861361774        0.0000000000000000     
   1.6075472067136800E-002  0.12011108900895730        0.0000000000000000     
   1.6435614392088876E-002  0.12744478402549697        0.0000000000000000     
   1.6783051677087081E-002  0.13491953366323675        0.0000000000000000     
   1.0537053873999997E-002  0.10575603424260947        0.0000000000000000     
   1.0739181026986434E-002  0.11281381558978168        0.0000000000000000     
   1.0939039998961292E-002  0.12001290105189427        0.0000000000000000     
   1.1136630789924568E-002  0.12735329062894726        0.0000000000000000     
   1.1331953399876263E-002  0.13483498432094068        0.0000000000000000     
   5.4313631075527296E-003  0.10568953708436317        0.0000000000000000     
   5.5049727925106226E-003  0.11275103577540574        0.0000000000000000     
   5.5805493097014682E-003  0.11995398827764134        0.0000000000000000     
   5.6580926591252674E-003  0.12729839459106995        0.0000000000000000     
   5.7376028407820174E-003  0.13478425471569155        0.0000000000000000     
  -1.9707586257355914E-012  0.10566737136473943        0.0000000000000000     
  -1.1965784266210200E-012  0.11273010917048996        0.0000000000000000     
  -6.4266777663468666E-013  0.11993435068619845        0.0000000000000000     
  -3.0902700103724312E-013  0.12728009591186490        0.0000000000000000     
  -1.9565469036586514E-013  0.13476734484748934        0.0000000000000000     
   2.2090897672414476E-002  0.13503790274257974        0.0000000000000000     
   2.2596017820255054E-002  0.14263456987282663        0.0000000000000000     
   2.3069013594778132E-002  0.15035381000987355        0.0000000000000000     
   2.3509884995983707E-002  0.15819562315372054        0.0000000000000000     
   2.3918632023871782E-002  0.16616000930436758        0.0000000000000000     
   1.6783051677087081E-002  0.13491953366323675        0.0000000000000000     
   1.7113200290909326E-002  0.14252542408659474        0.0000000000000000     
   1.7421476602333501E-002  0.15025254145998906        0.0000000000000000     
   1.7707880611359614E-002  0.15810088578341977        0.0000000000000000     
   1.7972412317987657E-002  0.16607045705688672        0.0000000000000000     
   1.1331953399876263E-002  0.13483498432094068        0.0000000000000000     
   1.1519591477700125E-002  0.14244746281085749        0.0000000000000000     
   1.1694128672279896E-002  0.15018020678168070        0.0000000000000000     
   1.1855564983615579E-002  0.15803321623341041        0.0000000000000000     
   1.2003900411707170E-002  0.16600649116604649        0.0000000000000000     
   5.7376028407820174E-003  0.13478425471569155        0.0000000000000000     
   5.8151913806274583E-003  0.14240068604561484        0.0000000000000000     
   5.8869698046173213E-003  0.15013680597494850        0.0000000000000000     
   5.9529381127516106E-003  0.15799261450369248        0.0000000000000000     
   6.0130963050303229E-003  0.16596811163184683        0.0000000000000000     
  -1.9565469036586514E-013  0.13476734484748934        0.0000000000000000     
  -3.0867908056009252E-013  0.14238509379086678        0.0000000000000000     
  -6.5422602231468563E-013  0.15012233903979236        0.0000000000000000     
  -1.2322931845949736E-012  0.15797908059426605        0.0000000000000000     
  -2.0428827900154101E-012  0.16595531845428782        0.0000000000000000     
   2.3918632023871782E-002  0.16616000930436758        0.0000000000000000     
   2.4293538404188481E-002  0.17422865941160087        0.0000000000000000     
   2.4632887862679937E-002  0.18238326442520661        0.0000000000000000     
   2.4936680399346139E-002  0.19062382434518471        0.0000000000000000     
   2.5204916014187097E-002  0.19895033917153532        0.0000000000000000     
   1.7972412317987657E-002  0.16607045705688672        0.0000000000000000     
   1.8217611545397177E-002  0.17414441036117048        0.0000000000000000     
   1.8446018116767715E-002  0.18230590077705153        0.0000000000000000     
   1.8657632032099272E-002  0.19055492830452989        0.0000000000000000     
   1.8852453291391843E-002  0.19889149294360550        0.0000000000000000     
   1.2003900411707170E-002  0.16600649116604649        0.0000000000000000     
   1.2143379524622112E-002  0.17408423246822180        0.0000000000000000     
   1.2278246890427851E-002  0.18225064102856939        0.0000000000000000     
   1.2408502509124378E-002  0.19050571684708911        0.0000000000000000     
   1.2534146380711699E-002  0.19884945992378103        0.0000000000000000     
   6.0130963050303229E-003  0.16596811163184683        0.0000000000000000     
   6.0708423418632876E-003  0.17404812573275491        0.0000000000000000     
   6.1295741836603357E-003  0.18221748517976011        0.0000000000000000     
   6.1892918304214620E-003  0.19047618997286245        0.0000000000000000     
   6.2499952821466719E-003  0.19882424011206190        0.0000000000000000     
  -2.0428827900154101E-012  0.16595531845428782        0.0000000000000000     
  -2.8792940254263044E-012  0.17403609015476973        0.0000000000000000     
  -3.5348246682151419E-012  0.18220643323062374        0.0000000000000000     
  -4.0094753417981716E-012  0.19046634768184986        0.0000000000000000     
  -4.3032448264479495E-012  0.19881583350844814        0.0000000000000000     
   2.5204916014187097E-002  0.19895033917153532        0.0000000000000000     
   2.5440057403171529E-002  0.20734880561065425        0.0000000000000000     
   2.5644567262268166E-002  0.21580522036893743        0.0000000000000000     
   2.5818445591476998E-002  0.22431958344638486        0.0000000000000000     
   2.5961692390798041E-002  0.23289189484299652        0.0000000000000000     
   1.8852453291391843E-002  0.19889149294360550        0.0000000000000000     
   1.9027381689746461E-002  0.20729889237425689        0.0000000000000000     
   1.9179317022264143E-002  0.21576042427646266        0.0000000000000000     
   1.9308259288944904E-002  0.22427608865022278        0.0000000000000000     
   1.9414208489788733E-002  0.23284588549553728        0.0000000000000000     
   1.2534146380711699E-002  0.19884945992378103        0.0000000000000000     
   1.2649813550663662E-002  0.20726324006262337        0.0000000000000000     
   1.2750139064454104E-002  0.21572842706759435        0.0000000000000000     
   1.2835122922083031E-002  0.22424502093869395        0.0000000000000000     
   1.2904765123550441E-002  0.23281302167592224        0.0000000000000000     
   6.2499952821466719E-003  0.19882424011206190        0.0000000000000000     
   6.3073529859231378E-003  0.20724184867575351        0.0000000000000000     
   6.3570333888380440E-003  0.21570922874233234        0.0000000000000000     
   6.3990364908913869E-003  0.22422638031179828        0.0000000000000000     
   6.4333622920831682E-003  0.23279330338415150        0.0000000000000000     
  -4.3032448264479495E-012  0.19881583350844814        0.0000000000000000     
  -4.4751077843407927E-012  0.20723471821364747        0.0000000000000000     
  -4.5840362755678044E-012  0.21570282930067669        0.0000000000000000     
  -4.6300307338098534E-012  0.22422016676953591        0.0000000000000000     
  -4.6130911590669399E-012  0.23278673062022504        0.0000000000000000     
   2.5961692390798041E-002  0.23289189484299652        0.0000000000000000     
   2.6081485986147127E-002  0.24149484450314440        0.0000000000000000     
   2.6185004703440110E-002  0.25010112237120025        0.0000000000000000     
   2.6272248542676981E-002  0.25871072844716420        0.0000000000000000     
   2.6343217503857749E-002  0.26732366273103619        0.0000000000000000     
   1.9414208489788733E-002  0.23284588549553728        0.0000000000000000     
   1.9502578485690127E-002  0.24144117431193643        0.0000000000000000     
   1.9578783137543583E-002  0.25003331459895067        0.0000000000000000     
   1.9642822445349095E-002  0.25862230635658007        0.0000000000000000     
   1.9694696409106666E-002  0.26720814958482458        0.0000000000000000     
   1.2904765123550441E-002  0.23281302167592224        0.0000000000000000     
   1.2962694987086076E-002  0.24140283846106075        0.0000000000000000     
   1.3012541830919684E-002  0.24998488047589121        0.0000000000000000     
   1.3054305655051260E-002  0.25855914772041338        0.0000000000000000     
   1.3087986459480803E-002  0.26712564019462753        0.0000000000000000     
   6.4333622920831682E-003  0.23279330338415150        0.0000000000000000     
   6.4618354903349775E-003  0.24137983695051740        0.0000000000000000     
   6.4862807835684155E-003  0.24995582000202166        0.0000000000000000     
   6.5066981717834737E-003  0.25852125253866415        0.0000000000000000     
   6.5230876549801607E-003  0.26707613456044493        0.0000000000000000     
  -4.6130911590669399E-012  0.23278673062022504        0.0000000000000000     
  -4.5631727563222313E-012  0.24137216978030632        0.0000000000000000     
  -4.5102282368938984E-012  0.24994613317734210        0.0000000000000000     
  -4.4542588205093853E-012  0.25850862081133225        0.0000000000000000     
  -4.3952658353163532E-012  0.26705963268227695        0.0000000000000000     
   2.6343217503857749E-002  0.26732366273103619        0.0000000000000000     
   2.6409978816018170E-002  0.27588466039576970        0.0000000000000000     
   2.6484599708194008E-002  0.28433845661431811        0.0000000000000000     
   2.6567080180385259E-002  0.29268505138668149        0.0000000000000000     
   2.6657420232591926E-002  0.30092444471285984        0.0000000000000000     
   1.9694696409106666E-002  0.26720814958482458        0.0000000000000000     
   1.9744052437962654E-002  0.27573351782509720        0.0000000000000000     
   1.9800537941063415E-002  0.28414108461881110        0.0000000000000000     
   1.9864152918408953E-002  0.29243084996596619        0.0000000000000000     
   1.9934897369999260E-002  0.30060281386656251        0.0000000000000000     
   1.3087986459480803E-002  0.26712564019462753        0.0000000000000000     
   1.3120413841886064E-002  0.27562555884598849        0.0000000000000000     
   1.3158417399944777E-002  0.28400010462195158        0.0000000000000000     
   1.3201997133656952E-002  0.29224927752251662        0.0000000000000000     
   1.3251153043022587E-002  0.30037307754768383        0.0000000000000000     
   6.5230876549801607E-003  0.26707613456044493        0.0000000000000000     
   6.5390630277883917E-003  0.27556078345844365        0.0000000000000000     
   6.5582380848380941E-003  0.28391551662373965        0.0000000000000000     
   6.5806128261292653E-003  0.29214033405633305        0.0000000000000000     
   6.6061872516619087E-003  0.30023523575622385        0.0000000000000000     
  -4.3952658353163532E-012  0.26705963268227695        0.0000000000000000     
  -4.3303548680900805E-012  0.27553919166246249        0.0000000000000000     
  -4.2566374687177944E-012  0.28388732062417527        0.0000000000000000     
  -4.1741115501103127E-012  0.29210401956741533        0.0000000000000000     
  -4.0827757841199741E-012  0.30018928849218252        0.0000000000000000     
  -1.1534837321414138E-011   5.5382371723355098E-002   0.0000000000000000     
  -9.7546875091336638E-012   6.1016391672107338E-002   0.0000000000000000     
  -8.1964964329661605E-012   6.6842481470654025E-002   0.0000000000000000     
  -6.8602601897838067E-012   7.2860641118995151E-002   0.0000000000000000     
  -5.7459844174378993E-012   7.9070870617130723E-002   0.0000000000000000     
  -6.4117142673045403E-003   5.5409393208827866E-002   0.0000000000000000     
  -5.9934849508837687E-003   6.1040944892265914E-002   0.0000000000000000     
  -5.6816996505752188E-003   6.6865518899001830E-002   0.0000000000000000     
  -5.4763583663788896E-003   7.2883115229035664E-002   0.0000000000000000     
  -5.3774610982947829E-003   7.9093733882367359E-002   0.0000000000000000     
  -1.0919298098317815E-002   5.5490457672303525E-002   0.0000000000000000     
  -1.0478334448892209E-002   6.1114604558449317E-002   0.0000000000000000     
  -1.0180218122258186E-002   6.6934631188567212E-002   0.0000000000000000     
  -1.0024949118415751E-002   7.2950537562657181E-002   0.0000000000000000     
  -1.0012527437364905E-002   7.9162323680719279E-002   0.0000000000000000     
  -1.3522751504574651E-002   5.5625565113782069E-002   0.0000000000000000     
  -1.3454548503780001E-002   6.1237370670657577E-002   0.0000000000000000     
  -1.3495555423245398E-002   6.7049818339350128E-002   0.0000000000000000     
  -1.3645772262970847E-002   7.3062908119859743E-002   0.0000000000000000     
  -1.3905199022956345E-002   7.9276640012186442E-002   0.0000000000000000     
  -1.4222074486075055E-002   5.5814715533263511E-002   0.0000000000000000     
  -1.4922127115547149E-002   6.1409243228890659E-002   0.0000000000000000     
  -1.5627711553536854E-002   6.7211080351350594E-002   0.0000000000000000     
  -1.6338827800044177E-002   7.3220226900643323E-002   0.0000000000000000     
  -1.7055475855069113E-002   7.9436682876768847E-002   0.0000000000000000     
  -5.7459844174378993E-012   7.9070870617130723E-002   0.0000000000000000     
  -4.7575591469867229E-012   8.5462850231130844E-002   0.0000000000000000     
  -3.7988804810207277E-012   9.2026260227065684E-002   0.0000000000000000     
  -2.8699466848164379E-012   9.8761100604935204E-002   0.0000000000000000     
  -1.9707586257355914E-012  0.10566737136473943        0.0000000000000000     
  -5.3774610982947829E-003   7.9093733882367359E-002   0.0000000000000000     
  -5.3465735291529631E-003   8.5486318943690548E-002   0.0000000000000000     
  -5.3452613417834961E-003   9.2049814497698806E-002   0.0000000000000000     
  -5.3735245361863863E-003   9.8784220544392135E-002   0.0000000000000000     
  -5.4313631123616276E-003  0.10568953708377050        0.0000000000000000     
  -1.0012527437364905E-002   7.9162323680719279E-002   0.0000000000000000     
  -1.0089561825376493E-002   8.5556725083303461E-002   0.0000000000000000     
  -1.0202661028721383E-002   9.2120477310959764E-002   0.0000000000000000     
  -1.0351825047399560E-002   9.8853580363688159E-002   0.0000000000000000     
  -1.0537053881411041E-002  0.10575603424148869        0.0000000000000000     
  -1.3905199022956345E-002   7.9276640012186442E-002   0.0000000000000000     
  -1.4228964893428158E-002   8.5674068649969556E-002   0.0000000000000000     
  -1.4572199064612533E-002   9.2238248666848544E-002   0.0000000000000000     
  -1.4934901536509483E-002   9.8969180062823361E-002   0.0000000000000000     
  -1.5317072309118994E-002  0.10586686283789400        0.0000000000000000     
  -1.7055475855069113E-002   7.9436682876768847E-002   0.0000000000000000     
  -1.7764782733307942E-002   8.5838349643688874E-002   0.0000000000000000     
  -1.8453875449456952E-002   9.2403128565365131E-002   0.0000000000000000     
  -1.9122754003516134E-002   9.9131019641797644E-002   0.0000000000000000     
  -1.9771418395485494E-002  0.10602202287298640        0.0000000000000000     
  -1.9707586257355914E-012  0.10566737136473943        0.0000000000000000     
  -1.1965784266210200E-012  0.11273010917048996        0.0000000000000000     
  -6.4266777663468666E-013  0.11993435068619845        0.0000000000000000     
  -3.0902700103724312E-013  0.12728009591186490        0.0000000000000000     
  -1.9565469036586514E-013  0.13476734484748934        0.0000000000000000     
  -5.4313631123616276E-003  0.10568953708377050        0.0000000000000000     
  -5.5049727957571289E-003  0.11275103577510023        0.0000000000000000     
  -5.5805493118207920E-003  0.11995398827764757        0.0000000000000000     
  -5.6580926605526187E-003  0.12729839459141254        0.0000000000000000     
  -5.7376028419526080E-003  0.13478425471639516        0.0000000000000000     
  -1.0537053881411041E-002  0.10575603424148869        0.0000000000000000     
  -1.0739181032792986E-002  0.11281381558930247        0.0000000000000000     
  -1.0939040003582576E-002  0.12001290105207063        0.0000000000000000     
  -1.1136630793779813E-002  0.12735329062979320        0.0000000000000000     
  -1.1331953403384696E-002  0.13483498432247012        0.0000000000000000     
  -1.5317072309118994E-002  0.10586686283789400        0.0000000000000000     
  -1.5702624712304152E-002  0.11291844861309668        0.0000000000000000     
  -1.6075472075928021E-002  0.12011108900946764        0.0000000000000000     
  -1.6435614399990608E-002  0.12744478402700682        0.0000000000000000     
  -1.6783051684491911E-002  0.13491953366571427        0.0000000000000000     
  -1.9771418395485494E-002  0.10602202287298640        0.0000000000000000     
  -2.0395303834290626E-002  0.11306493484648286        0.0000000000000000     
  -2.0989845528857132E-002  0.12024855214983857        0.0000000000000000     
  -2.1555043479185011E-002  0.12757287478305343        0.0000000000000000     
  -2.2090897685274266E-002  0.13503790274612756        0.0000000000000000     
  -1.9565469036586514E-013  0.13476734484748934        0.0000000000000000     
  -3.0867908056009252E-013  0.14238509379086678        0.0000000000000000     
  -6.5422602231468563E-013  0.15012233903979236        0.0000000000000000     
  -1.2322931845949736E-012  0.15797908059426605        0.0000000000000000     
  -2.0428827900154101E-012  0.16595531845428782        0.0000000000000000     
  -5.7376028419526080E-003  0.13478425471639516        0.0000000000000000     
  -5.8151913819784072E-003  0.14240068604664363        0.0000000000000000     
  -5.8869698065876557E-003  0.15013680597620616        0.0000000000000000     
  -5.9529381157803580E-003  0.15799261450508276        0.0000000000000000     
  -6.0130963095565131E-003  0.16596811163327341        0.0000000000000000     
  -1.1331953403384696E-002  0.13483498432247012        0.0000000000000000     
  -1.1519591481251840E-002  0.14244746281297560        0.0000000000000000     
  -1.1694128676235880E-002  0.15018020678418365        0.0000000000000000     
  -1.1855564988336812E-002  0.15803321623609429        0.0000000000000000     
  -1.2003900417554631E-002  0.16600649116870755        0.0000000000000000     
  -1.6783051684491911E-002  0.13491953366571427        0.0000000000000000     
  -1.7113200298128989E-002  0.14252542408986274        0.0000000000000000     
  -1.7421476609598901E-002  0.15025254146372485        0.0000000000000000     
  -1.7707880618901651E-002  0.15810088578730075        0.0000000000000000     
  -1.7972412326037236E-002  0.16607045706059032        0.0000000000000000     
  -2.2090897685274266E-002  0.13503790274612756        0.0000000000000000     
  -2.2596017832609845E-002  0.14263456987730497        0.0000000000000000     
  -2.3069013606676715E-002  0.15035381001482978        0.0000000000000000     
  -2.3509885007474880E-002  0.15819562315870203        0.0000000000000000     
  -2.3918632035004328E-002  0.16616000930892166        0.0000000000000000     
  -2.0428827900154101E-012  0.16595531845428782        0.0000000000000000     
  -2.8792940254263044E-012  0.17403609015476973        0.0000000000000000     
  -3.5348246682151419E-012  0.18220643323062374        0.0000000000000000     
  -4.0094753417981716E-012  0.19046634768184986        0.0000000000000000     
  -4.3032448264479495E-012  0.19881583350844814        0.0000000000000000     
  -6.0130963095565131E-003  0.16596811163327341        0.0000000000000000     
  -6.0708423479369092E-003  0.17404812573413114        0.0000000000000000     
  -6.1295741909423414E-003  0.18221748518100903        0.0000000000000000     
  -6.1892918385728062E-003  0.19047618997390706        0.0000000000000000     
  -6.2499952908283045E-003  0.19882424011282526        0.0000000000000000     
  -1.2003900417554631E-002  0.16600649116870755        0.0000000000000000     
  -1.2143379531640837E-002  0.17408423247070415        0.0000000000000000     
  -1.2278246898346928E-002  0.18225064103076491        0.0000000000000000     
  -1.2408502517672899E-002  0.19050571684888976        0.0000000000000000     
  -1.2534146389618757E-002  0.19884945992507869        0.0000000000000000     
  -1.7972412326037236E-002  0.16607045706059032        0.0000000000000000     
  -1.8217611553991073E-002  0.17414441036448880        0.0000000000000000     
  -1.8446018125748580E-002  0.18230590077989128        0.0000000000000000     
  -1.8657632041309762E-002  0.19055492830679785        0.0000000000000000     
  -1.8852453300674608E-002  0.19889149294520841        0.0000000000000000     
  -2.3918632035004328E-002  0.16616000930892166        0.0000000000000000     
  -2.4293538414987614E-002  0.17422865941548499        0.0000000000000000     
  -2.4632887873147304E-002  0.18238326442838823        0.0000000000000000     
  -2.4936680409483380E-002  0.19062382434763142        0.0000000000000000     
  -2.5204916023995851E-002  0.19895033917321453        0.0000000000000000     
  -4.3032448264479495E-012  0.19881583350844814        0.0000000000000000     
  -4.4751077843407927E-012  0.20723471821364747        0.0000000000000000     
  -4.5840362755678044E-012  0.21570282930067669        0.0000000000000000     
  -4.6300307338098534E-012  0.22422016676953591        0.0000000000000000     
  -4.6130911590669399E-012  0.23278673062022504        0.0000000000000000     
  -6.2499952908283045E-003  0.19882424011282526        0.0000000000000000     
  -6.3073529949073844E-003  0.20724184867622741        0.0000000000000000     
  -6.3570333980086016E-003  0.21570922874257734        0.0000000000000000     
  -6.3990365001319570E-003  0.22422638031187503        0.0000000000000000     
  -6.4333623012774472E-003  0.23279330338412049        0.0000000000000000     
  -1.2534146389618757E-002  0.19884945992507869        0.0000000000000000     
  -1.2649813559749992E-002  0.20726324006341551        0.0000000000000000     
  -1.2750139073632118E-002  0.21572842706798395        0.0000000000000000     
  -1.2835122931265121E-002  0.22424502093878404        0.0000000000000000     
  -1.2904765132649012E-002  0.23281302167581569        0.0000000000000000     
  -1.8852453300674608E-002  0.19889149294520841        0.0000000000000000     
  -1.9027381699002935E-002  0.20729889237521179        0.0000000000000000     
  -1.9179317031454583E-002  0.21576042427689660        0.0000000000000000     
  -1.9308259298029533E-002  0.22427608865026283        0.0000000000000000     
  -1.9414208498727784E-002  0.23284588549531055        0.0000000000000000     
  -2.5204916023995851E-002  0.19895033917321453        0.0000000000000000     
  -2.5440057412666219E-002  0.20734880561161623        0.0000000000000000     
  -2.5644567271475995E-002  0.21580522036931526        0.0000000000000000     
  -2.5818445600425181E-002  0.22431958344631153        0.0000000000000000     
  -2.5961692399513771E-002  0.23289189484260509        0.0000000000000000     
  -4.6130911590669399E-012  0.23278673062022504        0.0000000000000000     
  -4.5631727563222313E-012  0.24137216978030632        0.0000000000000000     
  -4.5102282368938984E-012  0.24994613317734210        0.0000000000000000     
  -4.4542588205093853E-012  0.25850862081133225        0.0000000000000000     
  -4.3952658353163532E-012  0.26705963268227695        0.0000000000000000     
  -6.4333623012774472E-003  0.23279330338412049        0.0000000000000000     
  -6.4618354994225068E-003  0.24137983695040999        0.0000000000000000     
  -6.4862807925445652E-003  0.24995582000183975        0.0000000000000000     
  -6.5066981806436268E-003  0.25852125253840980        0.0000000000000000     
  -6.5230876637196880E-003  0.26707613456012008        0.0000000000000000     
  -1.2904765132649012E-002  0.23281302167581569        0.0000000000000000     
  -1.2962694996057154E-002  0.24140283846081101        0.0000000000000000     
  -1.3012541839762918E-002  0.24998488047550199        0.0000000000000000     
  -1.3054305663766308E-002  0.25855914771988864        0.0000000000000000     
  -1.3087986468067322E-002  0.26712564019397095        0.0000000000000000     
  -1.9414208498727784E-002  0.23284588549531055        0.0000000000000000     
  -1.9502578494467120E-002  0.24144117431150927        0.0000000000000000     
  -1.9578783146165291E-002  0.25003331459832873        0.0000000000000000     
  -1.9642822453822307E-002  0.25862230635576883        0.0000000000000000     
  -1.9694696417438172E-002  0.26720814958382955        0.0000000000000000     
  -2.5961692399513771E-002  0.23289189484260509        0.0000000000000000     
  -2.6081485994652393E-002  0.24149484450250486        0.0000000000000000     
  -2.6185004711751676E-002  0.25010112237031995        0.0000000000000000     
  -2.6272248550811624E-002  0.25871072844605025        0.0000000000000000     
  -2.6343217511832231E-002  0.26732366272969582        0.0000000000000000     
  -4.3952658353163532E-012  0.26705963268227695        0.0000000000000000     
  -4.3303548680900805E-012  0.27553919166246249        0.0000000000000000     
  -4.2566374687177944E-012  0.28388732062417527        0.0000000000000000     
  -4.1741115501103127E-012  0.29210401956741533        0.0000000000000000     
  -4.0827757841199741E-012  0.30018928849218252        0.0000000000000000     
  -6.5230876637196880E-003  0.26707613456012008        0.0000000000000000     
  -6.5390630363966317E-003  0.27556078345804580        0.0000000000000000     
  -6.5582380932983440E-003  0.28391551662326187        0.0000000000000000     
  -6.5806128344248170E-003  0.29214033405576850        0.0000000000000000     
  -6.6061872597760543E-003  0.30023523575556554        0.0000000000000000     
  -1.3087986468067322E-002  0.26712564019397095        0.0000000000000000     
  -1.3120413850336894E-002  0.27562555884519402        0.0000000000000000     
  -1.3158417408245948E-002  0.28400010462100295        0.0000000000000000     
  -1.3201997141794489E-002  0.29224927752139779        0.0000000000000000     
  -1.3251153050982518E-002  0.30037307754637849        0.0000000000000000     
  -1.9694696417438172E-002  0.26720814958382955        0.0000000000000000     
  -1.9744052446151135E-002  0.27573351782390731        0.0000000000000000     
  -1.9800537949099455E-002  0.28414108461739851        0.0000000000000000     
  -1.9864152926283137E-002  0.29243084996430319        0.0000000000000000     
  -1.9934897377702172E-002  0.30060281386462123        0.0000000000000000     
  -2.6343217511832231E-002  0.26732366272969582        0.0000000000000000     
  -2.6409978823839358E-002  0.27588466039418558        0.0000000000000000     
  -2.6484599715858863E-002  0.28433845661244850        0.0000000000000000     
  -2.6567080187890748E-002  0.29268505138448458        0.0000000000000000     
  -2.6657420239935004E-002  0.30092444471029378        0.0000000000000000     
  -1.4222074486075055E-002   5.5814715533263511E-002   0.0000000000000000     
  -1.4922127115547149E-002   6.1409243228890659E-002   0.0000000000000000     
  -1.5627711553536854E-002   6.7211080351350594E-002   0.0000000000000000     
  -1.6338827800044177E-002   7.3220226900643323E-002   0.0000000000000000     
  -1.7055475855069113E-002   7.9436682876768847E-002   0.0000000000000000     
  -1.5190784856694017E-002   5.6072858309031900E-002   0.0000000000000000     
  -1.6631473323193185E-002   6.1652336974718357E-002   0.0000000000000000     
  -1.7977061429776897E-002   6.7443773507204860E-002   0.0000000000000000     
  -1.9227549176445143E-002   7.3447167906491445E-002   0.0000000000000000     
  -2.0382936563197937E-002   7.9662520172578077E-002   0.0000000000000000     
  -1.8602400430306525E-002   5.6414942819371296E-002   0.0000000000000000     
  -2.0332990165717640E-002   6.1988766649710439E-002   0.0000000000000000     
  -2.1943979968609858E-002   6.7773254089549234E-002   0.0000000000000000     
  -2.3435369838983169E-002   7.3768405138887674E-002   0.0000000000000000     
  -2.4807159776837569E-002   7.9974219797725718E-002   0.0000000000000000     
  -2.4456921206912580E-002   5.6840969064281689E-002   0.0000000000000000     
  -2.6026677643120524E-002   6.2418532253866933E-002   0.0000000000000000     
  -2.7528467170035743E-002   6.8199522098383702E-002   0.0000000000000000     
  -2.8962289787658229E-002   7.4183938597831983E-002   0.0000000000000000     
  -3.0328145495987991E-002   8.0371781752211782E-002   0.0000000000000000     
  -3.2754347186512184E-002   5.7350937043763088E-002   0.0000000000000000     
  -3.3712535755401826E-002   6.2941633787187812E-002   0.0000000000000000     
  -3.4730523034054543E-002   6.8722577533708251E-002   0.0000000000000000     
  -3.5808309022470348E-002   7.4693768283324399E-002   0.0000000000000000     
  -3.6945893720649214E-002   8.0855206036036270E-002   0.0000000000000000     
  -1.7055475855069113E-002   7.9436682876768847E-002   0.0000000000000000     
  -1.7764782733307942E-002   8.5838349643688874E-002   0.0000000000000000     
  -1.8453875449456952E-002   9.2403128565365131E-002   0.0000000000000000     
  -1.9122754003516134E-002   9.9131019641797644E-002   0.0000000000000000     
  -1.9771418395485494E-002  0.10602202287298640        0.0000000000000000     
  -2.0382936563197937E-002   7.9662520172578077E-002   0.0000000000000000     
  -2.1461714884441669E-002   8.6063844758457464E-002   0.0000000000000000     
  -2.2482375434582726E-002   9.2625156117122243E-002   0.0000000000000000     
  -2.3444918213621119E-002   9.9346454248572469E-002   0.0000000000000000     
  -2.4349343221556834E-002  0.10622773915280813        0.0000000000000000     
  -2.4807159776837569E-002   7.9974219797725718E-002   0.0000000000000000     
  -2.6084460886255136E-002   8.6364830688271360E-002   0.0000000000000000     
  -2.7292384271317954E-002   9.2914370432732513E-002   0.0000000000000000     
  -2.8430929932026009E-002   9.9622839031109175E-002   0.0000000000000000     
  -2.9500097868379319E-002  0.10649023648340136        0.0000000000000000     
  -3.0328145495987991E-002   8.0371781752211782E-002   0.0000000000000000     
  -3.1633020738748345E-002   8.6741307433130618E-002   0.0000000000000000     
  -3.2883901959662620E-002   9.3270771512195941E-002   0.0000000000000000     
  -3.4080789158730820E-002   9.9960173989407791E-002   0.0000000000000000     
  -3.5223682335952938E-002  0.10680951486476614        0.0000000000000000     
  -3.6945893720649214E-002   8.0855206036036270E-002   0.0000000000000000     
  -3.8107394441921301E-002   8.7193274993035211E-002   0.0000000000000000     
  -3.9256928499616747E-002   9.3694359355512527E-002   0.0000000000000000     
  -4.0394495893735546E-002  0.10035845912346827        0.0000000000000000     
  -4.1520096624277698E-002  0.10718557429690242        0.0000000000000000     
  -1.9771418395485494E-002  0.10602202287298640        0.0000000000000000     
  -2.0395303834290626E-002  0.11306493484648286        0.0000000000000000     
  -2.0989845528857132E-002  0.12024855214983857        0.0000000000000000     
  -2.1555043479185011E-002  0.12757287478305343        0.0000000000000000     
  -2.2090897685274266E-002  0.13503790274612756        0.0000000000000000     
  -2.4349343221556834E-002  0.10622773915280813        0.0000000000000000     
  -2.5202331208911303E-002  0.11325923156634399        0.0000000000000000     
  -2.6010562926205946E-002  0.12043115222569489        0.0000000000000000     
  -2.6774038373440771E-002  0.12774350113086080        0.0000000000000000     
  -2.7492757550615761E-002  0.13519627828184175        0.0000000000000000     
  -2.9500097868379319E-002  0.10649023648340136        0.0000000000000000     
  -3.0508819646325076E-002  0.11350729604956304        0.0000000000000000     
  -3.1466026831810524E-002  0.12066475098954815        0.0000000000000000     
  -3.2371719424835632E-002  0.12796260130335668        0.0000000000000000     
  -3.3225897425400434E-002  0.13540084699098867        0.0000000000000000     
  -3.5223682335952938E-002  0.10680951486476614        0.0000000000000000     
  -3.6314769146531950E-002  0.11380912829613997        0.0000000000000000     
  -3.7356237245670838E-002  0.12094934844139826        0.0000000000000000     
  -3.8348086633369617E-002  0.12823017530054107        0.0000000000000000     
  -3.9290317309628266E-002  0.13565160887356825        0.0000000000000000     
  -4.1520096624277698E-002  0.10718557429690242        0.0000000000000000     
  -4.2620179709531920E-002  0.11416472830607480        0.0000000000000000     
  -4.3681194167786930E-002  0.12128494458124529        0.0000000000000000     
  -4.4703139999042713E-002  0.12854622312241387        0.0000000000000000     
  -4.5686017203299283E-002  0.13594856392958055        0.0000000000000000     
  -2.2090897685274266E-002  0.13503790274612756        0.0000000000000000     
  -2.2596017832609845E-002  0.14263456987730497        0.0000000000000000     
  -2.3069013606676715E-002  0.15035381001482978        0.0000000000000000     
  -2.3509885007474880E-002  0.15819562315870203        0.0000000000000000     
  -2.3918632035004328E-002  0.16616000930892166        0.0000000000000000     
  -2.7492757550615761E-002  0.13519627828184175        0.0000000000000000     
  -2.8168164822269481E-002  0.14278106939449711        0.0000000000000000     
  -2.8801704552940458E-002  0.15048946018468620        0.0000000000000000     
  -2.9393376742628700E-002  0.15832145065240902        0.0000000000000000     
  -2.9943181391334214E-002  0.16627704079766564        0.0000000000000000     
  -3.3225897425400434E-002  0.13540084699098867        0.0000000000000000     
  -3.4029762004682954E-002  0.14297109186063375        0.0000000000000000     
  -3.4784514333861261E-002  0.15066493972048176        0.0000000000000000     
  -3.5490154412935342E-002  0.15848239057053259        0.0000000000000000     
  -3.6146682241905211E-002  0.16642344441078627        0.0000000000000000     
  -3.9290317309628266E-002  0.13565160887356825        0.0000000000000000     
  -4.0180809379850281E-002  0.14320463727571506        0.0000000000000000     
  -4.1017442949439112E-002  0.15088024862221655        0.0000000000000000     
  -4.1800218018394793E-002  0.15867844291307276        0.0000000000000000     
  -4.2529134586717310E-002  0.16659922014828354        0.0000000000000000     
  -4.5686017203299283E-002  0.13594856392958055        0.0000000000000000     
  -4.6621306947771446E-002  0.14348170563974091        0.0000000000000000     
  -4.7500490399674043E-002  0.15113538688989056        0.0000000000000000     
  -4.8323567559007061E-002  0.15890960768002940        0.0000000000000000     
  -4.9090538425770519E-002  0.16680436801015758        0.0000000000000000     
  -2.3918632035004328E-002  0.16616000930892166        0.0000000000000000     
  -2.4293538414987614E-002  0.17422865941548499        0.0000000000000000     
  -2.4632887873147304E-002  0.18238326442838823        0.0000000000000000     
  -2.4936680409483380E-002  0.19062382434763142        0.0000000000000000     
  -2.5204916023995851E-002  0.19895033917321453        0.0000000000000000     
  -2.9943181391334214E-002  0.16627704079766564        0.0000000000000000     
  -3.0445366061271534E-002  0.17433679148518638        0.0000000000000000     
  -3.0894178314655216E-002  0.18248126357970157        0.0000000000000000     
  -3.1289618151485246E-002  0.19071045708121129        0.0000000000000000     
  -3.1631685571761631E-002  0.19902437198971543        0.0000000000000000     
  -3.6146682241905211E-002  0.16642344441078627        0.0000000000000000     
  -3.6747300439483890E-002  0.17446861843508660        0.0000000000000000     
  -3.7285211624384439E-002  0.18259842983727723        0.0000000000000000     
  -3.7760415796606828E-002  0.19081287861735829        0.0000000000000000     
  -3.8172912956151085E-002  0.19911196477532964        0.0000000000000000     
  -4.2529134586717310E-002  0.16659922014828354        0.0000000000000000     
  -4.3199341549624688E-002  0.17462414026518561        0.0000000000000000     
  -4.3805987802334967E-002  0.18273476320111523        0.0000000000000000     
  -4.4349073344848153E-002  0.19093108895607239        0.0000000000000000     
  -4.4828598177164225E-002  0.19921311753005719        0.0000000000000000     
  -4.9090538425770519E-002  0.16680436801015758        0.0000000000000000     
  -4.9801489391693918E-002  0.17480335697548344        0.0000000000000000     
  -5.0456506848506819E-002  0.18289026367121547        0.0000000000000000     
  -5.1055590796209187E-002  0.19106508809735367        0.0000000000000000     
  -5.1598741234801043E-002  0.19932783025389805        0.0000000000000000     
  -2.5204916023995851E-002  0.19895033917321453        0.0000000000000000     
  -2.5440057412666219E-002  0.20734880561161623        0.0000000000000000     
  -2.5644567271475995E-002  0.21580522036931526        0.0000000000000000     
  -2.5818445600425181E-002  0.22431958344631153        0.0000000000000000     
  -2.5961692399513771E-002  0.23289189484260509        0.0000000000000000     
  -3.1631685571761631E-002  0.19902437198971543        0.0000000000000000     
  -3.1928045385707933E-002  0.20741177729939442        0.0000000000000000     
  -3.2186362403547712E-002  0.21586144200442844        0.0000000000000000     
  -3.2406636625280968E-002  0.22437336610481762        0.0000000000000000     
  -3.2588868050907709E-002  0.23294754960056180        0.0000000000000000     
  -3.8172912956151085E-002  0.19911196477532964        0.0000000000000000     
  -3.8531550303096185E-002  0.20748660496531168        0.0000000000000000     
  -3.8845175037521086E-002  0.21592771584142464        0.0000000000000000     
  -3.9113787159425824E-002  0.22443529740366849        0.0000000000000000     
  -3.9337386668810356E-002  0.23300934965204328        0.0000000000000000     
  -4.4828598177164225E-002  0.19921311753005719        0.0000000000000000     
  -4.5250572164830957E-002  0.20757328860936816        0.0000000000000000     
  -4.5621005173396130E-002  0.21600404188030384        0.0000000000000000     
  -4.5939897202859709E-002  0.22450537734286430        0.0000000000000000     
  -4.6207248253221707E-002  0.23307729499704949        0.0000000000000000     
  -5.1598741234801043E-002  0.19932783025389805        0.0000000000000000     
  -5.2085110970912285E-002  0.20767182823156377        0.0000000000000000     
  -5.2513852811172823E-002  0.21609042012106608        0.0000000000000000     
  -5.2884966755582651E-002  0.22458360592240495        0.0000000000000000     
  -5.3198452804141760E-002  0.23315138563558044        0.0000000000000000     
  -2.5961692399513771E-002  0.23289189484260509        0.0000000000000000     
  -2.6081485994652393E-002  0.24149484450250486        0.0000000000000000     
  -2.6185004711751676E-002  0.25010112237031995        0.0000000000000000     
  -2.6272248550811624E-002  0.25871072844605025        0.0000000000000000     
  -2.6343217511832231E-002  0.26732366272969582        0.0000000000000000     
  -3.2588868050907709E-002  0.23294754960056180        0.0000000000000000     
  -3.2741543801007147E-002  0.24155893078960933        0.0000000000000000     
  -3.2873150996158514E-002  0.25018244796990835        0.0000000000000000     
  -3.2983689636361814E-002  0.25881810114145887        0.0000000000000000     
  -3.3073159721617035E-002  0.26746589030426093        0.0000000000000000     
  -3.9337386668810356E-002  0.23300934965204328        0.0000000000000000     
  -3.9524878217925552E-002  0.24162851492863421        0.0000000000000000     
  -3.9685166459022238E-002  0.25027143557552667        0.0000000000000000     
  -3.9818251392100434E-002  0.25893811159272068        0.0000000000000000     
  -3.9924133017160100E-002  0.26762854298021610        0.0000000000000000     
  -4.6207248253221707E-002  0.23307729499704949        0.0000000000000000     
  -4.6431489245407603E-002  0.24170359691957966        0.0000000000000000     
  -4.6621051100342856E-002  0.25036808518717496        0.0000000000000000     
  -4.6775933818027471E-002  0.25907075979983546        0.0000000000000000     
  -4.6896137398461442E-002  0.26781162075756115        0.0000000000000000     
  -5.3198452804141760E-002  0.23315138563558044        0.0000000000000000     
  -5.3461376883453295E-002  0.24178417676244546        0.0000000000000000     
  -5.3680804920120347E-002  0.25047239680485311        0.0000000000000000     
  -5.3856736914142937E-002  0.25921604576280338        0.0000000000000000     
  -5.3989172865521046E-002  0.26801512363629632        0.0000000000000000     
  -2.6343217511832231E-002  0.26732366272969582        0.0000000000000000     
  -2.6409978823839358E-002  0.27588466039418558        0.0000000000000000     
  -2.6484599715858863E-002  0.28433845661244850        0.0000000000000000     
  -2.6567080187890748E-002  0.29268505138448458        0.0000000000000000     
  -2.6657420239935004E-002  0.30092444471029378        0.0000000000000000     
  -3.3073159721617035E-002  0.26746589030426093        0.0000000000000000     
  -3.3156448619403353E-002  0.27607267805421415        0.0000000000000000     
  -3.3248443697199974E-002  0.28458532698721795        0.0000000000000000     
  -3.3349144955006856E-002  0.29300383710327244        0.0000000000000000     
  -3.3458552392824026E-002  0.30132820840237762        0.0000000000000000     
  -3.9924133017160100E-002  0.26762854298021610        0.0000000000000000     
  -4.0021717468844933E-002  0.27629126230217815        0.0000000000000000     
  -4.0129910881798563E-002  0.28487480212277178        0.0000000000000000     
  -4.0248713256021008E-002  0.29337916244199713        0.0000000000000000     
  -4.0378124591512257E-002  0.30180434325985411        0.0000000000000000     
  -4.6896137398461442E-002  0.26781162075756115        0.0000000000000000     
  -4.7005785372164072E-002  0.27654041313807753        0.0000000000000000     
  -4.7129001269654650E-002  0.28520688201911004        0.0000000000000000     
  -4.7265785090933182E-002  0.29381102740065856        0.0000000000000000     
  -4.7416136835999670E-002  0.30235284928272316        0.0000000000000000     
  -5.3989172865521046E-002  0.26801512363629632        0.0000000000000000     
  -5.4108652329360782E-002  0.27682013056191246        0.0000000000000000     
  -5.4245714860768235E-002  0.28558156667623263        0.0000000000000000     
  -5.4400360459743391E-002  0.29429943197925679        0.0000000000000000     
  -5.4572589126286278E-002  0.30297372647098486        0.0000000000000000     
  -3.2754347186512184E-002   5.7350937043763088E-002   0.0000000000000000     
  -3.3712535755401826E-002   6.2941633787187812E-002   0.0000000000000000     
  -3.4730523034054543E-002   6.8722577533708251E-002   0.0000000000000000     
  -3.5808309022470348E-002   7.4693768283324399E-002   0.0000000000000000     
  -3.6945893720649214E-002   8.0855206036036270E-002   0.0000000000000000     
  -4.1072932167787540E-002   5.7970002167751854E-002   0.0000000000000000     
  -4.1441435379395757E-002   6.3545879621184173E-002   0.0000000000000000     
  -4.1992479311377694E-002   6.9306033688144336E-002   0.0000000000000000     
  -4.2726063963733352E-002   7.5250464368632336E-002   0.0000000000000000     
  -4.3642189336462738E-002   8.1379171662648200E-002   0.0000000000000000     
  -4.6990929949420876E-002   5.8723319846184376E-002   0.0000000000000000     
  -4.7264247391936492E-002   6.4219078127367157E-002   0.0000000000000000     
  -4.7756667752716579E-002   6.9913503854313455E-002   0.0000000000000000     
  -4.8468191031761108E-002   7.5806597027023290E-002   0.0000000000000000     
  -4.9398817229070080E-002   8.1898357645496619E-002   0.0000000000000000     
  -5.0508340531412184E-002   5.9610890079060626E-002   0.0000000000000000     
  -5.1180971793024062E-002   6.4961229305736737E-002   0.0000000000000000     
  -5.2023088358071207E-002   7.0544988032215608E-002   0.0000000000000000     
  -5.3034690226553598E-002   7.6362166258497205E-002   0.0000000000000000     
  -5.4215777398471235E-002   8.2412763984581583E-002   0.0000000000000000     
  -5.1625163913761464E-002   6.0632712866380611E-002   0.0000000000000000     
  -5.3191608582658464E-002   6.5772333156292925E-002   0.0000000000000000     
  -5.4791741127441576E-002   7.1200486221850753E-002   0.0000000000000000     
  -5.6425561548110820E-002   7.6917172063054123E-002   0.0000000000000000     
  -5.8093069844666195E-002   8.2922390679903007E-002   0.0000000000000000     
  -3.6945893720649214E-002   8.0855206036036270E-002   0.0000000000000000     
  -3.8107394441921301E-002   8.7193274993035211E-002   0.0000000000000000     
  -3.9256928499616747E-002   9.3694359355512527E-002   0.0000000000000000     
  -4.0394495893735546E-002  0.10035845912346827        0.0000000000000000     
  -4.1520096624277698E-002  0.10718557429690242        0.0000000000000000     
  -4.3642189336462738E-002   8.1379171662648200E-002   0.0000000000000000     
  -4.4664298977356603E-002   8.7683295936776651E-002   0.0000000000000000     
  -4.5715836434205688E-002   9.4153977557602506E-002   0.0000000000000000     
  -4.6796801707009963E-002  0.10079121652512575        0.0000000000000000     
  -4.7907194795769471E-002  0.10759501283934636        0.0000000000000000     
  -4.9398817229070080E-002   8.1898357645496619E-002   0.0000000000000000     
  -5.0460451326636867E-002   8.8173932833146562E-002   0.0000000000000000     
  -5.1564998306454800E-002   9.4618469713386111E-002   0.0000000000000000     
  -5.2712458168523893E-002  0.10123196828621528        0.0000000000000000     
  -5.3902830912844125E-002  0.10801442855163410        0.0000000000000000     
  -5.4215777398471235E-002   8.2412763984581583E-002   0.0000000000000000     
  -5.5495851489762077E-002   8.8665185682144890E-002   0.0000000000000000     
  -5.6804414116364110E-002   9.5087835822863329E-002   0.0000000000000000     
  -5.8141465278277300E-002  0.10168071440673693        0.0000000000000000     
  -5.9507004975501661E-002  0.10844382143376564        0.0000000000000000     
  -5.8093069844666195E-002   8.2922390679903007E-002   0.0000000000000000     
  -5.9770499466732248E-002   8.9157054483771619E-002   0.0000000000000000     
  -6.1434083863933592E-002   9.5562075886034145E-002   0.0000000000000000     
  -6.3083823036270206E-002  0.10213745488669061        0.0000000000000000     
  -6.4719716983742070E-002  0.10888319148574099        0.0000000000000000     
  -4.1520096624277698E-002  0.10718557429690242        0.0000000000000000     
  -4.2620179709531920E-002  0.11416472830607480        0.0000000000000000     
  -4.3681194167786930E-002  0.12128494458124529        0.0000000000000000     
  -4.4703139999042713E-002  0.12854622312241387        0.0000000000000000     
  -4.5686017203299283E-002  0.13594856392958055        0.0000000000000000     
  -4.7907194795769471E-002  0.10759501283934636        0.0000000000000000     
  -4.9018053755932697E-002  0.11455293664738403        0.0000000000000000     
  -5.0100416642948162E-002  0.12165255809635837        0.0000000000000000     
  -5.1154283456815851E-002  0.12889387718626946        0.0000000000000000     
  -5.2179654197535764E-002  0.13627689391711728        0.0000000000000000     
  -5.3902830912844125E-002  0.10801442855163410        0.0000000000000000     
  -5.5101393706341990E-002  0.11495259388808408        0.0000000000000000     
  -5.6273423715943932E-002  0.12203320767400676        0.0000000000000000     
  -5.7418920941649944E-002  0.12925626990940206        0.0000000000000000     
  -5.8537885383460053E-002  0.13662178059427013        0.0000000000000000     
  -5.9507004975501661E-002  0.10844382143376564        0.0000000000000000     
  -6.0870199560759779E-002  0.11536370002817496        0.0000000000000000     
  -6.2200215386774227E-002  0.12242689331419032        0.0000000000000000     
  -6.3497052453545005E-002  0.12963340129181175        0.0000000000000000     
  -6.4760710761072121E-002  0.13698322396103912        0.0000000000000000     
  -6.4719716983742070E-002  0.10888319148574099        0.0000000000000000     
  -6.6324471319186076E-002  0.11578625506765670        0.0000000000000000     
  -6.7880791655439060E-002  0.12283361501690918        0.0000000000000000     
  -6.9388677992501036E-002  0.13002527133349834        0.0000000000000000     
  -7.0848130330371989E-002  0.13736122401742429        0.0000000000000000     
  -4.5686017203299283E-002  0.13594856392958055        0.0000000000000000     
  -4.6621306947771446E-002  0.14348170563974091        0.0000000000000000     
  -4.7500490399674043E-002  0.15113538688989056        0.0000000000000000     
  -4.8323567559007061E-002  0.15890960768002940        0.0000000000000000     
  -4.9090538425770519E-002  0.16680436801015758        0.0000000000000000     
  -5.2179654197535764E-002  0.13627689391711728        0.0000000000000000     
  -5.3161767177823636E-002  0.14378970615437012        0.0000000000000000     
  -5.4085860710395152E-002  0.15142041176349633        0.0000000000000000     
  -5.4951934795250325E-002  0.15916901074449594        0.0000000000000000     
  -5.5759989432389148E-002  0.16703550309736889        0.0000000000000000     
  -5.8537885383460053E-002  0.13662178059427013        0.0000000000000000     
  -5.9612702539384006E-002  0.14411604802126141        0.0000000000000000     
  -6.0625757907431563E-002  0.15172538048302653        0.0000000000000000     
  -6.1577051487602744E-002  0.15944977797956544        0.0000000000000000     
  -6.2466583279897521E-002  0.16728924051087818        0.0000000000000000     
  -6.4760710761072121E-002  0.13698322396103912        0.0000000000000000     
  -6.5974113032452542E-002  0.14446073124041489        0.0000000000000000     
  -6.7120181990783290E-002  0.15205029304848117        0.0000000000000000     
  -6.8198917636064324E-002  0.15975190938523809        0.0000000000000000     
  -6.9210319968295630E-002  0.16756558025068552        0.0000000000000000     
  -7.0848130330371989E-002  0.13736122401742429        0.0000000000000000     
  -7.2245998657029312E-002  0.14482375581183043        0.0000000000000000     
  -7.3569132960450312E-002  0.15239514945986024        0.0000000000000000     
  -7.4817533240635045E-002  0.16007540496151371        0.0000000000000000     
  -7.5991199497583484E-002  0.16786452231679086        0.0000000000000000     
  -4.9090538425770519E-002  0.16680436801015758        0.0000000000000000     
  -4.9801489391693918E-002  0.17480335697548344        0.0000000000000000     
  -5.0456506848506819E-002  0.18289026367121547        0.0000000000000000     
  -5.1055590796209187E-002  0.19106508809735367        0.0000000000000000     
  -5.1598741234801043E-002  0.19932783025389805        0.0000000000000000     
  -5.5759989432389148E-002  0.16703550309736889        0.0000000000000000     
  -5.6515123956972765E-002  0.17500628635702087        0.0000000000000000     
  -5.7222437704162299E-002  0.18306775805835759        0.0000000000000000     
  -5.7881930673957742E-002  0.19121991820137901        0.0000000000000000     
  -5.8493602866359101E-002  0.19946276678608510        0.0000000000000000     
  -6.2466583279897521E-002  0.16728924051087818        0.0000000000000000     
  -6.3301625236742362E-002  0.17523294620083876        0.0000000000000000     
  -6.4089449310563734E-002  0.18327007317332111        0.0000000000000000     
  -6.4830055501361603E-002  0.19140062142832528        0.0000000000000000     
  -6.5523443809135995E-002  0.19962459096585128        0.0000000000000000     
  -6.9210319968295630E-002  0.16756558025068552        0.0000000000000000     
  -7.0160993231002736E-002  0.17548333650693707        0.0000000000000000     
  -7.1057541667711110E-002  0.18349720901610608        0.0000000000000000     
  -7.1899965278420769E-002  0.19160719777819260        0.0000000000000000     
  -7.2688264063131697E-002  0.19981330279319662        0.0000000000000000     
  -7.5991199497583484E-002  0.16786452231679086        0.0000000000000000     
  -7.7093227939753872E-002  0.17575745727531572        0.0000000000000000     
  -7.8126714775604456E-002  0.18374916558671237        0.0000000000000000     
  -7.9091660005135234E-002  0.19183964725098085        0.0000000000000000     
  -7.9988063628346220E-002  0.20002890226812109        0.0000000000000000     
  -5.1598741234801043E-002  0.19932783025389805        0.0000000000000000     
  -5.2085110970912285E-002  0.20767182823156377        0.0000000000000000     
  -5.2513852811172823E-002  0.21609042012106608        0.0000000000000000     
  -5.2884966755582651E-002  0.22458360592240495        0.0000000000000000     
  -5.3198452804141760E-002  0.23315138563558044        0.0000000000000000     
  -5.8493602866359101E-002  0.19946276678608510        0.0000000000000000     
  -5.9049961889607032E-002  0.20778979686464874        0.0000000000000000     
  -5.9543515351942147E-002  0.21619450148924280        0.0000000000000000     
  -5.9974263253364454E-002  0.22467688065986724        0.0000000000000000     
  -6.0342205593873960E-002  0.23323693437652201        0.0000000000000000     
  -6.5523443809135995E-002  0.19962459096585128        0.0000000000000000     
  -6.6159920089182075E-002  0.20793476754137330        0.0000000000000000     
  -6.6729790196795050E-002  0.21632393691036542        0.0000000000000000     
  -6.7233054131974945E-002  0.22479209907282777        0.0000000000000000     
  -6.7669711894721721E-002  0.23333925402876027        0.0000000000000000     
  -7.2688264063131697E-002  0.19981330279319662        0.0000000000000000     
  -7.3414985569637450E-002  0.20810674026173737        0.0000000000000000     
  -7.4072677345731586E-002  0.21647872638443399        0.0000000000000000     
  -7.4661339391414130E-002  0.22492926116128656        0.0000000000000000     
  -7.5180971706685029E-002  0.23345834459229503        0.0000000000000000     
  -7.9988063628346220E-002  0.20002890226812109        0.0000000000000000     
  -8.0815158330973122E-002  0.20830571502574100        0.0000000000000000     
  -8.1572176798751714E-002  0.21665886991144853        0.0000000000000000     
  -8.2259119031681968E-002  0.22508836692524370        0.0000000000000000     
  -8.2875985029763927E-002  0.23359420606712647        0.0000000000000000     
  -5.3198452804141760E-002  0.23315138563558044        0.0000000000000000     
  -5.3461376883453295E-002  0.24178417676244546        0.0000000000000000     
  -5.3680804920120347E-002  0.25047239680485311        0.0000000000000000     
  -5.3856736914142937E-002  0.25921604576280338        0.0000000000000000     
  -5.3989172865521046E-002  0.26801512363629632        0.0000000000000000     
  -6.0342205593873960E-002  0.23323693437652201        0.0000000000000000     
  -6.0651858590953255E-002  0.24187242762157726        0.0000000000000000     
  -6.0907738462084957E-002  0.25058112537740296        0.0000000000000000     
  -6.1109845207269066E-002  0.25936302764399904        0.0000000000000000     
  -6.1258178826505583E-002  0.26821813442136555        0.0000000000000000     
  -6.7669711894721721E-002  0.23333925402876027        0.0000000000000000     
  -6.8040251826798126E-002  0.24197052266132049        0.0000000000000000     
  -6.8345162269966925E-002  0.25069102585366604        0.0000000000000000     
  -6.8584443224228103E-002  0.25950076360579694        0.0000000000000000     
  -6.8758094689581689E-002  0.26839973591771316        0.0000000000000000     
  -7.5180971706685029E-002  0.23345834459229503        0.0000000000000000     
  -7.5626556590987909E-002  0.24207846188167509        0.0000000000000000     
  -7.5993076343766217E-002  0.25080209823364247        0.0000000000000000     
  -7.6280530965020077E-002  0.25962925364819717        0.0000000000000000     
  -7.6488920454749393E-002  0.26855992812533913        0.0000000000000000     
  -8.2875985029763927E-002  0.23359420606712647        0.0000000000000000     
  -8.3410772883522555E-002  0.24219624528264119        0.0000000000000000     
  -8.3851480683482887E-002  0.25091434251733225        0.0000000000000000     
  -8.4198108429644924E-002  0.25974849777119963        0.0000000000000000     
  -8.4450656122008680E-002  0.26869871104424337        0.0000000000000000     
  -5.3989172865521046E-002  0.26801512363629632        0.0000000000000000     
  -5.4108652329360782E-002  0.27682013056191246        0.0000000000000000     
  -5.4245714860768235E-002  0.28558156667623263        0.0000000000000000     
  -5.4400360459743391E-002  0.29429943197925679        0.0000000000000000     
  -5.4572589126286278E-002  0.30297372647098486        0.0000000000000000     
  -6.1258178826505583E-002  0.26821813442136555        0.0000000000000000     
  -6.1389055277030667E-002  0.27710207273042808        0.0000000000000000     
  -6.1538790516080494E-002  0.28597046959211220        0.0000000000000000     
  -6.1707384543655062E-002  0.29482332500641789        0.0000000000000000     
  -6.1894837359754373E-002  0.30366063897334516        0.0000000000000000     
  -6.8758094689581689E-002  0.26839973591771316        0.0000000000000000     
  -6.8905731151769317E-002  0.27735789780036962        0.0000000000000000     
  -6.9066967096532608E-002  0.28634520426472126        0.0000000000000000     
  -6.9241802523871590E-002  0.29536165531076808        0.0000000000000000     
  -6.9430237433786235E-002  0.30440725093850995        0.0000000000000000     
  -7.6488920454749393E-002  0.26855992812533913        0.0000000000000000     
  -7.6658679953576725E-002  0.27758760577173708        0.0000000000000000     
  -7.6830244602124592E-002  0.28670577069405978        0.0000000000000000     
  -7.7003614400392967E-002  0.29591442289230707        0.0000000000000000     
  -7.7178789348381877E-002  0.30521356236647940        0.0000000000000000     
  -8.4450656122008680E-002  0.26869871104424337        0.0000000000000000     
  -8.4647901682452911E-002  0.27779119664453039        0.0000000000000000     
  -8.4828623032856418E-002  0.28705216888012769        0.0000000000000000     
  -8.4992820173219213E-002  0.29648162775103531        0.0000000000000000     
  -8.5140493103541270E-002  0.30607957325725327        0.0000000000000000     
  -5.1625163913761464E-002   6.0632712866380611E-002   0.0000000000000000     
  -5.3191608582658464E-002   6.5772333156292925E-002   0.0000000000000000     
  -5.4791741127441576E-002   7.1200486221850753E-002   0.0000000000000000     
  -5.6425561548110820E-002   7.6917172063054123E-002   0.0000000000000000     
  -5.8093069844666195E-002   8.2922390679903007E-002   0.0000000000000000     
  -5.2579678991117720E-002   6.1400477974756770E-002   0.0000000000000000     
  -5.5038847390550538E-002   6.6467804989855037E-002   0.0000000000000000     
  -5.7407521447210709E-002   7.1837655213815771E-002   0.0000000000000000     
  -5.9685701161098254E-002   7.7510028646638973E-002   0.0000000000000000     
  -6.1873386532213151E-002   8.3484925288324588E-002   0.0000000000000000     
  -5.5610164658129985E-002   6.1525875170801519E-002   0.0000000000000000     
  -5.8465377846411176E-002   6.6863060117242426E-002   0.0000000000000000     
  -6.1215324703761620E-002   7.2414151798707457E-002   0.0000000000000000     
  -6.3860005230181344E-002   7.8179150215196627E-002   0.0000000000000000     
  -6.6399419425670306E-002   8.4158055366709922E-002   0.0000000000000000     
  -6.0716620914798243E-002   6.1008904454514845E-002   0.0000000000000000     
  -6.3471199950240365E-002   6.6958098538455052E-002   0.0000000000000000     
  -6.6215150897094330E-002   7.2929975976525813E-002   0.0000000000000000     
  -6.8948473755360076E-002   7.8924536768727141E-002   0.0000000000000000     
  -7.1671168525037673E-002   8.4941780915059023E-002   0.0000000000000000     
  -6.7899047761122489E-002   5.9849565825896761E-002   0.0000000000000000     
  -7.0056313702038131E-002   6.6752920253492914E-002   0.0000000000000000     
  -7.2407000027208790E-002   7.3385127747270823E-002   0.0000000000000000     
  -7.4951106736634507E-002   7.9746188307230487E-002   0.0000000000000000     
  -7.7688633830315226E-002   8.5836101933371892E-002   0.0000000000000000     
  -5.8093069844666195E-002   8.2922390679903007E-002   0.0000000000000000     
  -5.9770499466732248E-002   8.9157054483771619E-002   0.0000000000000000     
  -6.1434083863933592E-002   9.5562075886034145E-002   0.0000000000000000     
  -6.3083823036270206E-002  0.10213745488669061        0.0000000000000000     
  -6.4719716983742070E-002  0.10888319148574099        0.0000000000000000     
  -6.1873386532213151E-002   8.3484925288324588E-002   0.0000000000000000     
  -6.3985681871946157E-002   8.9697104987385631E-002   0.0000000000000000     
  -6.6037691491688019E-002   9.6081327592334981E-002   0.0000000000000000     
  -6.8029415391438752E-002  0.10263759310317276        0.0000000000000000     
  -6.9960853571198314E-002  0.10936590151989885        0.0000000000000000     
  -6.6399419425670306E-002   8.4158055366709922E-002   0.0000000000000000     
  -6.8842685319802588E-002   9.0332902942345694E-002   0.0000000000000000     
  -7.1198920942152175E-002   9.6685728631202283E-002   0.0000000000000000     
  -7.3468126292719094E-002  0.10321653243327972        0.0000000000000000     
  -7.5650301371503331E-002  0.10992531434857794        0.0000000000000000     
  -7.1671168525037673E-002   8.4941780915059023E-002   0.0000000000000000     
  -7.4341509810301520E-002   9.1064448348651864E-002   0.0000000000000000     
  -7.6917772215326044E-002   9.7375279002636012E-002   0.0000000000000000     
  -7.9399955740111230E-002  0.10387427287701147        0.0000000000000000     
  -8.1788060384657107E-002  0.11056142997177824        0.0000000000000000     
  -7.7688633830315226E-002   8.5836101933371892E-002   0.0000000000000000     
  -8.0482155343442940E-002   9.1891741206304098E-002   0.0000000000000000     
  -8.3194245311209586E-002   9.8149978706636137E-002   0.0000000000000000     
  -8.5824903733615163E-002  0.10461081443436802        0.0000000000000000     
  -8.8374130610659671E-002  0.11127424838949977        0.0000000000000000     
  -6.4719716983742070E-002  0.10888319148574099        0.0000000000000000     
  -6.6324471319186076E-002  0.11578625506765670        0.0000000000000000     
  -6.7880791655439060E-002  0.12283361501690918        0.0000000000000000     
  -6.9388677992501036E-002  0.13002527133349834        0.0000000000000000     
  -7.0848130330371989E-002  0.13736122401742429        0.0000000000000000     
  -6.9960853571198314E-002  0.10936590151989885        0.0000000000000000     
  -7.1828833294818817E-002  0.11625253105655113        0.0000000000000000     
  -7.3630181826152302E-002  0.12328375992716735        0.0000000000000000     
  -7.5364899165198770E-002  0.13045958813174754        0.0000000000000000     
  -7.7032985311958263E-002  0.13778001567029169        0.0000000000000000     
  -7.5650301371503331E-002  0.10992531434857794        0.0000000000000000     
  -7.7747909800855872E-002  0.11679480004488001        0.0000000000000000     
  -7.9763415203127769E-002  0.12380771518996894        0.0000000000000000     
  -8.1696817578318995E-002  0.13096405978384473        0.0000000000000000     
  -8.3548116926429494E-002  0.13826383382650739        0.0000000000000000     
  -8.1788060384657107E-002  0.11056142997177824        0.0000000000000000     
  -8.4081700837297324E-002  0.11741306203264340        0.0000000000000000     
  -8.6280491786365501E-002  0.12440548080531398        0.0000000000000000     
  -8.8384433231861625E-002  0.13153868628979001        0.0000000000000000     
  -9.0393525173785724E-002  0.13881267848607146        0.0000000000000000     
  -8.8374130610659671E-002  0.11127424838949977        0.0000000000000000     
  -9.0830206404143105E-002  0.11810731701984127        0.0000000000000000     
  -9.3181411575865458E-002  0.12507705677320244        0.0000000000000000     
  -9.5427746125826732E-002  0.13218346764958330        0.0000000000000000     
  -9.7569210054026939E-002  0.13942654964898382        0.0000000000000000     
  -7.0848130330371989E-002  0.13736122401742429        0.0000000000000000     
  -7.2245998657029312E-002  0.14482375581183043        0.0000000000000000     
  -7.3569132960450312E-002  0.15239514945986024        0.0000000000000000     
  -7.4817533240635045E-002  0.16007540496151371        0.0000000000000000     
  -7.5991199497583484E-002  0.16786452231679086        0.0000000000000000     
  -7.7032985311958263E-002  0.13778001567029169        0.0000000000000000     
  -7.8626283129670543E-002  0.14522589825436871        0.0000000000000000     
  -8.0136635481575444E-002  0.15277809159554762        0.0000000000000000     
  -8.1564042367672993E-002  0.16043659569382837        0.0000000000000000     
  -8.2908503787963148E-002  0.16820141054921095        0.0000000000000000     
  -8.3548116926429494E-002  0.13826383382650739        0.0000000000000000     
  -8.5312890166932595E-002  0.14568793508689040        0.0000000000000000     
  -8.6986714219301459E-002  0.15321726133392724        0.0000000000000000     
  -8.8569589083536168E-002  0.16085181256761799        0.0000000000000000     
  -9.0061514759636654E-002  0.16859158878796254        0.0000000000000000     
  -9.0393525173785724E-002  0.13881267848607146        0.0000000000000000     
  -9.2305819768815453E-002  0.14620986630939545        0.0000000000000000     
  -9.4119369173628384E-002  0.15371265867499920        0.0000000000000000     
  -9.5834173388224600E-002  0.16132105558288259        0.0000000000000000     
  -9.7450232412604018E-002  0.16903505703304572        0.0000000000000000     
  -9.7569210054026939E-002  0.13942654964898382        0.0000000000000000     
  -9.9605071935319089E-002  0.14679169192188388        0.0000000000000000     
 -0.10153460034455619       0.15426428361876335        0.0000000000000000     
 -0.10335779528173827       0.16184432473962218        0.0000000000000000     
 -0.10507465674686528       0.16953181528446049        0.0000000000000000     
  -7.5991199497583484E-002  0.16786452231679086        0.0000000000000000     
  -7.7093227939753872E-002  0.17575745727531572        0.0000000000000000     
  -7.8126714775604456E-002  0.18374916558671237        0.0000000000000000     
  -7.9091660005135234E-002  0.19183964725098085        0.0000000000000000     
  -7.9988063628346220E-002  0.20002890226812109        0.0000000000000000     
  -8.2908503787963148E-002  0.16820141054921095        0.0000000000000000     
  -8.4169562904034226E-002  0.17606971695434809        0.0000000000000000     
  -8.5346762877474641E-002  0.18403869570189252        0.0000000000000000     
  -8.6440103708284297E-002  0.19210834679184421        0.0000000000000000     
  -8.7449585396463275E-002  0.20027867022420323        0.0000000000000000     
  -9.0061514759636654E-002  0.16859158878796254        0.0000000000000000     
  -9.1461231664882320E-002  0.17643452399240742        0.0000000000000000     
  -9.2767480216552539E-002  0.18437855217839885        0.0000000000000000     
  -9.3980260414647285E-002  0.19242367334593696        0.0000000000000000     
  -9.5099572259166612E-002  0.20056988749502166        0.0000000000000000     
  -9.7450232412604018E-002  0.16903505703304572        0.0000000000000000     
  -9.8968234222298099E-002  0.17685187838949371        0.0000000000000000     
 -0.10038886679283815       0.18476873501623145        0.0000000000000000     
 -0.10171213012422418       0.19278562691325904        0.0000000000000000     
 -0.10293802421645620       0.20090255408057636        0.0000000000000000     
 -0.10507465674686528       0.16953181528446049        0.0000000000000000     
 -0.10669057057628156       0.17732178014560690        0.0000000000000000     
 -0.10821092260633147       0.18520924421539020        0.0000000000000000     
 -0.10963571283701497       0.19319420749381036        0.0000000000000000     
 -0.11096494126833206       0.20127666998086743        0.0000000000000000     
  -7.9988063628346220E-002  0.20002890226812109        0.0000000000000000     
  -8.0815158330973122E-002  0.20830571502574100        0.0000000000000000     
  -8.1572176798751714E-002  0.21665886991144853        0.0000000000000000     
  -8.2259119031681968E-002  0.22508836692524370        0.0000000000000000     
  -8.2875985029763927E-002  0.23359420606712647        0.0000000000000000     
  -8.7449585396463275E-002  0.20027867022420323        0.0000000000000000     
  -8.8381565047402827E-002  0.20853663976215828        0.0000000000000000     
  -8.9242399766494299E-002  0.21686922916889811        0.0000000000000000     
  -9.0032089553737663E-002  0.22527643844442277        0.0000000000000000     
  -9.0750634409132946E-002  0.23375826758873230        0.0000000000000000     
  -9.5099572259166612E-002  0.20056988749502166        0.0000000000000000     
  -9.6135332393140288E-002  0.20880446239976325        0.0000000000000000     
  -9.7097457459598191E-002  0.21711466583427186        0.0000000000000000     
  -9.7985947458540307E-002  0.22550049779854761        0.0000000000000000     
  -9.8800802389966663E-002  0.23396195829259031        0.0000000000000000     
 -0.10293802421645620       0.20090255408057636        0.0000000000000000     
 -0.10407646036818552       0.20910918293855590        0.0000000000000000     
 -0.10513734987806343       0.21739517990756979        0.0000000000000000     
 -0.10612069274608994       0.22576054498761802        0.0000000000000000     
 -0.10702648897226508       0.23420527817870060        0.0000000000000000     
 -0.11096494126833206       0.20127666998086743        0.0000000000000000     
 -0.11220494897253849       0.20945080137853628        0.0000000000000000     
 -0.11336207702189000       0.21771077138879186        0.0000000000000000     
 -0.11443632541638656       0.22605658001163415        0.0000000000000000     
 -0.11542769415602819       0.23448822724706311        0.0000000000000000     
  -8.2875985029763927E-002  0.23359420606712647        0.0000000000000000     
  -8.3410772883522555E-002  0.24219624528264119        0.0000000000000000     
  -8.3851480683482887E-002  0.25091434251733225        0.0000000000000000     
  -8.4198108429644924E-002  0.25974849777119963        0.0000000000000000     
  -8.4450656122008680E-002  0.26869871104424337        0.0000000000000000     
  -9.0750634409132946E-002  0.23375826758873230        0.0000000000000000     
  -9.1382947842252246E-002  0.24233970526311435        0.0000000000000000     
  -9.1913943362667741E-002  0.25104574012885678        0.0000000000000000     
  -9.2343620970379375E-002  0.25987637218595960        0.0000000000000000     
  -9.2671980665387205E-002  0.26883160143442270        0.0000000000000000     
  -9.8800802389966663E-002  0.23396195829259031        0.0000000000000000     
  -9.9533128605027110E-002  0.24252467422199026        0.0000000000000000     
 -0.10017403245487158       0.25121427249233752        0.0000000000000000     
 -0.10072351393950008       0.26003075310363205        0.0000000000000000     
 -0.10118157305891259       0.26897411605587385        0.0000000000000000     
 -0.10702648897226508       0.23420527817870060        0.0000000000000000     
 -0.10786131517184713       0.24275115215926896        0.0000000000000000     
 -0.10863174796009445       0.25141993960777442        0.0000000000000000     
 -0.10933778733700704       0.26021164052421697        0.0000000000000000     
 -0.10997943330258486       0.26912625490859676        0.0000000000000000     
 -0.11542769415602819       0.23448822724706311        0.0000000000000000     
 -0.11636750754271231       0.24301913907495037        0.0000000000000000     
 -0.11728708987833632       0.25166274147516760        0.0000000000000000     
 -0.11818644116290022       0.26041903444771458        0.0000000000000000     
 -0.11906556139640402       0.26928801799259161        0.0000000000000000     
  -8.4450656122008680E-002  0.26869871104424337        0.0000000000000000     
  -8.4647901682452911E-002  0.27779119664453039        0.0000000000000000     
  -8.4828623032856418E-002  0.28705216888012769        0.0000000000000000     
  -8.4992820173219213E-002  0.29648162775103531        0.0000000000000000     
  -8.5140493103541270E-002  0.30607957325725327        0.0000000000000000     
  -9.2671980665387205E-002  0.26883160143442270        0.0000000000000000     
  -9.2929504704954063E-002  0.27797436573934453        0.0000000000000000     
  -9.3146675346342883E-002  0.28736760296582325        0.0000000000000000     
  -9.3323492589553594E-002  0.29701131311385903        0.0000000000000000     
  -9.3459956434586239E-002  0.30690549618345175        0.0000000000000000     
 -0.10118157305891259       0.26897411605587385        0.0000000000000000     
 -0.10155959738763637       0.27814280837677424        0.0000000000000000     
 -0.10186897450019863       0.28763527709404457        0.0000000000000000     
 -0.10210970439659939       0.29745152220768478        0.0000000000000000     
 -0.10228178707683863       0.30759154371769482        0.0000000000000000     
 -0.10997943330258486       0.26912625490859676        0.0000000000000000     
 -0.11053817973049980       0.27829652455681964        0.0000000000000000     
 -0.11099552049442374       0.28785519126479159        0.0000000000000000     
 -0.11135145559435662       0.29780225503251251        0.0000000000000000     
 -0.11160598503029842       0.30813771585998256        0.0000000000000000     
 -0.11906556139640402       0.26928801799259161        0.0000000000000000     
 -0.11986525173354443       0.27843551427948071        0.0000000000000000     
 -0.12052631332901817       0.28802734547806430        0.0000000000000000     
 -0.12104874618282524       0.29806351158834232        0.0000000000000000     
 -0.12143255029496562       0.30854401261031483        0.0000000000000000     
 </DataArray>
 <DataArray  type="Float64" Name="stress" NumberOfComponents="3" format="ascii">
   5284668177.0335894        4428003800.8913527       -872480678.16670513     
   4980526676.6303596        2176308340.3693509       -448230364.21929395     
   4894843455.8422346        652807145.23103011       -215059622.70251298     
   5027618514.6691980       -142499784.52364326       -172968453.61635906     
   5378851853.1112671       -209612448.89464903       -321956856.96083409     
   6353595372.4051828        3515335558.7791414       -152558148.15477827     
   5835504452.6769114        1856385591.3846145        121896237.58371891     
   5470925022.7966480        709140590.15009415        286066297.85801071     
   5259857082.7643766        73600555.075556278        339952032.66810733     
   5202300632.5801058       -50234513.838978529        283553442.01400751     
   6259162804.3130989        2253659387.6278205        857915516.50013852     
   5757966028.0210466        1256707982.1891396        906802719.30142200     
   5345333951.8098869        554972243.68679404        926200843.60494471     
   5021266575.6796303        148452172.12077093        916109889.41070879     
   4785763899.6302738        37147767.491090775        876529856.71870625     
   5001370472.7573566        642975287.43740356        2158940315.7980313     
   4747911402.6627569        377275512.78293943        1906489080.9338207     
   4518070242.8819580        190302105.84114575        1705344014.5382950     
   4311846993.4149542        82055066.612016678        1555505116.6114376     
   4129241654.2617564        52534395.095561028        1456972387.1532595     
   2580218377.7379479       -1316716741.7921133        3750516249.7389059     
   2805340576.6020489       -781911816.83398628        3120955322.4809217     
   2989133896.0128512       -384869823.38685715        2623495810.6580596     
   3131598335.9703550       -125590761.45072126        2258137714.2703013     
   3232733896.4745617       -4074631.0255750418        2024881033.3176625     
   5378851853.1112671       -209612448.89464903       -321956856.96083409     
   5254166009.9282770       -104070035.66575098       -224948429.35875627     
   5118998259.9351044       -33467311.804111004       -144551919.95283958     
   4973348603.1317511        2195722.6902503967       -80767328.743090406     
   4817217039.5182123        2919067.8173255920       -33594655.729494676     
   5202300632.5801058       -50234513.838978529        283553442.01400751     
   5041531997.5671358        15974866.540760040        293179590.96677405     
   4872971502.2069654        56211379.096524239        300738518.13474405     
   4696619146.4996090        70475023.828323603        306230223.51793385     
   4512474930.4450521        58765800.736120939        309654707.11633408     
   4785763899.6302738        37147767.491090775        876529856.71870625     
   4630468748.2483816        76490997.659972191        801912114.56230974     
   4470071782.9822969        98828181.548192978        739771847.03249896     
   4304573003.8320093        104159319.15573907        690109054.12927353     
   4133972410.7975173        92484410.482620239        652923735.85264492     
   4129241654.2617564        52534395.095561028        1456972387.1532595     
   4020976261.9720335        77478357.691907167        1301249141.4278529     
   3910299102.2611041        94383095.550911903        1172548066.7404158     
   3797210175.1289606        103248608.67252994        1070869163.0909433     
   3681709480.5756149        104074897.05680418        996212430.47943425     
   3232733896.4745617       -4074631.0255750418        2024881033.3176625     
   3213054538.7380800        18936946.636572242        1791190671.5634115     
   3193653460.0433807        42876121.104661942        1599067177.2585013     
   3174530660.3904605        67742892.378688335        1448510550.4029326     
   3155686139.7793307        93537260.458670378        1339520790.9967105     
   4817217039.5182123        2919067.8173255920       -33594655.729494676     
   4607926230.1852026       -23544985.277476311       -40215610.722955823     
   4401706586.2298269       -39771820.446801186       -40442641.537107989     
   4198558107.6520920       -45761437.690661669       -34275748.171946041     
   3998480794.4520211       -41513837.008996725       -21714930.627472546     
   4512474930.4450521        58765800.736120939        309654707.11633408     
   4323878302.3305082        37147195.564846039        281263098.62573445     
   4137420572.9404635        22658252.808556318        261277986.60306457     
   3953101742.2749076        15298972.467236519        249699371.04832372     
   3770921810.3338513        15069354.540915966        246527251.96151385     
   4133972410.7975173        92484410.482620239        652923735.85264492     
   3971820170.4403601        77436315.196535587        601673829.43622673     
   3810874562.1545515        66410326.814942122        560842991.77636278     
   3651135585.9400854        59406445.337829828        530431222.87305683     
   3492603241.7969704        56424670.765221834        510438522.72628558     
   3681709480.5756149        104074897.05680418        996212430.47943425     
   3551751834.5147533        97322373.617579341        921016581.70853436     
   3422068553.8720927        91484401.572367549        858252373.98280561     
   3292659638.6476293        86560980.921133161        807919807.30224466     
   3163525088.8413687        82552111.663915157        770018881.66686177     
   3155686139.7793307        93537260.458670378        1339520790.9967105     
   3063673294.5536838        96805370.827994347        1239291355.4426517     
   2971002548.0930920        97880477.080830216        1153506133.2223787     
   2877673900.3975453        96762579.217151403        1082165124.3359005     
   2783687351.4670525        93451677.236983895        1025268328.7832170     
   3998480794.4520211       -41513837.008996725       -21714930.627472546     
   3796036858.7914333       -35792731.873975754       -24772773.049877357     
   3591961422.2750988       -35509962.924775839       -22303657.782739829     
   3386254484.9030271       -40665530.161367178       -14307584.826058676     
   3178916046.6752000       -51259433.583808780       -784554.17981724802     
   3770921810.3338513        15069354.540915966        246527251.96151385     
   3581239857.1876798        14765396.709024429        224417877.49419680     
   3390853906.2770019        12114779.662086725        207988854.11003608     
   3199763957.6018014        7117503.4000970125        197240181.80900356     
   3007970011.1620860       -226432.07694196701        192171860.59112737     
   3492603241.7969704        56424670.765221834        510438522.72628558     
   3316121538.0040617        50227130.018059134        470359703.15384358     
   3139863339.5378704        44774607.026625276        436114628.05814248     
   2963828646.3983994        40067101.790921569        407703297.43916374     
   2788017458.5856371        36104614.310931087        385125711.29693359     
   3163525088.8413687        82552111.663915157        770018881.66686177     
   3000681901.2405639        70592468.053133011        713052703.92905176     
   2838989722.0577116        62469519.168862581        662073664.06157041     
   2678448551.2928071        58183265.011082411        617081762.06442916     
   2519058388.9458561        57733705.579814196        578076997.93761897     
   2783687351.4670525        93451677.236983895        1025268328.7832170     
   2634920946.8971963        75861410.814246058        952496879.81981277     
   2488233053.8365254        65199516.088789105        885865962.12033975     
   2343623672.2850370        61465993.060607433        825375575.68479633     
   2201092802.2427306        64660841.729700685        771025720.51317692     
   3178916046.6752000       -51259433.583808780       -784554.17981724802     
   2994525463.1705165       -54299196.211500168        6432896.2140275817     
   2812207996.5948634       -50428569.075748563        10207932.588748645     
   2631963646.9482470       -39647552.176549077        10540554.944339534     
   2453792414.2306652       -21956145.513890028        7430763.2807938475     
   3007970011.1620860       -226432.07694196701        192171860.59112737     
   2819295857.2823048       -5977148.7490830421        186217503.32439119     
   2631759073.2792969       -7936632.4986253977        181036110.72157401     
   2445359659.1530466       -6104883.3256545067        176627682.78269440     
   2260097614.9035826       -481901.23005902767        172992219.50773507     
   2788017458.5856371        36104614.310931087        385125711.29693359     
   2607103673.4252176        31256125.322694778        364907841.47530073     
   2426391511.0892940        27079712.416128516        349678315.00066429     
   2245880971.5778842        23575375.591265321        339437131.87300462     
   2065572054.8909867        20743114.848111272        334184292.09234321     
   2519058388.9458561        57733705.579814196        578076997.93761897     
   2357948911.5992384        57400626.003786683        542503910.66679442     
   2196105310.0248694        54620465.668574929        516134545.42600679     
   2033527584.2227530        49393224.574201107        498968902.21527618     
   1870215734.1928706        41718902.720628977        491006981.03459394     
   2201092802.2427306        64660841.729700685        771025720.51317692     
   2071831571.8043880        72456353.294237137        719005710.89884734     
   1940900470.0860124        74685627.258674979        680404801.99762666     
   1808299497.0876410        71348663.623128176        655222993.80951226     
   1674028652.8092515        62445462.387508988        643460286.33450651     
   2453792414.2306652       -21956145.513890028        7430763.2807938475     
   2300935718.9993525       -1048673.4726758003       -3779605.0537177203     
   2143119118.3550727        3325780.5253289938       -10526909.562990328     
   1980342612.2978036       -8832783.5199762583       -12811150.246990670     
   1812606200.8275766       -37524365.608461738       -10632327.105731552     
   2260097614.9035826       -481901.23005902767        172992219.50773507     
   2115612096.1930931        14198209.771949172        156188029.52644351     
   1967895254.5803785        18107244.433195949        142797225.59110698     
   1816947090.0654423        11245202.753705859        132819807.70174079     
   1662767602.6482937       -6387915.2664822340        126255775.85831937     
   2065572054.8909867        20743114.848111272        334184292.09234321     
   1926458633.3319085        28296141.000089765        313802960.06014824     
   1785842471.3813472        30840032.513801932        295785336.29461664     
   1643723569.0393205        28374789.389299631        280131420.79574901     
   1500101926.3058181        20900411.626532972        266841213.56355116     
   1870215734.1928706        41718902.720628977        491006981.03459394     
   1733475330.4157774        41245120.211729825        469065186.54737467     
   1596960768.7579658        41524144.767116070        448437422.54751813     
   1460672049.2194140        42555976.386711299        429123689.03503865     
   1324609171.8001506        44340615.070593774        411123986.00992507     
   1674028652.8092515        62445462.387508988        643460286.33450651     
   1536662187.4447191        53045147.406918347        621974708.98813176     
   1401250146.7102177        50159581.193098724        600753484.34983587     
   1267792530.6057346        53788763.746009052        579796612.41960406     
   1136289339.1312885        63932695.065702915        559104093.19745493     
   1812606200.8275766       -37524365.608461738       -10632327.105731552     
   1778796531.3783441       -20744537.669232130       -5862025.0720590269     
   1753436912.8947139        24202126.821994305       -40030108.383971326     
   1736527345.3766766        97315627.865212500       -113136577.04147743     
   1728067828.8242180        198595965.46033913       -225181431.04457605     
   1662767602.6482937       -6387915.2664822340        126255775.85831937     
   1536970054.9869714       -13595242.159458578        140411996.57442567     
   1415663968.1622732       -5831032.9303433895        128282193.58809136     
   1298849342.1742039        16904712.420857430        89866366.899334401     
   1186526177.0227573        54611993.894144416        25164516.508134294     
   1500101926.3058181        20900411.626532972        266841213.56355116     
   1318466105.1271398        550811.30976408720        285764997.81161100     
   1137363154.6561279       -18022553.314780712        291055120.00039178     
   956793074.89277923       -34819682.247117102        282711580.12991655     
   776755865.83707798       -49840575.487289190        260734378.20015845     
   1324609171.8001506        44340615.070593774        411123986.00992507     
   1123284681.7988672        21693622.738474369        430196978.63949156     
   918534472.37628412       -12372434.331320226        448288670.85294545     
   710358543.53239822       -57857556.138784945        465399062.65028691     
   498756895.26719660       -114761742.68397006        481528154.03152072     
   1136289339.1312885        63932695.065702915        559104093.19745493     
   951425785.00214040        49833192.126621783        573707939.05807078     
   759177921.32271957        11119324.019992411        599982846.14573145     
   559545748.09303749       -52208909.254191279        637928814.46043730     
   352529265.31308186       -140151507.69594759        687545844.00219429     
   1728067828.8242180        198595965.46033913       -225181431.04457605     
   1457697796.3995514        184586470.55884379       -97220743.685679272     
   1154668914.5026968        61714144.083398342        59876233.597010694     
   818981183.13364363       -170021013.96603513        246109500.80350927     
   450634602.29243195       -510619003.58935326        461479057.93379080     
   1186526177.0227573        54611993.894144416        25164516.508134294     
   979279564.90744483        12786202.870558977        156288742.17281994     
   733878169.92842531       -156222197.69875005        313252300.33369017     
   450321992.08570147       -452413207.81372356        496055190.99076033     
   128611031.37927091       -875786827.47436380        704697414.14400482     
   776755865.83707798       -49840575.487289190        260734378.20015845     
   623212795.66654456       -122308626.14235732        388610219.88052481     
   426019009.24076557       -340279064.31488502        539028436.62947094     
   185174506.55976963       -703751890.00480139        711989028.44699752     
  -99320712.376461029       -1212727103.2121725        907491995.33312321     
   498756895.26719660       -114761742.68397006        481528154.03152072     
   389497488.67683947       -220698016.47989166        599743689.43744433     
   231091432.43972760       -490456455.76499510        737204642.48434842     
   23538726.555865467       -924037060.53928781        893911013.17222726     
  -233160628.97475338       -1521439830.8027492        1069862801.5011138     
   352529265.31308186       -140151507.69594759        687545844.00219429     
   278133643.93832761       -282381968.14210135        789689150.84358227     
   149095439.52529377       -606754372.04917061        907780917.89832902     
  -34585347.926007509       -1113268719.4171369        1041821145.1664524     
  -272908718.41559541       -1801925010.2460637        1191809832.6479702     
   2580218377.7379479       -1316716741.7921133        3750516249.7389059     
   2805340576.6020489       -781911816.83398628        3120955322.4809217     
   2989133896.0128512       -384869823.38685715        2623495810.6580596     
   3131598335.9703550       -125590761.45072126        2258137714.2703013     
   3232733896.4745617       -4074631.0255750418        2024881033.3176625     
   636088941.58797395       -1642190646.0801787        2153732290.6974568     
   1106396113.1653907       -1159206012.3270767        1848641253.4269311     
   1548262388.2606595       -771024366.84780228        1612011154.6250021     
   1961687766.8737779       -477645709.64235592        1443841994.2916698     
   2346672249.0047493       -279070040.71073234        1344133772.4269347     
  -173785739.03898776       -1627388123.7113385        501208886.58220017     
   359876471.06169796       -1250772761.4202733        535623719.43213505     
   877985767.65138662       -926000444.16587043        574859013.78414786     
   1380542150.7300797       -653071171.94812655        618914769.63824809     
   1867545620.2977712       -431984944.76704407        667790986.99442613     
   150594335.85705578       -1272309174.6855967       -1207053962.6068807     
   565781650.29097247       -1056612064.1135793       -818097279.50347710     
   978304034.18503976       -849798055.34105992       -487960611.86450911     
   1388161487.5392540       -651867148.36804044       -216643959.68997461     
   1795354010.3536272       -462819343.19450164       -4147322.9798710444     
   1609229166.2761087       -576953799.00295389       -2971056256.8697753     
   1724111650.8532119       -576723920.40699923       -2212521743.3798976     
   1849217187.8616118       -542417200.37337780       -1576447722.3209679     
   1984545777.3013120       -474033638.90208244       -1062834193.6929855     
   2130097419.1723194       -371573235.99311161       -671681157.49595308     
   3232733896.4745617       -4074631.0255750418        2024881033.3176625     
   3213054538.7380800        18936946.636572242        1791190671.5634115     
   3193653460.0433807        42876121.104661942        1599067177.2585013     
   3174530660.3904605        67742892.378688335        1448510550.4029326     
   3155686139.7793307        93537260.458670378        1339520790.9967105     
   2346672249.0047493       -279070040.71073234        1344133772.4269347     
   2419727706.8338656       -217878473.65598726        1242470276.8567920     
   2492341383.3959045       -158159510.82482553        1161763620.5663915     
   2564513278.6908755       -99913152.217228770        1102013803.5557427     
   2636243392.7187667       -43139397.833227158        1063220825.8248390     
   1867545620.2977712       -431984944.76704407        667790986.99442613     
   1974450098.9222071       -350279126.75077903        697314287.24805570     
   2080192735.9707160       -272446113.98761714        727184398.61183667     
   2184773531.4432902       -198485906.47755933        757401321.08576763     
   2288192485.3399377       -128398504.22059894        787965054.66984904     
   1795354010.3536272       -462819343.19450164       -4147322.9798710444     
   1877221715.0031130       -378265012.64779699        155722702.73720112     
   1957207517.7678061       -299983688.38372648        295329511.39482677     
   2035311418.6477151       -227975370.40228021        414673102.99300450     
   2111533417.6428344       -162240058.70345235        513753477.53173733     
   2130097419.1723194       -371573235.99311161       -671681157.49595308     
   2128042555.0765743       -301836131.34705687       -382304476.67577469     
   2123385728.7871835       -240772234.01314807       -133801041.08463831     
   2116126940.3041439       -188381543.99140108        73829149.277452826     
   2106266189.6274660       -144664061.28179193        240586094.41050708     
   3155686139.7793307        93537260.458670378        1339520790.9967105     
   3063673294.5536838        96805370.827994347        1239291355.4426517     
   2971002548.0930920        97880477.080830216        1153506133.2223787     
   2877673900.3975453        96762579.217151403        1082165124.3359005     
   2783687351.4670525        93451677.236983895        1025268328.7832170     
   2636243392.7187667       -43139397.833227158        1063220825.8248390     
   2577348983.5881615       -27110035.951579452        1019074798.9545356     
   2517869738.8752971       -13030126.010792136        983015374.62839162     
   2457805658.5801711       -899668.01087522507        955042552.84641588     
   2397156742.7027965        9281338.0482060909        935156333.60860419     
   2288192485.3399377       -128398504.22059894        787965054.66984904     
   2244251910.0482883       -105057271.50346684        799987679.74476981     
   2199799564.8270826       -83421938.551540256        813739296.57423639     
   2154835449.6763077       -63492505.364838481        829219905.15823627     
   2109359564.5959725       -45268971.943343759        846429505.49677706     
   2111533417.6428344       -162240058.70345235        513753477.53173733     
   2064382073.9340756       -137036335.82765520        582029997.81336725     
   2016792025.9484468       -113294960.54141831        645677899.05990875     
   1968763273.6859446       -91015932.844753504        704697181.27136135     
   1920295817.1465697       -70199252.737666488        759087844.44772780     
   2106266189.6274660       -144664061.28179193        240586094.41050708     
   2037739475.2455180       -123047228.92414379        365201753.16031367     
   1968847122.2393928       -102649191.98041153        478831182.08540833     
   1899589130.6090865       -83469950.450626016        581474381.18579125     
   1829965500.3546073       -65509504.334750414        673131350.46145844     
   2783687351.4670525        93451677.236983895        1025268328.7832170     
   2634920946.8971963        75861410.814246058        952496879.81981277     
   2488233053.8365254        65199516.088789105        885865962.12033975     
   2343623672.2850370        61465993.060607433        825375575.68479633     
   2201092802.2427306        64660841.729700685        771025720.51317692     
   2397156742.7027965        9281338.0482060909        935156333.60860419     
   2265134656.0733461        140919.17738008499        898623861.69826901     
   2135075774.0123432       -2455484.4652804136        866881138.27387083     
   2006980096.5197935        1492127.1202296019        839928163.33541393     
   1880847623.5956945        11983753.933913112        817764936.88290489     
   2109359564.5959725       -45268971.943343759        846429505.49677706     
   1990222416.5412495       -47117357.071969867        846001485.87531185     
   1872933166.1142504       -42806083.441527009        849012431.96180129     
   1757491813.3149681       -32335151.052019596        855462343.75625086     
   1643898358.1434081       -15704559.903446317        865351221.25865805     
   1920295817.1465697       -70199252.737666488        759087844.44772780     
   1810184228.3009152       -65913417.933786035        794629752.35095084     
   1701805230.1422484       -55852280.839940906        832259843.18414485     
   1595158822.6705661       -40015841.456149936        871978116.94731104     
   1490245005.8858788       -18404099.782376826        913784573.64045012     
   1829965500.3546073       -65509504.334750414        673131350.46145844     
   1725020091.3523436       -56247263.408070087        744508661.12517786     
   1621691966.0963337       -41594076.660538793        816623371.94089222     
   1519981124.5865855       -21549944.092138171        889475482.90859222     
   1419887566.8230929        3885134.2971156836        963064994.02828085     
   2201092802.2427306        64660841.729700685        771025720.51317692     
   2071831571.8043880        72456353.294237137        719005710.89884734     
   1940900470.0860124        74685627.258674979        680404801.99762666     
   1808299497.0876410        71348663.623128176        655222993.80951226     
   1674028652.8092515        62445462.387508988        643460286.33450651     
   1880847623.5956945        11983753.933913112        817764936.88290489     
   1782718288.0697026        31284855.161953688        790163467.77801645     
   1682895110.5213716        44939816.315541804        770435373.35486317     
   1581378090.9506979        52948637.394659996        758580653.61344683     
   1478167229.3576875        55311318.399311006        754599308.55377460     
   1643898358.1434081       -15704559.903446317        865351221.25865805     
   1561055986.0115793        10348651.532675445        862140326.79716301     
   1476495801.1150789        30675820.419906318        861257080.98603618     
   1390217803.4539132        45276946.758245885        862701483.82527566     
   1302221993.0280828        54152030.547700882        866473535.31488776     
   1490245005.8858788       -18404099.782376826        913784573.64045012     
   1406844665.6300111        9647742.4063654542        934936287.95630133     
   1321702541.8671479        31893639.571779132        952869924.89114511     
   1234818634.5972931        48333591.713897943        967585484.44498813     
   1146192943.8204417        58967598.832686543        979082966.61783457     
   1419887566.8230929        3885134.2971156836        963064994.02828085     
   1320084326.9249830        29182127.782980800        1008551351.2554203     
   1218515332.7775719        48593273.771170378        1045273905.0701932     
   1115180584.3808146        62118572.261546969        1073232655.4725903     
   1010080081.7347533        69758023.254244655        1092427602.4626312     
   1674028652.8092515        62445462.387508988        643460286.33450651     
   1536662187.4447191        53045147.406918347        621974708.98813176     
   1401250146.7102177        50159581.193098724        600753484.34983587     
   1267792530.6057346        53788763.746009052        579796612.41960406     
   1136289339.1312885        63932695.065702915        559104093.19745493     
   1478167229.3576875        55311318.399311006        754599308.55377460     
   1343081182.2325258        46814769.404621422        742222281.88688993     
   1208834027.0156298        41114526.770813465        731126509.00701034     
   1075425763.7069809        38210590.497828484        721311989.91413903     
   942856392.30659676        38102960.585731626        712778724.60826766     
   1302221993.0280828        54152030.547700882        866473535.31488776     
   1172321795.7963972        47430877.035157204        861903604.48542082     
   1042144957.7511969        39787587.477575600        859631828.52189517     
   911691478.89248264        31222161.874938101        859658207.42430556     
   780961359.22025204        21734600.227254450        861982741.19265616     
   1146192943.8204417        58967598.832686543        979082966.61783457     
   1024384028.1363171        54893470.298500836        981018676.78372133     
   901182938.91691220        46178763.313381881        986269442.89448345     
   776589676.16221964        32823477.877298266        994835264.95011330     
   650604239.87224340        14827613.990279794        1006716142.9506201     
   1010080081.7347533        69758023.254244655        1092427602.4626312     
   899267879.25229621        69202549.194668859        1099567498.7817984     
   785947970.51278412        60288054.278238416        1111039352.1247840     
   670120355.51621485        43014538.504949987        1126843162.4915695     
   551785034.26259089        17382001.874818593        1146978929.8821621     
   1136289339.1312885        63932695.065702915        559104093.19745493     
   951425785.00214040        49833192.126621783        573707939.05807078     
   759177921.32271957        11119324.019992411        599982846.14573145     
   559545748.09303749       -52208909.254191279        637928814.46043730     
   352529265.31308186       -140151507.69594759        687545844.00219429     
   942856392.30659676        38102960.585731626        712778724.60826766     
   785288281.96952593        18892767.871785879        728578184.45728469     
   619230988.87529969       -28614700.699347794        754882468.25198281     
   444684513.02391732       -104419445.12766290        791691575.99235094     
   261648854.41538560       -208521465.41315079        839005507.67839885     
   780961359.22025204        21734600.227254450        861982741.19265616     
   647356586.15705514       -3585914.2170069218        877688796.28871739     
   504157757.12981260       -60886615.208088994        902733438.04906619     
   351364872.13852310       -150167502.74599034        937116666.47372019     
   188977931.18319207       -271428576.83070314        980838481.56268251     
   650604239.87224340        14827613.990279794        1006716142.9506201     
   537630697.56471229       -17602854.139768004        1021039774.5523432     
   413958226.08623588       -85696419.506283402        1043535755.5369898     
   279586825.43683565       -189453082.10921893        1074204085.9045608     
   134516495.61650500       -328872841.94859022        1113044765.6550610     
   551785034.26259089        17382001.874818593        1146978929.8821621     
   456110616.19250751       -23158051.896481067        1158631119.2481802     
   348632395.74460191       -103044113.59385496        1177289420.7157409     
   229350372.91886961       -222276183.21732607        1202953834.2848649     
   98264547.715315044       -380854260.76685482        1235624359.9555416     
   352529265.31308186       -140151507.69594759        687545844.00219429     
   278133643.93832761       -282381968.14210135        789689150.84358227     
   149095439.52529377       -606754372.04917061        907780917.89832902     
  -34585347.926007509       -1113268719.4171369        1041821145.1664524     
  -272908718.41559541       -1801925010.2460637        1191809832.6479702     
   261648854.41538560       -208521465.41315079        839005507.67839885     
   222946279.47123265       -349083006.84461057        887509675.26670539     
   140144241.40821823       -636642758.67230010        947136437.04640687     
   13242740.226341307       -1071200720.8961786        1017885793.0175085     
  -157758224.07440412       -1652756893.5162885        1099757743.1799872     
   188977931.18319207       -271428576.83070314        980838481.56268251     
   172180214.03539264       -414457655.83777326        988003816.47058010     
   121826153.68814561       -669341212.17634225        1001465879.5478795     
   37915750.141459942       -1036079245.8463998        1021224670.7945851     
  -79550996.604694366       -1514671756.8479710        1047280190.2107002     
   134516495.61650500       -328872841.94859022        1113044765.6550610     
   125835447.63082051       -478505915.12154061        1091171574.4551990     
   94141176.365096122       -704849732.56128407        1070769245.4027530     
   39433681.819341481       -1007904294.2677937        1051837778.4977176     
  -38287036.006444633       -1387669600.2410846        1034377173.7401062     
   98264547.715315044       -380854260.76685482        1235624359.9555416     
   83911980.257504493       -541227784.69592452        1197012949.2205515     
   57089309.439059645       -743168319.82710850        1155046534.6110115     
   17796535.260001540       -986675866.16033387        1109725116.1268871     
  -33966342.279683888       -1271750423.6956451        1061048693.7682098     
   1609229166.2761087       -576953799.00295389       -2971056256.8697753     
   1724111650.8532119       -576723920.40699923       -2212521743.3798976     
   1849217187.8616118       -542417200.37337780       -1576447722.3209679     
   1984545777.3013120       -474033638.90208244       -1062834193.6929855     
   2130097419.1723194       -371573235.99311161       -671681157.49595308     
   3087488215.1699047        27692031.502458572       -1181629681.4837222     
   2938745501.3849683       -33128789.957022667       -746212643.36960685     
   2796464308.0377922       -72411209.957292676       -377035103.85947084     
   2660644635.1283813       -90155228.498349190       -74097062.953310937     
   2531286482.6567297       -86360845.580203652        162601479.34886578     
   3534431150.3602743        322943027.89684129        616928374.53439474     
   3282694649.1474905        249260929.66218686        724839483.28029311     
   3033658136.3789344        184578792.90828001        822732087.24917364     
   2787321612.0545998        128896617.63512063        910606186.44104433     
   2543685076.1744919        82214403.842709661        988461780.85590398     
   2950057971.8472157        308799190.18019629        2424617911.1845856     
   2755959094.1407847        270445238.45062625        2200634636.5697947     
   2560798672.8850369        228552808.22333968        2022853851.0049627     
   2364576708.0799770        183121899.49833894        1891275554.4900851     
   2167293199.7256031        134152512.27562797        1805899747.0251641     
   1334368679.6307321       -14739481.647476017        4241438928.4668441     
   1358538836.3648455        30424136.408295691        3681172816.4989080     
   1377885917.5561059        59510835.987895072        3223330187.4078989     
   1392409923.2045107        72520617.091308653        2867911041.1938128     
   1402110853.3100653        69453479.718551219        2614915377.8566475     
   2130097419.1723194       -371573235.99311161       -671681157.49595308     
   2128042555.0765743       -301836131.34705687       -382304476.67577469     
   2123385728.7871835       -240772234.01314807       -133801041.08463831     
   2116126940.3041439       -188381543.99140108        73829149.277452826     
   2106266189.6274660       -144664061.28179193        240586094.41050708     
   2531286482.6567297       -86360845.580203652        162601479.34886578     
   2433993684.3009620       -65108428.503971338        323466901.65717119     
   2335407559.7425871       -48167098.769755960        463134393.81831098     
   2235528108.9816065       -35536856.377566338        581603955.83227980     
   2134355332.0180178       -27217701.327397108        678875587.69907892     
   2543685076.1744919        82214403.842709661        988461780.85590398     
   2407369529.5069108        71846689.133584738        1022342686.6418855     
   2271069292.6277633        61530007.052571654        1054700977.3625727     
   2134784365.5370464        51264357.599661469        1085536653.0179613     
   1998514748.2347620        41049740.774858832        1114849713.6080549     
   2167293199.7256031        134152512.27562797        1805899747.0251641     
   2048170090.6944206        109029221.56560814        1714322878.2783666     
   1930370927.4427066        88319083.453820586        1640898709.5481443     
   1813895709.9704678        72022097.940280318        1585627240.8344998     
   1698744438.2777004        60138265.024976254        1548508472.1374340     
   1402110853.3100653        69453479.718551219        2614915377.8566475     
   1356395367.8634901        46439168.792099357        2399407476.5666122     
   1313312464.1874235        32200130.434011936        2221727590.3750305     
   1272862142.2818675        26736364.644293666        2081875719.2818992     
   1235044402.1468225        30047871.422942221        1979851863.2872186     
   2106266189.6274660       -144664061.28179193        240586094.41050708     
   2037739475.2455180       -123047228.92414379        365201753.16031367     
   1968847122.2393928       -102649191.98041153        478831182.08540833     
   1899589130.6090865       -83469950.450626016        581474381.18579125     
   1829965500.3546073       -65509504.334750414        673131350.46145844     
   2134355332.0180178       -27217701.327397108        678875587.69907892     
   2041661787.1542025       -18636429.729695082        748974832.68622971     
   1948757181.8452578       -10758692.949086428        814478644.22587895     
   1855641516.0911863       -3584490.9855668545        875387022.31801856     
   1762314789.8919847        2886176.1608459949        931699966.96266246     
   1998514748.2347620        41049740.774858832        1114849713.6080549     
   1899913791.1096749        42073277.078784943        1130612886.0414445     
   1801256351.7185116        42908539.162458658        1148171421.4045331     
   1702542430.0612688        43555527.025867224        1167525319.6973321     
   1603772026.1379504        44014240.669022441        1188674580.9198327     
   1698744438.2777004        60138265.024976254        1548508472.1374340     
   1612495487.1119406        59081891.501308918        1510115913.2259498     
   1526344631.8591533        58352504.354216754        1479909513.6213777     
   1440291872.5193415        57950103.583708286        1457889273.3237209     
   1354337209.0925031        57874689.189773202        1444055192.3329823     
   1235044402.1468225        30047871.422942221        1979851863.2872186     
   1179406875.1609931        32389413.537863791        1887483914.2397513     
   1124022022.2671852        35573202.626193583        1809692920.8764110     
   1068889843.4654062        39599238.687951505        1746478883.1971912     
   1014010338.7556465        44467521.723104596        1697841801.2021034     
   1829965500.3546073       -65509504.334750414        673131350.46145844     
   1725020091.3523436       -56247263.408070087        744508661.12517786     
   1621691966.0963337       -41594076.660538793        816623371.94089222     
   1519981124.5865855       -21549944.092138171        889475482.90859222     
   1419887566.8230929        3885134.2971156836        963064994.02828085     
   1762314789.8919847        2886176.1608459949        931699966.96266246     
   1660421810.9183075        7937315.2551681995        973696542.30270588     
   1559498363.4536452        16220226.046200633        1018275533.3202182     
   1459544447.4980071        27734908.533985317        1065436940.0152071     
   1360560063.0513878        42481362.718494475        1115180762.3876519     
   1603772026.1379504        44014240.669022441        1188674580.9198327     
   1510202950.1227989        46435719.809946477        1200534709.9927609     
   1416955653.3794293        49929796.523481786        1216822270.2686369     
   1324030135.9078424        54496470.809623003        1237537261.7474592     
   1231426397.7080388        60135742.668376863        1262679684.4292350     
   1354337209.0925031        57874689.189773202        1444055192.3329823     
   1274363508.9658201        59247950.256296217        1425023164.1953430     
   1194063835.8736813        59534634.771300018        1412263582.7861400     
   1113438189.8160884        58734742.734792292        1405776448.1053574     
   1032486570.7930424        56848274.146769881        1405561760.1530018     
   1014010338.7556465        44467521.723104596        1697841801.2021034     
   952903487.44736958        46374006.594194382        1647161904.9104602     
   890822910.93641078        45034740.789673895        1604599470.8727257     
   827768609.22274852        40449724.309477180        1570154499.0888991     
   763740582.30640078        32618957.153662741        1543826989.5589778     
   1419887566.8230929        3885134.2971156836        963064994.02828085     
   1320084326.9249830        29182127.782980800        1008551351.2554203     
   1218515332.7775719        48593273.771170378        1045273905.0701932     
   1115180584.3808146        62118572.261546969        1073232655.4725903     
   1010080081.7347533        69758023.254244655        1092427602.4626312     
   1360560063.0513878        42481362.718494475        1115180762.3876519     
   1241070758.4872477        50972227.823115349        1137730744.9656389     
   1120543276.4505901        56002501.352688253        1157779741.6085570     
   998977616.94141877        57572183.307210296        1175327752.3164217     
   876373779.95973802        55681273.686695129        1190374777.0892239     
   1231426397.7080388        60135742.668376863        1262679684.4292350     
   1110144792.6987379        57188608.657982528        1263142131.9309926     
   988552586.99373889        53206138.995259583        1267366410.9750090     
   866649780.59302080        48188333.680139840        1275352521.5612729     
   744436373.49660301        42135192.712689728        1287100463.6897824     
   1032486570.7930424        56848274.146769881        1405561760.1530018     
   927306429.55947578        47831270.287654817        1384785512.1514921     
   822543264.40700603        40204186.698859364        1374033913.1695366     
   718197075.33562970        33967023.380374730        1373306963.2071428     
   614267862.34536052        29119780.332252055        1382604662.2643051     
   763740582.30640078        32618957.153662741        1543826989.5589778     
   692555669.06944573        22900212.712066829        1502660885.6271358     
   622515308.69039381        16996644.463483602        1477782248.1921515     
   553619501.16925323        14908252.407934338        1469191077.2540364     
   485868246.50601625        16635036.545397192        1476887372.8127944     
   1010080081.7347533        69758023.254244655        1092427602.4626312     
   899267879.25229621        69202549.194668859        1099567498.7817984     
   785947970.51278412        60288054.278238416        1111039352.1247840     
   670120355.51621485        43014538.504949987        1126843162.4915695     
   551785034.26259089        17382001.874818593        1146978929.8821621     
   876373779.95973802        55681273.686695129        1190374777.0892239     
   777325732.75893962        55383383.477898836        1195334282.5440099     
   675706818.51030600        46515936.442987978        1204951738.7645450     
   571517037.21383905        29078932.581967235        1219227145.7508392     
   464756388.86953032        3072371.8948016465        1238160503.5028746     
   744436373.49660301        42135192.712689728        1287100463.6897824     
   658083892.26873124        42374309.562056601        1289805890.6909380     
   569097383.20224774        33833333.616055161        1297495262.1997900     
   477476846.29714727        16512264.874662638        1310168578.2163341     
   383222281.55343223       -9588896.6621132195        1327825838.7405748     
   614267862.34536052        29119780.332252055        1382604662.2643051     
   541542357.78168511        30175327.447171360        1382982323.2225914     
   466119664.58861351        22240245.797447056        1388669922.4305153     
   387999782.76614773        5314535.3830725551        1399667459.8880706     
   307182712.31428778       -20601803.795948684        1415974935.5952640     
   485868246.50601625        16635036.545397192        1476887372.8127944     
   427701129.29779857        18786437.133247316        1474863580.1389632     
   366773662.66940707        11736672.987178966        1478475719.4567101     
   303085846.62084502       -4514255.8927922249        1487723790.7660418     
   236637681.15210235       -29966349.506696433        1502607794.0669465     
   551785034.26259089        17382001.874818593        1146978929.8821621     
   456110616.19250751       -23158051.896481067        1158631119.2481802     
   348632395.74460191       -103044113.59385496        1177289420.7157409     
   229350372.91886961       -222276183.21732607        1202953834.2848649     
   98264547.715315044       -380854260.76685482        1235624359.9555416     
   464756388.86953032        3072371.8948016465        1238160503.5028746     
   387274863.08493537       -33252902.099760205        1238507639.4891307     
   299769182.32048547       -102992026.02717185        1244870554.4142034     
   202239346.57618409       -206144999.88742024        1257249248.2780745     
   94685355.852024019       -342711823.68053365        1275643721.0807478     
   383222281.55343223       -9588896.6621132195        1327825838.7405748     
   321104124.73218226       -42548247.876576915        1318944176.6447129     
   250741460.32904562       -102989291.03066576        1315087960.3249056     
   172134288.34402412       -190912026.12436998        1316257189.7811580     
   85282608.777112573       -306316453.15771198        1322451865.0134640     
   307182712.31428778       -20601803.795948684        1415974935.5952640     
   257598401.13424158       -51044089.226961628        1399940730.7149148     
   201549229.77028030       -103035908.60435730        1387941638.4478610     
   139035198.22239146       -176577261.92818153        1379977658.7941191     
   70056306.490592763       -271668149.19836611        1376048791.7536778     
   236637681.15210235       -29966349.506696433        1502607794.0669465     
   196757692.29111493       -58740426.150902092        1481497301.6997328     
   152192490.64418209       -103131878.74826205        1463431588.7830682     
   102942076.21129680       -163140707.29879671        1448410655.3169606     
   49006448.992454350       -238766911.80251917        1436434501.3014047     
   98264547.715315044       -380854260.76685482        1235624359.9555416     
   83911980.257504493       -541227784.69592452        1197012949.2205515     
   57089309.439059645       -743168319.82710850        1155046534.6110115     
   17796535.260001540       -986675866.16033387        1109725116.1268871     
  -33966342.279683888       -1271750423.6956451        1061048693.7682098     
   94685355.852024019       -342711823.68053365        1275643721.0807478     
   78280502.881964654       -484229379.11339736        1221535901.6637313     
   50606086.452649385       -663312146.07711089        1164853027.6127405     
   11662106.564070523       -879960124.57171190        1105595098.9277616     
  -38551436.783771157       -1134173314.5971749        1043762115.6088030     
   85282608.777112573       -306316453.15771198        1322451865.0134640     
   69053896.696494281       -428309512.17381257        1254248266.7993314     
   42756161.057963490       -583865983.04961598        1184249563.1918025     
   6389401.8615372181       -772985865.78507030        1112455754.1908855     
  -40046380.892784238       -995669160.38018250        1038866839.7965637     
   70056306.490592763       -271668149.19836611        1376048791.7536778     
   56232161.701071590       -373468183.87724519        1295150044.6273556     
   33539533.255010009       -504829830.74459791        1213236141.3482199     
   1978421.1524181962       -665753089.80038464        1130307081.9162810     
  -38451174.606723815       -856237961.04466128        1046362866.3315251     
   49006448.992454350       -238766911.80251917        1436434501.3014047     
   39815297.895718351       -319705394.22363037        1344241235.1478055     
   22956203.043795109       -426203689.16203511        1251812762.0819795     
  -1570835.5633090734       -558261796.61770558        1159149082.1039388     
  -33765817.925588071       -715879716.59063089        1066250195.2136592     
   1334368679.6307321       -14739481.647476017        4241438928.4668441     
   1358538836.3648455        30424136.408295691        3681172816.4989080     
   1377885917.5561059        59510835.987895072        3223330187.4078989     
   1392409923.2045107        72520617.091308653        2867911041.1938128     
   1402110853.3100653        69453479.718551219        2614915377.8566475     
  -361733565.89254856       -419807635.61405563        2850532659.6491151     
  -121938648.83366668       -319434731.89581603        2577400824.1925545     
   114238961.55510961       -231119517.07793254        2354970101.7252517     
   346799265.27378070       -154861991.16039482        2183240492.2472019     
   575742262.32234395       -90662154.143219203        2062211995.7583992     
  -1149495760.7126732       -552373774.36968505        1455277586.2575550     
  -841854283.00808299       -441125044.89270067        1470686757.6639085     
  -536624343.10084653       -337914774.74023938        1485074672.1718495     
  -233805940.99097207       -242742963.91231003        1498441329.7813714     
   66600923.321546681       -155609612.40890244        1510786730.4924750     
  -1028917904.8296456       -412437897.91436964        55673708.292156734     
  -801208066.15840006       -334646802.58235055        361030616.91296816     
  -574703996.41176665       -260874936.99903816        613643898.74769044     
  -349405695.58974195       -191122301.16442460        813513553.79632580     
  -125313163.69232973       -125388895.07851940        960639582.05887246     
   1.7565341123018934       -6.2481102709259968       -1348278974.2470670     
   1.7153741796968083       -4.9647796862683933       -751567598.06026757     
   1.6223517950298838       -3.8543253295957021       -259322218.54722229     
   1.4774657687764507       -2.9167483904325917        128457164.29206434     
   1.2807167414497922       -2.1520495092923460        411770550.45759422     
   1402110853.3100653        69453479.718551219        2614915377.8566475     
   1356395367.8634901        46439168.792099357        2399407476.5666122     
   1313312464.1874235        32200130.434011936        2221727590.3750305     
   1272862142.2818675        26736364.644293666        2081875719.2818992     
   1235044402.1468225        30047871.422942221        1979851863.2872186     
   575742262.32234395       -90662154.143219203        2062211995.7583992     
   614518869.07013345       -86003920.918285340        1951897017.4558017     
   655269912.13505161       -74764233.302926123        1862361969.4000936     
   697995391.51709569       -56943091.297145247        1793606851.5912852     
   742695307.21626747       -32540494.900935709        1745631664.0293689     
   66600923.321546681       -155609612.40890244        1510786730.4924750     
   141160808.40211213       -137891479.19106770        1504896838.8150277     
   217036984.34642357       -115785709.76074433        1502738792.5329194     
   294229451.15448177       -89292304.117933497        1504312591.6461520     
   372738208.82628340       -58411262.262643948        1509618236.1547234     
  -125313163.69232973       -125388895.07851940        960639582.05887246     
  -63678814.140575200       -109223506.02624905        1058406940.6443007     
  -1386319.1784567162       -90864298.939434931        1142858059.7735124     
   61564321.194025159       -70311273.818076178        1213992939.4465060     
   125173106.97686444       -47564430.662190199        1271811579.6632850     
   1.2807167414497922       -2.1520495092923460        411770550.45759422     
   1.4420700897147130       -1.4238322974859061        612427322.94361591     
   1.5604074808829416      -0.83900299711388793        782719771.12186408     
   1.6357240882293775      -0.39757492170239705        922647894.99234021     
   1.6680210326522673       -9.9547110481508105E-002   1032211694.5550455     
   1235044402.1468225        30047871.422942221        1979851863.2872186     
   1179406875.1609931        32389413.537863791        1887483914.2397513     
   1124022022.2671852        35573202.626193583        1809692920.8764110     
   1068889843.4654062        39599238.687951505        1746478883.1971912     
   1014010338.7556465        44467521.723104596        1697841801.2021034     
   742695307.21626747       -32540494.900935709        1745631664.0293689     
   720594981.23190522       -24895992.477393955        1694068939.6510277     
   698684160.81989658       -16619804.812668413        1652503346.4415452     
   676962845.98025167       -7711931.9067343473        1620934884.4009242     
   655431036.71296573        1827626.2404017746        1599363553.5291624     
   372738208.82628340       -58411262.262643948        1509618236.1547234     
   371089870.94262528       -49389363.400723487        1498787039.8392313     
   369567870.11166239       -39946341.029819891        1493373150.1773331     
   368172206.33339703       -30082195.149923414        1493376567.1690300     
   366902879.60782844       -19796925.761039540        1498797290.8143234     
   125173106.97686444       -47564430.662190199        1271811579.6632850     
   130891544.29315948       -41090699.232103422        1301638214.8043668     
   136673150.14248216       -34406406.025253907        1332302332.0837781     
   142517924.52484235       -27511551.041615933        1363803931.5015211     
   148425867.44022527       -20406134.281233154        1396143013.0575917     
   1.6680210326522673       -9.9547110481508105E-002   1032211694.5550455     
   1.2835062683010605        2.8462122768525666E-002   1102622464.5464308     
  0.91235974819037713       0.20103355793241884        1169290892.1608756     
  0.55458062592766422       0.41816298592288026        1232216977.3983879     
  0.21017272171714813       0.67986175297521656        1291400720.2589688     
   1014010338.7556465        44467521.723104596        1697841801.2021034     
   952903487.44736958        46374006.594194382        1647161904.9104602     
   890822910.93641078        45034740.789673895        1604599470.8727257     
   827768609.22274852        40449724.309477180        1570154499.0888991     
   763740582.30640078        32618957.153662741        1543826989.5589778     
   655431036.71296573        1827626.2404017746        1599363553.5291624     
   614286916.91148555        4663295.5830824673        1571660844.6267333     
   572412503.20081294        5064651.8951240182        1550982193.5975690     
   529807795.58095056        3031695.1765334308        1537327600.4416595     
   486472794.05189645       -1435574.5726965070        1530697065.1590142     
   366902879.60782844       -19796925.761039540        1498797290.8143234     
   342597478.79700220       -16969275.701617613        1494355772.4768641     
   317805215.37048817       -15764501.027823478        1495844907.6320159     
   292526089.32827753       -16182601.739682779        1503264696.2797809     
   266760100.67037815       -18223577.837173253        1516615138.4201543     
   148425867.44022527       -20406134.281233154        1396143013.0575917     
   137835173.10392284       -18523707.259892352        1415246688.4608495     
   127001047.44542807       -17452717.979195163        1439187612.9760671     
   115923490.46473683       -17193166.439150982        1467965786.6032498     
   104602502.16185345       -17745052.639748596        1501581209.3423953     
  0.21017272171714813       0.67986175297521656        1291400720.2589688     
 -0.16775061193610014       0.90825469855682561        1334333592.5786891     
 -0.57436857467976199        1.0410030438400653        1381010309.6297255     
  -1.0096782613285873        1.0781095338818647        1431430871.4120755     
  -1.4736790542447673        1.0195803908112628        1485595277.9257450     
   763740582.30640078        32618957.153662741        1543826989.5589778     
   692555669.06944573        22900212.712066829        1502660885.6271358     
   622515308.69039381        16996644.463483602        1477782248.1921515     
   553619501.16925323        14908252.407934338        1469191077.2540364     
   485868246.50601625        16635036.545397192        1476887372.8127944     
   486472794.05189645       -1435574.5726965070        1530697065.1590142     
   453919348.50076926       -2474061.0936253965        1508412864.2209661     
   422224317.58516908       -651165.49613356590        1497554573.9473135     
   391387701.30507886        4033112.2197276503        1498122194.3380361     
   361409499.66052097        11578772.054027006        1510115725.3931468     
   266760100.67037815       -18223577.837173253        1516615138.4201543     
   258947963.28369984       -14748854.293840468        1512879012.5498011     
   251708102.31015825       -9366542.7067206949        1515707241.5113468     
   245040517.74975592       -2076643.0758038610        1525099825.3047941     
   238945209.60249296        7120844.5989136547        1541056763.9301412     
   104602502.16185345       -17745052.639748596        1501581209.3423953     
   107641513.41824374       -13924166.888562381        1516059330.6136167     
   110966662.86537915       -9149487.1682279259        1532240250.8842611     
   114577950.50328101       -3421013.4786708727        1550123970.1543183     
   118475376.33192942        3261254.1800413057        1569710488.4237933     
  -1.4736790542447673        1.0195803908112628        1485595277.9257450     
  -1.0956095005591000        1.1221799130959418        1517953818.4124293     
 -0.74917100911176593        1.1193418673634530        1547153602.0660465     
 -0.43436049171371977        1.0110775884113661        1573194628.8865943     
 -0.15117604970058562       0.79739305817623884        1596076898.8740811     
   485868246.50601625        16635036.545397192        1476887372.8127944     
   427701129.29779857        18786437.133247316        1474863580.1389632     
   366773662.66940707        11736672.987178966        1478475719.4567101     
   303085846.62084502       -4514255.8927922249        1487723790.7660418     
   236637681.15210235       -29966349.506696433        1502607794.0669465     
   361409499.66052097        11578772.054027006        1510115725.3931468     
   317743190.99397284        13180031.188540056        1505976915.8212914     
   272006620.26778805        7880416.7909336388        1507483598.0868268     
   224199787.48200533       -4320071.1386636198        1514635772.1897578     
   174322692.63659438       -23421432.600362033        1527433438.1300914     
   238945209.60249296        7120844.5989136547        1541056763.9301412     
   209807023.32278442        8180156.4335907027        1535608039.3809116     
   179288662.34401700        4638885.9380701855        1535814366.5148952     
   147390126.66619211       -3502966.8876401857        1541675745.3320913     
   114111416.28931002       -16245402.043540552        1553192175.8325026     
   118475376.33192942        3261254.1800413057        1569710488.4237933     
   103892626.28425312        3786812.8684518076        1563756950.8178387     
   88619788.898081958        2012080.4285471253        1563468024.7409172     
   72656864.173414126       -2062943.1396796368        1568843710.1930199     
   56003852.110241286       -8438257.8362577334        1579884007.1741545     
 -0.15117604970058562       0.79739305817623884        1596076898.8740811     
 -0.12162779940714510       0.49310802693849942        1590423650.1320617     
  -7.0014232506870097E-002  0.26237405105687472        1590444572.7648892     
   3.6504682061060945E-003  0.10514316066153033        1596139666.7725582     
   9.9383596590436288E-002   2.1475083616146709E-002   1607508932.1550729     
   236637681.15210235       -29966349.506696433        1502607794.0669465     
   196757692.29111493       -58740426.150902092        1481497301.6997328     
   152192490.64418209       -103131878.74826205        1463431588.7830682     
   102942076.21129680       -163140707.29879671        1448410655.3169606     
   49006448.992454350       -238766911.80251917        1436434501.3014047     
   174322692.63659438       -23421432.600362033        1527433438.1300914     
   144498815.08195937       -44976155.875654042        1502266376.9916608     
   111161027.93801390       -78243911.115314215        1480124002.0147331     
   74309331.204763263       -123224698.31932640        1461006313.1993084     
   33943724.882210314       -179918517.48767680        1444913310.5453875     
   114111416.28931002       -16245402.043540552        1553192175.8325026     
   94286240.643727407       -30597994.769152209        1525335066.3189378     
   72118458.605490506       -52759275.470279589        1500482549.6778340     
   47608070.174592465       -82729244.146940559        1478634625.9091835     
   20755075.351044439       -120507900.79910430        1459791295.0129914     
   56003852.110241286       -8438257.8362577334        1579884007.1741545     
   46119968.976432487       -15605942.831350960        1550703369.6815550     
   35064782.646608666       -26677971.813159168        1524507231.7723637     
   22838293.120788947       -41654344.781621255        1501295593.4465783     
   9440500.3989488371       -60535061.736820742        1481068454.7041981     
   9.9383596590436288E-002   2.1475083616146709E-002   1607508932.1550729     
   8.0060683357588702E-002  -6.2292753373132302E-002   1578371287.0795300     
   6.1380570955619544E-002 -0.14391930870493064        1552198048.2983341     
   4.3333079798417051E-002 -0.22343677960947825        1528989215.8114979     
   2.5931546287561377E-002 -0.30080036447014613        1508744789.6190090     
   49006448.992454350       -238766911.80251917        1436434501.3014047     
   39815297.895718351       -319705394.22363037        1344241235.1478055     
   22956203.043795109       -426203689.16203511        1251812762.0819795     
  -1570835.5633090734       -558261796.61770558        1159149082.1039388     
  -33765817.925588071       -715879716.59063089        1066250195.2136592     
   33943724.882210314       -179918517.48767680        1444913310.5453875     
   29655631.144513622       -239840798.44655216        1345244329.7923949     
   19616579.589988261       -318932938.79485220        1244732245.8903568     
   3826570.2186066508       -417194938.53267515        1143377058.8392911     
  -17714396.969599128       -534626797.65991485        1041178768.6392094     
   20755075.351044439       -120507900.79910430        1459791295.0129914     
   19633192.581518650       -159935034.21299100        1354883083.2553182     
   14677337.933502555       -212142073.88851127        1248523872.1118109     
   5887511.4069880843       -277129019.82569462        1140713661.5824783     
  -6736286.9980222136       -354895872.02452236        1031452451.6672944     
   9440500.3989488371       -60535061.736820742        1481068454.7041981     
   9747982.2067298964       -79988101.522958010        1373157495.5365896     
   8138478.0743520930       -105831094.44295728        1263187640.7463427     
   4611988.0018264651       -138064040.49678218        1151158890.3334558     
  -831488.01085299253       -176686939.68445218        1037071244.2979256     
   2.5931546287561377E-002 -0.30080036447014613        1508744789.6190090     
   2.0139476167332859E-002 -0.37647883894625006        1400067566.6362059     
   1.2546236943129063E-002 -0.45816329210377627        1288723551.7939501     
   3.1244009211341406E-003 -0.54594272097591101        1174712745.0922511     
  -8.0926108305410527E-003 -0.63970468116819923        1058035146.5311042     
   1.7565341123018934       -6.2481102709259968       -1348278974.2470670     
   1.7153741796968083       -4.9647796862683933       -751567598.06026757     
   1.6223517950298838       -3.8543253295957021       -259322218.54722229     
   1.4774657687764507       -2.9167483904325917        128457164.29206434     
   1.2807167414497922       -2.1520495092923460        411770550.45759422     
   1028917908.0140229        412437883.39469075        55673707.124389485     
   801208069.58971512        334646791.76521462        361030615.76730549     
   574703999.87217903        260874929.15831566        613643897.61528552     
   349405698.86141670        191122295.57399416        813513552.66832256     
   125313166.55742678        125388891.01224542        960639580.92641902     
   1149495764.1801076        552373758.01006877        1455277584.3874648     
   841854287.02641642        441125033.36391544        1470686755.7049096     
   536624347.33813405        337914766.93579161        1485074670.1062264     
   233805945.11526334        242742958.72570381        1498441327.5914252     
  -66600919.642201297        155609608.73363894        1510786728.1605024     
   361733570.25478715        419807617.59802699        2850532657.5421624     
   121938654.02548009        319434719.83132654        2577400821.7525368     
  -114238955.97978106        231119509.47810993        2354970098.9256039     
  -346799259.76099801        154861986.53837520        2183240489.0613718     
  -575742257.31816840        90662151.012129068        2062211992.1598349     
  -1334368673.7619374        14739462.158562243        4241438926.5884748     
  -1358538829.4130929       -30424148.832556605        3681172813.9101892     
  -1377885910.0815697       -59510843.214737952        3223330184.0734186     
  -1392409915.7673604       -72520620.987972260        2867911037.0781622     
  -1402110846.4704716       -69453482.152275026        2614915372.9244246     
   1.2807167414497922       -2.1520495092923460        411770550.45759422     
   1.4420700897147130       -1.4238322974859061        612427322.94361591     
   1.5604074808829416      -0.83900299711388793        782719771.12186408     
   1.6357240882293775      -0.39757492170239705        922647894.99234021     
   1.6680210326522673       -9.9547110481508105E-002   1032211694.5550455     
   125313166.55742678        125388891.01224542        960639580.92641902     
   63678817.226971343        109223503.25379129        1058406939.5861535     
   1386322.4279184937        90864297.266680479        1142858058.7491913     
  -61564317.839730628        70311273.050914615        1213992938.4155354     
  -125173103.57597214        47564430.606507726        1271811578.5851839     
  -66600919.642201297        155609608.73363894        1510786728.1605024     
  -141160804.71853235        137891476.61228922        1504896836.6641057     
  -217036980.68903697        115785708.17702778        1502738790.4820926     
  -294229447.55371243        89292303.427862763        1504312589.6144607     
  -372738205.31256366        58411262.364779741        1509618234.0612118     
  -575742257.31816840        90662151.012129068        2062211992.1598349     
  -614518864.39443827        86003918.651668578        1951897014.1774712     
  -655269907.79046035        74764231.892036140        1862361966.3205674     
  -697995387.50623310        56943090.733234227        1793606848.5891259     
  -742695303.54175401        32540495.175273716        1745631660.9831409     
  -1402110846.4704716       -69453482.152275026        2614915372.9244246     
  -1356395361.8007488       -46439170.628075182        2399407472.1262512     
  -1313312458.8763545       -32200131.588305891        2221727586.2646184     
  -1272862137.6972787       -26736365.032929063        2081875715.3395202     
  -1235044398.2635384       -30047870.962007165        1979851859.3509610     
   1.6680210326522673       -9.9547110481508105E-002   1032211694.5550455     
   1.2835062683010605        2.8462122768525666E-002   1102622464.5464308     
  0.91235974819037713       0.20103355793241884        1169290892.1608756     
  0.55458062592766422       0.41816298592288026        1232216977.3983879     
  0.21017272171714813       0.67986175297521656        1291400720.2589688     
  -125173103.57597214        47564430.606507726        1271811578.5851839     
  -130891541.60746703        41090699.577767901        1301638213.7651680     
  -136673148.16756538        34406406.787017293        1332302331.0913582     
  -142517923.25626343        27511552.234267198        1363803930.5637455     
  -148425866.87356323        20406135.919511423        1396143012.1823325     
  -372738205.31256366        58411262.364779741        1509618234.0612118     
  -371089868.06779897        49389364.056256920        1498787037.7975097     
  -369567867.89360362        39946342.179166645        1493373148.2031376     
  -368172204.78998131        30082196.733502507        1493376565.2781045     
  -366902878.75692958        19796927.719266981        1498797289.0224009     
  -742695303.54175401        32540495.175273716        1745631660.9831409     
  -720594978.09748399        24895993.463944584        1694068936.6434429     
  -698684158.26575530        16619806.377480537        1652503343.4962170     
  -676962844.04657030        7711933.9158731997        1620934881.5414634     
  -655431035.43992233       -1827623.9208628833        1599363550.7791724     
  -1235044398.2635384       -30047870.962007165        1979851859.3509610     
  -1179406871.6965237       -32389412.199172437        1887483910.3029776     
  -1124022019.2840192       -35573200.618035972        1809692916.9705980     
  -1068889841.0260274       -39599236.218608260        1746478879.3538227     
  -1014010336.9225447       -44467519.000878274        1697841797.4526513     
  0.21017272171714813       0.67986175297521656        1291400720.2589688     
 -0.16775061193610014       0.90825469855682561        1334333592.5786891     
 -0.57436857467976199        1.0410030438400653        1381010309.6297255     
  -1.0096782613285873        1.0781095338818647        1431430871.4120755     
  -1.4736790542447673        1.0195803908112628        1485595277.9257450     
  -148425866.87356323        20406135.919511423        1396143012.1823325     
  -137835173.27726495        18523709.241269015        1415246687.5819647     
  -127001048.42327659        17452720.088660009        1439187612.1319852     
  -115923492.31160459        17193168.461662479        1467965785.8323905     
  -104602504.94224836        17745054.360283270        1501581208.6831853     
  -366902878.75692958        19796927.719266981        1498797289.0224009     
  -342597478.56048691        16969277.922177717        1494355770.6693897     
  -317805215.81997806        15764503.271971852        1495844905.8858340     
  -292526090.53540242        16182603.768657193        1503264694.6717360     
  -266760102.70676497        18223579.412215278        1516615137.0270956     
  -655431035.43992233       -1827623.9208628833        1599363550.7791724     
  -614286916.01741636       -4663293.0490225554        1571660841.8409557     
  -572412502.76446843       -5064649.4090427458        1550982190.8912687     
  -529807795.68107635       -3031693.0009191930        1537327597.9301107     
  -486472794.76723945        1435576.1753599346        1530697062.9574835     
  -1014010336.9225447       -44467519.000878274        1697841797.4526513     
  -952903485.64805973       -46374003.672346920        1647161901.0966737     
  -890822909.25675380       -45034737.954408377        1604599467.1482935     
  -827768607.74861932       -40449721.847042710        1570154495.6075146     
  -763740581.12366807       -32618955.350288332        1543826986.4743400     
  -1.4736790542447673        1.0195803908112628        1485595277.9257450     
  -1.0956095005591000        1.1221799130959418        1517953818.4124293     
 -0.74917100911176593        1.1193418673634530        1547153602.0660465     
 -0.43436049171371977        1.0110775884113661        1573194628.8865943     
 -0.15117604970058562       0.79739305817623884        1596076898.8740811     
  -104602504.94224836        17745054.360283270        1501581208.6831853     
  -107641515.53985412        13924168.635138847        1516059330.0827491     
  -110966664.36242045        9149488.8267966509        1532240250.4481859     
  -114577951.40994152        3421014.9352692515        1550123969.7794931     
  -118475376.68240963       -3261253.0394135416        1569710488.0766754     
  -266760102.70676497        18223579.412215278        1516615137.0270956     
  -258947964.85451183        14748855.686975509        1512879011.4473228     
  -251708103.42054370        9366543.9007884413        1515707240.6323652     
  -245040518.40485138        2076644.0536820441        1525099824.5822189     
  -238945209.80744404       -7120843.8543770611        1541056763.2968760     
  -486472794.76723945        1435576.1753599346        1530697062.9574835     
  -453919349.03958261        2474062.2776974440        1508412862.5061619     
  -422224317.92354137        651166.34132167697        1497554572.6185939     
  -391387701.41910195       -4033111.6337305754        1498122193.2947755     
  -361409499.52626806       -11578771.647465795        1510115724.5347040     
  -763740581.12366807       -32618955.350288332        1543826986.4743400     
  -692555668.09507382       -22900211.592726767        1502660883.2592580     
  -622515307.87141263       -16996643.851607174        1477782246.4068668     
  -553619500.45268345       -14908252.126927525        1469191075.9171598     
  -485868245.83889186       -16635036.418707758        1476887371.7901485     
 -0.15117604970058562       0.79739305817623884        1596076898.8740811     
 -0.12162779940714510       0.49310802693849942        1590423650.1320617     
  -7.0014232506870097E-002  0.26237405105687472        1590444572.7648892     
   3.6504682061060945E-003  0.10514316066153033        1596139666.7725582     
   9.9383596590436288E-002   2.1475083616146709E-002   1607508932.1550729     
  -118475376.68240963       -3261253.0394135416        1569710488.0766754     
  -103892626.54933946       -3786812.1875060201        1563756950.5761878     
  -88619789.045173243       -2012080.0986141451        1563468024.5905986     
  -72656864.169934317        2062943.2271868140        1568843710.1199129     
  -56003851.923603334        8438257.7899609394        1579884007.1641204     
  -238945209.80744404       -7120843.8543770611        1541056763.2968760     
  -209807023.45639896       -8180156.0119077712        1535608038.9451184     
  -179288662.38524055       -4638885.7690606788        1535814366.2483130     
  -147390126.59398696        3502966.8741036355        1541675745.2064586     
  -114111416.08262266        16245401.917637080        1553192175.8195591     
  -361409499.52626806       -11578771.647465795        1510115724.5347040     
  -317743190.84281325       -13180030.980117634        1505976915.2388647     
  -272006620.09022409       -7880416.7489924878        1507483597.7380350     
  -224199787.26851460        4320071.0458711982        1514635772.0322063     
  -174322692.37767097        23421432.404511184        1527433438.1213818     
  -485868245.83889186       -16635036.418707758        1476887371.7901485     
  -427701128.70858419       -18786437.092144459        1474863579.4574211     
  -366773662.16011876       -11736673.038389310        1478475719.0597494     
  -303085846.19351381        4514255.7424976975        1487723790.5971410     
  -236637680.80875838        29966349.250553563        1502607794.0695984     
   9.9383596590436288E-002   2.1475083616146709E-002   1607508932.1550729     
   8.0060683357588702E-002  -6.2292753373132302E-002   1578371287.0795300     
   6.1380570955619544E-002 -0.14391930870493064        1552198048.2983341     
   4.3333079798417051E-002 -0.22343677960947825        1528989215.8114979     
   2.5931546287561377E-002 -0.30080036447014613        1508744789.6190090     
  -56003851.923603334        8438257.7899609394        1579884007.1641204     
  -46119968.825365797        15605942.636894435        1550703369.6831813     
  -35064782.529918700        26677971.474523373        1524507231.7835455     
  -22838293.037238557        41654344.302932255        1501295593.4652102     
  -9440500.3473537788        60535061.122020096        1481068454.7281678     
  -114111416.08262266        16245401.917637080        1553192175.8195591     
  -94286240.475561380        30597994.512634240        1525335066.3292372     
  -72118458.474702284        52759275.086959064        1500482549.7071695     
  -47608070.080044687        82729243.640610516        1478634625.9533415     
  -20755075.291595265        120507900.17356704        1459791295.0677464     
  -174322692.37767097        23421432.404511184        1527433438.1213818     
  -144498814.87052476        44976155.564935386        1502266377.0176930     
  -111161027.77299201        78243910.693310440        1480124002.0691938     
  -74309331.085084677        123224697.78960219        1461006313.2758827     
  -33943724.806800500        179918516.85381821        1444913310.6377499     
  -236637680.80875838        29966349.250553563        1502607794.0695984     
  -196757692.01024035        58740425.793840840        1481497301.7485476     
  -152192490.42476797        103131878.29364592        1463431588.8696322     
  -102942076.05233878        163140706.74997377        1448410655.4328446     
  -49006448.892962337        238766911.16278902        1436434501.4381902     
   2.5931546287561377E-002 -0.30080036447014613        1508744789.6190090     
   2.0139476167332859E-002 -0.37647883894625006        1400067566.6362059     
   1.2546236943129063E-002 -0.45816329210377627        1288723551.7939501     
   3.1244009211341406E-003 -0.54594272097591101        1174712745.0922511     
  -8.0926108305410527E-003 -0.63970468116819923        1058035146.5311042     
  -9440500.3473537788        60535061.122020096        1481068454.7281678     
  -9747982.1635405421        79988100.773224890        1373157495.5576296     
  -8138478.0446941182        105831093.54120563        1263187640.7631147     
  -4611987.9908144921        138064039.42596561        1151158890.3446009     
   831487.99809117615        176686938.42747939        1037071244.3021082     
  -20755075.291595265        120507900.17356704        1459791295.0677464     
  -19633192.531155400        159935033.46774819        1354883083.3024733     
  -14677337.898837075        212142073.00152543        1248523872.1486647     
  -5887511.3946487308        277129018.77486914        1140713661.6063304     
   6736286.9814231843        354895870.78782123        1031452451.6754674     
  -33943724.806800500        179918516.85381821        1444913310.6377499     
  -29655631.082702547        239840797.70709845        1345244329.8707163     
  -19616579.549891129        318932937.92276108        1244732245.9506121     
  -3826570.2083603144        417194937.50082088        1143377058.8774428     
   17714396.941897660        534626796.44129914        1041178768.6512120     
  -49006448.892962337        238766911.16278902        1436434501.4381902     
  -39815297.818185225        319705393.49126810        1344241235.2623777     
  -22956202.997848809        426203688.30494058        1251812762.1689601     
   1570835.5680464208        558261795.60381520        1159149082.1579311     
   33765817.879512817        715879715.38791931        1066250195.2292979     
  -1334368673.7619374        14739462.158562243        4241438926.5884748     
  -1358538829.4130929       -30424148.832556605        3681172813.9101892     
  -1377885910.0815697       -59510843.214737952        3223330184.0734186     
  -1392409915.7673604       -72520620.987972260        2867911037.0781622     
  -1402110846.4704716       -69453482.152275026        2614915372.9244246     
  -2950057959.1189013       -308799193.07220006        2424617915.2029724     
  -2755959082.3774323       -270445240.72622728        2200634639.2624516     
  -2560798662.1106310       -228552809.96249044        2022853852.3200333     
  -2364576698.3184977       -183121900.78097618        1891275554.3757122     
  -2167293191.0010333       -134152513.18169355        1805899745.4294918     
  -3534431131.5335789       -322943014.42027640        616928381.89296687     
  -3282694633.3806682       -249260922.03157020        724839489.32330060     
  -3033658123.1597795       -184578789.41626215        822732091.90832174     
  -2787321600.8709083       -128896616.57435691        910606189.64802516     
  -2543685066.5140600       -82214403.505853057        988461782.54241252     
  -3087488191.0059724       -27692001.885666966       -1181629673.3415482     
  -2938745482.4228106        33128807.251419663       -746212635.90726495     
  -2796464293.2290173        72411218.423936009       -377035097.16171342     
  -2660644623.4245977        90155231.631874561       -74097057.104894146     
  -2531286473.0095491        86360846.875247836        162601484.26319432     
  -1609229137.5360808        576953844.53162658       -2971056250.5005660     
  -1724111629.5038524        576723947.12273324       -2212521736.4292474     
  -1849217172.3183455        542417213.55810273       -1576447714.8900747     
  -1984545765.9795618        474033643.83772826       -1062834185.8830489     
  -2130097410.4874992        371573237.96161699       -671681149.40816879     
  -1402110846.4704716       -69453482.152275026        2614915372.9244246     
  -1356395361.8007488       -46439170.628075182        2399407472.1262512     
  -1313312458.8763545       -32200131.588305891        2221727586.2646184     
  -1272862137.6972787       -26736365.032929063        2081875715.3395202     
  -1235044398.2635384       -30047870.962007165        1979851859.3509610     
  -2167293191.0010333       -134152513.18169355        1805899745.4294918     
  -2048170083.1754293       -109029222.15343916        1714322876.8973472     
  -1930370921.1104021       -88319083.660442472        1640898708.2784073     
  -1813895704.8059568       -72022097.702715993        1585627239.5726767     
  -1698744434.2620885       -60138264.280251384        1548508470.7801485     
  -2543685066.5140600       -82214403.505853057        988461782.54241252     
  -2407369521.3135185       -71846688.707818031        1022342688.2585025     
  -2271069285.8888097       -61530006.495897174        1054700978.8644640     
  -2134784360.2399311       -51264356.870078564        1085536654.3603015     
  -1998514744.3668900       -41049739.830379367        1114849714.7460120     
  -2531286473.0095491        86360846.875247836        162601484.26319432     
  -2433993676.2150187        65108429.708770633        323466906.20971799     
  -2335407553.2115707        48167099.905345440        463134398.02278668     
  -2235528103.9992123        35536857.464960217        581603959.70239913     
  -2134355328.5779405        27217702.387615204        678875591.24855018     
  -2130097410.4874992        371573237.96161699       -671681149.40816879     
  -2128042547.8799269        301836133.09634364       -382304469.24900264     
  -2123385723.0786879        240772235.54328358       -133801034.24662419     
  -2116126936.0837934        188381545.30241382        73829155.598962814     
  -2106266186.8952384        144664062.37374580        240586100.28776345     
  -1235044398.2635384       -30047870.962007165        1979851859.3509610     
  -1179406871.6965237       -32389412.199172437        1887483910.3029776     
  -1124022019.2840192       -35573200.618035972        1809692916.9705980     
  -1068889841.0260274       -39599236.218608260        1746478879.3538227     
  -1014010336.9225447       -44467519.000878274        1697841797.4526513     
  -1698744434.2620885       -60138264.280251384        1548508470.7801485     
  -1612495483.4901772       -59081890.090095460        1510115911.6993179     
  -1526344628.6944244       -58352502.487126231        1479909511.9618812     
  -1440291869.8748279       -57950101.471352041        1457889271.5678418     
  -1354337207.0313840       -57874687.042748630        1444055190.5171957     
  -1998514744.3668900       -41049739.830379367        1114849714.7460120     
  -1899913787.5963936       -42073275.674788117        1130612886.8404121     
  -1801256348.6236973       -42908537.511870265        1148171421.9059987     
  -1702542427.4488072       -43555525.341639459        1167525319.9427731     
  -1603772024.0717180       -44014239.164075673        1188674580.9507320     
  -2134355328.5779405        27217702.387615204        678875591.24855018     
  -2041661784.0151691        18636431.046746850        748974835.72626138     
  -1948757179.0718429        10758694.307723880        814478646.80294991     
  -1855641513.7479725        3584492.1705156565        875387024.47861302     
  -1762314788.0435479       -2886175.3648440838        931699968.75325739     
  -2106266186.8952384        144664062.37374580        240586100.28776345     
  -2037739472.7465024        123047230.07452619        365201758.35686451     
  -1968847120.0388629        102649192.97165084        478831186.65273243     
  -1899589128.7723236        83469951.065107107        581474385.17536974     
  -1829965498.9468729        65509504.354935765        673131353.92477393     
  -1014010336.9225447       -44467519.000878274        1697841797.4526513     
  -952903485.64805973       -46374003.672346920        1647161901.0966737     
  -890822909.25675380       -45034737.954408377        1604599467.1482935     
  -827768607.74861932       -40449721.847042710        1570154495.6075146     
  -763740581.12366807       -32618955.350288332        1543826986.4743400     
  -1354337207.0313840       -57874687.042748630        1444055190.5171957     
  -1274363506.6296811       -59247947.993241727        1425023162.1309466     
  -1194063833.3154838       -59534632.568755329        1412263580.5762670     
  -1113438187.0887949       -58734740.769297838        1405776445.8531609     
  -1032486567.9496112       -56848272.594854593        1405561757.9616303     
  -1603772024.0717180       -44014239.164075673        1188674580.9507320     
  -1510202947.6171618       -46435718.315892518        1200534709.6291568     
  -1416955650.4544466       -49929795.107179165        1216822269.5631294     
  -1324030132.5835702       -54496469.537926257        1237537260.7526448     
  -1231426394.0045271       -60135741.608122587        1262679683.1977003     
  -1762314788.0435479       -2886175.3648440838        931699968.75325739     
  -1660421808.6105118       -7937314.6403183937        973696543.59130907     
  -1559498360.6736436       -16220225.569679737        1018275534.1088797     
  -1459544444.2329402       -27734908.152929664        1065436940.3059621     
  -1360560059.2884080       -42481362.390078545        1115180762.1825612     
  -1829965498.9468729        65509504.354935765        673131353.92477393     
  -1725020089.6097200        56247263.033515096        744508664.01740015     
  -1621691963.9730663        41594076.043762803        816623374.21351600     
  -1519981122.0369139        21549943.385675192        889475484.51311219     
  -1419887563.8012540       -3885134.9407239556        963064994.91619873     
  -763740581.12366807       -32618955.350288332        1543826986.4743400     
  -692555668.09507382       -22900211.592726767        1502660883.2592580     
  -622515307.87141263       -16996643.851607174        1477782246.4068668     
  -553619500.45268345       -14908252.126927525        1469191075.9171598     
  -485868245.83889186       -16635036.418707758        1476887371.7901485     
  -1032486567.9496112       -56848272.594854593        1405561757.9616303     
  -927306427.18999636       -47831269.339466721        1384785510.4761808     
  -822543262.46717322       -40204186.206718087        1374033911.9216383     
  -718197073.78113484       -33967023.196577013        1373306962.2980001     
  -614267861.13187432       -29119780.309040189        1382604661.6052699     
  -1231426394.0045271       -60135741.608122587        1262679683.1977003     
  -1110144789.6046999       -57188608.082147598        1263142131.0047259     
  -988552584.47351503       -53206138.784976721        1267366410.3108695     
  -866649778.61096823       -48188333.716601133        1275352521.1161380     
  -744436372.01706541       -42135192.877038598        1287100463.4205246     
  -1360560059.2884080       -42481362.390078545        1115180762.1825612     
  -1241070755.3391824       -50972227.820768893        1137730744.8448915     
  -1120543273.8904464       -56002501.586425543        1157779741.5745571     
  -998977614.94220698       -57572183.687063515        1175327752.3715615     
  -876373778.49446440       -55681274.122704327        1190374777.2359059     
  -1419887563.8012540       -3885134.9407239556        963064994.91619873     
  -1320084324.3934324       -29182128.555297017        1008551351.9966748     
  -1218515330.7179649       -48593274.611047149        1045273905.7126997     
  -1115180582.7748444       -62118573.107954800        1073232656.0642830     
  -1010080080.5640705       -69758024.046018839        1092427603.0514166     
  -485868245.83889186       -16635036.418707758        1476887371.7901485     
  -427701128.70858419       -18786437.092144459        1474863579.4574211     
  -366773662.16011876       -11736673.038389310        1478475719.0597494     
  -303085846.19351381        4514255.7424976975        1487723790.5971410     
  -236637680.80875838        29966349.250553563        1502607794.0695984     
  -614267861.13187432       -29119780.309040189        1382604661.6052699     
  -541542356.75862920       -30175327.479964495        1382982322.8122015     
  -466119663.76111597       -22240245.903322026        1388669922.2319074     
  -387999782.13932991       -5314535.5791060179        1399667459.8643866     
  -307182711.89326692        20601803.492698550        1415974935.7096343     
  -744436372.01706541       -42135192.877038598        1287100463.4205246     
  -658083891.03600073       -42374309.735997468        1289805890.5742645     
  -569097382.22453701       -33833333.826962799        1297495262.2184837     
  -477476845.58268356       -16512265.149957865        1310168578.3531911     
  -383222281.11042941        9588896.2950440198        1327825838.9783769     
  -876373778.49446440       -55681274.122704327        1190374777.2359059     
  -777325731.54068804       -55383383.860217690        1195334282.7435944     
  -675706817.55039704       -46515936.809354752        1204951739.0194757     
  -571517036.52358091       -29078932.970066071        1219227146.0635529     
  -464756388.46025437       -3072372.3424209058        1238160503.8758202     
  -1010080080.5640705       -69758024.046018839        1092427603.0514166     
  -899267878.27269864       -69202549.852641553        1099567499.3202009     
  -785947969.73867726       -60288054.850437850        1111039352.6348863     
  -670120354.96202481       -43014539.039461136        1126843162.9954755     
  -551785033.94272482       -17382002.419659495        1146978930.4019694     
  -236637680.80875838        29966349.250553563        1502607794.0695984     
  -196757692.01024035        58740425.793840840        1481497301.7485476     
  -152192490.42476797        103131878.29364592        1463431588.8696322     
  -102942076.05233878        163140706.74997377        1448410655.4328446     
  -49006448.892962337        238766911.16278902        1436434501.4381902     
  -307182711.89326692        20601803.492698550        1415974935.7096343     
  -257598400.78628093        51044088.848314539        1399940730.8578656     
  -201549229.49551708        103035908.14986078        1387941638.6137912     
  -139035198.02098680        176577261.39729050        1379977658.9774086     
  -70056306.362670302        271668148.59067297        1376048791.9487183     
  -383222281.11042941        9588896.2950440198        1327825838.9783769     
  -321104124.36479533        42548247.462054431        1318944176.8921738     
  -250741460.03856695        102989290.56437039        1315087960.5792248     
  -172134288.13174450        190912025.60200059        1316257190.0395327     
  -85282608.644331247        306316452.57494104        1322451865.2730954     
  -464756388.46025437       -3072372.3424209058        1238160503.8758202     
  -387274862.74578649        33252901.635043800        1238507639.8514750     
  -299769182.05390662        102992025.53722054        1244870554.7659402     
  -202239346.38462669        206144999.36406013        1257249248.6192272     
  -94685355.737928554        342711823.11562991        1275643721.4113324     
  -551785033.94272482       -17382002.419659495        1146978930.4019694     
  -456110615.92925078        23158051.367301255        1158631119.7357621     
  -348632395.54155391        103044113.06834346        1177289421.1739323     
  -229350372.77962005        222276182.68350762        1202953834.7164831     
  -98264547.643461496        380854260.21275139        1235624360.3634152     
  -49006448.892962337        238766911.16278902        1436434501.4381902     
  -39815297.818185225        319705393.49126810        1344241235.2623777     
  -22956202.997848809        426203688.30494058        1251812762.1689601     
   1570835.5680464208        558261795.60381520        1159149082.1579311     
   33765817.879512817        715879715.38791931        1066250195.2292979     
  -70056306.362670302        271668148.59067297        1376048791.9487183     
  -56232161.601950005        373468183.19221848        1295150044.7820628     
  -33539533.193687648        504829829.95223480        1213236141.4591832     
  -1978421.1379064322        665753088.87064254        1130307081.9800980     
   38451174.565409601        856237959.94751465        1046362866.3447684     
  -85282608.644331247        306316452.57494104        1322451865.2730954     
  -69053896.593685210        428309511.53079098        1254248267.0012207     
  -42756160.993536681        583865982.31831861        1184249563.3345118     
  -6389401.8438995183        772985864.93747079        1112455754.2729812     
   40046380.855235755        995669159.38828886        1038866839.8166093     
  -94685355.737928554        342711823.11562991        1275643721.4113324     
  -78280502.793384045        484229378.50699449        1221535901.9198570     
  -50606086.397390634        663312145.40319121        1164853027.7949455     
  -11662106.549925268        879960123.80428934        1105595099.0365920     
   38551436.748994291        1134173313.7102430        1043762115.6447819     
  -98264547.643461496        380854260.21275139        1235624360.3634152     
  -83911980.201070309        541227784.12076843        1197012949.5379746     
  -57089309.405242920        743168319.20689785        1155046534.8404741     
  -17796535.256001294        986675865.47107470        1109725116.2709231     
   33966342.246674359        1271750422.9133732        1061048693.8293200     
  -1609229137.5360808        576953844.53162658       -2971056250.5005660     
  -1724111629.5038524        576723947.12273324       -2212521736.4292474     
  -1849217172.3183455        542417213.55810273       -1576447714.8900747     
  -1984545765.9795618        474033643.83772826       -1062834185.8830489     
  -2130097410.4874992        371573237.96161699       -671681149.40816879     
  -150594316.07874548        1272309195.5008090       -1207053957.9957774     
  -565781635.02735281        1056612076.0639675       -818097273.65250182     
  -978304022.67010283        849798060.97998238       -487960604.75588584     
  -1388161479.0070024        651867150.24883342       -216643951.30593425     
  -1795354004.0380449        462819343.87053847       -4147313.3026428754     
   173785747.64924163        1627388119.1511855        501208893.40704119     
  -359876463.75025421        1250772758.0453815        535623727.20028496     
  -877985761.69131243        926000441.80101514        574859022.63234973     
  -1380542146.1739414        653071170.41808581        618914779.70323622     
  -1867545617.1981378        431984943.89659774        667790998.41294491     
  -636088946.35215366        1642190615.4827478        2153732303.7079024     
  -1106396115.6725688        1159205993.0669715        1848641266.1291146     
  -1548262389.3819761        771024356.02122068        1612011167.2746363     
  -1961687767.4803793        477645704.34549689        1443842007.1444612     
  -2346672249.9677715        279070038.03979695        1344133785.7385917     
  -2580218398.0828958        1316716684.4955063        3750516272.9067955     
  -2805340590.7942853        781911781.12874115        3120955343.1339860     
  -2989133905.7420926        384869803.64058280        2623495829.1709695     
  -3131598342.9263134        125590752.03104806        2258137731.0177412     
  -3232733902.3469486        4074626.3001297712        2024881048.6743014     
  -2130097410.4874992        371573237.96161699       -671681149.40816879     
  -2128042547.8799269        301836133.09634364       -382304469.24900264     
  -2123385723.0786879        240772235.54328358       -133801034.24662419     
  -2116126936.0837934        188381545.30241382        73829155.598962814     
  -2106266186.8952384        144664062.37374580        240586100.28776345     
  -1795354004.0380449        462819343.87053847       -4147313.3026428754     
  -1877221709.7595024        378265013.57905579        155722711.47276884     
  -1957207513.6259813        299983689.47083008        295329519.32714820     
  -2035311415.6374755        227975371.54588878        414673110.26049185     
  -2111533415.7939854        162240059.80422783        513753484.27280849     
  -1867545617.1981378        431984943.89659774        667790998.41294491     
  -1974450096.2893224        350279126.66668785        697314297.40947580     
  -2080192733.8642056        272446114.49112129        727184407.72073114     
  -2184773529.9227877        198485907.36988842        757401329.34670925     
  -2288192484.4650674        128398505.30299771        787965062.28741074     
  -2346672249.9677715        279070038.03979695        1344133785.7385917     
  -2419727707.4693842        217878472.35925066        1242470288.5611153     
  -2492341383.7933736        158159510.60411227        1161763630.9341226     
  -2564513278.9397392        99913152.774385810        1102013812.8576043     
  -2636243392.9084811        43139398.870077014        1063220834.3315704     
  -3232733902.3469486        4074626.3001297712        2024881048.6743014     
  -3213054543.2996836       -18936949.343254566        1791190684.9276943     
  -3193653463.4134727       -42876122.190158367        1599067188.9673228     
  -3174530662.6883206       -67742892.240590334        1448510560.7931859     
  -3155686141.1242313       -93537259.494551063        1339520800.4052856     
  -2106266186.8952384        144664062.37374580        240586100.28776345     
  -2037739472.7465024        123047230.07452619        365201758.35686451     
  -1968847120.0388629        102649192.97165084        478831186.65273243     
  -1899589128.7723236        83469951.065107107        581474385.17536974     
  -1829965498.9468729        65509504.354935765        673131353.92477393     
  -2111533415.7939854        162240059.80422783        513753484.27280849     
  -2064382072.1679881        137036337.07849872        582030003.76688361     
  -2016792024.3214598        113294961.75454426        645677904.26897204     
  -1968763272.2544010        91015933.832355022        704697185.77906775     
  -1920295815.9668005        70199253.311958551        759087848.29717970     
  -2288192484.4650674        128398505.30299771        787965062.28741074     
  -2244251909.1296811        105057272.82040846        799987686.47836173     
  -2199799563.9121366        83421939.945019841        813739302.45856464     
  -2154835448.8124332        63492506.676819801        829219910.22802281     
  -2109359563.8305733        45268973.015819311        846429509.78673780     
  -2636243392.9084811        43139398.870077014        1063220834.3315704     
  -2577348983.6315880        27110037.300255895        1019074806.4912943     
  -2517869738.8109088        13030127.543050528        983015381.22151518     
  -2457805658.4464378        899669.59848117828        955042558.52223194     
  -2397156742.5381851       -9281336.5334707499        935156338.39345145     
  -3155686141.1242313       -93537259.494551063        1339520800.4052856     
  -3063673295.6737018       -96805369.481961966        1239291363.8056827     
  -2971002549.0177593       -97880475.451322317        1153506140.5578187     
  -2877673901.1564002       -96762577.402631521        1082165130.6616957     
  -2783687352.0896325       -93451675.335904837        1025268334.1173155     
  -1829965498.9468729        65509504.354935765        673131353.92477393     
  -1725020089.6097200        56247263.033515096        744508664.01740015     
  -1621691963.9730663        41594076.043762803        816623374.21351600     
  -1519981122.0369139        21549943.385675192        889475484.51311219     
  -1419887563.8012540       -3885134.9407239556        963064994.91619873     
  -1920295815.9668005        70199253.311958551        759087848.29717970     
  -1810184226.8869219        65913418.193615556        794629755.60609317     
  -1701805228.4686294        55852280.869975328        832259845.79752171     
  -1595158820.7119312        40015841.341024101        871978118.87146652     
  -1490245003.6168232        18404099.606773436        913784574.82793140     
  -2109359563.8305733        45268973.015819311        846429509.78673780     
  -1990222415.6393003        47117357.911174774        846001489.52399063     
  -1872933165.0707161        42806084.064233780        849012434.92279291     
  -1757491812.1248171        32335151.475008965        855462345.98314393     
  -1643898356.8016028        15704560.143491149        865351222.70503759     
  -2397156742.5381851       -9281336.5334707499        935156338.39345145     
  -2265134655.8668666       -140917.81383478642        898623865.77110457     
  -2135075773.7793200        2455485.6265388727        866881141.58933187     
  -2006980096.2755582       -1492126.2123643160        839928165.84814155     
  -1880847623.3555825       -11983753.330542922        817764938.54752493     
  -2783687352.0896325       -93451675.335904837        1025268334.1173155     
  -2634920947.5696030       -75861408.981382132        952496884.34742057     
  -2488233054.5944481       -65199514.443116665        885865965.79713774     
  -2343623673.1641693       -61465991.721097946        825375578.46646130     
  -2201092803.2787671       -64660840.815338373        771025722.35539293     
  -1419887563.8012540       -3885134.9407239556        963064994.91619873     
  -1320084324.3934324       -29182128.555297017        1008551351.9966748     
  -1218515330.7179649       -48593274.611047149        1045273905.7126997     
  -1115180582.7748444       -62118573.107954800        1073232656.0642830     
  -1010080080.5640705       -69758024.046018839        1092427603.0514166     
  -1490245003.6168232        18404099.606773436        913784574.82793140     
  -1406844663.7361374       -9647742.7797385454        934936288.96256149     
  -1321702540.3287365       -31893640.077197373        952869925.77274752     
  -1234818633.3946242       -48333592.285616696        967585485.25849259     
  -1146192942.9338064       -58967599.405012071        979082967.41979671     
  -1643898356.8016028        15704560.143491149        865351222.70503759     
  -1561055984.9051778       -10348651.552055657        862140328.02939594     
  -1476495800.2229781       -30675820.628375053        861257082.06931174     
  -1390217802.7550123       -45276947.085467815        862701484.82479060     
  -1302221992.5012753       -54152030.923325062        866473536.29583132     
  -1880847623.3555825       -11983753.330542922        817764938.54752493     
  -1782718287.9005473       -31284854.872274041        790163469.19717801     
  -1682895110.4006894       -44939816.264607191        770435374.60239196     
  -1581378090.8559992       -52948637.507488608        758580654.76317167     
  -1478167229.2664850       -55311318.600967050        754599309.67951345     
  -2201092803.2787671       -64660840.815338373        771025722.35539293     
  -2071831572.7222645       -72456352.740416765        719005712.46590543     
  -1940900470.8618681       -74685626.985859632        680404803.37198758     
  -1808299497.6975965       -71348663.551707447        655222995.07363820     
  -1674028653.2294297       -62445462.437916279        643460287.57085347     
  -1010080080.5640705       -69758024.046018839        1092427603.0514166     
  -899267878.27269864       -69202549.852641553        1099567499.3202009     
  -785947969.73867726       -60288054.850437850        1111039352.6348863     
  -670120354.96202481       -43014539.039461136        1126843162.9954755     
  -551785033.94272482       -17382002.419659495        1146978930.4019694     
  -1146192942.9338064       -58967599.405012071        979082967.41979671     
  -1024384027.4006331       -54893470.803068817        981018677.49706411     
  -901182938.33947217       -46178763.774486184        986269443.54322064     
  -776589675.75030541       -32823478.319224268        994835265.55826283     
  -650604239.63315165       -14827614.437328964        1006716143.5421903     
  -1302221992.5012753       -54152030.923325062        866473536.29583132     
  -1172321795.3749328       -47430877.407408953        861903605.34783101     
  -1042144957.4352405       -39787587.846987367        859631829.29170251     
  -911691478.68219960       -31222162.242064893        859658208.12744081     
  -780961359.11580563       -21734600.592649877        861982741.85504425     
  -1478167229.2664850       -55311318.600967050        754599309.67951345     
  -1343081182.1956005       -46814769.665667772        742222282.87249565     
  -1208834027.0260041       -41114527.068006814        731126509.88033164     
  -1075425763.7577100       -38210590.808013678        721311990.70301890     
  -942856392.39070535       -38102960.885652840        712778725.34054768     
  -1674028653.2294297       -62445462.437916279        643460287.57085347     
  -1536662187.8626218       -53045147.577816069        621974710.07107067     
  -1401250147.1117547       -50159581.437518954        600753485.30911219     
  -1267792530.9768205       -53788764.016998351        579796613.28498554     
  -1136289339.4578409       -63932695.316326618        559104093.99869084     
  -551785033.94272482       -17382002.419659495        1146978930.4019694     
  -456110615.92925078        23158051.367301255        1158631119.7357621     
  -348632395.54155391        103044113.06834346        1177289421.1739323     
  -229350372.77962005        222276182.68350762        1202953834.7164831     
  -98264547.643461496        380854260.21275139        1235624360.3634152     
  -650604239.63315165       -14827614.437328964        1006716143.5421903     
  -537630697.36984932        17602853.709058225        1021039775.0902438     
  -413958225.93962973        85696419.078501344        1043535756.0277668     
  -279586825.34248763        189453081.67102450        1074204086.3547533     
  -134516495.57841158        328872841.48666352        1113044766.0712063     
  -780961359.11580563       -21734600.592649877        861982741.85504425     
  -647356586.07387102        3585913.8717733026        877688796.87551081     
  -504157757.07231480        60886614.868263990        902733438.57052910     
  -351364872.11113238        150167502.39684173        937116666.94009972     
  -188977931.19033408        271428576.45747739        980838481.98422360     
  -942856392.39070535       -38102960.885652840        712778725.34054768     
  -785288282.04131043       -18892768.144529492        728578185.09157157     
  -619230988.93959570        28614700.437660784        754882468.80223489     
  -444684513.08556187        104419444.86092010        791691576.47253704     
  -261648854.47921789        208521465.12521279        839005508.10247624     
  -1136289339.4578409       -63932695.316326618        559104093.99869084     
  -951425785.27216971       -49833192.339858145        573707939.73841631     
  -759177921.54148865       -11119324.213346004        599982846.72287107     
  -559545748.26578522        52208909.063235372        637928814.95204985     
  -352529265.44506931        140151507.48985791        687545844.42595279     
  -98264547.643461496        380854260.21275139        1235624360.3634152     
  -83911980.201070309        541227784.12076843        1197012949.5379746     
  -57089309.405242920        743168319.20689785        1155046534.8404741     
  -17796535.256001294        986675865.47107470        1109725116.2709231     
   33966342.246674359        1271750422.9133732        1061048693.8293200     
  -134516495.57841158        328872841.48666352        1113044766.0712063     
  -125835447.60029182        478505914.63875115        1091171574.7709975     
  -94141176.345831901        704849732.04530728        1070769245.6216923     
  -39433681.815041482        1007904293.7062838        1051837778.6232901     
   38287035.992084384        1387669599.6217284        1034377173.7758014     
  -188977931.19033408        271428576.45747739        980838481.98422360     
  -172180214.03945172        414457655.44475567        988003816.78597403     
  -121826153.68933627        669341211.76281548        1001465879.7615893     
  -37915750.139961839        1036079245.4117289        1021224670.9110606     
   79550996.608644009        1514671756.3914285        1047280190.2344248     
  -261648854.47921789        208521465.12521279        839005508.10247624     
  -222946279.51855457        349083006.53876895        887509675.58291316     
  -140144241.43574086        636642758.35949373        947136437.26017749     
  -13242740.230772078        1071200720.5873939        1017885793.1342733     
   157758224.09634864        1652756893.2224722        1099757743.2051830     
  -352529265.44506931        140151507.48985791        687545844.42595279     
  -278133644.03758633        282381967.92082357        789689151.16180980     
  -149095439.58506829        606754371.83524501        907780918.11744606     
   34585347.912554443        1113268719.2333238        1041821145.2928846     
   272908718.45520473        1801925010.1148610        1191809832.6880920     
  -2580218398.0828958        1316716684.4955063        3750516272.9067955     
  -2805340590.7942853        781911781.12874115        3120955343.1339860     
  -2989133905.7420926        384869803.64058280        2623495829.1709695     
  -3131598342.9263134        125590752.03104806        2258137731.0177412     
  -3232733902.3469486        4074626.3001297712        2024881048.6743014     
  -5001370497.0324249       -642975336.86566567        2158940336.1103663     
  -4747911420.9844103       -377275543.78381085        1906489098.5746264     
  -4518070256.6934900       -190302123.22562790        1705344029.7097309     
  -4311847004.1596708       -82055075.191102505        1555505129.5156760     
  -4129241663.3829551       -52534399.680245638        1456972397.9924655     
  -6259162827.4978704       -2253659427.6816111        857915532.61925900     
  -5757966045.9445887       -1256708007.1273885        906802732.87979376     
  -5345333965.6690845       -554972257.49909568        926200854.67222118     
  -5021266586.6713657       -148452178.79675770        916109897.99654174     
  -4785763908.9514332       -37147771.020367384        876529862.85275686     
  -6353595389.4792500       -3515335587.9523401       -152558137.56652403     
  -5835504465.6748266       -1856385608.9019623        121896246.04948105     
  -5470925032.6688719       -709140599.17982244        286066304.05843174     
  -5259857090.4613924       -73600558.785913467        339952036.46033216     
  -5202300639.0523767        50234512.279765606        283553443.25517792     
  -5284668182.9765425       -4428003817.6778374       -872480674.44698822     
  -4980526680.1751280       -2176308349.1075754       -448230361.91630918     
  -4894843457.6928587       -652807148.26781571       -215059622.13162988     
  -5027618515.5297432        142499784.84144115       -172968455.09295580     
  -5378851853.6857843        209612450.22017550       -321956860.80027568     
  -3232733902.3469486        4074626.3001297712        2024881048.6743014     
  -3213054543.2996836       -18936949.343254566        1791190684.9276943     
  -3193653463.4134727       -42876122.190158367        1599067188.9673228     
  -3174530662.6883206       -67742892.240590334        1448510560.7931859     
  -3155686141.1242313       -93537259.494551063        1339520800.4052856     
  -4129241663.3829551       -52534399.680245638        1456972397.9924655     
  -4020976269.2599401       -77478360.546869516        1301249151.1163466     
  -3910299107.8070889       -94383096.980704784        1172548075.4099283     
  -3797210179.0244184       -103248608.98180175        1070869170.8732156     
  -3681709482.9119081       -104074896.55010653        996212437.50620365     
  -4785763908.9514332       -37147771.020367384        876529862.85275686     
  -4630468755.7998972       -76490999.924378157        801912120.41982806     
  -4470071788.8276529       -98828182.759342670        739771852.54006684     
  -4304573008.0346870       -104159319.52525067        690109059.21347415     
  -4133972413.4210033       -92484410.222087145        652923740.44005525     
  -5202300639.0523767        50234512.279765606        283553443.25517792     
  -5041532002.9195642       -15974867.475811005        293179592.83813459     
  -4872971506.4751463       -56211379.526049137        300738520.35773343     
  -4696619149.7191315       -70475023.870954752        306230225.81396592     
  -4512474932.6515045       -58765800.510496616        309654709.20684278     
  -5378851853.6857843        209612450.22017550       -321956860.80027568     
  -5254166010.6189289        104070036.79884338       -224948431.62872252     
  -5118998260.7495899        33467312.719142675       -144551921.13706729     
  -4973348604.0777607       -2195722.0189211369       -80767329.325305298     
  -4817217040.6034269       -2919067.4153256416       -33594656.193441503     
  -3155686141.1242313       -93537259.494551063        1339520800.4052856     
  -3063673295.6737018       -96805369.481961966        1239291363.8056827     
  -2971002549.0177593       -97880475.451322317        1153506140.5578187     
  -2877673901.1564002       -96762577.402631521        1082165130.6616957     
  -2783687352.0896325       -93451675.335904837        1025268334.1173155     
  -3681709482.9119081       -104074896.55010653        996212437.50620365     
  -3551751836.6104536       -97322372.848762512        921016587.91335380     
  -3422068555.7401743       -91484400.584676385        858252379.38745582     
  -3292659640.3010497       -86560979.757779121        807919811.92851532     
  -3163525090.2931108       -82552110.368149400        770018885.53652024     
  -4133972413.4210033       -92484410.222087145        652923740.44005525     
  -3971820172.7965837       -77436314.790383101        601673833.44460857     
  -3810874564.2399244       -66410326.251204491        560842995.23132992     
  -3651135587.7510138       -59406444.604531050        530431225.80022031     
  -3492603243.3298616       -56424669.850382328        510438525.15127271     
  -4512474932.6515045       -58765800.510496616        309654709.20684278     
  -4323878304.2320862       -37147195.306810617        281263100.39944804     
  -4137420574.5170193       -22658252.450952530        261277988.08944610     
  -3953101743.5062866       -15298971.942870617        249699372.27680561     
  -3770921811.1998892       -15069353.782591581        246527252.96155766     
  -4817217040.6034269       -2919067.4153256416       -33594656.193441503     
  -4607926230.9169817        23544985.601937532       -40215611.222114228     
  -4401706586.5714636        39771820.816094637       -40442642.038217396     
  -4198558107.5668588        45761438.227210045       -34275748.641711615     
  -3998480793.9031892        41513837.835217237       -21714931.032622822     
  -2783687352.0896325       -93451675.335904837        1025268334.1173155     
  -2634920947.5696030       -75861408.981382132        952496884.34742057     
  -2488233054.5944481       -65199514.443116665        885865965.79713774     
  -2343623673.1641693       -61465991.721097946        825375578.46646130     
  -2201092803.2787671       -64660840.815338373        771025722.35539293     
  -3163525090.2931108       -82552110.368149400        770018885.53652024     
  -3000681902.8738775       -70592466.804587841        713052707.20713377     
  -2838989723.9022355       -62469518.066308379        662073666.68620753     
  -2678448553.3781848       -58183264.153339982        617081763.97373724     
  -2519058391.3017154       -57733705.065651894        578076999.06972778     
  -3492603243.3298616       -56424669.850382328        510438525.15127271     
  -3316121539.9004307       -50227129.144470453        470359705.20922351     
  -3139863341.8212976       -44774606.272889495        436114629.66449124     
  -2963828649.0924697       -40067101.235662937        407703298.51705843     
  -2788017461.7139387       -36104614.032754660        385125711.76693708     
  -3770921811.1998892       -15069353.782591581        246527252.96155766     
  -3581239858.6492634       -14765396.001043558        224417878.35368547     
  -3390853908.3516450       -12114779.062859297        207988854.73198026     
  -3199763960.3070331       -7117502.9680458307        197240182.09642798     
  -3007970014.5154519        226432.28336572647        192171860.44703397     
  -3998480793.9031892        41513837.835217237       -21714931.032622822     
  -3796036859.1203599        35792732.625697613       -24772773.359478422     
  -3591961423.4932537        35509963.563810825       -22303658.111324422     
  -3386254487.0218954        40665530.649409056       -14307585.288167553     
  -3178916049.7062321        51259433.882692695       -784554.88999788021     
  -2201092803.2787671       -64660840.815338373        771025722.35539293     
  -2071831572.7222645       -72456352.740416765        719005712.46590543     
  -1940900470.8618681       -74685626.985859632        680404803.37198758     
  -1808299497.6975965       -71348663.551707447        655222995.07363820     
  -1674028653.2294297       -62445462.437916279        643460287.57085347     
  -2519058391.3017154       -57733705.065651894        578076999.06972778     
  -2357948913.6358671       -57400625.682749033        542503911.71192789     
  -2196105311.7300673       -54620465.499997497        516134546.41775179     
  -2033527585.5843177       -49393224.517427325        498968903.18719625     
  -1870215735.1986158       -41718902.734998941        491006982.02026576     
  -2788017461.7139387       -36104614.032754660        385125711.76693708     
  -2607103676.1728764       -31256125.112103462        364907842.03290087     
  -2426391513.4557962       -27079712.271394491        349678315.63054186     
  -2245880973.5627027       -23575375.510639548        339437132.55985695     
  -2065572056.4935913       -20743114.829825163        334184292.82085150     
  -3007970014.5154519        226432.28336572647        192171860.44703397     
  -2819295860.3332849        5977148.9715490341        186217503.42883104     
  -2631759076.0390501        7936632.6999777555        181036111.01035807     
  -2445359661.6327405        6104883.4686521292        176627683.19162685     
  -2260097617.1143279        481901.27765691280        172992219.97262442     
  -3178916049.7062321        51259433.882692695       -784554.88999788021     
  -2994525466.1171098        54299196.568136573        6432895.8997110603     
  -2812207999.4798427        50428569.414065242        10207932.557209130     
  -2631963649.7944455        39647552.420431376        10540555.082502574     
  -2453792417.0608821        21956145.587340355        7430763.4755764995     
  -1674028653.2294297       -62445462.437916279        643460287.57085347     
  -1536662187.8626218       -53045147.577816069        621974710.07107067     
  -1401250147.1117547       -50159581.437518954        600753485.30911219     
  -1267792530.9768205       -53788764.016998351        579796613.28498554     
  -1136289339.4578409       -63932695.316326618        559104093.99869084     
  -1870215735.1986158       -41718902.734998941        491006982.02026576     
  -1733475331.3311751       -41245120.337994456        469065187.39485061     
  -1596960769.5695832       -41524144.960481465        448437423.29281110     
  -1460672049.9138279       -42555976.602419496        429123689.71414012     
  -1324609172.3639224       -44340615.263869345        411123986.65883964     
  -2065572056.4935913       -20743114.829825163        334184292.82085150     
  -1926458634.7382576       -28296141.079756618        313802960.66492474     
  -1785842472.5786667       -30840032.648808837        295785336.81791407     
  -1643723570.0148251       -28374789.537031472        280131421.27981389     
  -1500101927.0467331       -20900411.744417608        266841214.05062118     
  -2260097617.1143279        481901.27765691280        172992219.97262442     
  -2115612098.0838470       -14198209.803015113        156188029.88129622     
  -1967895256.1390142       -18107244.502527833        142797225.88441640     
  -1816947091.2798243       -11245202.820840359        132819807.98199674     
  -1662767603.5062869        6387915.2420012951        126255776.17403606     
  -2453792417.0608821        21956145.587340355        7430763.4755764995     
  -2300935721.3679757        1048673.4921114445       -3779604.9560407256     
  -2143119120.2506292       -3325780.5216304064       -10526909.507667275     
  -1980342613.7088141        8832783.5461792946       -12811150.179294020     
  -1812606201.7425780        37524365.695392251       -10632326.970924003     
  -1136289339.4578409       -63932695.316326618        559104093.99869084     
  -951425785.27216971       -49833192.339858145        573707939.73841631     
  -759177921.54148865       -11119324.213346004        599982846.72287107     
  -559545748.26578522        52208909.063235372        637928814.95204985     
  -352529265.44506931        140151507.48985791        687545844.42595279     
  -1324609172.3639224       -44340615.263869345        411123986.65883964     
  -1123284682.2646976       -21693622.904315948        430196979.18274319     
  -918534472.74784088        12372434.180677056        448288671.30701989     
  -710358543.81336045        57857555.991076827        465399063.03167230     
  -498756895.46125704        114761742.52689770        481528154.35670292     
  -1500101927.0467331       -20900411.744417608        266841214.05062118     
  -1318466105.7320926       -550811.41121393442        285764998.21007496     
  -1137363155.1272066        18022553.222802639        291055120.32555538     
  -956793075.23210776        34819682.157533407        282711580.39705801     
  -776755866.04675221        49840575.393138587        260734378.42458788     
  -1662767603.5062869        6387915.2420012951        126255776.17403606     
  -1536970055.6743705        13595242.139406562        140411996.82041189     
  -1415663968.6796114        5831032.9129666686        128282193.77847977     
  -1298849342.5219860       -16904712.437272727        89866367.048207939     
  -1186526177.2015457       -54611993.911433339        25164516.629622370     
  -1812606201.7425780        37524365.695392251       -10632326.970924003     
  -1778796532.0915151        20744537.747587085       -5862024.9862481812     
  -1753436913.4049914       -24202126.748648643       -40030108.334215619     
  -1736527345.6830623       -97315627.793539941       -113136577.01488316     
  -1728067828.9256182       -198595965.38673574       -225181431.02820709     
  -352529265.44506931        140151507.48985791        687545844.42595279     
  -278133644.03758633        282381967.92082357        789689151.16180980     
  -149095439.58506829        606754371.83524501        907780918.11744606     
   34585347.912554443        1113268719.2333238        1041821145.2928846     
   272908718.45520473        1801925010.1148610        1191809832.6880920     
  -498756895.46125704        114761742.52689770        481528154.35670292     
  -389497488.82549399        220698016.30647168        599743689.68017578     
  -231091432.53569970        490456455.59947783        737204642.64824259     
  -23538726.591892660        924037060.40587902        893911013.26091540     
   233160629.00594634        1521439830.7257092        1069862801.5181681     
  -776755866.04675221        49840575.393138587        260734378.42458788     
  -623212795.82609308        122308626.02832896        388610220.04614747     
  -426019009.34245527        340279064.20682514        539028436.73710155     
  -185174506.59582460        703751889.92860174        711989028.49745214     
   99320712.413802624        1212727103.1936920        907491995.32722795     
  -1186526177.2015457       -54611993.911433339        25164516.629622370     
  -979279565.03939962       -12786202.913634300        156288742.25970396     
  -733878170.00530100        156222197.65736279        313252300.38399941     
  -450321992.09926569        452413207.80148518        496055191.00251269     
  -128611031.32126939        875786827.51878273        704697414.11523426     
  -1728067828.9256182       -198595965.38673574       -225181431.02820709     
  -1457697796.4654007       -184586470.51939261       -97220743.679135785     
  -1154668914.5242493       -61714144.048936903        59876233.588951759     
  -818981183.10220325        170021014.02450138        246109500.77606487     
  -450634602.19922888        510619003.70103395        461479057.88220638     
 </DataArray>
 <DataArray  type="Float64" Name="VM" NumberOfComponents="1" format="ascii">
   5139851381.9981394     
   4393806277.1849241     
   4618334414.8357124     
   5109152858.3984003     
   5514927705.6779814     
   5519108666.6290884     
   5168259801.4141560     
   5176847280.2120171     
   5256528067.5984211     
   5250618828.7362709     
   5688421198.7214537     
   5473963772.1628914     
   5337379626.6732483     
   5196875035.0490484     
   5003203911.9129620     
   6016181186.6213408     
   5638956520.3282738     
   5321087290.5177116     
   5050122487.5963039     
   4817133473.3666649     
   7347639281.3642054     
   6316323072.9507132     
   5557127357.6827536     
   5051092832.9041929     
   4771182960.5596151     
   5514927705.6779814     
   5321249633.6733751     
   5141912886.2471142     
   4974218646.1064558     
   4816109690.0125885     
   5250618828.7362709     
   5059113074.0190525     
   4873030422.7342634     
   4691858335.3907576     
   4515347420.4716368     
   5003203911.9129620     
   4798134183.7725315     
   4603403832.5750055     
   4418210954.1673765     
   4242037419.9873171     
   4817133473.3666649     
   4576293515.7567921     
   4365190489.6027708     
   4180632848.6550665     
   4019945319.0682840     
   4771182960.5596151     
   4459632798.8075619     
   4211339077.3298354     
   4020165490.1549845     
   3880061577.3521547     
   4816109690.0125885     
   4620268817.9853125     
   4422281467.1537161     
   4222042258.0171809     
   4019574474.6037269     
   4515347420.4716368     
   4332898605.6164846     
   4150881139.1491785     
   3969108007.6417675     
   3787555951.4376688     
   4242037419.9873171     
   4069376232.5068069     
   3900990697.1351342     
   3736507868.6728859     
   3575756509.6771774     
   4019945319.0682840     
   3850137978.1374235     
   3689938766.6575241     
   3538684458.4294729     
   3395929533.5524530     
   3880061577.3521547     
   3702217510.7943254     
   3540813858.4086051     
   3394873045.3441758     
   3263592142.5349522     
   4019574474.6037269     
   3814300532.6379733     
   3610054098.3430085     
   3406859415.4601865     
   3204853513.6382213     
   3787555951.4376688     
   3594956001.9094896     
   3403929438.7459631     
   3214417020.2907090     
   3026442600.1872396     
   3575756509.6771774     
   3390625355.7142186     
   3207919624.2552676     
   3027507147.8065748     
   2849324488.0189385     
   3395929533.5524530     
   3212877542.5573215     
   3033387441.4330859     
   2857271557.9008393     
   2684412937.4867826     
   3263592142.5349522     
   3077405635.8939991     
   2896135118.4996133     
   2719564551.9147744     
   2547569041.3212242     
   3204853513.6382213     
   3022061485.8787937     
   2837813434.2422843     
   2652072546.7387714     
   2464877432.3479691     
   3026442600.1872396     
   2840659621.2035141     
   2654322575.4735322     
   2467456541.1770616     
   2280111736.0719347     
   2849324488.0189385     
   2667574131.7763047     
   2487815882.1598125     
   2310247248.4290900     
   2135230483.0257325     
   2684412937.4867826     
   2512130895.7204461     
   2346293724.2052245     
   2187268053.5126624     
   2035850578.3233521     
   2547569041.3212242     
   2387158616.7745113     
   2239769473.0459166     
   2105699281.7757108     
   1985915228.0985184     
   2464877432.3479691     
   2301469545.5680165     
   2141535785.3472083     
   1984897779.3450632     
   1831749260.7384799     
   2280111736.0719347     
   2125832149.5554390     
   1974456782.9701605     
   1825901023.6635203     
   1680261910.3117626     
   2135230483.0257325     
   1988202476.0175896     
   1843251446.7141263     
   1700415487.0953350     
   1559808503.8039906     
   2035850578.3233521     
   1896103090.6589632     
   1757550536.1794143     
   1620387281.7122700     
   1484887321.7770493     
   1985915228.0985184     
   1855583360.9948063     
   1725817511.6768651     
   1597025508.3050663     
   1469825490.6576970     
   1831749260.7384799     
   1789287801.7668517     
   1742841667.1160653     
   1701295376.7471752     
   1683624515.8377573     
   1680261910.3117626     
   1562851191.5635033     
   1435883776.1079276     
   1299833297.0269599     
   1161003030.5627065     
   1559808503.8039906     
   1408052502.4454145     
   1252420534.2957723     
   1090760350.3507271     
   921137864.47519910     
   1484887321.7770493     
   1339059108.7805986     
   1207522819.1469891     
   1094917909.7220993     
   1007360411.1796119     
   1469825490.6576970     
   1359302830.6749792     
   1283733405.8526065     
   1251355267.1231956     
   1269442672.5403044     
   1683624515.8377573     
   1385005183.5177627     
   1129851770.8043976     
   1010243037.0211736     
   1154467264.9970052     
   1161003030.5627065     
   1009905539.5605813     
   985906493.99104917     
   1161641718.2916319     
   1544660010.5601394     
   921137864.47519910     
   965728532.52372301     
   1146255797.8810549     
   1476705237.8263669     
   1957229643.0782363     
   1007360411.1796119     
   1168526726.4374888     
   1427481392.0896056     
   1809248439.2711999     
   2334142757.3880787     
   1269442672.5403044     
   1451366490.7542245     
   1718442088.8041551     
   2111453171.9826200     
   2662871363.3030429     
   7347639281.3642054     
   6316323072.9507132     
   5557127357.6827536     
   5051092832.9041929     
   4771182960.5596151     
   4249901988.2361169     
   3755374204.5573888     
   3461370091.8429532     
   3356694084.5998421     
   3414633720.6897883     
   1774657089.2638662     
   1733420194.0296195     
   1852765419.2576375     
   2093599135.9623528     
   2412244522.2170181     
   2490780931.9735260     
   2010522102.1866031     
   1795804293.3851366     
   1843264435.9330757     
   2066028540.8640950     
   5507492253.3928375     
   4357208428.6000500     
   3488900987.5172482     
   2914227317.7029581     
   2611577226.1027842     
   4771182960.5596151     
   4459632798.8075619     
   4211339077.3298354     
   4020165490.1549845     
   3880061577.3521547     
   3414633720.6897883     
   3325801700.4247236     
   3268034826.3862052     
   3238246882.1612320     
   3233679291.3344755     
   2412244522.2170181     
   2484250181.0074306     
   2560187606.3730474     
   2639554711.9068213     
   2721907107.2469177     
   2066028540.8640950     
   2109474285.9974318     
   2183904844.9778180     
   2274714830.9130034     
   2370505942.4374075     
   2611577226.1027842     
   2387563703.2817841     
   2265325297.4499021     
   2220016289.0715361     
   2221628002.1186004     
   3880061577.3521547     
   3702217510.7943254     
   3540813858.4086051     
   3394873045.3441758     
   3263592142.5349522     
   3233679291.3344755     
   3135103682.2487621     
   3044930811.4260182     
   2962995023.1347685     
   2889247285.2116251     
   2721907107.2469177     
   2683918685.7126508     
   2648792898.2340670     
   2616673454.6175265     
   2587714109.9526415     
   2370505942.4374075     
   2362122861.9065375     
   2357854542.8029804     
   2356543211.0671387     
   2357097867.8449879     
   2221628002.1186004     
   2195080396.4210944     
   2185597016.0135489     
   2188218927.8705869     
   2198240843.3668952     
   3263592142.5349522     
   3077405635.8939991     
   2896135118.4996133     
   2719564551.9147744     
   2547569041.3212242     
   2889247285.2116251     
   2748288624.4954095     
   2611177121.3877192     
   2478187770.0307879     
   2349768127.7991810     
   2587714109.9526415     
   2490810084.1299114     
   2398405776.2973557     
   2311298177.1882510     
   2230462587.3909087     
   2357097867.8449879     
   2301029395.4215884     
   2252172187.4656944     
   2211561002.7673869     
   2180275727.3599348     
   2198240843.3668952     
   2176870498.9373779     
   2167876582.0204258     
   2171879930.2752075     
   2189306257.9208684     
   2547569041.3212242     
   2387158616.7745113     
   2239769473.0459166     
   2105699281.7757108     
   1985915228.0985184     
   2349768127.7991810     
   2235255258.5279365     
   2130548881.5118518     
   2036212718.1925344     
   1953084399.3614628     
   2230462587.3909087     
   2156549533.6065564     
   2088295816.0349083     
   2025974401.6303911     
   1969905012.5819180     
   2180275727.3599348     
   2141973320.2862060     
   2104671991.1230750     
   2067872091.2661107     
   2031122242.2698596     
   2189306257.9208684     
   2180935313.4881592     
   2169267591.4169464     
   2152602616.6950688     
   2129521299.1097507     
   1985915228.0985184     
   1855583360.9948063     
   1725817511.6768651     
   1597025508.3050663     
   1469825490.6576970     
   1953084399.3614628     
   1842787127.1668279     
   1736924692.3040566     
   1636392657.4587162     
   1542292100.3906205     
   1969905012.5819180     
   1884042807.4564660     
   1806401221.5552723     
   1738024136.1728079     
   1680012468.0634408     
   2031122242.2698596     
   1970618397.4973161     
   1921153272.3601100     
   1883552533.0957828     
   1858572302.5966032     
   2129521299.1097507     
   2092459350.8473709     
   2068137063.6022298     
   2057039902.9009316     
   2059577560.1579525     
   1469825490.6576970     
   1359302830.6749792     
   1283733405.8526065     
   1251355267.1231956     
   1269442672.5403044     
   1542292100.3906205     
   1481444182.4969454     
   1453109614.1422505     
   1461303562.3177912     
   1509401024.5277307     
   1680012468.0634408     
   1653002614.3354023     
   1653288136.9754815     
   1683251044.0822687     
   1745512108.9384201     
   1858572302.5966032     
   1851050276.4219501     
   1865765431.7501683     
   1904933884.3111668     
   1971572166.3238811     
   2059577560.1579525     
   2060682904.8551702     
   2079932280.9375749     
   2119971981.6444600     
   2184589901.4937091     
   1269442672.5403044     
   1451366490.7542245     
   1718442088.8041551     
   2111453171.9826200     
   2662871363.3030429     
   1509401024.5277307     
   1616295461.1940279     
   1790357092.3630886     
   2066423589.2901871     
   2474703678.2277346     
   1745512108.9384201     
   1789200158.3276997     
   1884994498.4323883     
   2059825481.5185740     
   2338899877.0128574     
   1971572166.3238811     
   1969005254.2863312     
   2002915729.6961355     
   2091951145.6376874     
   2254722039.0269041     
   2184589901.4937091     
   2154971979.4806747     
   2144850297.4271913     
   2164688174.6480994     
   2225484022.4171476     
   5507492253.3928375     
   4357208428.6000500     
   3488900987.5172482     
   2914227317.7029581     
   2611577226.1027842     
   3692776410.6419702     
   3225706069.7560315     
   2907648153.1009097     
   2709889294.5858235     
   2590905482.1118617     
   3549208040.7086482     
   3405311216.3384070     
   3272287628.6274910     
   3148668077.0388331     
   3033007665.5836587     
   5052082690.3501396     
   4631575709.4335461     
   4277903880.2655311     
   3990303312.9340463     
   3769380661.5228300     
   7467920559.2925930     
   6516004983.2628059     
   5743664726.4368429     
   5149546332.2384996     
   4731459019.4943972     
   2611577226.1027842     
   2387563703.2817841     
   2265325297.4499021     
   2220016289.0715361     
   2221628002.1186004     
   2590905482.1118617     
   2530006003.1264205     
   2492472416.3602772     
   2468416885.3466058     
   2448861352.3950276     
   3033007665.5836587     
   2960267247.2113194     
   2891190968.9678216     
   2825891619.9537396     
   2764485018.8734345     
   3769380661.5228300     
   3577748802.5172882     
   3411933368.6299901     
   3272217213.9687376     
   3159244403.1927977     
   4731459019.4943972     
   4364681412.5127020     
   4061004568.0648375     
   3819617872.4680548     
   3639858142.3098807     
   2221628002.1186004     
   2195080396.4210944     
   2185597016.0135489     
   2188218927.8705869     
   2198240843.3668952     
   2448861352.3950276     
   2426864099.2150679     
   2410158245.6592598     
   2397702469.3719020     
   2388486944.2944517     
   2764485018.8734345     
   2714104542.7880292     
   2669076459.6429820     
   2629779229.0744267     
   2596589096.3420525     
   3159244403.1927977     
   3057730088.9023185     
   2968916203.5521069     
   2893208811.8842144     
   2831092210.8010631     
   3639858142.3098807     
   3470106040.7167377     
   3324104586.1619439     
   3201926270.4638867     
   3103724238.1618047     
   2198240843.3668952     
   2176870498.9373779     
   2167876582.0204258     
   2171879930.2752075     
   2189306257.9208684     
   2388486944.2944517     
   2363924526.9791527     
   2348969563.5851507     
   2344360575.3100166     
   2350747605.3818593     
   2596589096.3420525     
   2556676091.1930208     
   2526158608.0517449     
   2505666801.2947130     
   2495807383.5858798     
   2831092210.8010631     
   2764793356.1634450     
   2709558994.4321561     
   2665786775.6177073     
   2633890041.4264364     
   3103724238.1618047     
   3000901976.9448004     
   2911991413.6924896     
   2837165749.7586408     
   2776626833.6182580     
   2189306257.9208684     
   2180935313.4881592     
   2169267591.4169464     
   2152602616.6950688     
   2129521299.1097507     
   2350747605.3818593     
   2315791095.5557599     
   2284154565.3564568     
   2255647022.2652035     
   2230091955.0406814     
   2495807383.5858798     
   2441062985.2567372     
   2397107194.7524815     
   2364574742.2426414     
   2344030018.8951192     
   2633890041.4264364     
   2563342260.4564424     
   2511778592.7703323     
   2480016497.2088404     
   2468820078.3866892     
   2776626833.6182580     
   2690402816.2985244     
   2632252769.6476221     
   2602696788.5737271     
   2602278074.5509224     
   2129521299.1097507     
   2092459350.8473709     
   2068137063.6022298     
   2057039902.9009316     
   2059577560.1579525     
   2230091955.0406814     
   2202435884.6298032     
   2187015861.7979136     
   2184125157.0270462     
   2194015572.7114811     
   2344030018.8951192     
   2323312688.3372283     
   2314356050.9779000     
   2317325544.5706835     
   2332378682.1517606     
   2468820078.3866892     
   2452704176.3580427     
   2447980395.0864024     
   2454733596.9402771     
   2473068787.1013722     
   2602278074.5509224     
   2588612359.1427050     
   2586122063.1769857     
   2594844089.5034742     
   2614856992.2800493     
   2059577560.1579525     
   2060682904.8551702     
   2079932280.9375749     
   2119971981.6444600     
   2184589901.4937091     
   2194015572.7114811     
   2183041251.8782573     
   2186424214.8459086     
   2206153702.9968414     
   2245143026.8651838     
   2332378682.1517606     
   2310286097.7648816     
   2299493594.1204066     
   2301421102.1991658     
   2318159434.7465320     
   2473068787.1013722     
   2441641550.1928158     
   2418915309.3303633     
   2405842011.9993830     
   2403804145.1732736     
   2614856992.2800493     
   2576475193.4890680     
   2544482399.4790263     
   2519461506.7239432     
   2502227930.9219503     
   2184589901.4937091     
   2154971979.4806747     
   2144850297.4271913     
   2164688174.6480994     
   2225484022.4171476     
   2245143026.8651838     
   2180587426.6342759     
   2132313142.7500627     
   2109916961.0745165     
   2124247954.4354975     
   2318159434.7465320     
   2221983362.6700935     
   2138932567.2489934     
   2077296393.2926538     
   2047149426.7887974     
   2403804145.1732736     
   2279447823.0437422     
   2165348844.6939712     
   2068170817.1750367     
   1996578154.6260836     
   2502227930.9219503     
   2353184960.2968287     
   2212027613.8135977     
   2083665411.5357971     
   1974872165.8118896     
   7467920559.2925930     
   6516004983.2628059     
   5743664726.4368429     
   5149546332.2384996     
   4731459019.4943972     
   4952962794.3052816     
   4472911933.8601103     
   4090296097.4967513     
   3807568138.9066787     
   3626300009.5001645     
   2710166883.7420058     
   2649661402.5511875     
   2614796193.2732134     
   2606302721.0717573     
   2624203386.4435697     
   902059322.94148791     
   936392251.81461859     
   1173921228.5326858     
   1441265333.0191672     
   1668591653.0787733     
   2335287686.1727700     
   1301753265.1628878     
   449159258.05526930     
   222494335.15007803     
   713207514.45315719     
   4731459019.4943972     
   4364681412.5127020     
   4061004568.0648375     
   3819617872.4680548     
   3639858142.3098807     
   3626300009.5001645     
   3444936435.8915858     
   3299868999.8424926     
   3190809099.8609319     
   3117452901.8756185     
   2624203386.4435697     
   2617737342.2410054     
   2619219883.8940120     
   2628628089.1921139     
   2645932617.0448666     
   1668591653.0787733     
   1835675706.1940634     
   1981541296.6047904     
   2105801291.1461525     
   2208256903.4962606     
   713207514.45315719     
   1060755239.2817355     
   1355710411.6717515     
   1598073031.6232076     
   1787843099.1361058     
   3639858142.3098807     
   3470106040.7167377     
   3324104586.1619439     
   3201926270.4638867     
   3103724238.1618047     
   3117452901.8756185     
   3024471124.2663755     
   2948279108.0344925     
   2888918233.2676911     
   2846451585.7845058     
   2645932617.0448666     
   2626321127.8123989     
   2615994858.9332891     
   2614966893.5284452     
   2623252398.6952300     
   2208256903.4962606     
   2259864065.3204570     
   2312931969.3561282     
   2367461219.1424618     
   2423452369.1114855     
   1787843099.1361058     
   1909798130.1612313     
   2025271234.0501773     
   2134262410.8029587     
   2236771660.4195766     
   3103724238.1618047     
   3000901976.9448004     
   2911991413.6924896     
   2837165749.7586408     
   2776626833.6182580     
   2846451585.7845058     
   2790136016.8899269     
   2746164588.8439555     
   2714632153.5218673     
   2695636608.3097553     
   2623252398.6952300     
   2612043671.9306707     
   2611305167.5588584     
   2621064948.4479113     
   2641347914.9504008     
   2423452369.1114855     
   2455741120.0430179     
   2496484194.4046979     
   2545682149.1287150     
   2603334617.7564902     
   2236771660.4195766     
   2311133576.5921998     
   2391980022.0551114     
   2479310996.8083072     
   2573126500.8517976     
   2776626833.6182580     
   2690402816.2985244     
   2632252769.6476221     
   2602696788.5737271     
   2602278074.5509224     
   2695636608.3097553     
   2651999250.9356642     
   2628033074.7796087     
   2623877362.9327464     
   2639680800.4816470     
   2641347914.9504008     
   2633913339.8828630     
   2637784612.4144750     
   2652988213.4894886     
   2679554417.5998859     
   2603334617.7564902     
   2628419121.4593816     
   2656443705.5451593     
   2687412277.8853159     
   2721329403.9242134     
   2573126500.8517976     
   2629173137.0335093     
   2679748645.8915935     
   2724853027.4260459     
   2764486281.6368818     
   2602278074.5509224     
   2588612359.1427050     
   2586122063.1769857     
   2594844089.5034742     
   2614856992.2800493     
   2639680800.4816470     
   2626946135.0468807     
   2624771718.1505742     
   2633176282.3524380     
   2652202589.4759932     
   2679554417.5998859     
   2667704218.9037867     
   2665991663.3841705     
   2674424187.4064679     
   2693020036.9570956     
   2721329403.9242134     
   2710428379.3354702     
   2709423554.6460733     
   2718316560.6054802     
   2737111733.0069699     
   2764486281.6368818     
   2754694567.5878792     
   2754730806.6509643     
   2764594998.8261285     
   2784287144.1133776     
   2614856992.2800493     
   2576475193.4890680     
   2544482399.4790263     
   2519461506.7239432     
   2502227930.9219503     
   2652202589.4759932     
   2607645406.4361143     
   2568944869.2738919     
   2536430817.0192051     
   2510568337.8522787     
   2693020036.9570956     
   2644362360.9451175     
   2601179189.6189928     
   2563616645.8065615     
   2531881899.4685426     
   2737111733.0069699     
   2686472252.7534990     
   2641068649.1691017     
   2600937016.3297067     
   2566128679.6615219     
   2784287144.1133776     
   2733819262.4296284     
   2688485883.0619645     
   2648287006.0104094     
   2613222631.2749405     
   2502227930.9219503     
   2353184960.2968287     
   2212027613.8135977     
   2083665411.5357971     
   1974872165.8118896     
   2510568337.8522787     
   2344048339.0548849     
   2180925146.5601988     
   2024251955.9442263     
   1878517688.5264988     
   2531881899.4685426     
   2352919297.5155783     
   2173653362.9744458     
   1995532442.6949973     
   1820793304.3719192     
   2566128679.6615219     
   2379907007.5903602     
   2190674965.9913049     
   1998804660.7387979     
   1804888459.2141118     
   2613222631.2749405     
   2424988159.4432335     
   2232134668.6177430     
   2034662158.7984860     
   1832570629.9854546     
   2335287686.1727700     
   1301753265.1628878     
   449159258.05526930     
   222494335.15007803     
   713207514.45315719     
   902059327.27164125     
   936392253.57421076     
   1173921228.2432837     
   1441265331.6216226     
   1668591651.0774946     
   2710166881.9818454     
   2649661400.1435137     
   2614796190.1417603     
   2606302717.2220554     
   2624203381.9488907     
   4952962789.9320889     
   4472911928.9011250     
   4090296091.8123145     
   3807568132.4137626     
   3626300002.1769452     
   7467920553.2580738     
   6516004976.2050362     
   5743664718.2765741     
   5149546322.9316339     
   4731459009.0152769     
   713207514.45315719     
   1060755239.2817355     
   1355710411.6717515     
   1598073031.6232076     
   1787843099.1361058     
   1668591651.0774946     
   1835675704.2621260     
   1981541294.6841037     
   2105801289.1721983     
   2208256901.4013324     
   2624203381.9488907     
   2617737338.0303864     
   2619219879.8445888     
   2628628085.1777587     
   2645932612.9372311     
   3626300002.1769452     
   3444936429.1679101     
   3299868993.5444822     
   3190809093.8133264     
   3117452895.8993282     
   4731459009.0152769     
   4364681403.0720816     
   4061004559.4445472     
   3819617864.4479222     
   3639858134.6594391     
   1787843099.1361058     
   1909798130.1612313     
   2025271234.0501773     
   2134262410.8029587     
   2236771660.4195766     
   2208256901.4013324     
   2259864063.3611050     
   2312931967.5436077     
   2367461217.4878316     
   2423452367.6256561     
   2645932612.9372311     
   2626321123.9423003     
   2615994855.3207579     
   2614966890.1923051     
   2623252395.6532817     
   3117452895.8993282     
   3024471118.5784984     
   2948279102.6636996     
   2888918228.2395334     
   2846451581.1218514     
   3639858134.6594391     
   3470106033.3464642     
   3324104579.1080503     
   3201926263.7572145     
   3103724231.8285022     
   2236771660.4195766     
   2311133576.5921998     
   2391980022.0551114     
   2479310996.8083072     
   2573126500.8517976     
   2423452367.6256561     
   2455741118.6044440     
   2496484193.0664611     
   2545682147.9452167     
   2603334616.7832961     
   2623252395.6532817     
   2612043668.9567518     
   2611305164.7642097     
   2621064945.9453139     
   2641347912.8538804     
   2846451581.1218514     
   2790136012.2609334     
   2746164584.4225187     
   2714632149.4842696     
   2695636604.8341403     
   3103724231.8285022     
   3000901970.5260639     
   2911991407.4246321     
   2837165743.8831296     
   2776626828.3814645     
   2573126500.8517976     
   2629173137.0335093     
   2679748645.8915935     
   2724853027.4260459     
   2764486281.6368818     
   2603334616.7832961     
   2628419120.6782980     
   2656443704.8960404     
   2687412277.3088455     
   2721329403.3620534     
   2641347912.8538804     
   2633913338.2182360     
   2637784611.0683908     
   2652988212.3500371     
   2679554416.5565033     
   2695636604.8341403     
   2651999248.2045217     
   2628033072.6306510     
   2623877361.2054987     
   2639680799.0163078     
   2776626828.3814645     
   2690402812.2188258     
   2632252766.5181341     
   2602696786.1876826     
   2602278072.6983476     
   2764486281.6368818     
   2754694567.5878792     
   2754730806.6509643     
   2764594998.8261285     
   2784287144.1133776     
   2721329403.3620534     
   2710428378.9392905     
   2709423554.3957572     
   2718316560.4800434     
   2737111732.9848719     
   2679554416.5565033     
   2667704218.1768131     
   2665991662.9315810     
   2674424187.1847873     
   2693020036.9218922     
   2639680799.0163078     
   2626946134.0388536     
   2624771717.5335226     
   2633176282.0581059     
   2652202589.4346175     
   2602278072.6983476     
   2588612357.8856611     
   2586122062.4216905     
   2594844089.1536384     
   2614856992.2370563     
   2784287144.1133776     
   2733819262.4296284     
   2688485883.0619645     
   2648287006.0104094     
   2613222631.2749405     
   2737111732.9848719     
   2686472252.7504845     
   2641068649.1806579     
   2600937016.3507996     
   2566128679.6865921     
   2693020036.9218922     
   2644362360.9484301     
   2601179189.6517181     
   2563616645.8586469     
   2531881899.5290127     
   2652202589.4346175     
   2607645406.4535975     
   2568944869.3363891     
   2536430817.1116195     
   2510568337.9583197     
   2614856992.2370563     
   2576475193.5268488     
   2544482399.5787926     
   2519461506.8654137     
   2502227931.0835161     
   2613222631.2749405     
   2424988159.4432335     
   2232134668.6177430     
   2034662158.7984860     
   1832570629.9854546     
   2566128679.6865921     
   2379907007.5991426     
   2190674965.9742527     
   1998804660.6824481     
   1804888459.0991805     
   2531881899.5290127     
   2352919297.5411406     
   2173653362.9464636     
   1995532442.5875249     
   1820793304.1486039     
   2510568337.9583197     
   2344048339.1054487     
   2180925146.5286212     
   2024251955.7941613     
   1878517688.2090642     
   2502227931.0835161     
   2353184960.3809009     
   2212027613.7867761     
   2083665411.3540120     
   1974872165.4190891     
   7467920553.2580738     
   6516004976.2050362     
   5743664718.2765741     
   5149546322.9316339     
   4731459009.0152769     
   5052082688.4246759     
   4631575706.0713444     
   4277903875.5415921     
   3990303306.8897696     
   3769380654.1400080     
   3549208032.1380839     
   3405311208.6946044     
   3272287621.6811347     
   3148668070.5760150     
   3033007659.3937297     
   3692776394.8723211     
   3225706055.2600808     
   2907648140.3508019     
   2709889284.0628343     
   2590905474.1269274     
   5507492244.6031771     
   4357208416.9727983     
   3488900973.5417137     
   2914227303.0106211     
   2611577213.2437830     
   4731459009.0152769     
   4364681403.0720816     
   4061004559.4445472     
   3819617864.4479222     
   3639858134.6594391     
   3769380654.1400080     
   3577748796.1918817     
   3411933363.2442536     
   3272217209.3889990     
   3159244399.2620177     
   3033007659.3937297     
   2960267242.4853678     
   2891190965.5964437     
   2825891617.8094273     
   2764485017.8100715     
   2590905474.1269274     
   2530005997.5999942     
   2492472413.0754137     
   2468416884.0420899     
   2448861352.8034143     
   2611577213.2437830     
   2387563693.8456106     
   2265325291.4638238     
   2220016286.2363877     
   2221628001.9374142     
   3639858134.6594391     
   3470106033.3464642     
   3324104579.1080503     
   3201926263.7572145     
   3103724231.8285022     
   3159244399.2620177     
   3057730085.1103392     
   2968916199.9178228     
   2893208808.4233212     
   2831092207.5272536     
   2764485017.8100715     
   2714104541.8240318     
   2669076458.7568669     
   2629779228.2489276     
   2596589095.5650520     
   2448861352.8034143     
   2426864099.9409671     
   2410158246.5785856     
   2397702470.3834419     
   2388486945.3198447     
   2221628001.9374142     
   2195080397.2233057     
   2185597017.4744921     
   2188218929.7116652     
   2198240845.3645720     
   3103724231.8285022     
   3000901970.5260639     
   2911991407.4246321     
   2837165743.8831296     
   2776626828.3814645     
   2831092207.5272536     
   2764793352.3926654     
   2709558990.3143616     
   2665786771.3127689     
   2633890037.1049333     
   2596589095.5650520     
   2556676089.6376348     
   2526158605.7897024     
   2505666798.4086003     
   2495807380.1700339     
   2388486945.3198447     
   2363924527.1682215     
   2348969562.9296293     
   2344360573.8071022     
   2350747603.0351558     
   2198240845.3645720     
   2176870500.3433681     
   2167876582.7374525     
   2171879930.1953182     
   2189306256.9279242     
   2776626828.3814645     
   2690402812.2188258     
   2632252766.5181341     
   2602696786.1876826     
   2602278072.6983476     
   2633890037.1049333     
   2563342257.0600452     
   2511778590.1753788     
   2480016495.2830992     
   2468820076.9872999     
   2495807380.1700339     
   2441062982.5654182     
   2397107192.7264128     
   2364574740.8101878     
   2344030017.9718437     
   2350747603.0351558     
   2315791093.7259159     
   2284154564.0286021     
   2255647021.4170833     
   2230091954.6432586     
   2189306256.9279242     
   2180935312.7777457     
   2169267590.9948115     
   2152602616.5764375     
   2129521299.3179293     
   2602278072.6983476     
   2588612357.8856611     
   2586122062.4216905     
   2594844089.1536384     
   2614856992.2370563     
   2468820076.9872999     
   2452704175.4410267     
   2447980394.5854855     
   2454733596.7862983     
   2473068787.2224140     
   2344030017.9718437     
   2323312687.7835169     
   2314356050.7532220     
   2317325544.6317444     
   2332378682.4525404     
   2230091954.6432586     
   2202435884.4822612     
   2187015861.8841081     
   2184125157.3291035     
   2194015573.2096882     
   2129521299.3179293     
   2092459351.1717217     
   2068137064.0493932     
   2057039903.4784181     
   2059577560.8736625     
   2614856992.2370563     
   2576475193.5268488     
   2544482399.5787926     
   2519461506.8654137     
   2502227931.0835161     
   2473068787.2224140     
   2441641550.3704648     
   2418915309.5489488     
   2405842012.2414494     
   2403804145.4197330     
   2332378682.4525404     
   2310286098.0978212     
   2299493594.4722581     
   2301421102.5549345     
   2318159435.0894880     
   2194015573.2096882     
   2183041252.3839169     
   2186424215.3472123     
   2206153703.4806914     
   2245143027.3170156     
   2059577560.8736625     
   2060682905.5533483     
   2079932281.6064739     
   2119971982.2719996     
   2184589902.0672426     
   2502227931.0835161     
   2353184960.3809009     
   2212027613.7867761     
   2083665411.3540120     
   1974872165.4190891     
   2403804145.4197330     
   2279447823.1761994     
   2165348844.6815219     
   2068170816.9775870     
   1996578154.1950188     
   2318159435.0894880     
   2221983362.8649316     
   2138932567.2690191     
   2077296393.1045072     
   2047149426.3549874     
   2245143027.3170156     
   2180587426.9061503     
   2132313142.8211272     
   2109916960.9203885     
   2124247954.0316851     
   2184589902.0672426     
   2154971979.8446937     
   2144850297.5679934     
   2164688174.5516734     
   2225484022.0724235     
   5507492244.6031771     
   4357208416.9727983     
   3488900973.5417137     
   2914227303.0106211     
   2611577213.2437830     
   2490780930.2843356     
   2010522094.6999111     
   1795804282.7972658     
   1843264426.4158866     
   2066028535.0554380     
   1774657087.9832501     
   1733420194.2893531     
   1852765421.4376323     
   2093599140.1919396     
   2412244528.5300307     
   4249901995.5367980     
   3755374215.6591744     
   3461370105.3097811     
   3356694099.2814360     
   3414633735.9748635     
   7347639305.4809351     
   6316323098.3980227     
   5557127382.7942886     
   5051092856.6103115     
   4771182982.4880600     
   2611577213.2437830     
   2387563693.8456106     
   2265325291.4638238     
   2220016286.2363877     
   2221628001.9374142     
   2066028535.0554380     
   2109474283.3769562     
   2183904844.8359861     
   2274714832.6694894     
   2370505945.6757936     
   2412244528.5300307     
   2484250187.2407069     
   2560187612.5692749     
   2639554718.1387720     
   2721907113.6124644     
   3414633735.9748635     
   3325801713.4689264     
   3268034837.6610746     
   3238246892.0965681     
   3233679300.3178191     
   4771182982.4880600     
   4459632817.2239494     
   4211339092.8055372     
   4020165503.2335038     
   3880061588.5430026     
   2221628001.9374142     
   2195080397.2233057     
   2185597017.4744921     
   2188218929.7116652     
   2198240845.3645720     
   2370505945.6757936     
   2362122865.3318491     
   2357854546.2287321     
   2356543214.3381381     
   2357097870.8363872     
   2721907113.6124644     
   2683918691.5498848     
   2648792903.5055251     
   2616673459.2875109     
   2587714113.9875889     
   3233679300.3178191     
   3135103690.2002196     
   3044930818.3982172     
   2962995029.1711030     
   2889247290.3449259     
   3880061588.5430026     
   3702217520.6266632     
   3540813866.9793744     
   3394873052.7432470     
   3263592148.8405714     
   2198240845.3645720     
   2176870500.3433681     
   2167876582.7374525     
   2171879930.1953182     
   2189306256.9279242     
   2357097870.8363872     
   2301029397.7709742     
   2252172189.0896149     
   2211561003.5693154     
   2180275727.2310061     
   2587714113.9875889     
   2490810087.4696598     
   2398405778.8718786     
   2311298178.9143481     
   2230462588.1708484     
   2889247290.3449259     
   2748288628.8822365     
   2611177124.9750142     
   2478187772.7550440     
   2349768129.5839620     
   3263592148.8405714     
   3077405641.4049764     
   2896135123.1861148     
   2719564555.7420092     
   2547569044.2476525     
   2189306256.9279242     
   2180935312.7777457     
   2169267590.9948115     
   2152602616.5764375     
   2129521299.3179293     
   2180275727.2310061     
   2141973320.2432926     
   2104671991.2150042     
   2067872091.5466118     
   2031122242.7972527     
   2230462588.1708484     
   2156549534.2792592     
   2088295816.6803770     
   2025974402.3305023     
   1969905013.4214997     
   2349768129.5839620     
   2235255260.0106950     
   2130548882.7902110     
   2036212719.3643136     
   1953084400.5279603     
   2547569044.2476525     
   2387158619.1967163     
   2239769475.0669413     
   2105699283.4974926     
   1985915229.6282151     
   2129521299.3179293     
   2092459351.1717217     
   2068137064.0493932     
   2057039903.4784181     
   2059577560.8736625     
   2031122242.7972527     
   1970618398.0733986     
   1921153272.9982507     
   1883552533.8097560     
   1858572303.4004734     
   1969905013.4214997     
   1884042808.2766721     
   1806401222.3770576     
   1738024137.0180476     
   1680012468.9549398     
   1953084400.5279603     
   1842787128.2428088     
   1736924693.3175969     
   1636392658.4399803     
   1542292101.3720152     
   1985915229.6282151     
   1855583362.3580072     
   1725817512.9066951     
   1597025509.4374919     
   1469825491.7314126     
   2059577560.8736625     
   2060682905.5533483     
   2079932281.6064739     
   2119971982.2719996     
   2184589902.0672426     
   1858572303.4004734     
   1851050277.1878996     
   1865765432.4706545     
   1904933884.9784899     
   1971572166.9300945     
   1680012468.9549398     
   1653002615.1690881     
   1653288137.7467532     
   1683251044.7866824     
   1745512109.5721252     
   1542292101.3720152     
   1481444183.4015613     
   1453109614.9669304     
   1461303563.0595586     
   1509401025.1856446     
   1469825491.7314126     
   1359302831.6536653     
   1283733406.7347562     
   1251355267.9052417     
   1269442673.2214134     
   2184589902.0672426     
   2154971979.8446937     
   2144850297.5679934     
   2164688174.5516734     
   2225484022.0724235     
   1971572166.9300945     
   1969005254.6729386     
   2002915729.8492746     
   2091951145.5501566     
   2254722038.7042818     
   1745512109.5721252     
   1789200158.7410953     
   1884994498.6130960     
   2059825481.4687715     
   2338899876.7556896     
   1509401025.1856446     
   1616295461.6394072     
   1790357092.5859284     
   2066423589.3028545     
   2474703678.0685334     
   1269442673.2214134     
   1451366491.2380905     
   1718442089.0823307     
   2111453172.0776861     
   2662871363.2655125     
   7347639305.4809351     
   6316323098.3980227     
   5557127382.7942886     
   5051092856.6103115     
   4771182982.4880600     
   6016181212.1093464     
   5638956542.0575809     
   5321087309.8259811     
   5050122505.0839348     
   4817133489.0557747     
   5688421220.7652693     
   5473963788.3162365     
   5337379640.1138563     
   5196875047.0184288     
   5003203922.3566170     
   5519108681.7586031     
   5168259810.7574024     
   5176847287.4623480     
   5256528074.1777792     
   5250618834.5936766     
   5139851389.4862537     
   4393806278.9959612     
   4618334415.4065418     
   5109152859.5724087     
   5514927707.6184616     
   4771182982.4880600     
   4459632817.2239494     
   4211339092.8055372     
   4020165503.2335038     
   3880061588.5430026     
   4817133489.0557747     
   4576293529.1573601     
   4365190500.8876123     
   4180632857.9926257     
   4019945326.6207409     
   5003203922.3566170     
   4798134192.8803349     
   4603403840.2814941     
   4418210960.4235315     
   4242037424.7548881     
   5250618834.5936766     
   5059113079.2068214     
   4873030427.1795444     
   4691858339.0182447     
   4515347423.2022228     
   5514927707.6184616     
   5321249635.2315168     
   5141912887.6219282     
   4974218647.4157610     
   4816109691.3082352     
   3880061588.5430026     
   3702217520.6266632     
   3540813866.9793744     
   3394873052.7432470     
   3263592148.8405714     
   4019945326.6207409     
   3850137984.8322887     
   3689938772.5715871     
   3538684463.6291790     
   3395929538.0915513     
   4242037424.7548881     
   4069376236.7525716     
   3900990700.9104986     
   3736507872.0212679     
   3575756512.6331730     
   4515347423.2022228     
   4332898607.9779024     
   4150881141.1732697     
   3969108009.3567657     
   3787555952.8679347     
   4816109691.3082352     
   4620268818.8934860     
   4422281467.6961565     
   4222042258.2159986     
   4019574474.4809828     
   3263592148.8405714     
   3077405641.4049764     
   2896135123.1861148     
   2719564555.7420092     
   2547569044.2476525     
   3395929538.0915513     
   3212877546.8030005     
   3033387445.3522277     
   2857271561.4560881     
   2684412940.6337638     
   3575756512.6331730     
   3390625358.8245168     
   3207919627.4878149     
   3027507151.1260619     
   2849324491.3832636     
   3787555952.8679347     
   3594956003.8731899     
   3403929441.2192826     
   3214417023.2476082     
   3026442603.5954113     
   4019574474.4809828     
   3814300533.3540163     
   3610054099.8913412     
   3406859417.8330784     
   3204853516.8224959     
   2547569044.2476525     
   2387158619.1967163     
   2239769475.0669413     
   2105699283.4974926     
   1985915229.6282151     
   2684412940.6337638     
   2512130898.4292417     
   2346293726.5108800     
   2187268055.4534159     
   2035850579.9438338     
   2849324491.3832636     
   2667574134.7748504     
   2487815884.7896109     
   2310247250.6895995     
   2135230484.9189935     
   3026442603.5954113     
   2840659624.3661628     
   2654322578.3734627     
   2467456543.7966466     
   2280111738.3929219     
   3204853516.8224959     
   3022061489.0061045     
   2837813437.3001695     
   2652072549.7109742     
   2464877435.2170391     
   1985915229.6282151     
   1855583362.3580072     
   1725817512.9066951     
   1597025509.4374919     
   1469825491.7314126     
   2035850579.9438338     
   1896103092.0598760     
   1757550537.3944879     
   1620387282.7770965     
   1484887322.7301140     
   2135230484.9189935     
   1988202477.6191547     
   1843251448.0529156     
   1700415488.2004778     
   1559808504.7064481     
   2280111738.3929219     
   2125832151.4937530     
   1974456784.5461931     
   1825901024.8963773     
   1680261911.2214170     
   2464877435.2170391     
   2301469547.9458733     
   2141535787.2437232     
   1984897780.7678523     
   1831749261.6957352     
   1469825491.7314126     
   1359302831.6536653     
   1283733406.7347562     
   1251355267.9052417     
   1269442673.2214134     
   1484887322.7301140     
   1339059109.6243081     
   1207522819.8784089     
   1094917910.3424125     
   1007360411.6962901     
   1559808504.7064481     
   1408052503.2069070     
   1252420534.9105740     
   1090760350.8193645     
   921137864.80346894     
   1680261911.2214170     
   1562851192.2987750     
   1435883776.6614225     
   1299833297.3951070     
   1161003030.7410989     
   1831749261.6957352     
   1789287802.5189881     
   1742841667.6583507     
   1701295377.0783162     
   1683624515.9583771     
   1269442673.2214134     
   1451366491.2380905     
   1718442089.0823307     
   2111453172.0776861     
   2662871363.2655125     
   1007360411.6962901     
   1168526726.8131649     
   1427481392.3052864     
   1809248439.3433218     
   2334142757.3581109     
   921137864.80346894     
   965728532.78549337     
   1146255798.0336237     
   1476705237.8713670     
   1957229643.0493805     
   1161003030.7410989     
   1009905539.7076975     
   985906494.08035636     
   1161641718.3074491     
   1544660010.5265243     
   1683624515.9583771     
   1385005183.5968051     
   1129851770.8402808     
   1010243037.0065207     
   1154467264.9493454     
 </DataArray>
 <DataArray  type="Float64" Name="strain" NumberOfComponents="3" format="ascii">
   6.5937783946103057E-002   4.7376722463021270E-002  -3.7807496053890555E-002
   7.2127236241992576E-002   1.1369172289670715E-002  -1.9423315782836070E-002
   7.8316688537882095E-002  -1.3594098192027337E-002  -9.3192503171088958E-003
   8.4506140833771504E-002  -2.7513088982073372E-002  -7.4952996567088925E-003
   9.0695593129661023E-002  -3.0387800080467153E-002  -1.3951463801636144E-002
   8.8316578412857338E-002   2.6820949117626447E-002  -6.6108530867070581E-003
   8.7976479587692114E-002   1.7622375930256839E-003   5.2821702952944860E-003
   8.7636380762527000E-002  -1.5535615278148340E-002   1.2396206240513796E-002
   8.7296281937361830E-002  -2.5072609495895945E-002   1.4731254748951317E-002
   8.6956183112196661E-002  -2.6848745060216839E-002   1.2287315820606992E-002
   9.3051083133745882E-002   6.2651757722315127E-003   3.7176339048339335E-002
   8.9682560556071739E-002  -7.8446971036195690E-003   3.9294784503061619E-002
   8.6314037978397484E-002  -1.7477132364269538E-002   4.0135369889547606E-002
   8.2945515400723313E-002  -2.2632130009718636E-002   3.9698095207797379E-002
   7.9576992823049114E-002  -2.3309690039966524E-002   3.7982960457810605E-002
   8.0141298108768938E-002  -1.4290597573163394E-002   9.3554080351248028E-002
   7.7245479147131257E-002  -1.7451631800264794E-002   8.2614526840465566E-002
   7.4349660185493563E-002  -1.9418649450390693E-002   7.3898240629992784E-002
   7.1453841223855813E-002  -2.0191650523541157E-002   6.7405221719828962E-002
   6.8558022262218132E-002  -1.9770635019716098E-002   6.3135470109974584E-002
   4.9587223337926367E-002  -3.4846370918558300E-002  0.16252237082201926     
   5.0665235360870753E-002  -2.7058566496910019E-002  0.13524139730750662     
   5.1743247383815139E-002  -2.1360166536511876E-002  0.11368481846184925     
   5.2821259406759524E-002  -1.7751171037363796E-002   9.7852634285046397E-002
   5.3899271429703910E-002  -1.6231579999465728E-002   8.7744844777098707E-002
   9.0695593129661023E-002  -3.0387800080467153E-002  -1.3951463801636144E-002
   8.8089783677133382E-002  -2.8005330644070570E-002  -9.7477652722127717E-003
   8.5483974224605630E-002  -2.6152779829744038E-002  -6.2639165312897149E-003
   8.2878164772077934E-002  -2.4830147637487913E-002  -3.4999175788672510E-003
   8.0272355319550237E-002  -2.4037434067302299E-002  -1.4557684149447692E-003
   8.6956183112196661E-002  -2.6848745060216839E-002   1.2287315820606992E-002
   8.3945658960081798E-002  -2.4941412212156344E-002   1.2704448941893542E-002
   8.0935134807966796E-002  -2.3428001192759423E-002   1.3032002452505576E-002
   7.7924610655851878E-002  -2.2308512002025986E-002   1.3269976352443799E-002
   7.4914086503736932E-002  -2.1582944639956581E-002   1.3418370641707811E-002
   7.9576992823049114E-002  -2.3309690039966524E-002   3.7982960457810605E-002
   7.6792024149173160E-002  -2.1877493780242369E-002   3.4749524964366757E-002
   7.4007055475297318E-002  -2.0703222555774933E-002   3.2056780038074953E-002
   7.1222086801421461E-002  -1.9786876366564395E-002   2.9904725678935186E-002
   6.8437118127545521E-002  -1.9128455212610584E-002   2.8293361886947949E-002
   6.8558022262218132E-002  -1.9770635019716098E-002   6.3135470109974584E-002
   6.6628879244407690E-002  -1.8813575348328379E-002   5.6387462795206962E-002
   6.4699736226597179E-002  -1.7978443918790325E-002   5.0810416225418015E-002
   6.2770593208786696E-002  -1.7265240731102638E-002   4.6404330400607548E-002
   6.0841450190976233E-002  -1.6673965785264672E-002   4.3169205320775485E-002
   5.3899271429703910E-002  -1.6231579999465728E-002   8.7744844777098707E-002
   5.3456224245785139E-002  -1.5749656916414195E-002   7.7618262434414498E-002
   5.3013177061866368E-002  -1.5253665281805870E-002   6.9292911014535052E-002
   5.2570129877947569E-002  -1.4743605095640832E-002   6.2768790517460413E-002
   5.2127082694028826E-002  -1.4219476357918814E-002   5.8045900943190787E-002
   8.0272355319550237E-002  -2.4037434067302299E-002  -1.4557684149447692E-003
   7.6916495429474097E-002  -2.3432047572217285E-002  -1.7426764646614190E-003
   7.3560635539397790E-002  -2.2671396605262489E-002  -1.7525144666080128E-003
   7.0204775649321510E-002  -2.1755481166438155E-002  -1.4852824207843285E-003
   6.6848915759245342E-002  -2.0684301255743387E-002  -9.4098032719047708E-004
   7.4914086503736932E-002  -2.1582944639956581E-002   1.3418370641707811E-002
   7.1878902394350908E-002  -2.1000271585571773E-002   1.2188067607115161E-002
   6.8843718284964939E-002  -2.0309465317893044E-002   1.1322046086132798E-002
   6.5808534175578942E-002  -1.9510525836920596E-002   1.0820306078760694E-002
   6.2773350066192946E-002  -1.8603453142653992E-002   1.0682847584998933E-002
   6.8437118127545521E-002  -1.9128455212610584E-002   2.8293361886947949E-002
   6.5809821264689983E-002  -1.8568495598926205E-002   2.6072532608903159E-002
   6.3182524401834486E-002  -1.7947534030523724E-002   2.4303196310309055E-002
   6.0555227538978941E-002  -1.7265570507403263E-002   2.2985352991165796E-002
   5.7927930676123396E-002  -1.6522605029564486E-002   2.2119002651472375E-002
   6.0841450190976233E-002  -1.6673965785264672E-002   4.3169205320775485E-002
   5.8709252040491322E-002  -1.6136719612280775E-002   3.9910718540703154E-002
   5.6577053890006376E-002  -1.5585602743154341E-002   3.7190936205921579E-002
   5.4444855739521493E-002  -1.5020615177885928E-002   3.5009858316430602E-002
   5.2312657589036568E-002  -1.4441756916474924E-002   3.3367484872230679E-002
   5.2127082694028826E-002  -1.4219476357918814E-002   5.8045900943190787E-002
   5.0577194721754759E-002  -1.3704943625635180E-002   5.3702625402514914E-002
   4.9027306749480720E-002  -1.3223671455784958E-002   4.9985265772969745E-002
   4.7477418777206667E-002  -1.2775659848368537E-002   4.6893822054555695E-002
   4.5927530804932615E-002  -1.2360908803385529E-002   4.4428294247272737E-002
   6.6848915759245342E-002  -2.0684301255743387E-002  -9.4098032719047708E-004
   6.3446244639227101E-002  -1.9576729825190098E-002  -1.0734868321613522E-003
   6.0043573519208859E-002  -1.8551639826788424E-002  -9.6649183725205923E-004
   5.6640902399190618E-002  -1.7609031260537922E-002  -6.1999534246254262E-004
   5.3238231279172377E-002  -1.6748904126439479E-002  -3.3997347792080745E-005
   6.2773350066192946E-002  -1.8603453142653992E-002   1.0682847584998933E-002
   5.9613503969582871E-002  -1.7660109340787988E-002   9.7247746914151945E-003
   5.6453657872972934E-002  -1.6752356537016899E-002   9.0128503447682307E-003
   5.3293811776362873E-002  -1.5880194731340724E-002   8.5470745450568208E-003
   5.0133965679752812E-002  -1.5043623923759464E-002   8.3274472922821863E-003
   5.7927930676123396E-002  -1.6522605029564486E-002   2.2119002651472375E-002
   5.5017556649977400E-002  -1.5743488856385990E-002   2.0382253803333222E-002
   5.2107182623831377E-002  -1.4953073247245596E-002   1.8898300549186176E-002
   4.9196808597685382E-002  -1.4151358202143305E-002   1.7667142889030429E-002
   4.6286434571539303E-002  -1.3338343721079338E-002   1.6688780822867122E-002
   5.2312657589036568E-002  -1.4441756916474924E-002   3.3367484872230679E-002
   4.9658402680410399E-002  -1.3826868371983936E-002   3.0898950503592246E-002
   4.7004147771784216E-002  -1.3153789957474182E-002   2.8689858776001387E-002
   4.4349892863158040E-002  -1.2422521672945996E-002   2.6740209689458595E-002
   4.1695637954531864E-002  -1.1633063518399045E-002   2.5050003243963490E-002
   4.5927530804932615E-002  -1.2360908803385529E-002   4.4428294247272737E-002
   4.3536042060882046E-002  -1.1910247887581882E-002   4.1274864792191890E-002
   4.1144553316831478E-002  -1.1354506667702810E-002   3.8387525025214725E-002
   3.8753064572780910E-002  -1.0693685143748393E-002   3.5766274946341173E-002
   3.6361575828730341E-002  -9.9277833157186413E-003   3.3411114555570998E-002
   5.3238231279172377E-002  -1.6748904126439479E-002  -3.3997347792080745E-005
   5.0180253700566113E-002  -1.5877613919377587E-002   2.7875883594119522E-004
   4.7122276121959794E-002  -1.4901516134236792E-002   4.4234374551244127E-004
   4.4064298543353531E-002  -1.3820610771017053E-002   4.5675738092137985E-004
   4.1006320964747212E-002  -1.2634897829718161E-002   3.2199974216773342E-004
   5.0133965679752812E-002  -1.5043623923759464E-002   8.3274472922821863E-003
   4.7018150031783834E-002  -1.4196098432229576E-002   8.0694251440569520E-003
   4.3902334383814745E-002  -1.3291072574706908E-002   7.8448981312682076E-003
   4.0786518735845712E-002  -1.2328546351192807E-002   7.6538662539167579E-003
   3.7670703087876678E-002  -1.1308519761685565E-002   7.4963295120018536E-003
   4.6286434571539303E-002  -1.3338343721079338E-002   1.6688780822867122E-002
   4.3295447263806824E-002  -1.2514582945081176E-002   1.5812673130596366E-002
   4.0304459956074262E-002  -1.1680629015177663E-002   1.5152726983362119E-002
   3.7313472648341742E-002  -1.0836481931368332E-002   1.4708942381163534E-002
   3.4322485340609221E-002  -9.9821416936530794E-003   1.4481319324001540E-002
   4.1695637954531864E-002  -1.1633063518399045E-002   2.5050003243963490E-002
   3.9012145396635042E-002  -1.0833067457933082E-002   2.3508502795561090E-002
   3.6328652838738283E-002  -1.0070185455648098E-002   2.2365830301793628E-002
   3.3645160280841552E-002  -9.3444175115437490E-003   2.1621985762661968E-002
   3.0961667722944702E-002  -8.6557636256205384E-003   2.1276969178165739E-002
   3.6361575828730341E-002  -9.9277833157186413E-003   3.3411114555570998E-002
   3.4168244430268613E-002  -9.1515519707846549E-003   3.1156914138950054E-002
   3.1974913031806829E-002  -8.4597418961188109E-003   2.9484208086563823E-002
   2.9781581633345044E-002  -7.8523530917194023E-003   2.8392996398412196E-002
   2.7588250234883316E-002  -7.3293855575877753E-003   2.7883279074495282E-002
   4.1006320964747212E-002  -1.2634897829718161E-002   3.2199974216773342E-004
   3.8354172017352584E-002  -1.1522156486208024E-002  -1.6378288566110122E-004
   3.5702023069957900E-002  -1.0660165916353215E-002  -4.5616608106291423E-004
   3.3049874122563272E-002  -1.0048926120155288E-002  -5.5514984403626233E-004
   3.0397725175168588E-002  -9.6884370976122458E-003  -4.6073417458170063E-004
   3.7670703087876678E-002  -1.1308519761685565E-002   7.4963295120018536E-003
   3.5189210554358474E-002  -1.0341423651432979E-002   6.7681479461458860E-003
   3.2707718020840326E-002  -9.5376888656819592E-003   6.1878797756146353E-003
   3.0226225487322178E-002  -8.8973154044321157E-003   5.7555250004087677E-003
   2.7744732953803974E-002  -8.4203032676828382E-003   5.4710836205271729E-003
   3.4322485340609221E-002  -9.9821416936530794E-003   1.4481319324001540E-002
   3.1966163183864693E-002  -9.1606908166580459E-003   1.3598128269273091E-002
   2.9609841027120110E-002  -8.4152118150100375E-003   1.2817364572766721E-002
   2.7253518870375512E-002  -7.7457046887082770E-003   1.2139028234482457E-002
   2.4897196713630970E-002  -7.1521694377535416E-003   1.1563119254420551E-002
   3.0961667722944702E-002  -8.6557636256205384E-003   2.1276969178165739E-002
   2.8685029905870976E-002  -7.9799579818833899E-003   2.0326158083719570E-002
   2.6408392088797181E-002  -7.2927347643378937E-003   1.9432288310392454E-002
   2.4131754271723344E-002  -6.5940939729852155E-003   1.8595359858185008E-002
   2.1855116454649541E-002  -5.8840356078241896E-003   1.7815372727096754E-002
   2.7588250234883316E-002  -7.3293855575877753E-003   2.7883279074495282E-002
   2.5345810720377393E-002  -6.7992251471082898E-003   2.6952237389485711E-002
   2.3103371205871470E-002  -6.1702577136661108E-003   2.6032650988492889E-002
   2.0860931691365533E-002  -5.4424832572618556E-003   2.5124519871516177E-002
   1.8618492176859625E-002  -4.6159017778947264E-003   2.4227844038556379E-002
   3.0397725175168588E-002  -9.6884370976122458E-003  -4.6073417458170063E-004
   2.9750331544651898E-002  -9.2397249513789248E-003  -2.5402108645589117E-004
   2.9102937914135263E-002  -8.3638157841069982E-003  -1.7346380299720909E-003
   2.8455544283618545E-002  -7.0607095957965077E-003  -4.9025850051306885E-003
   2.7808150653101937E-002  -5.3304063864487716E-003  -9.7578620119316284E-003
   2.7744732953803974E-002  -8.4203032676828382E-003   5.4710836205271729E-003
   2.5684143793913483E-002  -7.9114376442591672E-003   6.0845198515584453E-003
   2.3623554634022936E-002  -7.1755037229837559E-003   5.5588950554839589E-003
   2.1562965474132445E-002  -6.2125015038567294E-003   3.8942092323044908E-003
   1.9502376314241898E-002  -5.0224309868780459E-003   1.0904623820191528E-003
   2.4897196713630970E-002  -7.1521694377535416E-003   1.1563119254420551E-002
   2.1971681028903511E-002  -6.5831503371396316E-003   1.2383149905169810E-002
   1.9046165344176039E-002  -5.9871916618603194E-003   1.2612388533350311E-002
   1.6120649659448573E-002  -5.3642934119158478E-003   1.2250835138963051E-002
   1.3195133974721079E-002  -4.7144555873068761E-003   1.1298489722006866E-002
   2.1855116454649541E-002  -5.8840356078241896E-003   1.7815372727096754E-002
   1.8612943249622080E-002  -5.2548630300197630E-003   1.8641869074377967E-002
   1.5370770044594671E-002  -4.7988796007367579E-003   1.9425842403627637E-002
   1.2128596839567228E-002  -4.5160853199750738E-003   2.0167292714845766E-002
   8.8864236345397932E-003  -4.4064801877354842E-003   2.0866220008032565E-002
   1.8618492176859625E-002  -4.6159017778947264E-003   2.4227844038556379E-002
   1.5607930456069230E-002  -3.9265757229003384E-003   2.4860677359183070E-002
   1.2597368735278697E-002  -3.6105675396137238E-003   2.5999256666315029E-002
   9.5868070144882467E-003  -3.6678772280350422E-003   2.7643581959952285E-002
   6.5762452936977689E-003  -4.0985047881645364E-003   2.9793653240095086E-002
   2.7808150653101937E-002  -5.3304063864487716E-003  -9.7578620119316284E-003
   2.3372030920531639E-002  -4.2120478060170274E-003  -4.2128988930461020E-003
   1.8935911187961285E-002  -4.7447755044568440E-003   2.5946367892037969E-003
   1.4499791455390904E-002  -6.9285894817688043E-003   1.0664745034818734E-002
   1.0063671722820633E-002  -1.0763489737951382E-002   1.9997425843797600E-002
   1.9502376314241898E-002  -5.0224309868780459E-003   1.0904623820191528E-003
   1.6257395067437952E-002  -4.6832944433612411E-003   6.7725121608221972E-003
   1.3012413820634172E-002  -6.2730941446212940E-003   1.3574266347793240E-002
   9.7674325738303092E-003  -9.7918300906572331E-003   2.1495724942932948E-002
   6.5224513270263351E-003  -1.5239502281469086E-002   3.0536887946240210E-002
   1.3195133974721079E-002  -4.7144555873068761E-003   1.1298489722006866E-002
   1.0998423058487528E-002  -5.1545410807053438E-003   1.6839776194822742E-002
   8.8017121422538508E-003  -7.8014127847852444E-003   2.3357898920610409E-002
   6.6050012260201671E-003  -1.2655070699545537E-002   3.0852857899369895E-002
   4.4082903097865112E-003  -1.9715514824987235E-002   3.9324653131102005E-002
   8.8864236345397932E-003  -4.4064801877354842E-003   2.0866220008032565E-002
   7.5951148936801161E-003  -5.6257877180490579E-003   2.5988893208955921E-002
   6.3038061528204355E-003  -9.3297314249485563E-003   3.1945534507655096E-002
   5.0124974119608642E-003  -1.5518311308434125E-002   3.8736143904129848E-002
   3.7211886711011888E-003  -2.4191527368505383E-002   4.6360721398381599E-002
   6.5762452936977689E-003  -4.0985047881645364E-003   2.9793653240095086E-002
   6.0474705730159672E-003  -6.0970343553933271E-003   3.4219863203221901E-002
   5.5186958523340823E-003  -1.0858050065112645E-002   3.9337173108927592E-002
   4.9899211316522252E-003  -1.8381551917322242E-002   4.5145582957212937E-002
   4.4611464109703958E-003  -2.8667539912023088E-002   5.1645092748078714E-002
   4.9587223337926367E-002  -3.4846370918558300E-002  0.16252237082201926     
   5.0665235360870753E-002  -2.7058566496910019E-002  0.13524139730750662     
   5.1743247383815139E-002  -2.1360166536511876E-002  0.11368481846184925     
   5.2821259406759524E-002  -1.7751171037363796E-002   9.7852634285046397E-002
   5.3899271429703910E-002  -1.6231579999465728E-002   8.7744844777098707E-002
   1.8812435590200460E-002  -3.0550288809276183E-002   9.3328399263556461E-002
   2.4235965281058564E-002  -2.4852080771278234E-002   8.0107787648500350E-002
   2.9659494971916667E-002  -2.0591718055433333E-002   6.9853816700416765E-002
   3.5083024662774742E-002  -1.7769200661741487E-002   6.2566486419305692E-002
   4.0506554353632818E-002  -1.6384528590202618E-002   5.8245796805167172E-002
   5.2405116345735636E-003  -2.6254206699994037E-002   2.1719051751895341E-002
   1.2251804991463000E-002  -2.2645595045646380E-002   2.3210361175392519E-002
   1.9263098348352464E-002  -1.9823269574354777E-002   2.4910557263979741E-002
   2.6274391705241963E-002  -1.7787230286119175E-002   2.6819640017657416E-002
   3.3285685062131407E-002  -1.6537477180939592E-002   2.8937609436425135E-002
   8.8714514710455800E-003  -2.1958124590711892E-002  -5.2305671712964831E-002
   1.4712754492084104E-002  -2.0439109320014519E-002  -3.5450882111817343E-002
   2.0554057513122628E-002  -1.9054821093276199E-002  -2.1144959847462060E-002
   2.6395360534161104E-002  -1.7805259910496946E-002  -9.3879049198988991E-003
   3.2236663555199628E-002  -1.6690425771676495E-002  -1.7971732912774527E-004
   2.9705255099616579E-002  -1.7662042481429774E-002 -0.12874577113102359     
   3.1618813782921862E-002  -1.8232623594382713E-002  -9.5875942213128895E-002
   3.3532372466227089E-002  -1.8286372612197691E-002  -6.8312734633908606E-002
   3.5445931149532275E-002  -1.7823289534874599E-002  -4.6056148393362709E-002
   3.7359489832837545E-002  -1.6843374362413455E-002  -2.9106183491491300E-002
   5.3899271429703910E-002  -1.6231579999465728E-002   8.7744844777098707E-002
   5.3456224245785139E-002  -1.5749656916414195E-002   7.7618262434414498E-002
   5.3013177061866368E-002  -1.5253665281805870E-002   6.9292911014535052E-002
   5.2570129877947569E-002  -1.4743605095640832E-002   6.2768790517460413E-002
   5.2127082694028826E-002  -1.4219476357918814E-002   5.8045900943190787E-002
   4.0506554353632818E-002  -1.6384528590202618E-002   5.8245796805167172E-002
   4.1418187482177696E-002  -1.5729946428435782E-002   5.3840378663794319E-002
   4.2329820610722532E-002  -1.5097698764059947E-002   5.0343090224543627E-002
   4.3241453739267403E-002  -1.4487785597074858E-002   4.7753931487415517E-002
   4.4153086867812247E-002  -1.3900206927480951E-002   4.6072902452409692E-002
   3.3285685062131407E-002  -1.6537477180939592E-002   2.8937609436425135E-002
   3.4658897282457350E-002  -1.5710235940457354E-002   3.0216952447415749E-002
   3.6032109502783349E-002  -1.4941732246313864E-002   3.1511323939846257E-002
   3.7405321723109300E-002  -1.4231966098509108E-002   3.2820723913716598E-002
   3.8778533943435292E-002  -1.3580937497043005E-002   3.4145152369026793E-002
   3.2236663555199628E-002  -1.6690425771676495E-002  -1.7971732912774527E-004
   3.3178353646624206E-002  -1.5690525452478850E-002   6.7479837852787161E-003
   3.4120043738048736E-002  -1.4785765728567806E-002   1.2797612160442494E-002
   3.5061733829473321E-002  -1.3976146599943246E-002   1.7969167796363528E-002
   3.6003423920897837E-002  -1.3261668066605045E-002   2.2262650693041952E-002
   3.7359489832837545E-002  -1.6843374362413455E-002  -2.9106183491491300E-002
   3.6976556574678188E-002  -1.5670814964500485E-002  -1.6566527322616903E-002
   3.6593623316518803E-002  -1.4629799210821720E-002  -5.7980451136676603E-003
   3.6210690058359404E-002  -1.3720327101377404E-002   3.1992631353562895E-003
   3.5827756800200061E-002  -1.2942398636167196E-002   1.0425397424455307E-002
   5.2127082694028826E-002  -1.4219476357918814E-002   5.8045900943190787E-002
   5.0577194721754759E-002  -1.3704943625635180E-002   5.3702625402514914E-002
   4.9027306749480720E-002  -1.3223671455784958E-002   4.9985265772969745E-002
   4.7477418777206667E-002  -1.2775659848368537E-002   4.6893822054555695E-002
   4.5927530804932615E-002  -1.2360908803385529E-002   4.4428294247272737E-002
   4.4153086867812247E-002  -1.3900206927480951E-002   4.6072902452409692E-002
   4.3091366572893919E-002  -1.3338578850467131E-002   4.4159907954696542E-002
   4.2029646277975577E-002  -1.2806517461223021E-002   4.2597332900563639E-002
   4.0967925983057228E-002  -1.2304022759748776E-002   4.1385177290011357E-002
   3.9906205688138907E-002  -1.1831094746043880E-002   4.0523441123039516E-002
   3.8778533943435292E-002  -1.3580937497043005E-002   3.4145152369026793E-002
   3.7929484858322135E-002  -1.2972214075299221E-002   3.4666132788940027E-002
   3.7080435773209082E-002  -1.2389363466661085E-002   3.5262036184883577E-002
   3.6231386688095987E-002  -1.1832385671128848E-002   3.5932862556856904E-002
   3.5382337602982927E-002  -1.1301280688702259E-002   3.6678611904860339E-002
   3.6003423920897837E-002  -1.3261668066605045E-002   2.2262650693041952E-002
   3.5091549578039533E-002  -1.2605849300131297E-002   2.5221299905245916E-002
   3.4179675235181201E-002  -1.1972209472099204E-002   2.7979375625929379E-002
   3.3267800892322841E-002  -1.1360748582508948E-002   3.0536877855092327E-002
   3.2355926549464495E-002  -1.0771466631360624E-002   3.2893806592734873E-002
   3.5827756800200061E-002  -1.2942398636167196E-002   1.0425397424455307E-002
   3.4577560732046014E-002  -1.2239484524963318E-002   1.5825409303613591E-002
   3.3327364663891940E-002  -1.1555055477537157E-002   2.0749351223701029E-002
   3.2077168595737907E-002  -1.0889111493889200E-002   2.5197223184717621E-002
   3.0826972527583874E-002  -1.0241652574018878E-002   2.9169025186663200E-002
   4.5927530804932615E-002  -1.2360908803385529E-002   4.4428294247272737E-002
   4.3536042060882046E-002  -1.1910247887581882E-002   4.1274864792191890E-002
   4.1144553316831478E-002  -1.1354506667702810E-002   3.8387525025214725E-002
   3.8753064572780910E-002  -1.0693685143748393E-002   3.5766274946341173E-002
   3.6361575828730341E-002  -9.9277833157186413E-003   3.3411114555570998E-002
   3.9906205688138907E-002  -1.1831094746043880E-002   4.0523441123039516E-002
   3.7751539672002205E-002  -1.1323324627410397E-002   3.8940367340258325E-002
   3.5596873655865460E-002  -1.0716303611149725E-002   3.7564849325201072E-002
   3.3442207639728744E-002  -1.0010031697261806E-002   3.6396887077867937E-002
   3.1287541623592013E-002  -9.2045088857465873E-003   3.5436480598259212E-002
   3.5382337602982927E-002  -1.1301280688702259E-002   3.6678611904860339E-002
   3.3405960394380672E-002  -1.0736401367239079E-002   3.6660064387930180E-002
   3.1429583185778473E-002  -1.0078100554596701E-002   3.6790538718344722E-002
   2.9453205977176232E-002  -9.3263782507751660E-003   3.7070034896104206E-002
   2.7476828768574033E-002  -8.4812344557744779E-003   3.7498552921208517E-002
   3.2355926549464495E-002  -1.0771466631360624E-002   3.2893806592734873E-002
   3.0499304228017519E-002  -1.0149478107067678E-002   3.4433955935207872E-002
   2.8642681906570513E-002  -9.4398974980435917E-003   3.6064593204646278E-002
   2.6786059585123520E-002  -8.6427248042886644E-003   3.7785718401050147E-002
   2.4929437263676531E-002  -7.7579600258023407E-003   3.9597331524419507E-002
   3.0826972527583874E-002  -1.0241652574018878E-002   2.9169025186663200E-002
   2.9031571172912746E-002  -9.5625548468962207E-003   3.2262041982091039E-002
   2.7236169818241590E-002  -8.8016944414906484E-003   3.5387012784105332E-002
   2.5440768463570448E-002  -7.9590713578018973E-003   3.8543937592705663E-002
   2.3645367108899307E-002  -7.0346855958302035E-003   4.1732816407892170E-002
   3.6361575828730341E-002  -9.9277833157186413E-003   3.3411114555570998E-002
   3.4168244430268613E-002  -9.1515519707846549E-003   3.1156914138950054E-002
   3.1974913031806829E-002  -8.4597418961188109E-003   2.9484208086563823E-002
   2.9781581633345044E-002  -7.8523530917194023E-003   2.8392996398412196E-002
   2.7588250234883316E-002  -7.3293855575877753E-003   2.7883279074495282E-002
   3.1287541623592013E-002  -9.2045088857465873E-003   3.5436480598259212E-002
   2.9555547192018611E-002  -8.3921771876492857E-003   3.4240416937047380E-002
   2.7823552760445153E-002  -7.6654786140144954E-003   3.3385532845377403E-002
   2.6091558328871667E-002  -7.0244131648424905E-003   3.2871828323249364E-002
   2.4359563897298236E-002  -6.4689808401332538E-003   3.2699303370663568E-002
   2.7476828768574033E-002  -8.4812344557744779E-003   3.7498552921208517E-002
   2.5965856509196278E-002  -7.6328024045133058E-003   3.7359414161210400E-002
   2.4454884249818454E-002  -6.8712153319102909E-003   3.7321140176061571E-002
   2.2943911990440657E-002  -6.1964732379654677E-003   3.7383730965761947E-002
   2.1432939731062875E-002  -5.6085761226787323E-003   3.7547186530311805E-002
   2.4929437263676531E-002  -7.7579600258023407E-003   3.9597331524419507E-002
   2.3399172381801690E-002  -6.8734276213772982E-003   4.0513905811439724E-002
   2.1868907499926902E-002  -6.0769520498060864E-003   4.1291030078616286E-002
   2.0338642618052065E-002  -5.3685333110881674E-003   4.1928704325949487E-002
   1.8808377736177263E-002  -4.7481714052240998E-003   4.2426928553439498E-002
   2.3645367108899307E-002  -7.0346855958302035E-003   4.1732816407892170E-002
   2.1855494809834813E-002  -6.1140528382419013E-003   4.3703891887734880E-002
   2.0065622510770348E-002  -5.2826887677016876E-003   4.5295202553041702E-002
   1.8275750211705841E-002  -4.5405933842116233E-003   4.6506748403812248E-002
   1.6485877912641334E-002  -3.8877666877696893E-003   4.7338529440047350E-002
   2.7588250234883316E-002  -7.3293855575877753E-003   2.7883279074495282E-002
   2.5345810720377393E-002  -6.7992251471082898E-003   2.6952237389485711E-002
   2.3103371205871470E-002  -6.1702577136661108E-003   2.6032650988492889E-002
   2.0860931691365533E-002  -5.4424832572618556E-003   2.5124519871516177E-002
   1.8618492176859625E-002  -4.6159017778947264E-003   2.4227844038556379E-002
   2.4359563897298236E-002  -6.4689808401332538E-003   3.2699303370663568E-002
   2.2150612523518992E-002  -5.9351597544189394E-003   3.2162965548431899E-002
   1.9941661149739762E-002  -5.3589280222312574E-003   3.1682148723637116E-002
   1.7732709775960538E-002  -4.7402856435710961E-003   3.1256852896279358E-002
   1.5523758402181287E-002  -4.0792326184374561E-003   3.0887078066358264E-002
   2.1432939731062875E-002  -5.6085761226787323E-003   3.7547186530311805E-002
   1.9301542211430836E-002  -5.0710943617293669E-003   3.7349156194368238E-002
   1.7170144691798735E-002  -4.5475983307963902E-003   3.7250712569282127E-002
   1.5038747172166685E-002  -4.0380880298801110E-003   3.7251855655053241E-002
   1.2907349652534594E-002  -3.5425634589803523E-003   3.7352585451681769E-002
   1.8808377736177263E-002  -4.7481714052240998E-003   4.2426928553439498E-002
   1.6798599784112783E-002  -4.2070289690399054E-003   4.2510809327294591E-002
   1.4788821832048294E-002  -3.7362686393615299E-003   4.2738342525427617E-002
   1.2779043879983836E-002  -3.3358904161894607E-003   4.3109528147838243E-002
   1.0769265927919325E-002  -3.0058942995232207E-003   4.3624366194526872E-002
   1.6485877912641334E-002  -3.8877666877696893E-003   4.7338529440047350E-002
   1.4641785241564925E-002  -3.3429635763503329E-003   4.7647924947211262E-002
   1.2797692570488545E-002  -2.9249389479266141E-003   4.8145038592073974E-002
   1.0953599899412164E-002  -2.6336928024985745E-003   4.8829870374634682E-002
   9.1095072283357559E-003  -2.4692251400659782E-003   4.9702420294893690E-002
   1.8618492176859625E-002  -4.6159017778947264E-003   2.4227844038556379E-002
   1.5607930456069230E-002  -3.9265757229003384E-003   2.4860677359183070E-002
   1.2597368735278697E-002  -3.6105675396137238E-003   2.5999256666315029E-002
   9.5868070144882467E-003  -3.6678772280350422E-003   2.7643581959952285E-002
   6.5762452936977689E-003  -4.0985047881645364E-003   2.9793653240095086E-002
   1.5523758402181287E-002  -4.0792326184374561E-003   3.0887078066358264E-002
   1.2993674193466503E-002  -3.6115619453178649E-003   3.1571721326482338E-002
   1.0463589984751734E-002  -3.5730666226989616E-003   3.2711573624252588E-002
   7.9335057760369365E-003  -3.9637466505806351E-003   3.4306634959668542E-002
   5.4034215673221808E-003  -4.7836020289627745E-003   3.6356905332730616E-002
   1.2907349652534594E-002  -3.5425634589803523E-003   3.7352585451681769E-002
   1.0807206007035955E-002  -3.2965481677353914E-003   3.8033181172511088E-002
   8.7070623615373224E-003  -3.5355657057838802E-003   3.9118448982126200E-002
   6.6069187160386691E-003  -4.2596160731257875E-003   4.0608388880527875E-002
   4.5067750705400506E-003  -5.4686992697610126E-003   4.2503000867716245E-002
   1.0769265927919325E-002  -3.0058942995232207E-003   4.3624366194526872E-002
   9.0485258967773798E-003  -2.9815343901530289E-003   4.4245056897268209E-002
   7.3277858656353480E-003  -3.4980647888692359E-003   4.5219882739936226E-002
   5.6070458344933561E-003  -4.5554854956711601E-003   4.6548843722530965E-002
   3.8863058033513677E-003  -6.1537965105590287E-003   4.8231939845052640E-002
   9.1095072283357559E-003  -2.4692251400659782E-003   4.9702420294893690E-002
   7.7176338626908647E-003  -2.6665206125705554E-003   5.0207348500754478E-002
   6.3257604970459735E-003  -3.4605638719539256E-003   5.1015874897682112E-002
   4.9338871314011240E-003  -4.8513549182164495E-003   5.2127999485677479E-002
   3.5420137657561912E-003  -6.8388937513574888E-003   5.3543722264740135E-002
   6.5762452936977689E-003  -4.0985047881645364E-003   2.9793653240095086E-002
   6.0474705730159672E-003  -6.0970343553933271E-003   3.4219863203221901E-002
   5.5186958523340823E-003  -1.0858050065112645E-002   3.9337173108927592E-002
   4.9899211316522252E-003  -1.8381551917322242E-002   4.5145582957212937E-002
   4.4611464109703958E-003  -2.8667539912023088E-002   5.1645092748078714E-002
   5.4034215673221808E-003  -4.7836020289627745E-003   3.6356905332730616E-002
   5.4611863587435971E-003  -6.9327815114330060E-003   3.8458752594890566E-002
   5.5189511501651384E-003  -1.1311433851579428E-002   4.1042578938677632E-002
   5.5767159415865825E-003  -1.7919559049401353E-002   4.4108384364092035E-002
   5.6344807330080404E-003  -2.6757157104899454E-002   4.7656168871132776E-002
   4.5067750705400506E-003  -5.4686992697610126E-003   4.2503000867716245E-002
   4.9419585131120769E-003  -7.7685286674731846E-003   4.2813498713725140E-002
   5.3771419556841379E-003  -1.1764817638046432E-002   4.3396854780408112E-002
   5.8123253982563308E-003  -1.7457566181480630E-002   4.4253069067765355E-002
   6.2475088408282808E-003  -2.4846774297776042E-002   4.5382141575797008E-002
   3.8863058033513677E-003  -6.1537965105590287E-003   4.8231939845052640E-002
   4.4897870361213787E-003  -8.6042758235131134E-003   4.7284101559725296E-002
   5.0932682688913551E-003  -1.2218201424513547E-002   4.6400000634119296E-002
   5.6967495016613263E-003  -1.6995573313559935E-002   4.5579637068234431E-002
   6.3002307344313460E-003  -2.2936391490652519E-002   4.4823010862071272E-002
   3.5420137657561912E-003  -6.8388937513574888E-003   5.3543722264740135E-002
   4.1046719277713639E-003  -9.4400229795529311E-003   5.1870561132890569E-002
   4.6673300897865366E-003  -1.2671585210980441E-002   5.0052016499810503E-002
   5.2299882518016955E-003  -1.6533580445638907E-002   4.8088088365498438E-002
   5.7926464138168265E-003  -2.1026008683528996E-002   4.5978776729955761E-002
   2.9705255099616579E-002  -1.7662042481429774E-002 -0.12874577113102359     
   3.1618813782921862E-002  -1.8232623594382713E-002  -9.5875942213128895E-002
   3.3532372466227089E-002  -1.8286372612197691E-002  -6.8312734633908606E-002
   3.5445931149532275E-002  -1.7823289534874599E-002  -4.6056148393362709E-002
   3.7359489832837545E-002  -1.6843374362413455E-002  -2.9106183491491300E-002
   5.1319676761986122E-002  -1.4975907217475215E-002  -5.1203952864294633E-002
   4.9144735639534587E-002  -1.5245874006208554E-002  -3.2335881212682965E-002
   4.6969794517082997E-002  -1.5189175039477171E-002  -1.6338187833910403E-002
   4.4794853394631434E-002  -1.4805810317281058E-002  -3.2108727279768073E-003
   4.2619912272179844E-002  -1.4095779839620376E-002   7.0460641051175166E-003
   5.7292470699853701E-002  -1.2289771953520684E-002   2.6733562896490440E-002
   5.3465272837480579E-002  -1.2259124418034339E-002   3.1409710942146035E-002
   4.9638074975107506E-002  -1.2091977466756672E-002   3.5651723780797527E-002
   4.5810877112734391E-002  -1.1788331099687655E-002   3.9459601412445255E-002
   4.1983679250361311E-002  -1.1348185316827297E-002   4.2833343837089172E-002
   4.7623636913219275E-002  -9.6036366895661390E-003  0.10506677615133204     
   4.4580425376759950E-002  -9.2723748298601527E-003   9.5360834251357773E-002
   4.1537213840300583E-002  -8.9947798940361902E-003   8.7657000210215053E-002
   3.8494002303841257E-002  -8.7708518820942376E-003   8.1955274027903688E-002
   3.5450790767381918E-002  -8.6005907940342186E-003   7.8255655704423777E-002
   2.2313175402082913E-002  -6.9175014256115941E-003  0.18379568690022990     
   2.2490193257372615E-002  -6.2856252416859659E-003  0.15951748871495269     
   2.2667211112662289E-002  -5.8975823213156114E-003  0.13967764145434228     
   2.2844228967951970E-002  -5.7533726645007423E-003  0.12427614511839856     
   2.3021246823241664E-002  -5.8529962712411399E-003  0.11331299970712139     
   3.7359489832837545E-002  -1.6843374362413455E-002  -2.9106183491491300E-002
   3.6976556574678188E-002  -1.5670814964500485E-002  -1.6566527322616903E-002
   3.6593623316518803E-002  -1.4629799210821720E-002  -5.7980451136676603E-003
   3.6210690058359404E-002  -1.3720327101377404E-002   3.1992631353562895E-003
   3.5827756800200061E-002  -1.2942398636167196E-002   1.0425397424455307E-002
   4.2619912272179844E-002  -1.4095779839620376E-002   7.0460641051175166E-003
   4.0892103547535891E-002  -1.3255108896571000E-002   1.4016899071810751E-002
   3.9164294822891896E-002  -1.2479822778208867E-002   2.0069157065460141E-002
   3.7436486098247942E-002  -1.1769921484534139E-002   2.5202838086065459E-002
   3.5708677373603948E-002  -1.1125405015546708E-002   2.9417942133626751E-002
   4.1983679250361311E-002  -1.1348185316827297E-002   4.2833343837089172E-002
   3.9763592046113919E-002  -1.0839402828641473E-002   4.4301516421148372E-002
   3.7543504841866533E-002  -1.0329846345595958E-002   4.5703709019044816E-002
   3.5323417637619134E-002  -9.8195158676908749E-003   4.7039921630778324E-002
   3.3103330433371742E-002  -9.3084113949261638E-003   4.8310154256349047E-002
   3.5450790767381918E-002  -8.6005907940342186E-003   7.8255655704423777E-002
   3.3591022070412299E-002  -8.4236967607119670E-003   7.4287324725395884E-002
   3.1731253373442674E-002  -8.1798699129831884E-003   7.1105610747086254E-002
   2.9871484676473062E-002  -7.8691102508476659E-003   6.8710513769494996E-002
   2.8011715979503461E-002  -7.4914177743055643E-003   6.7102033792622140E-002
   2.3021246823241664E-002  -5.8529962712411399E-003  0.11331299970712139     
   2.2374393620431005E-002  -6.0079906927824611E-003  0.10397432398455320     
   2.1727540417620331E-002  -6.0298934803702520E-003   9.6274862249584647E-002
   2.1080687214809657E-002  -5.9187046340044430E-003   9.0214614502215629E-002
   2.0433834011998997E-002  -5.6744241536850759E-003   8.5793580742446141E-002
   3.5827756800200061E-002  -1.2942398636167196E-002   1.0425397424455307E-002
   3.4577560732046014E-002  -1.2239484524963318E-002   1.5825409303613591E-002
   3.3327364663891940E-002  -1.1555055477537157E-002   2.0749351223701029E-002
   3.2077168595737907E-002  -1.0889111493889200E-002   2.5197223184717621E-002
   3.0826972527583874E-002  -1.0241652574018878E-002   2.9169025186663200E-002
   3.5708677373603948E-002  -1.1125405015546708E-002   2.9417942133626751E-002
   3.4120878601218513E-002  -1.0518916097932596E-002   3.2455576083069954E-002
   3.2533079828833064E-002  -9.9230974583777304E-003   3.5294074583121421E-002
   3.0945281056447609E-002  -9.3379490968820457E-003   3.7933437633780806E-002
   2.9357482284062181E-002  -8.7634710134458227E-003   4.0373665235048706E-002
   3.3103330433371742E-002  -9.3084113949261638E-003   4.8310154256349047E-002
   3.1454863466433988E-002  -8.7983476709019570E-003   4.8993225061795931E-002
   2.9806396499496235E-002  -8.2911394392182480E-003   4.9754094927529774E-002
   2.8157929532558478E-002  -7.7867866998752241E-003   5.0592763853551062E-002
   2.6509462565620728E-002  -7.2852894528727119E-003   5.1509231839859421E-002
   2.8011715979503461E-002  -7.4914177743055643E-003   6.7102033792622140E-002
   2.6579515327692465E-002  -7.0777792438712211E-003   6.5438356239791162E-002
   2.5147314675881473E-002  -6.6591814200588212E-003   6.4129412256926366E-002
   2.3715114024070484E-002  -6.2356243028682361E-003   6.3175201844027903E-002
   2.2282913372259520E-002  -5.8071078922996289E-003   6.2575725001095900E-002
   2.0433834011998997E-002  -5.6744241536850759E-003   8.5793580742446141E-002
   1.9494834184993898E-002  -5.3572108168405685E-003   8.1790969617055898E-002
   1.8555834357988785E-002  -5.0272234008993666E-003   7.8420026571311141E-002
   1.7616834530983679E-002  -4.6844619058611717E-003   7.5680751605211621E-002
   1.6677834703978586E-002  -4.3289263317264903E-003   7.3573144718757810E-002
   3.0826972527583874E-002  -1.0241652574018878E-002   2.9169025186663200E-002
   2.9031571172912746E-002  -9.5625548468962207E-003   3.2262041982091039E-002
   2.7236169818241590E-002  -8.8016944414906484E-003   3.5387012784105332E-002
   2.5440768463570448E-002  -7.9590713578018973E-003   3.8543937592705663E-002
   2.3645367108899307E-002  -7.0346855958302035E-003   4.1732816407892170E-002
   2.9357482284062181E-002  -8.7634710134458227E-003   4.0373665235048706E-002
   2.7634010272362619E-002  -8.1698204670054009E-003   4.2193516833117256E-002
   2.5910538260663085E-002  -7.5271547164982161E-003   4.4125273110542790E-002
   2.4187066248963524E-002  -6.8354737619236126E-003   4.6168934067325640E-002
   2.2463594237263990E-002  -6.0947776032820311E-003   4.8324499703464918E-002
   2.6509462565620728E-002  -7.2852894528727119E-003   5.1509231839859421E-002
   2.4937870569663581E-002  -6.7770860871148864E-003   5.2023170766352975E-002
   2.3366278573706413E-002  -6.2526149915057838E-003   5.2728965044974263E-002
   2.1794686577749255E-002  -5.7118761660454945E-003   5.3626614675723230E-002
   2.0223094581792098E-002  -5.1548696107339143E-003   5.4716119658600182E-002
   2.2282913372259520E-002  -5.8071078922996289E-003   6.2575725001095900E-002
   2.0943152064815521E-002  -5.3843517072241637E-003   6.1751003781798194E-002
   1.9603390757371525E-002  -4.9780752665134070E-003   6.1198088587399398E-002
   1.8263629449927512E-002  -4.5882785701672375E-003   6.0916979417898823E-002
   1.6923868142483523E-002  -4.2149616181857141E-003   6.0907676273296747E-002
   1.6677834703978586E-002  -4.3289263317264903E-003   7.3573144718757810E-002
   1.5649854757818521E-002  -3.9916173273336075E-003   7.1377015879453276E-002
   1.4621874811658477E-002  -3.7035355415208221E-003   6.9532643737818117E-002
   1.3593894865498422E-002  -3.4646809742891228E-003   6.8040028293852292E-002
   1.2565914919338367E-002  -3.2750536256376250E-003   6.6899169547555704E-002
   2.3645367108899307E-002  -7.0346855958302035E-003   4.1732816407892170E-002
   2.1855494809834813E-002  -6.1140528382419013E-003   4.3703891887734880E-002
   2.0065622510770348E-002  -5.2826887677016876E-003   4.5295202553041702E-002
   1.8275750211705841E-002  -4.5405933842116233E-003   4.6506748403812248E-002
   1.6485877912641334E-002  -3.8877666877696893E-003   4.7338529440047350E-002
   2.2463594237263990E-002  -6.0947776032820311E-003   4.8324499703464918E-002
   2.0429651502338553E-002  -5.3558166620509828E-003   4.9301665615177681E-002
   1.8395708767413060E-002  -4.6693413597081457E-003   5.0170455469704139E-002
   1.6361766032487596E-002  -4.0353516962535890E-003   5.0930869267044945E-002
   1.4327823297562159E-002  -3.4538476716871047E-003   5.1582907007199696E-002
   2.0223094581792098E-002  -5.1548696107339143E-003   5.4716119658600182E-002
   1.8216470168355717E-002  -4.5975804858606473E-003   5.4736159050343014E-002
   1.6209845754919350E-002  -4.0559939517143678E-003   5.4919211142250388E-002
   1.4203221341482979E-002  -3.5301100082961064E-003   5.5265275934321824E-002
   1.2196596928046602E-002  -3.0199286556048532E-003   5.5774353426557233E-002
   1.6923868142483523E-002  -4.2149616181857141E-003   6.0907676273296747E-002
   1.5215950807886323E-002  -3.8393443096697982E-003   6.0007372193231323E-002
   1.3508033473289138E-002  -3.4426465437207079E-003   5.9541469570679920E-002
   1.1800116138691957E-002  -3.0248683203385699E-003   5.9509968405642856E-002
   1.0092198804094749E-002  -2.5860096395226018E-003   5.9912868698119889E-002
   1.2565914919338367E-002  -3.2750536256376250E-003   6.6899169547555704E-002
   1.1428093420930430E-002  -3.0811081334794488E-003   6.5115305043842553E-002
   1.0290271922522479E-002  -2.8292991357272423E-003   6.4037230754993235E-002
   9.1524504241145485E-003  -2.5196266323806935E-003   6.3664946681008250E-002
   8.0146289257066183E-003  -2.1520906234401282E-003   6.3998452821887764E-002
   1.6485877912641334E-002  -3.8877666877696893E-003   4.7338529440047350E-002
   1.4641785241564925E-002  -3.3429635763503329E-003   4.7647924947211262E-002
   1.2797692570488545E-002  -2.9249389479266141E-003   4.8145038592073974E-002
   1.0953599899412164E-002  -2.6336928024985745E-003   4.8829870374634682E-002
   9.1095072283357559E-003  -2.4692251400659782E-003   4.9702420294893690E-002
   1.4327823297562159E-002  -3.4538476716871047E-003   5.1582907007199696E-002
   1.2678511961926167E-002  -2.9635722724963842E-003   5.1797818910240434E-002
   1.1029200626290162E-002  -2.6032684851683974E-003   5.2214575346463621E-002
   9.3798892906541489E-003  -2.3729363097030748E-003   5.2833176315869701E-002
   7.7305779550181641E-003  -2.2725757461009577E-003   5.3653621818457897E-002
   1.2196596928046602E-002  -3.0199286556048532E-003   5.5774353426557233E-002
   1.0756193323335238E-002  -2.5841809686427131E-003   5.5891588596607311E-002
   9.3157897186238528E-003  -2.2815980224103194E-003   5.6224794695324237E-002
   7.8753861139124748E-003  -2.1121798169080261E-003   5.6773971722707817E-002
   6.4349825092011037E-003  -2.0759263521357152E-003   5.7539119678758244E-002
   1.0092198804094749E-002  -2.5860096395226018E-003   5.9912868698119889E-002
   8.8748293257922290E-003  -2.2047896647889031E-003   5.9929234006312296E-002
   7.6574598474896567E-003  -1.9599275596522830E-003   6.0175696638655664E-002
   6.4400903691871000E-003  -1.8514233241128629E-003   6.0652256595149723E-002
   5.2227208908845399E-003  -1.8792769581705837E-003   6.1358913875794771E-002
   8.0146289257066183E-003  -2.1520906234401282E-003   6.3998452821887764E-002
   7.0344199692970732E-003  -1.8253983609348712E-003   6.3910755139355069E-002
   6.0542110128875559E-003  -1.6382570968940524E-003   6.4067281176457436E-002
   5.0740020564780455E-003  -1.5906668313174291E-003   6.4468030933195142E-002
   4.0937931000685213E-003  -1.6826275642054522E-003   6.5113004409567687E-002
   9.1095072283357559E-003  -2.4692251400659782E-003   4.9702420294893690E-002
   7.7176338626908647E-003  -2.6665206125705554E-003   5.0207348500754478E-002
   6.3257604970459735E-003  -3.4605638719539256E-003   5.1015874897682112E-002
   4.9338871314011240E-003  -4.8513549182164495E-003   5.2127999485677479E-002
   3.5420137657561912E-003  -6.8388937513574888E-003   5.3543722264740135E-002
   7.7305779550181641E-003  -2.2725757461009577E-003   5.3653621818457897E-002
   6.6208455619143902E-003  -2.4905893504206800E-003   5.3668664377862330E-002
   5.5111131688106163E-003  -3.2153796787219580E-003   5.3944390691282151E-002
   4.4013807757068354E-003  -4.4469467310045904E-003   5.4480800758716558E-002
   3.2916483826030685E-003  -6.1852905072690145E-003   5.5277894580165743E-002
   6.4349825092011037E-003  -2.0759263521357152E-003   5.7539119678758244E-002
   5.5644766515859229E-003  -2.3146580882705270E-003   5.7154247654604223E-002
   4.6939707939707559E-003  -2.9701954854896573E-003   5.6987144947412582E-002
   3.8234649363555855E-003  -4.0425385437929534E-003   5.7037811557183515E-002
   2.9529590787404358E-003  -5.5316872631807623E-003   5.7306247483916772E-002
   5.2227208908845399E-003  -1.8792769581705837E-003   6.1358913875794771E-002
   4.5485271317055008E-003  -2.1387268261205683E-003   6.0664098330979639E-002
   3.8743333725264582E-003  -2.7250112922573566E-003   6.0144137666073974E-002
   3.2001396133474322E-003  -3.6381303565816495E-003   5.9799031881078497E-002
   2.5259458541683766E-003  -4.8780840190923991E-003   5.9628780975992710E-002
   4.0937931000685213E-003  -1.6826275642054522E-003   6.5113004409567687E-002
   3.5729970022730928E-003  -1.9627955639706096E-003   6.4198216406988418E-002
   3.0522009044776782E-003  -2.4798270990252780E-003   6.3415368847266285E-002
   2.5314048066822636E-003  -3.2337221693697626E-003   6.2764461730401622E-002
   2.0106087088868352E-003  -4.2244807750042579E-003   6.2245495056394207E-002
   3.5420137657561912E-003  -6.8388937513574888E-003   5.3543722264740135E-002
   4.1046719277713639E-003  -9.4400229795529311E-003   5.1870561132890569E-002
   4.6673300897865366E-003  -1.2671585210980441E-002   5.0052016499810503E-002
   5.2299882518016955E-003  -1.6533580445638907E-002   4.8088088365498438E-002
   5.7926464138168265E-003  -2.1026008683528996E-002   4.5978776729955761E-002
   3.2916483826030685E-003  -6.1852905072690145E-003   5.5277894580165743E-002
   3.7258219435997303E-003  -8.4618921662997781E-003   5.2933222405428360E-002
   4.1599955045963782E-003  -1.1308232866881762E-002   5.0476964529885426E-002
   4.5941690655930678E-003  -1.4724312609015550E-002   4.7909120953536333E-002
   5.0283426265896880E-003  -1.8710131392700724E-002   4.5229691676381467E-002
   2.9529590787404358E-003  -5.5316872631807623E-003   5.7306247483916772E-002
   3.2924458391439676E-003  -7.4837613530460145E-003   5.4350758227971030E-002
   3.6319325995474716E-003  -9.9448805227834169E-003   5.1317481071644772E-002
   3.9714193599509721E-003  -1.2915044772392192E-002   4.8206416014938372E-002
   4.3109061203545074E-003  -1.6394254101872452E-002   4.5017563057851095E-002
   2.5259458541683766E-003  -4.8780840190923991E-003   5.9628780975992710E-002
   2.8045436144040863E-003  -6.5056305397927783E-003   5.6123168600518747E-002
   3.0831413746398237E-003  -8.5815281786850162E-003   5.2573566125089524E-002
   3.3617391348755602E-003  -1.1105776935768502E-002   4.8979973549705513E-002
   3.6403368951112430E-003  -1.4078376811044069E-002   4.5342390874366090E-002
   2.0106087088868352E-003  -4.2244807750042579E-003   6.2245495056394207E-002
   2.2621152693801244E-003  -5.5274997265390979E-003   5.8250453523071566E-002
   2.5136218298734275E-003  -7.2181758345862268E-003   5.4245219690219115E-002
   2.7651283903667098E-003  -9.2965090991452143E-003   5.0229793557837354E-002
   3.0166349508600199E-003  -1.1762499520215908E-002   4.6204175125925229E-002
   2.2313175402082913E-002  -6.9175014256115941E-003  0.18379568690022990     
   2.2490193257372615E-002  -6.2856252416859659E-003  0.15951748871495269     
   2.2667211112662289E-002  -5.8975823213156114E-003  0.13967764145434228     
   2.2844228967951970E-002  -5.7533726645007423E-003  0.12427614511839856     
   2.3021246823241664E-002  -5.8529962712411399E-003  0.11331299970712139     
  -3.9298545868055312E-003  -5.1881260974381838E-003  0.12352308191812833     
  -4.3513715441536455E-004  -4.7142189540952673E-003  0.11168736904834403     
   3.0595802779748230E-003  -4.4231867590744239E-003  0.10204870440809424     
   6.5542977103649862E-003  -4.3150295123754838E-003   9.4607087997378742E-002
   1.0049015142755163E-002  -4.3897472139987070E-003   8.9362519816197306E-002
  -1.6396393806696129E-002  -3.4587507692647179E-003   6.3062028737827389E-002
  -1.1825279492337880E-002  -3.1428126665045963E-003   6.3729759498769370E-002
  -7.2541651779795789E-003  -2.9487911968330907E-003   6.4353235794113478E-002
  -2.6830508636213179E-003  -2.8766863602503068E-003   6.4932457623859421E-002
   1.8880634507369570E-003  -2.9264981567561077E-003   6.5467424988007256E-002
  -1.5086442257588912E-002  -1.7293754410912660E-003   2.4125273593267917E-003
  -1.1680233756394915E-002  -1.5714063789138422E-003   1.5644660066228621E-002
  -8.2740252552009202E-003  -1.4743956345918026E-003   2.6591235612399920E-002
  -4.8678167540069095E-003  -1.4383432081250336E-003   3.5252253997840786E-002
  -1.4616082528128987E-003  -1.4632490995136749E-003   4.1627715222551140E-002
   6.0516119892994880E-011  -1.1291784174360942E-010  -5.8425422217372902E-002
   5.3413468092955441E-011  -9.1323199002957267E-011  -3.2567929249278260E-002
   4.6310823231809906E-011  -7.2350514468411120E-011  -1.1237296137046299E-002
   3.9208171431770467E-011  -5.5999802017758782E-011   5.5664771193227880E-003
   3.2105526570624932E-011  -4.2271075528788060E-011   1.7843390519829083E-002
   2.3021246823241664E-002  -5.8529962712411399E-003  0.11331299970712139     
   2.2374393620431005E-002  -6.0079906927824611E-003  0.10397432398455320     
   2.1727540417620331E-002  -6.0298934803702520E-003   9.6274862249584647E-002
   2.1080687214809657E-002  -5.9187046340044430E-003   9.0214614502215629E-002
   2.0433834011998997E-002  -5.6744241536850759E-003   8.5793580742446141E-002
   1.0049015142755163E-002  -4.3897472139987070E-003   8.9362519816197306E-002
   1.0672000755760316E-002  -4.5059930273220888E-003   8.4582204089751409E-002
   1.1294986368765490E-002  -4.5224201157240268E-003   8.0702352007337386E-002
   1.1917971981770654E-002  -4.4390284792045660E-003   7.7722963568955694E-002
   1.2540957594775803E-002  -4.2558181177635990E-003   7.5644038774605987E-002
   1.8880634507369570E-003  -2.9264981567561077E-003   6.5467424988007256E-002
   3.0421375359905405E-003  -3.0039953618616888E-003   6.5212196348651205E-002
   4.1962116212441152E-003  -3.0149467510778571E-003   6.5118681009759843E-002
   5.3502857064976969E-003  -2.9593523244046335E-003   6.5186878971333254E-002
   6.5043597917512769E-003  -2.8372120818421498E-003   6.5416790233371352E-002
  -1.4616082528128987E-003  -1.4632490995136749E-003   4.1627715222551140E-002
  -5.1519603887834140E-004  -1.5019976964012749E-003   4.5864300761253030E-002
   4.3121617505622939E-004  -1.5074733864316320E-003   4.9523849256852208E-002
   1.3776283889908002E-003  -1.4796761696047288E-003   5.2606360709348599E-002
   2.3240406029253584E-003  -1.4186060459208255E-003   5.5111835118742354E-002
   3.2105526570624932E-011  -4.2271075528788060E-011   1.7843390519829083E-002
   3.1153662982674746E-011  -3.0940888740005335E-011   2.6538517327556688E-002
   3.0201806333618464E-011  -2.1785420689646173E-011   3.3917856748614111E-002
   2.9249942745668278E-011  -1.4804869136186838E-011   3.9981408783001410E-002
   2.8298086096611996E-011  -9.9992236712864724E-012   4.4729173430718638E-002
   2.0433834011998997E-002  -5.6744241536850759E-003   8.5793580742446141E-002
   1.9494834184993898E-002  -5.3572108168405685E-003   8.1790969617055898E-002
   1.8555834357988785E-002  -5.0272234008993666E-003   7.8420026571311141E-002
   1.7616834530983679E-002  -4.6844619058611717E-003   7.5680751605211621E-002
   1.6677834703978586E-002  -4.3289263317264903E-003   7.3573144718757810E-002
   1.2540957594775803E-002  -4.2558181177635990E-003   7.5644038774605987E-002
   1.2134396316252058E-002  -4.0179081141160922E-003   7.3409654051544537E-002
   1.1727835037728285E-002  -3.7704175509772897E-003   7.1608478345800294E-002
   1.1321273759204532E-002  -3.5133464283468308E-003   7.0240511657373383E-002
   1.0914712480680752E-002  -3.2466947462247986E-003   6.9305753986263707E-002
   6.5043597917512769E-003  -2.8372120818421498E-003   6.5416790233371352E-002
   6.4317779993807063E-003  -2.6786054113918517E-003   6.4947438393033352E-002
   6.3591962070101392E-003  -2.5136117010553100E-003   6.4712836507684432E-002
   6.2866144146395669E-003  -2.3422309508323753E-003   6.4712984577324634E-002
   6.2140326222690050E-003  -2.1644631607231346E-003   6.4947882601954013E-002
   2.3240406029253584E-003  -1.4186060459208255E-003   5.5111835118742354E-002
   2.3869792343798419E-003  -1.3393027086675210E-003   5.6404322641522564E-002
   2.4499178658343055E-003  -1.2568058511333094E-003   5.7733101056963720E-002
   2.5128564972887856E-003  -1.1711154733178106E-003   5.9098170365065920E-002
   2.5757951287432536E-003  -1.0822315752216788E-003   6.0499530565828977E-002
   2.8298086096611996E-011  -9.9992236712864724E-012   4.4729173430718638E-002
   2.1249460524508379E-011  -5.9431626286965411E-012   4.7780306797012007E-002
   1.4200828013510858E-011  -1.2112394420782380E-012   5.0669271993637938E-002
   7.1521955025133366E-012   4.1964799690763499E-012   5.3396069020596806E-002
   1.0356993040971929E-013   1.0280165607667868E-011   5.5960697877888654E-002
   1.6677834703978586E-002  -4.3289263317264903E-003   7.3573144718757810E-002
   1.5649854757818521E-002  -3.9916173273336075E-003   7.1377015879453276E-002
   1.4621874811658477E-002  -3.7035355415208221E-003   6.9532643737818117E-002
   1.3593894865498422E-002  -3.4646809742891228E-003   6.8040028293852292E-002
   1.2565914919338367E-002  -3.2750536256376250E-003   6.6899169547555704E-002
   1.0914712480680752E-002  -3.2466947462247986E-003   6.9305753986263707E-002
   1.0214798803942680E-002  -2.9937129915060534E-003   6.8105303267158440E-002
   9.5148851272045948E-003  -2.7776516510853305E-003   6.7209228389227993E-002
   8.8149714504665092E-003  -2.5985107249625293E-003   6.6617529352471908E-002
   8.1150577737284235E-003  -2.4562902131377573E-003   6.6330206156890614E-002
   6.2140326222690050E-003  -2.1644631607231346E-003   6.4947882601954013E-002
   5.7948043584581249E-003  -1.9958086556786381E-003   6.4755416807330782E-002
   5.3755760946472535E-003  -1.8517677606494989E-003   6.4819945997387357E-002
   4.9563478308363726E-003  -1.7323404756361006E-003   6.5141470172123836E-002
   4.5371195670255021E-003  -1.6375268006381116E-003   6.5719989331540024E-002
   2.5757951287432536E-003  -1.0822315752216788E-003   6.0499530565828977E-002
   2.3898714213648423E-003  -9.9790431985115335E-004   6.1327356499970148E-002
   2.2039477139864437E-003  -9.2588387021372634E-004   6.2364796562296237E-002
   2.0180240066080355E-003  -8.6617022630953392E-004   6.3611850752807494E-002
   1.8321002992296338E-003  -8.1876338813841043E-004   6.5068519071503794E-002
   1.0356993040971929E-013   1.0280165607667868E-011   5.5960697877888654E-002
  -7.3371170250524642E-012   1.5976331368960928E-011   5.7821122345076525E-002
  -1.4777824797196359E-011   2.0221893604066565E-011   5.9843780083954773E-002
  -2.2218518691552447E-011   2.3016883538007349E-011   6.2028671094523272E-002
  -2.9659219524802438E-011   2.4361401784744885E-011   6.4375795376782285E-002
   1.2565914919338367E-002  -3.2750536256376250E-003   6.6899169547555704E-002
   1.1428093420930430E-002  -3.0811081334794488E-003   6.5115305043842553E-002
   1.0290271922522479E-002  -2.8292991357272423E-003   6.4037230754993235E-002
   9.1524504241145485E-003  -2.5196266323806935E-003   6.3664946681008250E-002
   8.0146289257066183E-003  -2.1520906234401282E-003   6.3998452821887764E-002
   8.1150577737284235E-003  -2.4562902131377573E-003   6.6330206156890614E-002
   7.5776927804809477E-003  -2.3108310940642696E-003   6.5364557449575200E-002
   7.0403277872334857E-003  -2.1219743461947382E-003   6.4894031537716917E-002
   6.5029627939860099E-003  -1.8897199695299335E-003   6.4918628421314892E-002
   5.9655978007385480E-003  -1.6140679640688216E-003   6.5438348100369692E-002
   4.5371195670255021E-003  -1.6375268006381116E-003   6.5719989331540024E-002
   4.3895436595308666E-003  -1.5405540546491736E-003   6.5558090543824721E-002
   4.2419677520362416E-003  -1.4146495566628031E-003   6.5680647132158362E-002
   4.0943918445416182E-003  -1.2598133066788440E-003   6.6087659096541074E-002
   3.9468159370469810E-003  -1.0760453046972374E-003   6.6779126436972785E-002
   1.8321002992296338E-003  -8.1876338813841043E-004   6.5068519071503794E-002
   1.8636460580802074E-003  -7.7027701523392500E-004   6.5695904326590060E-002
   1.8951918169307922E-003  -7.0732476713069453E-004   6.6397077538317986E-002
   1.9267375757813713E-003  -6.2990664382758625E-004   6.7172038706687129E-002
   1.9582833346319505E-003  -5.3802264532562538E-004   6.8020787831697710E-002
  -2.9659219524802438E-011   2.4361401784744885E-011   6.4375795376782285E-002
  -2.3871057908131377E-011   2.4181046054394528E-011   6.5777998797871939E-002
  -1.8082892822013363E-011   2.2401552834949712E-011   6.7043322756195345E-002
  -1.2294729470618826E-011   1.9023095598758033E-011   6.8171767251752419E-002
  -6.5065661192242885E-012   1.4045764551440243E-011   6.9163332284543522E-002
   8.0146289257066183E-003  -2.1520906234401282E-003   6.3998452821887764E-002
   7.0344199692970732E-003  -1.8253983609348712E-003   6.3910755139355069E-002
   6.0542110128875559E-003  -1.6382570968940524E-003   6.4067281176457436E-002
   5.0740020564780455E-003  -1.5906668313174291E-003   6.4468030933195142E-002
   4.0937931000685213E-003  -1.6826275642054522E-003   6.5113004409567687E-002
   5.9655978007385480E-003  -1.6140679640688216E-003   6.5438348100369692E-002
   5.2298196939568470E-003  -1.3690487684941965E-003   6.5258999685589292E-002
   4.4940415871751321E-003  -1.2286928214900461E-003   6.5324289250429157E-002
   3.7582634803934069E-003  -1.1930001230544204E-003   6.5634216794889511E-002
   3.0224853736117163E-003  -1.2619706731890057E-003   6.6188782318970629E-002
   3.9468159370469810E-003  -1.0760453046972374E-003   6.6779126436972785E-002
   3.4558829398784532E-003  -9.1269917605407702E-004   6.6543015039839504E-002
   2.9649499427099324E-003  -8.1912854608558183E-004   6.6551955882312122E-002
   2.4740169455414029E-003  -7.9533341479163036E-004   6.6805948964390627E-002
   1.9830839483728699E-003  -8.4131378217222608E-004   6.7304994286075115E-002
   1.9582833346319505E-003  -5.3802264532562538E-004   6.8020787831697710E-002
   1.7126097070619597E-003  -4.5634958361373545E-004   6.7762801202106343E-002
   1.4669360794919636E-003  -4.0956427068129103E-004   6.7750281072106414E-002
   1.2212624519219672E-003  -3.9766670652839793E-004   6.7983227441697533E-002
   9.7558882435197676E-004  -4.2065689115550198E-004   6.8461640310880034E-002
  -6.5065661192242885E-012   1.4045764551440243E-011   6.9163332284543522E-002
  -4.4926701248115819E-012   8.8266061126773820E-012   6.8918358172389338E-002
  -2.4787741303988753E-012   4.7229720134822628E-012   6.8919264819811865E-002
  -4.6487466653921672E-013   1.7341336699949750E-012   6.9166052226810854E-002
   1.5490178584265379E-012  -1.3899992268306960E-013   6.9658720393386497E-002
   4.0937931000685213E-003  -1.6826275642054522E-003   6.5113004409567687E-002
   3.5729970022730928E-003  -1.9627955639706096E-003   6.4198216406988418E-002
   3.0522009044776782E-003  -2.4798270990252780E-003   6.3415368847266285E-002
   2.5314048066822636E-003  -3.2337221693697626E-003   6.2764461730401622E-002
   2.0106087088868352E-003  -4.2244807750042579E-003   6.2245495056394207E-002
   3.0224853736117163E-003  -1.2619706731890057E-003   6.6188782318970629E-002
   2.6331943640775929E-003  -1.4720966733373642E-003   6.5098209669638640E-002
   2.2439033545434695E-003  -1.8598703249453064E-003   6.4138706753971764E-002
   1.8546123450093530E-003  -2.4252916280125894E-003   6.3310273571970027E-002
   1.4653213354752226E-003  -3.1683605825389982E-003   6.2612910123633458E-002
   1.9830839483728699E-003  -8.4131378217222608E-004   6.7304994286075115E-002
   1.7244273179078846E-003  -9.8139778270450728E-004   6.6097852873820639E-002
   1.4657706874429063E-003  -1.2399135508654457E-003   6.5020910486039474E-002
   1.2071140569779107E-003  -1.6168610866553051E-003   6.4074167122731285E-002
   9.4845742651292891E-004  -2.1122403900736275E-003   6.3257622783896295E-002
   9.7558882435197676E-004  -4.2065689115550198E-004   6.8461640310880034E-002
   8.4669586376396287E-004  -4.9069889207134509E-004   6.7197146019534054E-002
   7.1780290317594031E-004  -6.1995677678569616E-004   6.6061980043469096E-002
   5.8890994258792208E-004  -8.0843054529763231E-004   6.5056142382685062E-002
   4.6001698199991774E-004  -1.0561201976084234E-003   6.4179633037181924E-002
   1.5490178584265379E-012  -1.3899992268306960E-013   6.9658720393386497E-002
   1.6458084894921399E-012  -1.4385159730068153E-012   6.8396089106779634E-002
   1.7426060594516457E-012  -2.7055579998602752E-012   6.7261915426261143E-002
   1.8394018946876756E-012  -3.9406117258167228E-012   6.6256199351831579E-002
   1.9361942604767535E-012  -5.1429971392735752E-012   6.5378940883490388E-002
   2.0106087088868352E-003  -4.2244807750042579E-003   6.2245495056394207E-002
   2.2621152693801244E-003  -5.5274997265390979E-003   5.8250453523071566E-002
   2.5136218298734275E-003  -7.2181758345862268E-003   5.4245219690219115E-002
   2.7651283903667098E-003  -9.2965090991452143E-003   5.0229793557837354E-002
   3.0166349508600199E-003  -1.1762499520215908E-002   4.6204175125925229E-002
   1.4653213354752226E-003  -3.1683605825389982E-003   6.2612910123633458E-002
   1.6934645113079877E-003  -4.1456247964984372E-003   5.8293920957670442E-002
   1.9216076871407320E-003  -5.4136318778641446E-003   5.3938397321915466E-002
   2.1497508629734867E-003  -6.9723818266376192E-003   4.9546339216369278E-002
   2.3778940388062553E-003  -8.8218746428172512E-003   4.5117746641032408E-002
   9.4845742651292891E-004  -2.1122403900736275E-003   6.3257622783896295E-002
   1.1268950474235991E-003  -2.7637498664574434E-003   5.8711600274397119E-002
   1.3053326683342657E-003  -3.6090879211427007E-003   5.4102701124845137E-002
   1.4837702892449411E-003  -4.6482545541298506E-003   4.9430925335240725E-002
   1.6622079101555748E-003  -5.8812497654185947E-003   4.4696272905582757E-002
   4.6001698199991774E-004  -1.0561201976084234E-003   6.4179633037181924E-002
   5.6240687772695502E-004  -1.3818749364162830E-003   5.9503491473252221E-002
   6.6479677345398797E-004  -1.8045439644210487E-003   5.4738131099008179E-002
   7.6718666918101875E-004  -2.3241272816221688E-003   4.9883551914449750E-002
   8.6957656490804433E-004  -2.9406248880199382E-003   4.4939753919576775E-002
   1.9361942604767535E-012  -5.1429971392735752E-012   6.5378940883490388E-002
   2.2180521308534651E-012  -6.3753446966074989E-012   6.0669594554235595E-002
   2.4999204095710326E-012  -7.6987860531119168E-012   5.5844687244404501E-002
   2.7817869535651241E-012  -9.1146673542041867E-012   5.0904218953997549E-002
   3.0636465586653117E-012  -1.0621281631983948E-011   4.5848189683014517E-002
   6.0516119892994880E-011  -1.1291784174360942E-010  -5.8425422217372902E-002
   5.3413468092955441E-011  -9.1323199002957267E-011  -3.2567929249278260E-002
   4.6310823231809906E-011  -7.2350514468411120E-011  -1.1237296137046299E-002
   3.9208171431770467E-011  -5.5999802017758782E-011   5.5664771193227880E-003
   3.2105526570624932E-011  -4.2271075528788060E-011   1.7843390519829083E-002
   1.5086442383260262E-002   1.7293751831747306E-003   2.4125273087235444E-003
   1.1680233867669178E-002   1.5714061814716684E-003   1.5644660016583239E-002
   8.2740253520780724E-003   1.4743954866110326E-003   2.6591235563329041E-002
   4.8678168364869739E-003   1.4383430985928196E-003   3.5252253948960643E-002
   1.4616083208958859E-003   1.4632490174169566E-003   4.1627715173478158E-002
   1.6396393946284782E-002   3.4587504792672752E-003   6.3062028656790142E-002
   1.1825279616954031E-002   3.1428124542665081E-003   6.3729759413879414E-002
   7.2541652876232758E-003   2.9487910455725241E-003   6.4353235704603148E-002
   2.6830509582925367E-003   2.8766862531854134E-003   6.4932457528961762E-002
  -1.8880633710382164E-003   2.9264980771049887E-003   6.5467424886955103E-002
   3.9298547495896508E-003   5.1881257753598475E-003  0.12352308182682704     
   4.3513730126803520E-004   4.7142187270613756E-003  0.11168736894260993     
  -3.0595801470535674E-003   4.4231866045340712E-003  0.10204870428677618     
  -6.5542975953751760E-003   4.3150294077779101E-003   9.4607087859326117E-002
  -1.0049015043696785E-002   4.3897471367929930E-003   8.9362519660259515E-002
  -2.2313175206825103E-002   6.9175010714523921E-003  0.18379568681883390     
  -2.2490193079388765E-002   6.2856249998561875E-003  0.15951748860277487     
  -2.2667210951952468E-002   5.8975821634955489E-003  0.13967764130984814     
  -2.2844228824516144E-002   5.7533725623705977E-003  0.12427614494005369     
  -2.3021246697079820E-002   5.8529961964811084E-003  0.11331299949339174     
   3.2105526570624932E-011  -4.2271075528788060E-011   1.7843390519829083E-002
   3.1153662982674746E-011  -3.0940888740005335E-011   2.6538517327556688E-002
   3.0201806333618464E-011  -2.1785420689646173E-011   3.3917856748614111E-002
   2.9249942745668278E-011  -1.4804869136186838E-011   3.9981408783001410E-002
   2.8298086096611996E-011  -9.9992236712864724E-012   4.4729173430718638E-002
   1.4616083208958859E-003   1.4632490174169566E-003   4.1627715173478158E-002
   5.1519610418056597E-004   1.5019976347616648E-003   4.5864300715399986E-002
  -4.3121611253476091E-004   1.5074733423050823E-003   4.9523849212464957E-002
  -1.3776283292500835E-003   1.4796761400472300E-003   5.2606360664673203E-002
  -2.3240405459654077E-003   1.4186060279883228E-003   5.5111835072024634E-002
  -1.8880633710382164E-003   2.9264980771049887E-003   6.5467424886955103E-002
  -3.0421374617036522E-003   3.0039953004641490E-003   6.5212196255444582E-002
  -4.1962115523690880E-003   3.0149467063956478E-003   6.5118680920890681E-002
  -5.3502856430345212E-003   2.9593522948996084E-003   6.5186878883293303E-002
  -6.5043597336999597E-003   2.8372120659758138E-003   6.5416790142652517E-002
  -1.0049015043696785E-002   4.3897471367929930E-003   8.9362519660259515E-002
  -1.0672000666498982E-002   4.5059929661666678E-003   8.4582203947690421E-002
  -1.1294986289301187E-002   4.5224200704862376E-003   8.0702351873891257E-002
  -1.1917971912103389E-002   4.4390284497517361E-003   7.7722963438862119E-002
  -1.2540957534905603E-002   4.2558181039633325E-003   7.5644038642602773E-002
  -2.3021246697079820E-002   5.8529961964811084E-003  0.11331299949339174     
  -2.2374393510205440E-002   6.0079906318691589E-003  0.10397432379213756     
  -2.1727540323331046E-002   6.0298934345766747E-003   9.6274862071466794E-002
  -2.1080687136456666E-002   5.9187046046042420E-003   9.0214614331379214E-002
  -2.0433833949582272E-002   5.6744241419509067E-003   8.5793580571874972E-002
   2.8298086096611996E-011  -9.9992236712864724E-012   4.4729173430718638E-002
   2.1249460524508379E-011  -5.9431626286965411E-012   4.7780306797012007E-002
   1.4200828013510858E-011  -1.2112394420782380E-012   5.0669271993637938E-002
   7.1521955025133366E-012   4.1964799690763499E-012   5.3396069020596806E-002
   1.0356993040971929E-013   1.0280165607667868E-011   5.5960697877888654E-002
  -2.3240405459654077E-003   1.4186060279883228E-003   5.5111835072024634E-002
  -2.3869791913466235E-003   1.3393027010001335E-003   5.6404322596490614E-002
  -2.4499178367278426E-003   1.2568058539547816E-003   5.7733101013958857E-002
  -2.5128564821090601E-003   1.1711154868524372E-003   5.9098170324428968E-002
  -2.5757951274902775E-003   1.0822315996930065E-003   6.0499530527901080E-002
  -6.5043597336999597E-003   2.8372120659758138E-003   6.5416790142652517E-002
  -6.4317779547446007E-003   2.6786054079432770E-003   6.4947438304558749E-002
  -6.3591961757892270E-003   2.5136117091207957E-003   6.4712836422135961E-002
  -6.2866143968338672E-003   2.3422309695082816E-003   6.4712984495384526E-002
  -6.2140326178784944E-003   2.1644631891057642E-003   6.4947882524304043E-002
  -1.2540957534905603E-002   4.2558181039633325E-003   7.5644038642602773E-002
  -1.2134396268944457E-002   4.0179081148864967E-003   7.3409653921215859E-002
  -1.1727835002983324E-002   3.7704175642867856E-003   7.1608478218169402E-002
  -1.1321273737022205E-002   3.5133464521640715E-003   7.0240511533463418E-002
  -1.0914712471061058E-002   3.2466947785185635E-003   6.9305753867097475E-002
  -2.0433833949582272E-002   5.6744241419509067E-003   8.5793580571874972E-002
  -1.9494834133946197E-002   5.3572108218297443E-003   8.1790969446462358E-002
  -1.8555834318310142E-002   5.0272234194528309E-003   7.8420026402059251E-002
  -1.7616834502674084E-002   4.6844619348200001E-003   7.5680751438665650E-002
  -1.6677834687038019E-002   4.3289263679314183E-003   7.3573144556281556E-002
   1.0356993040971929E-013   1.0280165607667868E-011   5.5960697877888654E-002
  -7.3371170250524642E-012   1.5976331368960928E-011   5.7821122345076525E-002
  -1.4777824797196359E-011   2.0221893604066565E-011   5.9843780083954773E-002
  -2.2218518691552447E-011   2.3016883538007349E-011   6.2028671094523272E-002
  -2.9659219524802438E-011   2.4361401784744885E-011   6.4375795376782285E-002
  -2.5757951274902775E-003   1.0822315996930065E-003   6.0499530527901080E-002
  -2.3898714341607612E-003   9.9790435374080833E-004   6.1327356461885141E-002
  -2.2039477408312431E-003   9.2588391026071637E-004   6.2364796525719357E-002
  -2.0180240475017224E-003   8.6617026925239760E-004   6.3611850719403590E-002
  -1.8321003541722225E-003   8.1876343071596303E-004   6.5068519042938033E-002
  -6.2140326178784944E-003   2.1644631891057642E-003   6.4947882524304043E-002
  -5.7948043656190036E-003   1.9958086915053963E-003   6.4755416729006893E-002
  -5.3755761133594936E-003   1.8517678002994212E-003   6.4819945921719468E-002
  -4.9563478610999932E-003   1.7323405154879654E-003   6.5141470102441895E-002
  -4.5371196088404928E-003   1.6375268370707463E-003   6.5719989271174145E-002
  -1.0914712471061058E-002   3.2466947785185635E-003   6.9305753867097475E-002
  -1.0214798801711828E-002   2.9937130292700398E-003   6.8105303146441420E-002
  -9.5148851323625921E-003   2.7776516903382960E-003   6.7209228271954982E-002
  -8.8149714630133442E-003   2.5985107617233954E-003   6.6617529243638132E-002
  -8.1150577936641242E-003   2.4562902434255296E-003   6.6330206061490954E-002
  -1.6677834687038019E-002   4.3289263679314183E-003   7.3573144556281556E-002
  -1.5649854742439261E-002   3.9916173670345168E-003   7.1377015714189196E-002
  -1.4621874797840523E-002   3.7035355803769626E-003   6.9532643576426051E-002
  -1.3593894853241775E-002   3.4646810079590508E-003   6.8040028142992301E-002
  -1.2565914908643026E-002   3.2750536497802019E-003   6.6899169413888071E-002
  -2.9659219524802438E-011   2.4361401784744885E-011   6.4375795376782285E-002
  -2.3871057908131377E-011   2.4181046054394528E-011   6.5777998797871939E-002
  -1.8082892822013363E-011   2.2401552834949712E-011   6.7043322756195345E-002
  -1.2294729470618826E-011   1.9023095598758033E-011   6.8171767251752419E-002
  -6.5065661192242885E-012   1.4045764551440243E-011   6.9163332284543522E-002
  -1.8321003541722225E-003   8.1876343071596303E-004   6.5068519042938033E-002
  -1.8636461021732630E-003   7.7027705495158472E-004   6.5695904303585795E-002
  -1.8951918501743242E-003   7.0732480225871308E-004   6.6397077519421394E-002
  -1.9267375981753716E-003   6.2990667263752853E-004   6.7172038690444705E-002
  -1.9582833461764260E-003   5.3802266608848903E-004   6.8020787816655937E-002
  -4.5371196088404928E-003   1.6375268370707463E-003   6.5719989271174145E-002
  -4.3895436926767416E-003   1.5405540857221511E-003   6.5558090496050658E-002
  -4.2419677765130042E-003   1.4146495821158594E-003   6.5680647094069164E-002
  -4.0943918603492668E-003   1.2598133262522911E-003   6.6087659065229482E-002
  -3.9468159441855156E-003   1.0760453181309360E-003   6.6779126409531292E-002
  -8.1150577936641242E-003   2.4562902434255296E-003   6.6330206061490954E-002
  -7.5776927953815311E-003   2.3108311164928702E-003   6.5364557375267016E-002
  -7.0403277970989648E-003   2.1219743619730683E-003   6.4894031480139072E-002
  -6.5029627988163795E-003   1.8897199798666667E-003   6.4918628376106943E-002
  -5.9655978005338055E-003   1.6140679701735772E-003   6.5438348063170504E-002
  -1.2565914908643026E-002   3.2750536497802019E-003   6.6899169413888071E-002
  -1.1428093410287596E-002   3.0811081472632562E-003   6.5115304941234520E-002
  -1.0290271911932176E-002   2.8292991418302771E-003   6.4037230677630896E-002
  -9.1524504135767539E-003   2.5196266334812922E-003   6.3664946623076923E-002
  -8.0146289152213251E-003   2.1520906222159963E-003   6.3998452777573100E-002
  -6.5065661192242885E-012   1.4045764551440243E-011   6.9163332284543522E-002
  -4.4926701248115819E-012   8.8266061126773820E-012   6.8918358172389338E-002
  -2.4787741303988753E-012   4.7229720134822628E-012   6.8919264819811865E-002
  -4.6487466653921672E-013   1.7341336699949750E-012   6.9166052226810854E-002
   1.5490178584265379E-012  -1.3899992268306960E-013   6.9658720393386497E-002
  -1.9582833461764260E-003   5.3802266608848903E-004   6.8020787816655937E-002
  -1.7126097148847941E-003   4.5634959628826355E-004   6.7762801191634803E-002
  -1.4669360835931500E-003   4.0956427691563047E-004   6.7750281065592610E-002
  -1.2212624523015060E-003   3.9766670796945180E-004   6.7983227438529553E-002
  -9.7558882100986025E-004   4.2065688945069901E-004   6.8461640310445215E-002
  -3.9468159441855156E-003   1.0760453181309360E-003   6.6779126409531292E-002
  -3.4558829442137770E-003   9.1269918375019854E-004   6.6543015020955137E-002
  -2.9649499442420393E-003   8.1912854910852484E-004   6.6551955870760224E-002
  -2.4740169442703007E-003   7.9533341420499545E-004   6.6805948958946537E-002
  -1.9830839442985630E-003   8.4131377904039795E-004   6.7304994285514230E-002
  -5.9655978005338055E-003   1.6140679701735772E-003   6.5438348063170504E-002
  -5.2298196924796328E-003   1.3690487712121058E-003   6.5258999660350800E-002
  -4.4940415844254393E-003   1.2286928213012457E-003   6.5324289235314845E-002
  -3.7582634763712658E-003   1.1930001204404263E-003   6.5634216788062277E-002
  -3.0224853683170723E-003   1.2619706686302079E-003   6.6188782318593209E-002
  -8.0146289152213251E-003   2.1520906222159963E-003   6.3998452777573100E-002
  -7.0344199596823476E-003   1.8253983586738465E-003   6.3910755109821582E-002
  -6.0542110041433665E-003   1.6382570934941054E-003   6.4067281159255807E-002
  -5.0740020486043855E-003   1.5906668266758642E-003   6.4468030925876108E-002
  -4.0937930930654079E-003   1.6826275582196848E-003   6.5113004409682596E-002
   1.5490178584265379E-012  -1.3899992268306960E-013   6.9658720393386497E-002
   1.6458084894921399E-012  -1.4385159730068153E-012   6.8396089106779634E-002
   1.7426060594516457E-012  -2.7055579998602752E-012   6.7261915426261143E-002
   1.8394018946876756E-012  -3.9406117258167228E-012   6.6256199351831579E-002
   1.9361942604767535E-012  -5.1429971392735752E-012   6.5378940883490388E-002
  -9.7558882100986025E-004   4.2065688945069901E-004   6.8461640310445215E-002
  -8.4669586027390220E-004   4.9069888807506956E-004   6.7197146019604526E-002
  -7.1780289953792854E-004   6.1995677055831644E-004   6.6061980043953639E-002
  -5.8890993880197050E-004   8.0843053690173028E-004   6.5056142383492443E-002
  -4.6001697806599684E-004   1.0561201871037706E-003   6.4179633038220607E-002
  -1.9830839442985630E-003   8.4131377904039795E-004   6.7304994285514230E-002
  -1.7244273138225276E-003   9.8139777758837754E-004   6.6097852874266949E-002
  -1.4657706833465000E-003   1.2399135438228293E-003   6.5020910487310679E-002
  -1.2071140528704641E-003   1.6168610777437323E-003   6.4074167124644796E-002
  -9.4845742239442303E-004   2.1122403793507605E-003   6.3257622786269008E-002
  -3.0224853683170723E-003   1.2619706686302079E-003   6.6188782318593209E-002
  -2.6331943590000894E-003   1.4720966671015467E-003   6.5098209670766696E-002
  -2.2439033496830857E-003   1.8598703170868008E-003   6.4138706756331737E-002
  -1.8546123403660889E-003   2.4252916185854602E-003   6.3310273575288248E-002
  -1.4653213310490995E-003   3.1683605715976393E-003   6.2612910127635826E-002
  -4.0937930930654079E-003   1.6826275582196848E-003   6.5113004409682596E-002
  -3.5729969958065433E-003   1.9627955566152155E-003   6.4198216409103726E-002
  -3.0522008985476960E-003   2.4798270903512720E-003   6.3415368851017395E-002
  -2.5314048012888488E-003   3.2337221594279236E-003   6.2764461735423271E-002
  -2.0106087040299842E-003   4.2244807638446291E-003   6.2245495062321576E-002
   1.9361942604767535E-012  -5.1429971392735752E-012   6.5378940883490388E-002
   2.2180521308534651E-012  -6.3753446966074989E-012   6.0669594554235595E-002
   2.4999204095710326E-012  -7.6987860531119168E-012   5.5844687244404501E-002
   2.7817869535651241E-012  -9.1146673542041867E-012   5.0904218953997549E-002
   3.0636465586653117E-012  -1.0621281631983948E-011   4.5848189683014517E-002
  -4.6001697806599684E-004   1.0561201871037706E-003   6.4179633038220607E-002
  -5.6240687325846694E-004   1.3818749237047845E-003   5.9503491474163950E-002
  -6.6479676845093011E-004   1.8045439492435644E-003   5.4738131099734966E-002
  -7.6718666364340281E-004   2.3241272637201660E-003   4.9883551914932711E-002
  -8.6957655883587726E-004   2.9406248671342006E-003   4.4939753919758019E-002
  -9.4845742239442303E-004   2.1122403793507605E-003   6.3257622786269008E-002
  -1.1268950428579977E-003   2.7637498537849137E-003   5.8711600276440512E-002
  -1.3053326633215784E-003   3.6090879061862757E-003   5.4102701126442138E-002
  -1.4837702837851578E-003   4.6482545365543956E-003   4.9430925336274315E-002
  -1.6622079042487199E-003   5.8812497448899048E-003   4.4696272905936918E-002
  -1.4653213310490995E-003   3.1683605715976393E-003   6.2612910127635826E-002
  -1.6934645065805349E-003   4.1456247838651539E-003   5.8293920961064380E-002
  -1.9216076821119909E-003   5.4136318631288066E-003   5.3938397324526523E-002
  -2.1497508576434430E-003   6.9723818093888161E-003   4.9546339218022525E-002
  -2.3778940331748684E-003   8.8218746226454980E-003   4.5117746641552520E-002
  -2.0106087040299842E-003   4.2244807638446291E-003   6.2245495062321576E-002
  -2.2621152644260942E-003   5.5274997139453941E-003   5.8250453528036372E-002
  -2.5136218248221834E-003   7.2181758200715873E-003   5.4245219693988267E-002
  -2.7651283852183021E-003   9.2965090822233545E-003   5.0229793560177011E-002
  -3.0166349456143826E-003   1.1762499500401091E-002   4.6204175126602909E-002
  -2.2313175206825103E-002   6.9175010714523921E-003  0.18379568681883390     
  -2.2490193079388765E-002   6.2856249998561875E-003  0.15951748860277487     
  -2.2667210951952468E-002   5.8975821634955489E-003  0.13967764130984814     
  -2.2844228824516144E-002   5.7533725623705977E-003  0.12427614494005369     
  -2.3021246697079820E-002   5.8529961964811084E-003  0.11331299949339174     
  -4.7623636686620688E-002   9.6036365777245059E-003  0.10506677632546213     
  -4.4580425169326067E-002   9.2723747331167061E-003   9.5360834368039576E-002
  -4.1537213652031398E-002   8.9947798111783134E-003   8.7657000267201440E-002
  -3.8494002134736749E-002   8.7708518119095531E-003   8.1955274022947527E-002
  -3.5450790617442093E-002   8.6005907353102762E-003   7.8255655635277976E-002
  -5.7292470453458262E-002   1.2289772083996620E-002   2.6733563215361897E-002
  -5.3465272612853283E-002   1.2259124466377169E-002   3.1409711204009691E-002
  -4.9638074772248353E-002   1.2091977458861196E-002   3.5651723982693943E-002
  -4.5810876931643360E-002   1.1788331061448594E-002   3.9459601551414425E-002
  -4.1983679091038402E-002   1.1348185274139416E-002   4.2833343910171212E-002
  -5.1319676507337875E-002   1.4975907590268747E-002  -5.1203952511467088E-002
  -4.9144735409970615E-002   1.5245874199637716E-002  -3.2335880889314814E-002
  -4.6969794312603300E-002   1.5189175106544019E-002  -1.6338187543674249E-002
  -4.4794853215236005E-002   1.4805810310987565E-002  -3.2108724745454130E-003
  -4.2619912117868725E-002   1.4095779812968542E-002   7.0460643180717542E-003
  -2.9705254848259477E-002   1.7662043096540847E-002 -0.12874577085502453     
  -3.1618813560677875E-002   1.8232623932898151E-002  -9.5875941911934048E-002
  -3.3532372273096273E-002   1.8286372754226773E-002  -6.8312734311903239E-002
  -3.5445930985514670E-002   1.7823289560526614E-002  -4.6056148054932119E-002
  -3.7359489697933068E-002   1.6843374351797780E-002  -2.9106183141020647E-002
  -2.3021246697079820E-002   5.8529961964811084E-003  0.11331299949339174     
  -2.2374393510205440E-002   6.0079906318691589E-003  0.10397432379213756     
  -2.1727540323331046E-002   6.0298934345766747E-003   9.6274862071466794E-002
  -2.1080687136456666E-002   5.9187046046042420E-003   9.0214614331379214E-002
  -2.0433833949582272E-002   5.6744241419509067E-003   8.5793580571874972E-002
  -3.5450790617442093E-002   8.6005907353102762E-003   7.8255655635277976E-002
  -3.3591021942156629E-002   8.4236967133198282E-003   7.4287324665551713E-002
  -3.1731253266871158E-002   8.1798698778779710E-003   7.1105610692064322E-002
  -2.9871484591585701E-002   7.8691102289845175E-003   6.8710513714815985E-002
  -2.8011715916300219E-002   7.4914177666395854E-003   6.7102033733806438E-002
  -4.1983679091038402E-002   1.1348185274139416E-002   4.2833343910171212E-002
  -3.9763591911686214E-002   1.0839402794770622E-002   4.4301516491201773E-002
  -3.7543504732334004E-002   1.0329846321179094E-002   4.5703709084126777E-002
  -3.5323417552981795E-002   9.8195158533650132E-003   4.7039921688946398E-002
  -3.3103330373629600E-002   9.3084113913281252E-003   4.8310154305660519E-002
  -4.2619912117868725E-002   1.4095779812968542E-002   7.0460643180717542E-003
  -4.0892103418794165E-002   1.3255108876221271E-002   1.4016899269087779E-002
  -3.9164294719719571E-002   1.2479822764480276E-002   2.0069157247654089E-002
  -3.7436486020645005E-002   1.1769921477745398E-002   2.5202838253770628E-002
  -3.5708677321570417E-002   1.1125405016016623E-002   2.9417942287437174E-002
  -3.7359489697933068E-002   1.6843374351797780E-002  -2.9106183141020647E-002
  -3.6976556463480505E-002   1.5670814957672030E-002  -1.6566527000790116E-002
  -3.6593623229027886E-002   1.4629799207781499E-002  -5.7980448173537147E-003
  -3.6210689994575294E-002   1.3720327102125864E-002   3.1992634092883887E-003
  -3.5827756760122703E-002   1.2942398640705288E-002   1.0425397679136417E-002
  -2.0433833949582272E-002   5.6744241419509067E-003   8.5793580571874972E-002
  -1.9494834133946197E-002   5.3572108218297443E-003   8.1790969446462358E-002
  -1.8555834318310142E-002   5.0272234194528309E-003   7.8420026402059251E-002
  -1.7616834502674084E-002   4.6844619348200001E-003   7.5680751438665650E-002
  -1.6677834687038019E-002   4.3289263679314183E-003   7.3573144556281556E-002
  -2.8011715916300219E-002   7.4914177666395854E-003   6.7102033733806438E-002
  -2.6579515274385811E-002   7.0777792492826286E-003   6.5438356173637108E-002
  -2.5147314632471440E-002   6.6591814353533507E-003   6.4129412185014847E-002
  -2.3715113990557039E-002   6.2356243248516061E-003   6.3175201767939809E-002
  -2.2282913348642658E-002   5.8071079177777762E-003   6.2575724922411813E-002
  -3.3103330373629600E-002   9.3084113913281252E-003   4.8310154305660519E-002
  -3.1454863414899288E-002   8.7983476767354990E-003   4.8993225096417861E-002
  -2.9806396456168935E-002   8.2911394512539816E-003   4.9754094949259947E-002
  -2.8157929497438589E-002   7.7867867148833786E-003   5.0592763864186832E-002
  -2.6509462538708256E-002   7.2852894676239954E-003   5.1509231841198391E-002
  -3.5708677321570417E-002   1.1125405016016623E-002   2.9417942287437174E-002
  -3.4120878555486553E-002   1.0518916104188293E-002   3.2455576214804660E-002
  -3.2533079789402668E-002   9.9230974671546124E-003   3.5294074694794494E-002
  -3.0945281023318786E-002   9.3379491049151234E-003   3.7933437727406566E-002
  -2.9357482257234911E-002   8.7634710174703395E-003   4.0373665312641152E-002
  -3.5827756760122703E-002   1.2942398640705288E-002   1.0425397679136417E-002
  -3.4577560696147674E-002   1.2239484531641281E-002   1.5825409528797463E-002
  -3.3327364632172632E-002   1.1555055483055160E-002   2.0749351421618406E-002
  -3.2077168568197596E-002   1.0889111494946736E-002   2.5197223357599358E-002
  -3.0826972504222561E-002   1.0241652567316628E-002   2.9169025336740206E-002
  -1.6677834687038019E-002   4.3289263679314183E-003   7.3573144556281556E-002
  -1.5649854742439261E-002   3.9916173670345168E-003   7.1377015714189196E-002
  -1.4621874797840523E-002   3.7035355803769626E-003   6.9532643576426051E-002
  -1.3593894853241775E-002   3.4646810079590508E-003   6.8040028142992301E-002
  -1.2565914908643026E-002   3.2750536497802019E-003   6.6899169413888071E-002
  -2.2282913348642658E-002   5.8071079177777762E-003   6.2575724922411813E-002
  -2.0943152037195146E-002   5.3843517332610447E-003   6.1751003692341017E-002
  -1.9603390725747620E-002   4.9780752904314968E-003   6.1198088491638242E-002
  -1.8263629414300094E-002   4.5882785892890111E-003   6.0916979320303641E-002
  -1.6923868102852582E-002   4.2149616298338133E-003   6.0907676178337311E-002
  -2.6509462538708256E-002   7.2852894676239954E-003   5.1509231841198391E-002
  -2.4937870535373233E-002   6.7770860994876003E-003   5.2023170750596801E-002
  -2.3366278532038213E-002   6.2526150004859130E-003   5.2728965014402281E-002
  -2.1794686528703207E-002   5.7118761706190808E-003   5.3626614632614603E-002
  -2.0223094525368170E-002   5.1548696098872582E-003   5.4716119605233676E-002
  -2.9357482257234911E-002   8.7634710174703395E-003   4.0373665312641152E-002
  -2.7634010236973604E-002   8.1698204657139201E-003   4.2193516888956728E-002
  -2.5910538216712325E-002   7.5271547105402216E-003   4.4125273144718119E-002
  -2.4187066196451022E-002   6.8354737519492068E-003   4.6168934079925027E-002
  -2.2463594176189740E-002   6.0947775899407308E-003   4.8324499694577652E-002
  -3.0826972504222561E-002   1.0241652567316628E-002   2.9169025336740206E-002
  -2.9031571141996240E-002   9.5625548319405174E-003   3.2262042107420674E-002
  -2.7236169779769920E-002   8.8016944205947106E-003   3.5387012882585694E-002
  -2.5440768417543606E-002   7.9590713332791559E-003   3.8543937662234865E-002
  -2.3645367055317279E-002   7.0346855699942035E-003   4.1732816446368615E-002
  -1.2565914908643026E-002   3.2750536497802019E-003   6.6899169413888071E-002
  -1.1428093410287596E-002   3.0811081472632562E-003   6.5115304941234520E-002
  -1.0290271911932176E-002   2.8292991418302771E-003   6.4037230677630896E-002
  -9.1524504135767539E-003   2.5196266334812922E-003   6.3664946623076923E-002
  -8.0146289152213251E-003   2.1520906222159963E-003   6.3998452777573100E-002
  -1.6923868102852582E-002   4.2149616298338133E-003   6.0907676178337311E-002
  -1.5215950773135940E-002   3.8393443136255367E-003   6.0007372120634506E-002
  -1.3508033443419297E-002   3.4426465422238983E-003   5.9541469516604328E-002
  -1.1800116113702696E-002   3.0248683156293907E-003   5.9509968366246668E-002
  -1.0092198783986036E-002   2.5860096338420346E-003   5.9912868669561692E-002
  -2.0223094525368170E-002   5.1548696098872582E-003   5.4716119605233676E-002
  -1.8216470119667594E-002   4.5975804799877062E-003   5.4736159010204788E-002
  -1.6209845713967035E-002   4.0559939426179636E-003   5.4919211113471006E-002
  -1.4203221308266465E-002   3.5301099977781553E-003   5.5265275915032649E-002
  -1.2196596902565898E-002   3.0199286454680174E-003   5.5774353414889399E-002
  -2.2463594176189740E-002   6.0947775899407308E-003   4.8324499694577652E-002
  -2.0429651449882531E-002   5.3558166463497647E-003   4.9301665609945304E-002
  -1.8395708723575314E-002   4.6693413430118069E-003   5.0170455468230804E-002
  -1.6361765997268130E-002   4.0353516799266423E-003   5.0930869269434333E-002
  -1.4327823270960886E-002   3.4538476570939169E-003   5.1582907013555925E-002
  -2.3645367055317279E-002   7.0346855699942035E-003   4.1732816446368615E-002
  -2.1855494763780722E-002   6.1140528127122118E-003   4.3703891919855908E-002
  -2.0065622472244179E-002   5.2826887434057057E-003   4.5295202580883653E-002
  -1.8275750180707637E-002   4.5405933620749767E-003   4.6506748429452266E-002
  -1.6485877889171080E-002   3.8877666687200385E-003   4.7338529465561385E-002
  -8.0146289152213251E-003   2.1520906222159963E-003   6.3998452777573100E-002
  -7.0344199596823476E-003   1.8253983586738465E-003   6.3910755109821582E-002
  -6.0542110041433665E-003   1.6382570934941054E-003   6.4067281159255807E-002
  -5.0740020486043855E-003   1.5906668266758642E-003   6.4468030925876108E-002
  -4.0937930930654079E-003   1.6826275582196848E-003   6.5113004409682596E-002
  -1.0092198783986036E-002   2.5860096338420346E-003   5.9912868669561692E-002
  -8.8748293085773311E-003   2.2047896591270710E-003   5.9929233988528730E-002
  -7.6574598331686557E-003   1.9599275537502125E-003   6.0175696630049319E-002
  -6.4400903577599691E-003   1.8514233177115494E-003   6.0652256594123419E-002
  -5.2227208823512755E-003   1.8792769510113105E-003   6.1358913880750821E-002
  -1.2196596902565898E-002   3.0199286454680174E-003   5.5774353414889399E-002
  -1.0756193301920024E-002   2.5841809595800458E-003   5.5891588591551467E-002
  -9.3157897012741374E-003   2.2815980140066389E-003   5.6224794696134298E-002
  -7.8753861006282695E-003   2.1121798087474532E-003   5.6773971728638288E-002
  -6.4349824999823772E-003   2.0759263438028808E-003   5.7539119689063001E-002
  -1.4327823270960886E-002   3.4538476570939169E-003   5.1582907013555925E-002
  -1.2678511939710379E-002   2.9635722600331454E-003   5.1797818918889092E-002
  -1.1029200608459843E-002   2.6032684742627391E-003   5.2214575357510618E-002
  -9.3798892772093516E-003   2.3729362997834697E-003   5.2833176329420625E-002
  -7.7305779459588024E-003   2.2725757365942567E-003   5.3653621834618873E-002
  -1.6485877889171080E-002   3.8877666687200385E-003   4.7338529465561385E-002
  -1.4641785221948436E-002   3.3429635604861341E-003   4.7647924970542044E-002
  -1.2797692554725765E-002   2.9249389345194221E-003   4.8145038614178404E-002
  -1.0953599887503107E-002   2.6336927908191046E-003   4.8829870396470604E-002
  -9.1095072202804495E-003   2.4692251293859657E-003   4.9702420317418672E-002
  -4.0937930930654079E-003   1.6826275582196848E-003   6.5113004409682596E-002
  -3.5729969958065433E-003   1.9627955566152155E-003   6.4198216409103726E-002
  -3.0522008985476960E-003   2.4798270903512720E-003   6.3415368851017395E-002
  -2.5314048012888488E-003   3.2337221594279236E-003   6.2764461735423271E-002
  -2.0106087040299842E-003   4.2244807638446291E-003   6.2245495062321576E-002
  -5.2227208823512755E-003   1.8792769510113105E-003   6.1358913880750821E-002
  -4.5485271240129216E-003   2.1387268180699803E-003   6.0664098337174177E-002
  -3.8743333656745885E-003   2.7250112833085982E-003   6.0144137673264292E-002
  -3.2001396073362328E-003   3.6381303467264425E-003   5.9799031889021040E-002
  -2.5259458489978702E-003   4.8780840083245680E-003   5.9628780984444463E-002
  -6.4349824999823772E-003   2.0759263438028808E-003   5.7539119689063001E-002
  -5.5644766433901940E-003   2.3146580795248839E-003   5.7154247665327534E-002
  -4.6939707867979675E-003   2.9701954762656746E-003   5.6987144958433072E-002
  -3.8234649302057444E-003   4.0425385340253986E-003   5.7037811568379754E-002
  -2.9529590736135595E-003   5.5316872528040073E-003   5.7306247495167467E-002
  -7.7305779459588024E-003   2.2725757365942567E-003   5.3653621834618873E-002
  -6.6208455539383268E-003   2.4905893409796626E-003   5.3668664393563922E-002
  -5.5111131619178799E-003   3.2153796692232089E-003   5.3944390706524077E-002
  -4.4013807698974122E-003   4.4469467213241361E-003   5.4480800773499843E-002
  -3.2916483778769588E-003   6.1852904972834744E-003   5.5277894594491069E-002
  -9.1095072202804495E-003   2.4692251293859657E-003   4.9702420317418672E-002
  -7.7176338556573520E-003   2.6665206024346078E-003   5.0207348521883022E-002
  -6.3257604910342824E-003   3.4605638621801604E-003   5.1015874917537063E-002
  -4.9338871264112058E-003   4.8513549086232274E-003   5.2127999504380934E-002
  -3.5420137617881153E-003   6.8388937417631634E-003   5.3543722282414663E-002
  -2.0106087040299842E-003   4.2244807638446291E-003   6.2245495062321576E-002
  -2.2621152644260942E-003   5.5274997139453941E-003   5.8250453528036372E-002
  -2.5136218248221834E-003   7.2181758200715873E-003   5.4245219693988267E-002
  -2.7651283852183021E-003   9.2965090822233545E-003   5.0229793560177011E-002
  -3.0166349456143826E-003   1.1762499500401091E-002   4.6204175126602909E-002
  -2.5259458489978702E-003   4.8780840083245680E-003   5.9628780984444463E-002
  -2.8045436093269253E-003   6.5056305278800575E-003   5.6123168607222718E-002
  -3.0831413696559683E-003   8.5815281651723530E-003   5.2573566129897942E-002
  -3.3617391299849862E-003   1.1105776920200240E-002   4.8979973552470912E-002
  -3.6403368903140804E-003   1.4078376792964864E-002   4.5342390874939964E-002
  -2.9529590736135595E-003   5.5316872528040073E-003   5.7306247495167467E-002
  -3.2924458342153753E-003   7.4837613418149429E-003   5.4350758236719560E-002
  -3.6319325948172042E-003   9.9448805102729937E-003   5.1317481077828839E-002
  -3.9714193554190123E-003   1.2915044758177344E-002   4.8206416018495853E-002
  -4.3109061160208489E-003   1.6394254085528637E-002   4.5017563058719734E-002
  -3.2916483778769588E-003   6.1852904972834744E-003   5.5277894594491069E-002
  -3.7258219390913731E-003   8.4618921557501614E-003   5.2933222416527141E-002
  -4.1599955003058008E-003   1.1308232855373475E-002   5.0476964537780972E-002
  -4.5941690615202016E-003   1.4724312596154450E-002   4.7909120958252324E-002
  -5.0283426227346424E-003   1.8710131378092409E-002   4.5229691677940553E-002
  -3.5420137617881153E-003   6.8388937417631634E-003   5.3543722282414663E-002
  -4.1046719239550139E-003   9.4400229696848248E-003   5.1870561146645566E-002
  -4.6673300861218708E-003   1.2671585200474511E-002   5.0052016509753883E-002
  -5.2299882482887278E-003   1.6533580434131251E-002   4.8088088371740001E-002
  -5.7926464104556263E-003   2.1026008670656182E-002   4.5978776732603865E-002
  -2.9705254848259477E-002   1.7662043096540847E-002 -0.12874577085502453     
  -3.1618813560677875E-002   1.8232623932898151E-002  -9.5875941911934048E-002
  -3.3532372273096273E-002   1.8286372754226773E-002  -6.8312734311903239E-002
  -3.5445930985514670E-002   1.7823289560526614E-002  -4.6056148054932119E-002
  -3.7359489697933068E-002   1.6843374351797780E-002  -2.9106183141020647E-002
  -8.8714512454831362E-003   2.1958124838740545E-002  -5.2305671513150354E-002
  -1.4712754297442385E-002   2.0439109442869557E-002  -3.5450881858275080E-002
  -2.0554057349401626E-002   1.9054821129683555E-002  -2.1144959539421720E-002
  -2.6395360401360871E-002   1.7805259899182236E-002  -9.3879045565904845E-003
  -3.2236663453320109E-002   1.6690425751365867E-002  -1.7971690978119126E-004
  -5.2405114682685661E-003   2.6254206580940215E-002   2.1719052047638451E-002
  -1.2251804852731144E-002   2.2645594952840964E-002   2.3210361512012348E-002
  -1.9263098237193618E-002   1.9823269505140149E-002   2.4910557647401819E-002
  -2.6274391621656120E-002   1.7787230237837806E-002   2.6819640453806904E-002
  -3.3285685006118615E-002   1.6537477150933982E-002   2.8937609931227612E-002
  -1.8812435516616301E-002   3.0550288323139899E-002   9.3328399827342437E-002
  -2.4235965226544341E-002   2.4852080462812370E-002   8.0107788198928304E-002
  -2.9659494936472373E-002   2.0591717880596893E-002   6.9853817248567568E-002
  -3.5083024646400472E-002   1.7769200576493512E-002   6.2566486976259980E-002
  -4.0506554356328509E-002   1.6384528550502139E-002   5.8245797382005637E-002
  -4.9587223390525792E-002   3.4846370065339582E-002  0.16252237182596113     
  -5.0665235418881793E-002   2.7058565972783777E-002  0.13524139820247272     
  -5.1743247447237795E-002   2.1360166256053512E-002  0.11368481926407534     
  -5.2821259475593796E-002   1.7751170915149033E-002   9.7852635010768782E-002
  -5.3899271503949797E-002   1.6231579950070241E-002   8.7744845442553066E-002
  -3.7359489697933068E-002   1.6843374351797780E-002  -2.9106183141020647E-002
  -3.6976556463480505E-002   1.5670814957672030E-002  -1.6566527000790116E-002
  -3.6593623229027886E-002   1.4629799207781499E-002  -5.7980448173537147E-003
  -3.6210689994575294E-002   1.3720327102125864E-002   3.1992634092883887E-003
  -3.5827756760122703E-002   1.2942398640705288E-002   1.0425397679136417E-002
  -3.2236663453320109E-002   1.6690425751365867E-002  -1.7971690978119126E-004
  -3.3178353563886986E-002   1.5690525441781775E-002   6.7479841638199839E-003
  -3.4120043674453843E-002   1.4785765725977076E-002   1.2797612504176423E-002
  -3.5061733785020706E-002   1.3976146603952192E-002   1.7969168111287979E-002
  -3.6003423895587562E-002   1.3261668075707056E-002   2.2262650985155036E-002
  -3.3285685006118615E-002   1.6537477150933982E-002   2.8937609931227612E-002
  -3.4658897238155476E-002   1.5710235925891408E-002   3.0216952887743953E-002
  -3.6032109470192364E-002   1.4941732244173049E-002   3.1511324334565015E-002
  -3.7405321702229231E-002   1.4231966105778744E-002   3.2820724271690735E-002
  -3.8778533934266106E-002   1.3580937510708629E-002   3.4145152699121134E-002
  -4.0506554356328509E-002   1.6384528550502139E-002   5.8245797382005637E-002
  -4.1418187486285986E-002   1.5729946410001097E-002   5.3840379170981667E-002
  -4.2329820616243456E-002   1.5097698762368741E-002   5.0343090673811978E-002
  -4.3241453746200920E-002   1.4487785607605129E-002   4.7753931890496183E-002
  -4.4153086876158404E-002   1.3900206945710356E-002   4.6072902821034718E-002
  -5.3899271503949797E-002   1.6231579950070241E-002   8.7744845442553066E-002
  -5.3456224308278455E-002   1.5749656894110842E-002   7.7618263013533417E-002
  -5.3013177112607085E-002   1.5253665280564724E-002   6.9292911521917327E-002
  -5.2570129916935729E-002   1.4743605109431766E-002   6.2768790967704727E-002
  -5.2127082721264428E-002   1.4219476380711971E-002   5.8045901350895712E-002
  -3.5827756760122703E-002   1.2942398640705288E-002   1.0425397679136417E-002
  -3.4577560696147674E-002   1.2239484531641281E-002   1.5825409528797463E-002
  -3.3327364632172632E-002   1.1555055483055160E-002   2.0749351421618406E-002
  -3.2077168568197596E-002   1.0889111494946736E-002   2.5197223357599358E-002
  -3.0826972504222561E-002   1.0241652567316628E-002   2.9169025336740206E-002
  -3.6003423895587562E-002   1.3261668075707056E-002   2.2262650985155036E-002
  -3.5091549554858964E-002   1.2605849312148254E-002   2.5221300163231625E-002
  -3.4179675214130387E-002   1.1972209484183038E-002   2.7979375851655455E-002
  -3.3267800873401795E-002   1.1360748591811257E-002   3.0536878050426271E-002
  -3.2355926532673135E-002   1.0771466635033311E-002   3.2893806759544453E-002
  -3.8778533934266106E-002   1.3580937510708629E-002   3.4145152699121134E-002
  -3.7929484849596726E-002   1.2972214092655213E-002   3.4666133080729009E-002
  -3.7080435764927380E-002   1.2389363485311014E-002   3.5262036439871136E-002
  -3.6231386680257986E-002   1.1832385688675829E-002   3.5932862776547655E-002
  -3.5382337595588655E-002   1.1301280702749855E-002   3.6678612090758636E-002
  -4.4153086876158404E-002   1.3900206945710356E-002   4.6072902821034718E-002
  -4.3091366580361085E-002   1.3338578873162206E-002   4.4159908281289420E-002
  -4.2029646284563731E-002   1.2806517486438719E-002   4.2597333186265657E-002
  -4.0967925988766370E-002   1.2304022785540209E-002   4.1385177535963387E-002
  -3.9906205692969064E-002   1.1831094770466413E-002   4.0523441330382895E-002
  -5.2127082721264428E-002   1.4219476380711971E-002   5.8045901350895712E-002
  -5.0577194747151888E-002   1.3704943653669144E-002   5.3702625764912915E-002
  -4.9027306773039375E-002   1.3223671487566757E-002   4.9985266090838809E-002
  -4.7477418798926849E-002   1.2775659882404811E-002   4.6893822328673479E-002
  -4.5927530824814350E-002   1.2360908838183082E-002   4.4428294478417008E-002
  -3.0826972504222561E-002   1.0241652567316628E-002   2.9169025336740206E-002
  -2.9031571141996240E-002   9.5625548319405174E-003   3.2262042107420674E-002
  -2.7236169779769920E-002   8.8016944205947106E-003   3.5387012882585694E-002
  -2.5440768417543606E-002   7.9590713332791559E-003   3.8543937662234865E-002
  -2.3645367055317279E-002   7.0346855699942035E-003   4.1732816446368615E-002
  -3.2355926532673135E-002   1.0771466635033311E-002   3.2893806759544453E-002
  -3.0499304205750109E-002   1.0149478104328202E-002   3.4433956076264038E-002
  -2.8642681878827035E-002   9.4398974901760691E-003   3.6064593317892607E-002
  -2.6786059551903971E-002   8.6427247925767239E-003   3.7785718484430214E-002
  -2.4929437224980922E-002   7.7579600115303404E-003   3.9597331575877026E-002
  -3.5382337595588655E-002   1.1301280702749855E-002   3.6678612090758636E-002
  -3.3405960383544216E-002   1.0736401376716082E-002   3.6660064546039595E-002
  -3.1429583171499770E-002   1.0078100559757476E-002   3.6790538846654362E-002
  -2.9453205959455331E-002   9.3263782518742348E-003   3.7070034992602904E-002
  -2.7476828747410836E-002   8.4812344530661998E-003   3.7498552983884964E-002
  -3.9906205692969064E-002   1.1831094770466413E-002   4.0523441330382895E-002
  -3.7751539675378601E-002   1.1323324649103753E-002   3.8940367516747863E-002
  -3.5596873657788027E-002   1.0716303629338914E-002   3.7564849468871050E-002
  -3.3442207640197480E-002   1.0010031711171718E-002   3.6396887186752803E-002
  -3.1287541622606996E-002   9.2045088946021980E-003   3.5436480670392748E-002
  -4.5927530824814350E-002   1.2360908838183082E-002   4.4428294478417008E-002
  -4.3536042081253140E-002   1.1910247921491646E-002   4.1274864988388227E-002
  -4.1144553337691889E-002   1.1354506698920297E-002   3.8387525184542637E-002
  -3.8753064594130672E-002   1.0693685170469217E-002   3.5766275066879988E-002
  -3.6361575850569428E-002   9.9277833361381962E-003   3.3411114635400363E-002
  -2.3645367055317279E-002   7.0346855699942035E-003   4.1732816446368615E-002
  -2.1855494763780722E-002   6.1140528127122118E-003   4.3703891919855908E-002
  -2.0065622472244179E-002   5.2826887434057057E-003   4.5295202580883653E-002
  -1.8275750180707637E-002   4.5405933620749767E-003   4.6506748429452266E-002
  -1.6485877889171080E-002   3.8877666687200385E-003   4.7338529465561385E-002
  -2.4929437224980922E-002   7.7579600115303404E-003   3.9597331575877026E-002
  -2.3399172348370266E-002   6.8734276056850452E-003   4.0513905855044330E-002
  -2.1868907471759624E-002   6.0769520336903943E-003   4.1291030116819061E-002
  -2.0338642595148986E-002   5.3685332955461761E-003   4.1928704361201344E-002
  -1.8808377718538383E-002   4.7481713912521650E-003   4.2426928588191193E-002
  -2.7476828747410836E-002   8.4812344530661998E-003   3.7498552983884964E-002
  -2.5965856490659352E-002   7.6328023986582949E-003   3.7359414214607159E-002
  -2.4454884233907757E-002   6.8712153239753049E-003   3.7321140223003507E-002
  -2.2943911977156197E-002   6.1964732290172644E-003   3.7383731009074259E-002
  -2.1432939720404630E-002   5.6085761137842916E-003   3.7547186572819358E-002
  -3.1287541622606996E-002   9.2045088946021980E-003   3.5436480670392748E-002
  -2.9555547190647749E-002   8.3921771916315030E-003   3.4240416998544382E-002
  -2.7823552758688454E-002   7.6654786142599934E-003   3.3385532899436986E-002
  -2.6091558326729210E-002   7.0244131624885194E-003   3.2871828373070774E-002
  -2.4359563894769915E-002   6.4689808363163070E-003   3.2699303419445581E-002
  -3.6361575850569428E-002   9.9277833361381962E-003   3.3411114635400363E-002
  -3.4168244448335661E-002   9.1515519846043780E-003   3.1156914206855901E-002
  -3.1974913046101838E-002   8.4597419045450151E-003   2.9484208146119462E-002
  -2.9781581643868071E-002   7.8523530959595245E-003   2.8392996453190988E-002
  -2.7588250241634249E-002   7.3293855588485446E-003   2.7883279128070315E-002
  -1.6485877889171080E-002   3.8877666687200385E-003   4.7338529465561385E-002
  -1.4641785221948436E-002   3.3429635604861341E-003   4.7647924970542044E-002
  -1.2797692554725765E-002   2.9249389345194221E-003   4.8145038614178404E-002
  -1.0953599887503107E-002   2.6336927908191046E-003   4.8829870396470604E-002
  -9.1095072202804495E-003   2.4692251293859657E-003   4.9702420317418672E-002
  -1.8808377718538383E-002   4.7481713912521650E-003   4.2426928588191193E-002
  -1.6798599769328543E-002   4.2070289569520192E-003   4.2510809358206114E-002
  -1.4788821820118772E-002   3.7362686287892577E-003   4.2738342553539560E-002
  -1.2779043870908970E-002   3.3358904067644565E-003   4.3109528174191392E-002
  -1.0769265921699217E-002   3.0058942908769426E-003   4.3624366220161581E-002
  -2.1432939720404630E-002   5.6085761137842916E-003   3.7547186572819358E-002
  -1.9301542202545170E-002   5.0710943534178488E-003   3.7349156231739344E-002
  -1.7170144684685737E-002   4.5475983230597455E-003   3.7250712602640443E-002
  -1.5038747166826336E-002   4.0380880227099160E-003   3.7251855685522438E-002
  -1.2907349648966844E-002   3.5425634523681970E-003   3.7352585480385253E-002
  -2.4359563894769915E-002   6.4689808363163070E-003   3.2699303419445581E-002
  -2.2150612521598338E-002   5.9351597498835396E-003   3.2162965591141478E-002
  -1.9941661148426701E-002   5.3589280173299073E-003   3.1682148761481038E-002
  -1.7732709775255099E-002   4.7402856386549886E-003   3.1256852930464152E-002
  -1.5523758402083492E-002   4.0792326138593127E-003   3.0887078098090402E-002
  -2.7588250241634249E-002   7.3293855588485446E-003   2.7883279128070315E-002
  -2.5345810726487950E-002   6.7992251463495079E-003   2.6952237436413062E-002
  -2.3103371211341650E-002   6.1702577116001245E-003   2.6032651030061527E-002
  -2.0860931696195351E-002   5.4424832546007967E-003   2.5124519909016041E-002
  -1.8618492181049051E-002   4.6159017753504283E-003   2.4227844073276605E-002
  -9.1095072202804495E-003   2.4692251293859657E-003   4.9702420317418672E-002
  -7.7176338556573520E-003   2.6665206024346078E-003   5.0207348521883022E-002
  -6.3257604910342824E-003   3.4605638621801604E-003   5.1015874917537063E-002
  -4.9338871264112058E-003   4.8513549086232274E-003   5.2127999504380934E-002
  -3.5420137617881153E-003   6.8388937417631634E-003   5.3543722282414663E-002
  -1.0769265921699217E-002   3.0058942908769426E-003   4.3624366220161581E-002
  -9.0485258913761135E-003   2.9815343820002171E-003   4.4245056920577230E-002
  -7.3277858610530031E-003   3.4980647810065046E-003   4.5219882761203228E-002
  -5.6070458307299169E-003   4.5554854878961798E-003   4.6548843742039311E-002
  -3.8863058004068446E-003   6.1537965026697838E-003   4.8231939863085604E-002
  -1.2907349648966844E-002   3.5425634523681970E-003   3.7352585480385253E-002
  -1.0807206003923382E-002   3.2965481615655767E-003   3.8033181197938803E-002
  -8.7070623588798995E-003   3.5355656998326407E-003   3.9118449004722930E-002
  -6.6069187138364151E-003   4.2596160671696907E-003   4.0608388900737653E-002
  -4.5067750687929550E-003   5.4686992635762932E-003   4.2503000885983022E-002
  -1.5523758402083492E-002   4.0792326138593127E-003   3.0887078098090402E-002
  -1.2993674193299195E-002   3.6115619411310612E-003   3.1571721353968102E-002
  -1.0463589984514899E-002   3.5730666186589918E-003   3.2711573648096848E-002
  -7.9335057757306312E-003   3.9637466464431444E-003   3.4306634980476605E-002
  -5.4034215669463617E-003   4.7836020244829691E-003   3.6356905351107305E-002
  -1.8618492181049051E-002   4.6159017753504283E-003   2.4227844073276605E-002
  -1.5607930459503538E-002   3.9265757206965457E-003   2.4860677388664709E-002
  -1.2597368737958081E-002   3.6105675374850099E-003   2.5999256691324413E-002
  -9.5868070164125962E-003   3.6678772257161818E-003   2.7643581981255494E-002
  -6.5762452948671113E-003   4.0985047853896450E-003   2.9793653258457953E-002
  -3.5420137617881153E-003   6.8388937417631634E-003   5.3543722282414663E-002
  -4.1046719239550139E-003   9.4400229696848248E-003   5.1870561146645566E-002
  -4.6673300861218708E-003   1.2671585200474511E-002   5.0052016509753883E-002
  -5.2299882482887278E-003   1.6533580434131251E-002   4.8088088371740001E-002
  -5.7926464104556263E-003   2.1026008670656182E-002   4.5978776732603865E-002
  -3.8863058004068446E-003   6.1537965026697838E-003   4.8231939863085604E-002
  -4.4897870331986195E-003   8.6042758153139776E-003   4.7284101573409898E-002
  -5.0932682659904013E-003   1.2218201415817614E-002   4.6400000643606665E-002
  -5.6967494987821103E-003   1.6995573304179938E-002   4.5579637073675905E-002
  -6.3002307315739026E-003   2.2936391480401719E-002   4.4823010863618062E-002
  -4.5067750687929550E-003   5.4686992635762932E-003   4.2503000885983022E-002
  -4.9419585112146398E-003   7.7685286609431858E-003   4.2813498727392207E-002
  -5.3771419536363489E-003   1.1764817631160274E-002   4.3396854789668871E-002
  -5.8123253960580094E-003   1.7457566174228625E-002   4.4253069072812623E-002
  -6.2475088384797428E-003   2.4846774290147255E-002   4.5382141576825075E-002
  -5.4034215669463617E-003   4.7836020244829691E-003   3.6356905351107305E-002
  -5.4611863580030879E-003   6.9327815065722553E-003   3.8458752608592904E-002
  -5.5189511490598159E-003   1.1311433846503599E-002   4.1042578947941027E-002
  -5.5767159401165041E-003   1.7919559044277091E-002   4.4108384369151842E-002
  -5.6344807311732165E-003   2.6757157099892792E-002   4.7656168872224597E-002
  -6.5762452948671113E-003   4.0985047853896450E-003   2.9793653258457953E-002
  -6.0474705735638901E-003   6.0970343522016579E-003   3.4219863217011759E-002
  -5.5186958522606966E-003   1.0858050061846092E-002   3.9337173118422664E-002
  -4.9899211309573782E-003   1.8381551914325958E-002   4.5145582962691666E-002
  -4.4611464096542264E-003   2.8667539909638329E-002   5.1645092749817323E-002
  -4.9587223390525792E-002   3.4846370065339582E-002  0.16252237182596113     
  -5.0665235418881793E-002   2.7058565972783777E-002  0.13524139820247272     
  -5.1743247447237795E-002   2.1360166256053512E-002  0.11368481926407534     
  -5.2821259475593796E-002   1.7751170915149033E-002   9.7852635010768782E-002
  -5.3899271503949797E-002   1.6231579950070241E-002   8.7744845442553066E-002
  -8.0141298266212080E-002   1.4290596870734362E-002   9.3554081231449204E-002
  -7.7245479297487790E-002   1.7451631375191873E-002   8.2614527604900484E-002
  -7.4349660328763362E-002   1.9418649229706986E-002   7.3898241287421673E-002
  -7.1453841360039003E-002   2.0191650434279979E-002   6.7405222279012633E-002
  -6.8558022391314699E-002   1.9770634988910685E-002   6.3135470579673503E-002
  -9.3051083319889788E-002  -6.2651763238708302E-003   3.7176339746834555E-002
  -8.9682560730106206E-002   7.8446967775998022E-003   3.9294785091457729E-002
  -8.6314038140322596E-002   1.7477132203360495E-002   4.0135370369129585E-002
  -8.2945515550538987E-002   2.2632129953410872E-002   3.9698095579850143E-002
  -7.9576992960755391E-002   2.3309690027751045E-002   3.7982960723619466E-002
  -8.8316578551559125E-002  -2.6820949518476092E-002  -6.6108526278827080E-003
  -8.7976479716737291E-002  -1.7622378199919075E-003   5.2821706621441790E-003
  -8.7636380881915416E-002   1.5535615177013986E-002   1.2396206509198709E-002
  -8.7296282047093637E-002   2.5072609472541734E-002   1.4731254913281061E-002
  -8.6956183212271776E-002   2.6848745066591309E-002   1.2287315874391042E-002
  -6.5937783961219854E-002  -4.7376722713081243E-002  -3.7807495892702825E-002
  -7.2127236257380933E-002  -1.1369172417583950E-002  -1.9423315683040066E-002
  -7.8316688553541902E-002   1.3594098150667366E-002  -9.3192502923706289E-003
  -8.4506140849702926E-002   2.7513088991672735E-002  -7.4952997206947508E-003
  -9.0695593145863951E-002   3.0387800105431850E-002  -1.3951463968011946E-002
  -5.3899271503949797E-002   1.6231579950070241E-002   8.7744845442553066E-002
  -5.3456224308278455E-002   1.5749656894110842E-002   7.7618263013533417E-002
  -5.3013177112607085E-002   1.5253665280564724E-002   6.9292911521917327E-002
  -5.2570129916935729E-002   1.4743605109431766E-002   6.2768790967704727E-002
  -5.2127082721264428E-002   1.4219476380711971E-002   5.8045901350895712E-002
  -6.8558022391314699E-002   1.9770634988910685E-002   6.3135470579673503E-002
  -6.6628879351597989E-002   1.8813575337185209E-002   5.6387463215041692E-002
  -6.4699736311881292E-002   1.7978443922690365E-002   5.0810416601096892E-002
  -6.2770593272164638E-002   1.7265240745425400E-002   4.6404330737839339E-002
  -6.0841450232447941E-002   1.6673965805391100E-002   4.3169205625268825E-002
  -7.9576992960755391E-002   2.3309690027751045E-002   3.7982960723619466E-002
  -7.6792024263709735E-002   2.1877493780259855E-002   3.4749525218192551E-002
  -7.4007055566664176E-002   2.0703222564815889E-002   3.2056780276736231E-002
  -7.1222086869618520E-002   1.9786876381419252E-002   2.9904725899250546E-002
  -6.8437118172572947E-002   1.9128455230070229E-002   2.8293362085735727E-002
  -8.6956183212271776E-002   2.6848745066591309E-002   1.2287315874391042E-002
  -8.3945659044613680E-002   2.4941412223334306E-002   1.2704449022985832E-002
  -8.0935134876955528E-002   2.3428001206941582E-002   1.3032002548835115E-002
  -7.7924610709297418E-002   2.2308512017413080E-002   1.3269976451938524E-002
  -7.4914086541639266E-002   2.1582944654749248E-002   1.3418370732296521E-002
  -9.0695593145863951E-002   3.0387800105431850E-002  -1.3951463968011946E-002
  -8.8089783694309698E-002   2.8005330666408701E-002  -9.7477653705779765E-003
  -8.5483974242755556E-002   2.6152779849066998E-002  -6.2639165826062493E-003
  -8.2878164791201414E-002   2.4830147653406784E-002  -3.4999176040965627E-003
  -8.0272355339647161E-002   2.4037434079428377E-002  -1.4557684350491318E-003
  -5.2127082721264428E-002   1.4219476380711971E-002   5.8045901350895712E-002
  -5.0577194747151888E-002   1.3704943653669144E-002   5.3702625764912915E-002
  -4.9027306773039375E-002   1.3223671487566757E-002   4.9985266090838809E-002
  -4.7477418798926849E-002   1.2775659882404811E-002   4.6893822328673479E-002
  -4.5927530824814350E-002   1.2360908838183082E-002   4.4428294478417008E-002
  -6.0841450232447941E-002   1.6673965805391100E-002   4.3169205625268825E-002
  -5.8709252079263752E-002   1.6136719635572894E-002   3.9910718809578666E-002
  -5.6577053926079521E-002   1.5585602768956264E-002   3.7190936440123085E-002
  -5.4444855772895269E-002   1.5020615205542265E-002   3.5009858516902331E-002
  -5.2312657619711100E-002   1.4441756945329731E-002   3.3367485039915878E-002
  -6.8437118172572947E-002   1.9128455230070229E-002   2.8293362085735727E-002
  -6.5809821305991140E-002   1.8568495617476533E-002   2.6072532782599703E-002
  -6.3182524439409388E-002   1.7947534050346214E-002   2.4303196460024296E-002
  -6.0555227572827580E-002   1.7265570528679552E-002   2.2985353118009547E-002
  -5.7927930706245780E-002   1.6522605052476269E-002   2.2119002756555151E-002
  -7.4914086541639266E-002   2.1582944654749248E-002   1.3418370732296521E-002
  -7.1878902427334052E-002   2.1000271599380255E-002   1.2188067683976081E-002
  -6.8843718313028893E-002   2.0309465331735888E-002   1.1322046150542664E-002
  -6.5808534198723762E-002   1.9510525851816923E-002   1.0820306131994910E-002
  -6.2773350084418533E-002   1.8603453159622918E-002   1.0682847628334165E-002
  -8.0272355339647161E-002   2.4037434079428377E-002  -1.4557684350491318E-003
  -7.6916495443292709E-002   2.3432047581283866E-002  -1.7426764862916166E-003
  -7.3560635546938202E-002   2.2671396613125561E-002  -1.7525144883227539E-003
  -7.0204775650583695E-002   2.1755481174954461E-002  -1.4852824411408366E-003
  -6.6848915754229243E-002   2.0684301266769567E-002  -9.4098034474698888E-004
  -4.5927530824814350E-002   1.2360908838183082E-002   4.4428294478417008E-002
  -4.3536042081253140E-002   1.1910247921491646E-002   4.1274864988388227E-002
  -4.1144553337691889E-002   1.1354506698920297E-002   3.8387525184542637E-002
  -3.8753064594130672E-002   1.0693685170469217E-002   3.5766275066879988E-002
  -3.6361575850569428E-002   9.9277833361381962E-003   3.3411114635400363E-002
  -5.2312657619711100E-002   1.4441756945329731E-002   3.3367485039915878E-002
  -4.9658402713875019E-002   1.3826868400959591E-002   3.0898950645642465E-002
  -4.7004147808039048E-002   1.3153789985072703E-002   2.8689858889735659E-002
  -4.4349892902203050E-002   1.2422521697668592E-002   2.6740209772195281E-002
  -4.1695637996366997E-002   1.1633063538747712E-002   2.5050003293021539E-002
  -5.7927930706245780E-002   1.6522605052476269E-002   2.2119002756555151E-002
  -5.5017556685951499E-002   1.5743488880427647E-002   2.0382253892399685E-002
  -5.2107182665657184E-002   1.4953073271224998E-002   1.8898300618794620E-002
  -4.9196808645362848E-002   1.4151358224867967E-002   1.7667142935739198E-002
  -4.6286434625068540E-002   1.3338343741357117E-002   1.6688780843233941E-002
  -6.2773350084418533E-002   1.8603453159622918E-002   1.0682847628334165E-002
  -5.9613503997482511E-002   1.7660109359895593E-002   9.7247747286597040E-003
  -5.6453657910546455E-002   1.6752356557377238E-002   9.0128503717191444E-003
  -5.3293811823610315E-002   1.5880194752067731E-002   8.5470745575118787E-003
  -5.0133965736674363E-002   1.5043623943966689E-002   8.3274472860381393E-003
  -6.6848915754229243E-002   2.0684301266769567E-002  -9.4098034474698888E-004
  -6.3446244648467820E-002   1.9576729839363427E-002  -1.0734868455773983E-003
  -6.0043573542706619E-002   1.8551639843529782E-002  -9.6649185149072503E-004
  -5.6640902436945306E-002   1.7609031279266295E-002  -6.1999536248726062E-004
  -5.3238231331183994E-002   1.6748904146576038E-002  -3.3997378566574810E-005
  -3.6361575850569428E-002   9.9277833361381962E-003   3.3411114635400363E-002
  -3.4168244448335661E-002   9.1515519846043780E-003   3.1156914206855901E-002
  -3.1974913046101838E-002   8.4597419045450151E-003   2.9484208146119462E-002
  -2.9781581643868071E-002   7.8523530959595245E-003   2.8392996453190988E-002
  -2.7588250241634249E-002   7.3293855588485446E-003   2.7883279128070315E-002
  -4.1695637996366997E-002   1.1633063538747712E-002   2.5050003293021539E-002
  -3.9012145432184037E-002   1.0833067473466851E-002   2.3508502840850209E-002
  -3.6328652868001132E-002   1.0070185466983711E-002   2.2365830344769244E-002
  -3.3645160303818158E-002   9.3444175192977999E-003   2.1621985804778504E-002
  -3.0961667739635268E-002   8.6557636304097629E-003   2.1276969220878184E-002
  -4.6286434625068540E-002   1.3338343741357117E-002   1.6688780843233941E-002
  -4.3295447310654087E-002   1.2514582962329324E-002   1.5812673154759038E-002
  -4.0304459996239633E-002   1.1680629029422407E-002   1.5152727010656813E-002
  -3.7313472681825180E-002   1.0836481942636186E-002   1.4708942410927135E-002
  -3.4322485367410727E-002   9.9821417019708703E-003   1.4481319355570232E-002
  -5.0133965736674363E-002   1.5043623943966689E-002   8.3274472860381393E-003
  -4.7018150083745824E-002   1.4196098451192241E-002   8.0694251485826790E-003
  -4.3902334430817390E-002   1.3291072591861547E-002   7.8448981437821835E-003
  -4.0786518777888942E-002   1.2328546365974573E-002   7.6538662716371629E-003
  -3.7670703124960417E-002   1.1308519773532588E-002   7.4963295321470585E-003
  -5.3238231331183994E-002   1.6748904146576038E-002  -3.3997378566574810E-005
  -5.0180253751459181E-002   1.5877613940054491E-002   2.7875882232081262E-004
  -4.7122276171734367E-002   1.4901516154300298E-002   4.4234374414572897E-004
  -4.4064298592009582E-002   1.3820610789312751E-002   4.5675738690844486E-004
  -4.1006321012284741E-002   1.2634897845093418E-002   3.2199975060831498E-004
  -2.7588250241634249E-002   7.3293855588485446E-003   2.7883279128070315E-002
  -2.5345810726487950E-002   6.7992251463495079E-003   2.6952237436413062E-002
  -2.3103371211341650E-002   6.1702577116001245E-003   2.6032651030061527E-002
  -2.0860931696195351E-002   5.4424832546007967E-003   2.5124519909016041E-002
  -1.8618492181049051E-002   4.6159017753504283E-003   2.4227844073276605E-002
  -3.0961667739635268E-002   8.6557636304097629E-003   2.1276969220878184E-002
  -2.8685029920496277E-002   7.9799579843559676E-003   2.0326158120443527E-002
  -2.6408392101357314E-002   7.2927347651732255E-003   1.9432288342688481E-002
  -2.4131754282218365E-002   6.5940939728621473E-003   1.8595359887612739E-002
  -2.1855116463079360E-002   5.8840356074217892E-003   1.7815372755216385E-002
  -3.4322485367410727E-002   9.9821417019708703E-003   1.4481319355570232E-002
  -3.1966163206905512E-002   9.1606908223620109E-003   1.3598128295480072E-002
  -2.9609841046400402E-002   8.4152118187465208E-003   1.2817364595442943E-002
  -2.7253518885895264E-002   7.7457046911236019E-003   1.2139028255458602E-002
  -2.4897196725390133E-002   7.1521694394933721E-003   1.1563119275526917E-002
  -3.7670703124960417E-002   1.1308519773532588E-002   7.4963295321470585E-003
  -3.5189210585715711E-002   1.0341423660368984E-002   6.7681479615228357E-003
  -3.2707718046470935E-002   9.5376888723196079E-003   6.1878797883247114E-003
  -3.0226225507226204E-002   8.8973154093851155E-003   5.7555250125531920E-003
  -2.7744732967981453E-002   8.4203032715647885E-003   5.4710836342082292E-003
  -4.1006321012284741E-002   1.2634897845093418E-002   3.2199975060831498E-004
  -3.8354172056926816E-002   1.1522156498375069E-002  -1.6378288142843145E-004
  -3.5702023101569003E-002   1.0660165925892640E-002  -4.5616607866558190E-004
  -3.3049874146211133E-002   1.0048926127647059E-002  -5.5514984110274085E-004
  -3.0397725190853264E-002   9.6884371036360939E-003  -4.6073416874004014E-004
  -1.8618492181049051E-002   4.6159017753504283E-003   2.4227844073276605E-002
  -1.5607930459503538E-002   3.9265757206965457E-003   2.4860677388664709E-002
  -1.2597368737958081E-002   3.6105675374850099E-003   2.5999256691324413E-002
  -9.5868070164125962E-003   3.6678772257161818E-003   2.7643581981255494E-002
  -6.5762452948671113E-003   4.0985047853896450E-003   2.9793653258457953E-002
  -2.1855116463079360E-002   5.8840356074217892E-003   1.7815372755216385E-002
  -1.8612943256556713E-002   5.2548630295848886E-003   1.8641869097918873E-002
  -1.5370770050034066E-002   4.7988796000838219E-003   1.9425842423304196E-002
  -1.2128596843511391E-002   4.5160853189180825E-003   2.0167292731372466E-002
  -8.8864236369887717E-003   4.4064801860879133E-003   2.0866220022123794E-002
  -2.4897196725390133E-002   7.1521694394933721E-003   1.1563119275526917E-002
  -2.1971681038478810E-002   6.5831503384735646E-003   1.2383149922436582E-002
  -1.9046165351567459E-002   5.9871916626827448E-003   1.2612388547440734E-002
  -1.6120649664656130E-002   5.3642934121194280E-003   1.2250835150539180E-002
  -1.3195133977744897E-002   4.7144555867860705E-003   1.1298489731732142E-002
  -2.7744732967981453E-002   8.4203032715647885E-003   5.4710836342082292E-003
  -2.5684143805269878E-002   7.9114376473619630E-003   6.0845198622178492E-003
  -2.3623554642558359E-002   7.1755037252808351E-003   5.5588950637341233E-003
  -2.1562965479846735E-002   6.2125015053220503E-003   3.8942092387556776E-003
  -1.9502376317135261E-002   5.0224309874838391E-003   1.0904623872836361E-003
  -3.0397725190853264E-002   9.6884371036360939E-003  -4.6073416874004014E-004
  -2.9750331556929854E-002   9.2397249562506945E-003  -2.5402108273742119E-004
  -2.9102937923006611E-002   8.3638157878808128E-003  -1.7346380278160101E-003
  -2.8455544289083340E-002   7.0607095985229795E-003  -4.9025850039782701E-003
  -2.7808150655159958E-002   5.3304063881824959E-003  -9.7578620112223069E-003
  -6.5762452948671113E-003   4.0985047853896450E-003   2.9793653258457953E-002
  -6.0474705735638901E-003   6.0970343522016579E-003   3.4219863217011759E-002
  -5.5186958522606966E-003   1.0858050061846092E-002   3.9337173118422664E-002
  -4.9899211309573782E-003   1.8381551914325958E-002   4.5145582962691666E-002
  -4.4611464096542264E-003   2.8667539909638329E-002   5.1645092749817323E-002
  -8.8864236369887717E-003   4.4064801860879133E-003   2.0866220022123794E-002
  -7.5951148952905917E-003   5.6257877159019976E-003   2.5988893219474285E-002
  -6.3038061535923839E-003   9.3297314226697958E-003   3.1945534514757179E-002
  -5.0124974118942733E-003   1.5518311306390781E-002   3.8736143907973003E-002
  -3.7211886701961072E-003   2.4191527367065424E-002   4.6360721399120619E-002
  -1.3195133977744897E-002   4.7144555867860705E-003   1.1298489731732142E-002
  -1.0998423060576530E-002   5.1545410796026148E-003   1.6839776201999723E-002
  -8.8017121434083787E-003   7.8014127834926950E-003   2.3357898925274401E-002
  -6.6050012262400849E-003   1.2655070698455818E-002   3.0852857901556258E-002
  -4.4082903090717496E-003   1.9715514824492519E-002   3.9324653130846543E-002
  -1.9502376317135261E-002   5.0224309874838391E-003   1.0904623872836361E-003
  -1.6257395069421823E-002   4.6832944433030932E-003   6.7725121645871716E-003
  -1.3012413821708499E-002   6.2730941443158855E-003   1.3574266349973309E-002
  -9.7674325739951877E-003   9.7918300905210816E-003   2.1495724943442217E-002
  -6.5224513262817363E-003   1.5239502281919393E-002   3.0536887944993485E-002
  -2.7808150655159958E-002   5.3304063881824959E-003  -9.7578620112223069E-003
  -2.3372030921826381E-002   4.2120478070037937E-003  -4.2128988927625510E-003
  -1.8935911188492804E-002   4.7447755051389651E-003   2.5946367888545763E-003
  -1.4499791455159228E-002   6.9285894825860395E-003   1.0664745033629477E-002
  -1.0063671721825651E-002   1.0763489739346710E-002   1.9997425841562277E-002
 </DataArray>
 </PointData>
 </Piece>
 </UnstructuredGrid>
 </VTKFile>
