 <VTKFile type="UnstructuredGrid"  version="0.1"   >
 <UnstructuredGrid>
 <Piece  NumberOfPoints="          1600 "  NumberOfCells="         1024 ">
 <Points>
 <DataArray  type="Float64" NumberOfComponents="3"  format="ascii" >
   0.0000000000000000        0.0000000000000000        0.0000000000000000     
   3.1250000000000000E-002   0.0000000000000000        0.0000000000000000     
   6.2500000000000000E-002   0.0000000000000000        0.0000000000000000     
   9.3750000000000000E-002   0.0000000000000000        0.0000000000000000     
  0.12500000000000000        0.0000000000000000        0.0000000000000000     
   0.0000000000000000        3.1250000000000000E-002   0.0000000000000000     
   3.1250000000000000E-002   3.1250000000000000E-002   0.0000000000000000     
   6.2500000000000000E-002   3.1250000000000000E-002   0.0000000000000000     
   9.3750000000000000E-002   3.1250000000000000E-002   0.0000000000000000     
  0.12500000000000000        3.1250000000000000E-002   0.0000000000000000     
   0.0000000000000000        6.2500000000000000E-002   0.0000000000000000     
   3.1250000000000000E-002   6.2500000000000000E-002   0.0000000000000000     
   6.2500000000000000E-002   6.2500000000000000E-002   0.0000000000000000     
   9.3750000000000000E-002   6.2500000000000000E-002   0.0000000000000000     
  0.12500000000000000        6.2500000000000000E-002   0.0000000000000000     
   0.0000000000000000        9.3750000000000000E-002   0.0000000000000000     
   3.1250000000000000E-002   9.3750000000000000E-002   0.0000000000000000     
   6.2500000000000000E-002   9.3750000000000000E-002   0.0000000000000000     
   9.3750000000000000E-002   9.3750000000000000E-002   0.0000000000000000     
  0.12500000000000000        9.3750000000000000E-002   0.0000000000000000     
   0.0000000000000000       0.12500000000000000        0.0000000000000000     
   3.1250000000000000E-002  0.12500000000000000        0.0000000000000000     
   6.2500000000000000E-002  0.12500000000000000        0.0000000000000000     
   9.3750000000000000E-002  0.12500000000000000        0.0000000000000000     
  0.12500000000000000       0.12500000000000000        0.0000000000000000     
  0.12500000000000000        0.0000000000000000        0.0000000000000000     
  0.15625000000000000        0.0000000000000000        0.0000000000000000     
  0.18750000000000000        0.0000000000000000        0.0000000000000000     
  0.21875000000000000        0.0000000000000000        0.0000000000000000     
  0.25000000000000000        0.0000000000000000        0.0000000000000000     
  0.12500000000000000        3.1250000000000000E-002   0.0000000000000000     
  0.15625000000000000        3.1250000000000000E-002   0.0000000000000000     
  0.18750000000000000        3.1250000000000000E-002   0.0000000000000000     
  0.21875000000000000        3.1250000000000000E-002   0.0000000000000000     
  0.25000000000000000        3.1250000000000000E-002   0.0000000000000000     
  0.12500000000000000        6.2500000000000000E-002   0.0000000000000000     
  0.15625000000000000        6.2500000000000000E-002   0.0000000000000000     
  0.18750000000000000        6.2500000000000000E-002   0.0000000000000000     
  0.21875000000000000        6.2500000000000000E-002   0.0000000000000000     
  0.25000000000000000        6.2500000000000000E-002   0.0000000000000000     
  0.12500000000000000        9.3750000000000000E-002   0.0000000000000000     
  0.15625000000000000        9.3750000000000000E-002   0.0000000000000000     
  0.18750000000000000        9.3750000000000000E-002   0.0000000000000000     
  0.21875000000000000        9.3750000000000000E-002   0.0000000000000000     
  0.25000000000000000        9.3750000000000000E-002   0.0000000000000000     
  0.12500000000000000       0.12500000000000000        0.0000000000000000     
  0.15625000000000000       0.12500000000000000        0.0000000000000000     
  0.18750000000000000       0.12500000000000000        0.0000000000000000     
  0.21875000000000000       0.12500000000000000        0.0000000000000000     
  0.25000000000000000       0.12500000000000000        0.0000000000000000     
  0.25000000000000000        0.0000000000000000        0.0000000000000000     
  0.28125000000000000        0.0000000000000000        0.0000000000000000     
  0.31250000000000000        0.0000000000000000        0.0000000000000000     
  0.34375000000000000        0.0000000000000000        0.0000000000000000     
  0.37500000000000000        0.0000000000000000        0.0000000000000000     
  0.25000000000000000        3.1250000000000000E-002   0.0000000000000000     
  0.28125000000000000        3.1250000000000000E-002   0.0000000000000000     
  0.31250000000000000        3.1250000000000000E-002   0.0000000000000000     
  0.34375000000000000        3.1250000000000000E-002   0.0000000000000000     
  0.37500000000000000        3.1250000000000000E-002   0.0000000000000000     
  0.25000000000000000        6.2500000000000000E-002   0.0000000000000000     
  0.28125000000000000        6.2500000000000000E-002   0.0000000000000000     
  0.31250000000000000        6.2500000000000000E-002   0.0000000000000000     
  0.34375000000000000        6.2500000000000000E-002   0.0000000000000000     
  0.37500000000000000        6.2500000000000000E-002   0.0000000000000000     
  0.25000000000000000        9.3750000000000000E-002   0.0000000000000000     
  0.28125000000000000        9.3750000000000000E-002   0.0000000000000000     
  0.31250000000000000        9.3750000000000000E-002   0.0000000000000000     
  0.34375000000000000        9.3750000000000000E-002   0.0000000000000000     
  0.37500000000000000        9.3750000000000000E-002   0.0000000000000000     
  0.25000000000000000       0.12500000000000000        0.0000000000000000     
  0.28125000000000000       0.12500000000000000        0.0000000000000000     
  0.31250000000000000       0.12500000000000000        0.0000000000000000     
  0.34375000000000000       0.12500000000000000        0.0000000000000000     
  0.37500000000000000       0.12500000000000000        0.0000000000000000     
  0.37500000000000000        0.0000000000000000        0.0000000000000000     
  0.40625000000000000        0.0000000000000000        0.0000000000000000     
  0.43750000000000000        0.0000000000000000        0.0000000000000000     
  0.46875000000000000        0.0000000000000000        0.0000000000000000     
  0.50000000000000000        0.0000000000000000        0.0000000000000000     
  0.37500000000000000        3.1250000000000000E-002   0.0000000000000000     
  0.40625000000000000        3.1250000000000000E-002   0.0000000000000000     
  0.43750000000000000        3.1250000000000000E-002   0.0000000000000000     
  0.46875000000000000        3.1250000000000000E-002   0.0000000000000000     
  0.50000000000000000        3.1250000000000000E-002   0.0000000000000000     
  0.37500000000000000        6.2500000000000000E-002   0.0000000000000000     
  0.40625000000000000        6.2500000000000000E-002   0.0000000000000000     
  0.43750000000000000        6.2500000000000000E-002   0.0000000000000000     
  0.46875000000000000        6.2500000000000000E-002   0.0000000000000000     
  0.50000000000000000        6.2500000000000000E-002   0.0000000000000000     
  0.37500000000000000        9.3750000000000000E-002   0.0000000000000000     
  0.40625000000000000        9.3750000000000000E-002   0.0000000000000000     
  0.43750000000000000        9.3750000000000000E-002   0.0000000000000000     
  0.46875000000000000        9.3750000000000000E-002   0.0000000000000000     
  0.50000000000000000        9.3750000000000000E-002   0.0000000000000000     
  0.37500000000000000       0.12500000000000000        0.0000000000000000     
  0.40625000000000000       0.12500000000000000        0.0000000000000000     
  0.43750000000000000       0.12500000000000000        0.0000000000000000     
  0.46875000000000000       0.12500000000000000        0.0000000000000000     
  0.50000000000000000       0.12500000000000000        0.0000000000000000     
  0.50000000000000000        0.0000000000000000        0.0000000000000000     
  0.53125000000000000        0.0000000000000000        0.0000000000000000     
  0.56250000000000000        0.0000000000000000        0.0000000000000000     
  0.59375000000000000        0.0000000000000000        0.0000000000000000     
  0.62500000000000000        0.0000000000000000        0.0000000000000000     
  0.50000000000000000        3.1250000000000000E-002   0.0000000000000000     
  0.53125000000000000        3.1250000000000000E-002   0.0000000000000000     
  0.56250000000000000        3.1250000000000000E-002   0.0000000000000000     
  0.59375000000000000        3.1250000000000000E-002   0.0000000000000000     
  0.62500000000000000        3.1250000000000000E-002   0.0000000000000000     
  0.50000000000000000        6.2500000000000000E-002   0.0000000000000000     
  0.53125000000000000        6.2500000000000000E-002   0.0000000000000000     
  0.56250000000000000        6.2500000000000000E-002   0.0000000000000000     
  0.59375000000000000        6.2500000000000000E-002   0.0000000000000000     
  0.62500000000000000        6.2500000000000000E-002   0.0000000000000000     
  0.50000000000000000        9.3750000000000000E-002   0.0000000000000000     
  0.53125000000000000        9.3750000000000000E-002   0.0000000000000000     
  0.56250000000000000        9.3750000000000000E-002   0.0000000000000000     
  0.59375000000000000        9.3750000000000000E-002   0.0000000000000000     
  0.62500000000000000        9.3750000000000000E-002   0.0000000000000000     
  0.50000000000000000       0.12500000000000000        0.0000000000000000     
  0.53125000000000000       0.12500000000000000        0.0000000000000000     
  0.56250000000000000       0.12500000000000000        0.0000000000000000     
  0.59375000000000000       0.12500000000000000        0.0000000000000000     
  0.62500000000000000       0.12500000000000000        0.0000000000000000     
  0.62500000000000000        0.0000000000000000        0.0000000000000000     
  0.65625000000000000        0.0000000000000000        0.0000000000000000     
  0.68750000000000000        0.0000000000000000        0.0000000000000000     
  0.71875000000000000        0.0000000000000000        0.0000000000000000     
  0.75000000000000000        0.0000000000000000        0.0000000000000000     
  0.62500000000000000        3.1250000000000000E-002   0.0000000000000000     
  0.65625000000000000        3.1250000000000000E-002   0.0000000000000000     
  0.68750000000000000        3.1250000000000000E-002   0.0000000000000000     
  0.71875000000000000        3.1250000000000000E-002   0.0000000000000000     
  0.75000000000000000        3.1250000000000000E-002   0.0000000000000000     
  0.62500000000000000        6.2500000000000000E-002   0.0000000000000000     
  0.65625000000000000        6.2500000000000000E-002   0.0000000000000000     
  0.68750000000000000        6.2500000000000000E-002   0.0000000000000000     
  0.71875000000000000        6.2500000000000000E-002   0.0000000000000000     
  0.75000000000000000        6.2500000000000000E-002   0.0000000000000000     
  0.62500000000000000        9.3750000000000000E-002   0.0000000000000000     
  0.65625000000000000        9.3750000000000000E-002   0.0000000000000000     
  0.68750000000000000        9.3750000000000000E-002   0.0000000000000000     
  0.71875000000000000        9.3750000000000000E-002   0.0000000000000000     
  0.75000000000000000        9.3750000000000000E-002   0.0000000000000000     
  0.62500000000000000       0.12500000000000000        0.0000000000000000     
  0.65625000000000000       0.12500000000000000        0.0000000000000000     
  0.68750000000000000       0.12500000000000000        0.0000000000000000     
  0.71875000000000000       0.12500000000000000        0.0000000000000000     
  0.75000000000000000       0.12500000000000000        0.0000000000000000     
  0.75000000000000000        0.0000000000000000        0.0000000000000000     
  0.78125000000000000        0.0000000000000000        0.0000000000000000     
  0.81250000000000000        0.0000000000000000        0.0000000000000000     
  0.84375000000000000        0.0000000000000000        0.0000000000000000     
  0.87500000000000000        0.0000000000000000        0.0000000000000000     
  0.75000000000000000        3.1250000000000000E-002   0.0000000000000000     
  0.78125000000000000        3.1250000000000000E-002   0.0000000000000000     
  0.81250000000000000        3.1250000000000000E-002   0.0000000000000000     
  0.84375000000000000        3.1250000000000000E-002   0.0000000000000000     
  0.87500000000000000        3.1250000000000000E-002   0.0000000000000000     
  0.75000000000000000        6.2500000000000000E-002   0.0000000000000000     
  0.78125000000000000        6.2500000000000000E-002   0.0000000000000000     
  0.81250000000000000        6.2500000000000000E-002   0.0000000000000000     
  0.84375000000000000        6.2500000000000000E-002   0.0000000000000000     
  0.87500000000000000        6.2500000000000000E-002   0.0000000000000000     
  0.75000000000000000        9.3750000000000000E-002   0.0000000000000000     
  0.78125000000000000        9.3750000000000000E-002   0.0000000000000000     
  0.81250000000000000        9.3750000000000000E-002   0.0000000000000000     
  0.84375000000000000        9.3750000000000000E-002   0.0000000000000000     
  0.87500000000000000        9.3750000000000000E-002   0.0000000000000000     
  0.75000000000000000       0.12500000000000000        0.0000000000000000     
  0.78125000000000000       0.12500000000000000        0.0000000000000000     
  0.81250000000000000       0.12500000000000000        0.0000000000000000     
  0.84375000000000000       0.12500000000000000        0.0000000000000000     
  0.87500000000000000       0.12500000000000000        0.0000000000000000     
  0.87500000000000000        0.0000000000000000        0.0000000000000000     
  0.90625000000000000        0.0000000000000000        0.0000000000000000     
  0.93750000000000000        0.0000000000000000        0.0000000000000000     
  0.96875000000000000        0.0000000000000000        0.0000000000000000     
   1.0000000000000000        0.0000000000000000        0.0000000000000000     
  0.87500000000000000        3.1250000000000000E-002   0.0000000000000000     
  0.90625000000000000        3.1250000000000000E-002   0.0000000000000000     
  0.93750000000000000        3.1250000000000000E-002   0.0000000000000000     
  0.96875000000000000        3.1250000000000000E-002   0.0000000000000000     
   1.0000000000000000        3.1250000000000000E-002   0.0000000000000000     
  0.87500000000000000        6.2500000000000000E-002   0.0000000000000000     
  0.90625000000000000        6.2500000000000000E-002   0.0000000000000000     
  0.93750000000000000        6.2500000000000000E-002   0.0000000000000000     
  0.96875000000000000        6.2500000000000000E-002   0.0000000000000000     
   1.0000000000000000        6.2500000000000000E-002   0.0000000000000000     
  0.87500000000000000        9.3750000000000000E-002   0.0000000000000000     
  0.90625000000000000        9.3750000000000000E-002   0.0000000000000000     
  0.93750000000000000        9.3750000000000000E-002   0.0000000000000000     
  0.96875000000000000        9.3750000000000000E-002   0.0000000000000000     
   1.0000000000000000        9.3750000000000000E-002   0.0000000000000000     
  0.87500000000000000       0.12500000000000000        0.0000000000000000     
  0.90625000000000000       0.12500000000000000        0.0000000000000000     
  0.93750000000000000       0.12500000000000000        0.0000000000000000     
  0.96875000000000000       0.12500000000000000        0.0000000000000000     
   1.0000000000000000       0.12500000000000000        0.0000000000000000     
   0.0000000000000000       0.12500000000000000        0.0000000000000000     
   3.1250000000000000E-002  0.12500000000000000        0.0000000000000000     
   6.2500000000000000E-002  0.12500000000000000        0.0000000000000000     
   9.3750000000000000E-002  0.12500000000000000        0.0000000000000000     
  0.12500000000000000       0.12500000000000000        0.0000000000000000     
   0.0000000000000000       0.15625000000000000        0.0000000000000000     
   3.1250000000000000E-002  0.15625000000000000        0.0000000000000000     
   6.2500000000000000E-002  0.15625000000000000        0.0000000000000000     
   9.3750000000000000E-002  0.15625000000000000        0.0000000000000000     
  0.12500000000000000       0.15625000000000000        0.0000000000000000     
   0.0000000000000000       0.18750000000000000        0.0000000000000000     
   3.1250000000000000E-002  0.18750000000000000        0.0000000000000000     
   6.2500000000000000E-002  0.18750000000000000        0.0000000000000000     
   9.3750000000000000E-002  0.18750000000000000        0.0000000000000000     
  0.12500000000000000       0.18750000000000000        0.0000000000000000     
   0.0000000000000000       0.21875000000000000        0.0000000000000000     
   3.1250000000000000E-002  0.21875000000000000        0.0000000000000000     
   6.2500000000000000E-002  0.21875000000000000        0.0000000000000000     
   9.3750000000000000E-002  0.21875000000000000        0.0000000000000000     
  0.12500000000000000       0.21875000000000000        0.0000000000000000     
   0.0000000000000000       0.25000000000000000        0.0000000000000000     
   3.1250000000000000E-002  0.25000000000000000        0.0000000000000000     
   6.2500000000000000E-002  0.25000000000000000        0.0000000000000000     
   9.3750000000000000E-002  0.25000000000000000        0.0000000000000000     
  0.12500000000000000       0.25000000000000000        0.0000000000000000     
  0.12500000000000000       0.12500000000000000        0.0000000000000000     
  0.15625000000000000       0.12500000000000000        0.0000000000000000     
  0.18750000000000000       0.12500000000000000        0.0000000000000000     
  0.21875000000000000       0.12500000000000000        0.0000000000000000     
  0.25000000000000000       0.12500000000000000        0.0000000000000000     
  0.12500000000000000       0.15625000000000000        0.0000000000000000     
  0.15625000000000000       0.15625000000000000        0.0000000000000000     
  0.18750000000000000       0.15625000000000000        0.0000000000000000     
  0.21875000000000000       0.15625000000000000        0.0000000000000000     
  0.25000000000000000       0.15625000000000000        0.0000000000000000     
  0.12500000000000000       0.18750000000000000        0.0000000000000000     
  0.15625000000000000       0.18750000000000000        0.0000000000000000     
  0.18750000000000000       0.18750000000000000        0.0000000000000000     
  0.21875000000000000       0.18750000000000000        0.0000000000000000     
  0.25000000000000000       0.18750000000000000        0.0000000000000000     
  0.12500000000000000       0.21875000000000000        0.0000000000000000     
  0.15625000000000000       0.21875000000000000        0.0000000000000000     
  0.18750000000000000       0.21875000000000000        0.0000000000000000     
  0.21875000000000000       0.21875000000000000        0.0000000000000000     
  0.25000000000000000       0.21875000000000000        0.0000000000000000     
  0.12500000000000000       0.25000000000000000        0.0000000000000000     
  0.15625000000000000       0.25000000000000000        0.0000000000000000     
  0.18750000000000000       0.25000000000000000        0.0000000000000000     
  0.21875000000000000       0.25000000000000000        0.0000000000000000     
  0.25000000000000000       0.25000000000000000        0.0000000000000000     
  0.25000000000000000       0.12500000000000000        0.0000000000000000     
  0.28125000000000000       0.12500000000000000        0.0000000000000000     
  0.31250000000000000       0.12500000000000000        0.0000000000000000     
  0.34375000000000000       0.12500000000000000        0.0000000000000000     
  0.37500000000000000       0.12500000000000000        0.0000000000000000     
  0.25000000000000000       0.15625000000000000        0.0000000000000000     
  0.28125000000000000       0.15625000000000000        0.0000000000000000     
  0.31250000000000000       0.15625000000000000        0.0000000000000000     
  0.34375000000000000       0.15625000000000000        0.0000000000000000     
  0.37500000000000000       0.15625000000000000        0.0000000000000000     
  0.25000000000000000       0.18750000000000000        0.0000000000000000     
  0.28125000000000000       0.18750000000000000        0.0000000000000000     
  0.31250000000000000       0.18750000000000000        0.0000000000000000     
  0.34375000000000000       0.18750000000000000        0.0000000000000000     
  0.37500000000000000       0.18750000000000000        0.0000000000000000     
  0.25000000000000000       0.21875000000000000        0.0000000000000000     
  0.28125000000000000       0.21875000000000000        0.0000000000000000     
  0.31250000000000000       0.21875000000000000        0.0000000000000000     
  0.34375000000000000       0.21875000000000000        0.0000000000000000     
  0.37500000000000000       0.21875000000000000        0.0000000000000000     
  0.25000000000000000       0.25000000000000000        0.0000000000000000     
  0.28125000000000000       0.25000000000000000        0.0000000000000000     
  0.31250000000000000       0.25000000000000000        0.0000000000000000     
  0.34375000000000000       0.25000000000000000        0.0000000000000000     
  0.37500000000000000       0.25000000000000000        0.0000000000000000     
  0.37500000000000000       0.12500000000000000        0.0000000000000000     
  0.40625000000000000       0.12500000000000000        0.0000000000000000     
  0.43750000000000000       0.12500000000000000        0.0000000000000000     
  0.46875000000000000       0.12500000000000000        0.0000000000000000     
  0.50000000000000000       0.12500000000000000        0.0000000000000000     
  0.37500000000000000       0.15625000000000000        0.0000000000000000     
  0.40625000000000000       0.15625000000000000        0.0000000000000000     
  0.43750000000000000       0.15625000000000000        0.0000000000000000     
  0.46875000000000000       0.15625000000000000        0.0000000000000000     
  0.50000000000000000       0.15625000000000000        0.0000000000000000     
  0.37500000000000000       0.18750000000000000        0.0000000000000000     
  0.40625000000000000       0.18750000000000000        0.0000000000000000     
  0.43750000000000000       0.18750000000000000        0.0000000000000000     
  0.46875000000000000       0.18750000000000000        0.0000000000000000     
  0.50000000000000000       0.18750000000000000        0.0000000000000000     
  0.37500000000000000       0.21875000000000000        0.0000000000000000     
  0.40625000000000000       0.21875000000000000        0.0000000000000000     
  0.43750000000000000       0.21875000000000000        0.0000000000000000     
  0.46875000000000000       0.21875000000000000        0.0000000000000000     
  0.50000000000000000       0.21875000000000000        0.0000000000000000     
  0.37500000000000000       0.25000000000000000        0.0000000000000000     
  0.40625000000000000       0.25000000000000000        0.0000000000000000     
  0.43750000000000000       0.25000000000000000        0.0000000000000000     
  0.46875000000000000       0.25000000000000000        0.0000000000000000     
  0.50000000000000000       0.25000000000000000        0.0000000000000000     
  0.50000000000000000       0.12500000000000000        0.0000000000000000     
  0.53125000000000000       0.12500000000000000        0.0000000000000000     
  0.56250000000000000       0.12500000000000000        0.0000000000000000     
  0.59375000000000000       0.12500000000000000        0.0000000000000000     
  0.62500000000000000       0.12500000000000000        0.0000000000000000     
  0.50000000000000000       0.15625000000000000        0.0000000000000000     
  0.53125000000000000       0.15625000000000000        0.0000000000000000     
  0.56250000000000000       0.15625000000000000        0.0000000000000000     
  0.59375000000000000       0.15625000000000000        0.0000000000000000     
  0.62500000000000000       0.15625000000000000        0.0000000000000000     
  0.50000000000000000       0.18750000000000000        0.0000000000000000     
  0.53125000000000000       0.18750000000000000        0.0000000000000000     
  0.56250000000000000       0.18750000000000000        0.0000000000000000     
  0.59375000000000000       0.18750000000000000        0.0000000000000000     
  0.62500000000000000       0.18750000000000000        0.0000000000000000     
  0.50000000000000000       0.21875000000000000        0.0000000000000000     
  0.53125000000000000       0.21875000000000000        0.0000000000000000     
  0.56250000000000000       0.21875000000000000        0.0000000000000000     
  0.59375000000000000       0.21875000000000000        0.0000000000000000     
  0.62500000000000000       0.21875000000000000        0.0000000000000000     
  0.50000000000000000       0.25000000000000000        0.0000000000000000     
  0.53125000000000000       0.25000000000000000        0.0000000000000000     
  0.56250000000000000       0.25000000000000000        0.0000000000000000     
  0.59375000000000000       0.25000000000000000        0.0000000000000000     
  0.62500000000000000       0.25000000000000000        0.0000000000000000     
  0.62500000000000000       0.12500000000000000        0.0000000000000000     
  0.65625000000000000       0.12500000000000000        0.0000000000000000     
  0.68750000000000000       0.12500000000000000        0.0000000000000000     
  0.71875000000000000       0.12500000000000000        0.0000000000000000     
  0.75000000000000000       0.12500000000000000        0.0000000000000000     
  0.62500000000000000       0.15625000000000000        0.0000000000000000     
  0.65625000000000000       0.15625000000000000        0.0000000000000000     
  0.68750000000000000       0.15625000000000000        0.0000000000000000     
  0.71875000000000000       0.15625000000000000        0.0000000000000000     
  0.75000000000000000       0.15625000000000000        0.0000000000000000     
  0.62500000000000000       0.18750000000000000        0.0000000000000000     
  0.65625000000000000       0.18750000000000000        0.0000000000000000     
  0.68750000000000000       0.18750000000000000        0.0000000000000000     
  0.71875000000000000       0.18750000000000000        0.0000000000000000     
  0.75000000000000000       0.18750000000000000        0.0000000000000000     
  0.62500000000000000       0.21875000000000000        0.0000000000000000     
  0.65625000000000000       0.21875000000000000        0.0000000000000000     
  0.68750000000000000       0.21875000000000000        0.0000000000000000     
  0.71875000000000000       0.21875000000000000        0.0000000000000000     
  0.75000000000000000       0.21875000000000000        0.0000000000000000     
  0.62500000000000000       0.25000000000000000        0.0000000000000000     
  0.65625000000000000       0.25000000000000000        0.0000000000000000     
  0.68750000000000000       0.25000000000000000        0.0000000000000000     
  0.71875000000000000       0.25000000000000000        0.0000000000000000     
  0.75000000000000000       0.25000000000000000        0.0000000000000000     
  0.75000000000000000       0.12500000000000000        0.0000000000000000     
  0.78125000000000000       0.12500000000000000        0.0000000000000000     
  0.81250000000000000       0.12500000000000000        0.0000000000000000     
  0.84375000000000000       0.12500000000000000        0.0000000000000000     
  0.87500000000000000       0.12500000000000000        0.0000000000000000     
  0.75000000000000000       0.15625000000000000        0.0000000000000000     
  0.78125000000000000       0.15625000000000000        0.0000000000000000     
  0.81250000000000000       0.15625000000000000        0.0000000000000000     
  0.84375000000000000       0.15625000000000000        0.0000000000000000     
  0.87500000000000000       0.15625000000000000        0.0000000000000000     
  0.75000000000000000       0.18750000000000000        0.0000000000000000     
  0.78125000000000000       0.18750000000000000        0.0000000000000000     
  0.81250000000000000       0.18750000000000000        0.0000000000000000     
  0.84375000000000000       0.18750000000000000        0.0000000000000000     
  0.87500000000000000       0.18750000000000000        0.0000000000000000     
  0.75000000000000000       0.21875000000000000        0.0000000000000000     
  0.78125000000000000       0.21875000000000000        0.0000000000000000     
  0.81250000000000000       0.21875000000000000        0.0000000000000000     
  0.84375000000000000       0.21875000000000000        0.0000000000000000     
  0.87500000000000000       0.21875000000000000        0.0000000000000000     
  0.75000000000000000       0.25000000000000000        0.0000000000000000     
  0.78125000000000000       0.25000000000000000        0.0000000000000000     
  0.81250000000000000       0.25000000000000000        0.0000000000000000     
  0.84375000000000000       0.25000000000000000        0.0000000000000000     
  0.87500000000000000       0.25000000000000000        0.0000000000000000     
  0.87500000000000000       0.12500000000000000        0.0000000000000000     
  0.90625000000000000       0.12500000000000000        0.0000000000000000     
  0.93750000000000000       0.12500000000000000        0.0000000000000000     
  0.96875000000000000       0.12500000000000000        0.0000000000000000     
   1.0000000000000000       0.12500000000000000        0.0000000000000000     
  0.87500000000000000       0.15625000000000000        0.0000000000000000     
  0.90625000000000000       0.15625000000000000        0.0000000000000000     
  0.93750000000000000       0.15625000000000000        0.0000000000000000     
  0.96875000000000000       0.15625000000000000        0.0000000000000000     
   1.0000000000000000       0.15625000000000000        0.0000000000000000     
  0.87500000000000000       0.18750000000000000        0.0000000000000000     
  0.90625000000000000       0.18750000000000000        0.0000000000000000     
  0.93750000000000000       0.18750000000000000        0.0000000000000000     
  0.96875000000000000       0.18750000000000000        0.0000000000000000     
   1.0000000000000000       0.18750000000000000        0.0000000000000000     
  0.87500000000000000       0.21875000000000000        0.0000000000000000     
  0.90625000000000000       0.21875000000000000        0.0000000000000000     
  0.93750000000000000       0.21875000000000000        0.0000000000000000     
  0.96875000000000000       0.21875000000000000        0.0000000000000000     
   1.0000000000000000       0.21875000000000000        0.0000000000000000     
  0.87500000000000000       0.25000000000000000        0.0000000000000000     
  0.90625000000000000       0.25000000000000000        0.0000000000000000     
  0.93750000000000000       0.25000000000000000        0.0000000000000000     
  0.96875000000000000       0.25000000000000000        0.0000000000000000     
   1.0000000000000000       0.25000000000000000        0.0000000000000000     
   0.0000000000000000       0.25000000000000000        0.0000000000000000     
   3.1250000000000000E-002  0.25000000000000000        0.0000000000000000     
   6.2500000000000000E-002  0.25000000000000000        0.0000000000000000     
   9.3750000000000000E-002  0.25000000000000000        0.0000000000000000     
  0.12500000000000000       0.25000000000000000        0.0000000000000000     
   0.0000000000000000       0.28125000000000000        0.0000000000000000     
   3.1250000000000000E-002  0.28125000000000000        0.0000000000000000     
   6.2500000000000000E-002  0.28125000000000000        0.0000000000000000     
   9.3750000000000000E-002  0.28125000000000000        0.0000000000000000     
  0.12500000000000000       0.28125000000000000        0.0000000000000000     
   0.0000000000000000       0.31250000000000000        0.0000000000000000     
   3.1250000000000000E-002  0.31250000000000000        0.0000000000000000     
   6.2500000000000000E-002  0.31250000000000000        0.0000000000000000     
   9.3750000000000000E-002  0.31250000000000000        0.0000000000000000     
  0.12500000000000000       0.31250000000000000        0.0000000000000000     
   0.0000000000000000       0.34375000000000000        0.0000000000000000     
   3.1250000000000000E-002  0.34375000000000000        0.0000000000000000     
   6.2500000000000000E-002  0.34375000000000000        0.0000000000000000     
   9.3750000000000000E-002  0.34375000000000000        0.0000000000000000     
  0.12500000000000000       0.34375000000000000        0.0000000000000000     
   0.0000000000000000       0.37500000000000000        0.0000000000000000     
   3.1250000000000000E-002  0.37500000000000000        0.0000000000000000     
   6.2500000000000000E-002  0.37500000000000000        0.0000000000000000     
   9.3750000000000000E-002  0.37500000000000000        0.0000000000000000     
  0.12500000000000000       0.37500000000000000        0.0000000000000000     
  0.12500000000000000       0.25000000000000000        0.0000000000000000     
  0.15625000000000000       0.25000000000000000        0.0000000000000000     
  0.18750000000000000       0.25000000000000000        0.0000000000000000     
  0.21875000000000000       0.25000000000000000        0.0000000000000000     
  0.25000000000000000       0.25000000000000000        0.0000000000000000     
  0.12500000000000000       0.28125000000000000        0.0000000000000000     
  0.15625000000000000       0.28125000000000000        0.0000000000000000     
  0.18750000000000000       0.28125000000000000        0.0000000000000000     
  0.21875000000000000       0.28125000000000000        0.0000000000000000     
  0.25000000000000000       0.28125000000000000        0.0000000000000000     
  0.12500000000000000       0.31250000000000000        0.0000000000000000     
  0.15625000000000000       0.31250000000000000        0.0000000000000000     
  0.18750000000000000       0.31250000000000000        0.0000000000000000     
  0.21875000000000000       0.31250000000000000        0.0000000000000000     
  0.25000000000000000       0.31250000000000000        0.0000000000000000     
  0.12500000000000000       0.34375000000000000        0.0000000000000000     
  0.15625000000000000       0.34375000000000000        0.0000000000000000     
  0.18750000000000000       0.34375000000000000        0.0000000000000000     
  0.21875000000000000       0.34375000000000000        0.0000000000000000     
  0.25000000000000000       0.34375000000000000        0.0000000000000000     
  0.12500000000000000       0.37500000000000000        0.0000000000000000     
  0.15625000000000000       0.37500000000000000        0.0000000000000000     
  0.18750000000000000       0.37500000000000000        0.0000000000000000     
  0.21875000000000000       0.37500000000000000        0.0000000000000000     
  0.25000000000000000       0.37500000000000000        0.0000000000000000     
  0.25000000000000000       0.25000000000000000        0.0000000000000000     
  0.28125000000000000       0.25000000000000000        0.0000000000000000     
  0.31250000000000000       0.25000000000000000        0.0000000000000000     
  0.34375000000000000       0.25000000000000000        0.0000000000000000     
  0.37500000000000000       0.25000000000000000        0.0000000000000000     
  0.25000000000000000       0.28125000000000000        0.0000000000000000     
  0.28125000000000000       0.28125000000000000        0.0000000000000000     
  0.31250000000000000       0.28125000000000000        0.0000000000000000     
  0.34375000000000000       0.28125000000000000        0.0000000000000000     
  0.37500000000000000       0.28125000000000000        0.0000000000000000     
  0.25000000000000000       0.31250000000000000        0.0000000000000000     
  0.28125000000000000       0.31250000000000000        0.0000000000000000     
  0.31250000000000000       0.31250000000000000        0.0000000000000000     
  0.34375000000000000       0.31250000000000000        0.0000000000000000     
  0.37500000000000000       0.31250000000000000        0.0000000000000000     
  0.25000000000000000       0.34375000000000000        0.0000000000000000     
  0.28125000000000000       0.34375000000000000        0.0000000000000000     
  0.31250000000000000       0.34375000000000000        0.0000000000000000     
  0.34375000000000000       0.34375000000000000        0.0000000000000000     
  0.37500000000000000       0.34375000000000000        0.0000000000000000     
  0.25000000000000000       0.37500000000000000        0.0000000000000000     
  0.28125000000000000       0.37500000000000000        0.0000000000000000     
  0.31250000000000000       0.37500000000000000        0.0000000000000000     
  0.34375000000000000       0.37500000000000000        0.0000000000000000     
  0.37500000000000000       0.37500000000000000        0.0000000000000000     
  0.37500000000000000       0.25000000000000000        0.0000000000000000     
  0.40625000000000000       0.25000000000000000        0.0000000000000000     
  0.43750000000000000       0.25000000000000000        0.0000000000000000     
  0.46875000000000000       0.25000000000000000        0.0000000000000000     
  0.50000000000000000       0.25000000000000000        0.0000000000000000     
  0.37500000000000000       0.28125000000000000        0.0000000000000000     
  0.40625000000000000       0.28125000000000000        0.0000000000000000     
  0.43750000000000000       0.28125000000000000        0.0000000000000000     
  0.46875000000000000       0.28125000000000000        0.0000000000000000     
  0.50000000000000000       0.28125000000000000        0.0000000000000000     
  0.37500000000000000       0.31250000000000000        0.0000000000000000     
  0.40625000000000000       0.31250000000000000        0.0000000000000000     
  0.43750000000000000       0.31250000000000000        0.0000000000000000     
  0.46875000000000000       0.31250000000000000        0.0000000000000000     
  0.50000000000000000       0.31250000000000000        0.0000000000000000     
  0.37500000000000000       0.34375000000000000        0.0000000000000000     
  0.40625000000000000       0.34375000000000000        0.0000000000000000     
  0.43750000000000000       0.34375000000000000        0.0000000000000000     
  0.46875000000000000       0.34375000000000000        0.0000000000000000     
  0.50000000000000000       0.34375000000000000        0.0000000000000000     
  0.37500000000000000       0.37500000000000000        0.0000000000000000     
  0.40625000000000000       0.37500000000000000        0.0000000000000000     
  0.43750000000000000       0.37500000000000000        0.0000000000000000     
  0.46875000000000000       0.37500000000000000        0.0000000000000000     
  0.50000000000000000       0.37500000000000000        0.0000000000000000     
  0.50000000000000000       0.25000000000000000        0.0000000000000000     
  0.53125000000000000       0.25000000000000000        0.0000000000000000     
  0.56250000000000000       0.25000000000000000        0.0000000000000000     
  0.59375000000000000       0.25000000000000000        0.0000000000000000     
  0.62500000000000000       0.25000000000000000        0.0000000000000000     
  0.50000000000000000       0.28125000000000000        0.0000000000000000     
  0.53125000000000000       0.28125000000000000        0.0000000000000000     
  0.56250000000000000       0.28125000000000000        0.0000000000000000     
  0.59375000000000000       0.28125000000000000        0.0000000000000000     
  0.62500000000000000       0.28125000000000000        0.0000000000000000     
  0.50000000000000000       0.31250000000000000        0.0000000000000000     
  0.53125000000000000       0.31250000000000000        0.0000000000000000     
  0.56250000000000000       0.31250000000000000        0.0000000000000000     
  0.59375000000000000       0.31250000000000000        0.0000000000000000     
  0.62500000000000000       0.31250000000000000        0.0000000000000000     
  0.50000000000000000       0.34375000000000000        0.0000000000000000     
  0.53125000000000000       0.34375000000000000        0.0000000000000000     
  0.56250000000000000       0.34375000000000000        0.0000000000000000     
  0.59375000000000000       0.34375000000000000        0.0000000000000000     
  0.62500000000000000       0.34375000000000000        0.0000000000000000     
  0.50000000000000000       0.37500000000000000        0.0000000000000000     
  0.53125000000000000       0.37500000000000000        0.0000000000000000     
  0.56250000000000000       0.37500000000000000        0.0000000000000000     
  0.59375000000000000       0.37500000000000000        0.0000000000000000     
  0.62500000000000000       0.37500000000000000        0.0000000000000000     
  0.62500000000000000       0.25000000000000000        0.0000000000000000     
  0.65625000000000000       0.25000000000000000        0.0000000000000000     
  0.68750000000000000       0.25000000000000000        0.0000000000000000     
  0.71875000000000000       0.25000000000000000        0.0000000000000000     
  0.75000000000000000       0.25000000000000000        0.0000000000000000     
  0.62500000000000000       0.28125000000000000        0.0000000000000000     
  0.65625000000000000       0.28125000000000000        0.0000000000000000     
  0.68750000000000000       0.28125000000000000        0.0000000000000000     
  0.71875000000000000       0.28125000000000000        0.0000000000000000     
  0.75000000000000000       0.28125000000000000        0.0000000000000000     
  0.62500000000000000       0.31250000000000000        0.0000000000000000     
  0.65625000000000000       0.31250000000000000        0.0000000000000000     
  0.68750000000000000       0.31250000000000000        0.0000000000000000     
  0.71875000000000000       0.31250000000000000        0.0000000000000000     
  0.75000000000000000       0.31250000000000000        0.0000000000000000     
  0.62500000000000000       0.34375000000000000        0.0000000000000000     
  0.65625000000000000       0.34375000000000000        0.0000000000000000     
  0.68750000000000000       0.34375000000000000        0.0000000000000000     
  0.71875000000000000       0.34375000000000000        0.0000000000000000     
  0.75000000000000000       0.34375000000000000        0.0000000000000000     
  0.62500000000000000       0.37500000000000000        0.0000000000000000     
  0.65625000000000000       0.37500000000000000        0.0000000000000000     
  0.68750000000000000       0.37500000000000000        0.0000000000000000     
  0.71875000000000000       0.37500000000000000        0.0000000000000000     
  0.75000000000000000       0.37500000000000000        0.0000000000000000     
  0.75000000000000000       0.25000000000000000        0.0000000000000000     
  0.78125000000000000       0.25000000000000000        0.0000000000000000     
  0.81250000000000000       0.25000000000000000        0.0000000000000000     
  0.84375000000000000       0.25000000000000000        0.0000000000000000     
  0.87500000000000000       0.25000000000000000        0.0000000000000000     
  0.75000000000000000       0.28125000000000000        0.0000000000000000     
  0.78125000000000000       0.28125000000000000        0.0000000000000000     
  0.81250000000000000       0.28125000000000000        0.0000000000000000     
  0.84375000000000000       0.28125000000000000        0.0000000000000000     
  0.87500000000000000       0.28125000000000000        0.0000000000000000     
  0.75000000000000000       0.31250000000000000        0.0000000000000000     
  0.78125000000000000       0.31250000000000000        0.0000000000000000     
  0.81250000000000000       0.31250000000000000        0.0000000000000000     
  0.84375000000000000       0.31250000000000000        0.0000000000000000     
  0.87500000000000000       0.31250000000000000        0.0000000000000000     
  0.75000000000000000       0.34375000000000000        0.0000000000000000     
  0.78125000000000000       0.34375000000000000        0.0000000000000000     
  0.81250000000000000       0.34375000000000000        0.0000000000000000     
  0.84375000000000000       0.34375000000000000        0.0000000000000000     
  0.87500000000000000       0.34375000000000000        0.0000000000000000     
  0.75000000000000000       0.37500000000000000        0.0000000000000000     
  0.78125000000000000       0.37500000000000000        0.0000000000000000     
  0.81250000000000000       0.37500000000000000        0.0000000000000000     
  0.84375000000000000       0.37500000000000000        0.0000000000000000     
  0.87500000000000000       0.37500000000000000        0.0000000000000000     
  0.87500000000000000       0.25000000000000000        0.0000000000000000     
  0.90625000000000000       0.25000000000000000        0.0000000000000000     
  0.93750000000000000       0.25000000000000000        0.0000000000000000     
  0.96875000000000000       0.25000000000000000        0.0000000000000000     
   1.0000000000000000       0.25000000000000000        0.0000000000000000     
  0.87500000000000000       0.28125000000000000        0.0000000000000000     
  0.90625000000000000       0.28125000000000000        0.0000000000000000     
  0.93750000000000000       0.28125000000000000        0.0000000000000000     
  0.96875000000000000       0.28125000000000000        0.0000000000000000     
   1.0000000000000000       0.28125000000000000        0.0000000000000000     
  0.87500000000000000       0.31250000000000000        0.0000000000000000     
  0.90625000000000000       0.31250000000000000        0.0000000000000000     
  0.93750000000000000       0.31250000000000000        0.0000000000000000     
  0.96875000000000000       0.31250000000000000        0.0000000000000000     
   1.0000000000000000       0.31250000000000000        0.0000000000000000     
  0.87500000000000000       0.34375000000000000        0.0000000000000000     
  0.90625000000000000       0.34375000000000000        0.0000000000000000     
  0.93750000000000000       0.34375000000000000        0.0000000000000000     
  0.96875000000000000       0.34375000000000000        0.0000000000000000     
   1.0000000000000000       0.34375000000000000        0.0000000000000000     
  0.87500000000000000       0.37500000000000000        0.0000000000000000     
  0.90625000000000000       0.37500000000000000        0.0000000000000000     
  0.93750000000000000       0.37500000000000000        0.0000000000000000     
  0.96875000000000000       0.37500000000000000        0.0000000000000000     
   1.0000000000000000       0.37500000000000000        0.0000000000000000     
   0.0000000000000000       0.37500000000000000        0.0000000000000000     
   3.1250000000000000E-002  0.37500000000000000        0.0000000000000000     
   6.2500000000000000E-002  0.37500000000000000        0.0000000000000000     
   9.3750000000000000E-002  0.37500000000000000        0.0000000000000000     
  0.12500000000000000       0.37500000000000000        0.0000000000000000     
   0.0000000000000000       0.40625000000000000        0.0000000000000000     
   3.1250000000000000E-002  0.40625000000000000        0.0000000000000000     
   6.2500000000000000E-002  0.40625000000000000        0.0000000000000000     
   9.3750000000000000E-002  0.40625000000000000        0.0000000000000000     
  0.12500000000000000       0.40625000000000000        0.0000000000000000     
   0.0000000000000000       0.43750000000000000        0.0000000000000000     
   3.1250000000000000E-002  0.43750000000000000        0.0000000000000000     
   6.2500000000000000E-002  0.43750000000000000        0.0000000000000000     
   9.3750000000000000E-002  0.43750000000000000        0.0000000000000000     
  0.12500000000000000       0.43750000000000000        0.0000000000000000     
   0.0000000000000000       0.46875000000000000        0.0000000000000000     
   3.1250000000000000E-002  0.46875000000000000        0.0000000000000000     
   6.2500000000000000E-002  0.46875000000000000        0.0000000000000000     
   9.3750000000000000E-002  0.46875000000000000        0.0000000000000000     
  0.12500000000000000       0.46875000000000000        0.0000000000000000     
   0.0000000000000000       0.50000000000000000        0.0000000000000000     
   3.1250000000000000E-002  0.50000000000000000        0.0000000000000000     
   6.2500000000000000E-002  0.50000000000000000        0.0000000000000000     
   9.3750000000000000E-002  0.50000000000000000        0.0000000000000000     
  0.12500000000000000       0.50000000000000000        0.0000000000000000     
  0.12500000000000000       0.37500000000000000        0.0000000000000000     
  0.15625000000000000       0.37500000000000000        0.0000000000000000     
  0.18750000000000000       0.37500000000000000        0.0000000000000000     
  0.21875000000000000       0.37500000000000000        0.0000000000000000     
  0.25000000000000000       0.37500000000000000        0.0000000000000000     
  0.12500000000000000       0.40625000000000000        0.0000000000000000     
  0.15625000000000000       0.40625000000000000        0.0000000000000000     
  0.18750000000000000       0.40625000000000000        0.0000000000000000     
  0.21875000000000000       0.40625000000000000        0.0000000000000000     
  0.25000000000000000       0.40625000000000000        0.0000000000000000     
  0.12500000000000000       0.43750000000000000        0.0000000000000000     
  0.15625000000000000       0.43750000000000000        0.0000000000000000     
  0.18750000000000000       0.43750000000000000        0.0000000000000000     
  0.21875000000000000       0.43750000000000000        0.0000000000000000     
  0.25000000000000000       0.43750000000000000        0.0000000000000000     
  0.12500000000000000       0.46875000000000000        0.0000000000000000     
  0.15625000000000000       0.46875000000000000        0.0000000000000000     
  0.18750000000000000       0.46875000000000000        0.0000000000000000     
  0.21875000000000000       0.46875000000000000        0.0000000000000000     
  0.25000000000000000       0.46875000000000000        0.0000000000000000     
  0.12500000000000000       0.50000000000000000        0.0000000000000000     
  0.15625000000000000       0.50000000000000000        0.0000000000000000     
  0.18750000000000000       0.50000000000000000        0.0000000000000000     
  0.21875000000000000       0.50000000000000000        0.0000000000000000     
  0.25000000000000000       0.50000000000000000        0.0000000000000000     
  0.25000000000000000       0.37500000000000000        0.0000000000000000     
  0.28125000000000000       0.37500000000000000        0.0000000000000000     
  0.31250000000000000       0.37500000000000000        0.0000000000000000     
  0.34375000000000000       0.37500000000000000        0.0000000000000000     
  0.37500000000000000       0.37500000000000000        0.0000000000000000     
  0.25000000000000000       0.40625000000000000        0.0000000000000000     
  0.28125000000000000       0.40625000000000000        0.0000000000000000     
  0.31250000000000000       0.40625000000000000        0.0000000000000000     
  0.34375000000000000       0.40625000000000000        0.0000000000000000     
  0.37500000000000000       0.40625000000000000        0.0000000000000000     
  0.25000000000000000       0.43750000000000000        0.0000000000000000     
  0.28125000000000000       0.43750000000000000        0.0000000000000000     
  0.31250000000000000       0.43750000000000000        0.0000000000000000     
  0.34375000000000000       0.43750000000000000        0.0000000000000000     
  0.37500000000000000       0.43750000000000000        0.0000000000000000     
  0.25000000000000000       0.46875000000000000        0.0000000000000000     
  0.28125000000000000       0.46875000000000000        0.0000000000000000     
  0.31250000000000000       0.46875000000000000        0.0000000000000000     
  0.34375000000000000       0.46875000000000000        0.0000000000000000     
  0.37500000000000000       0.46875000000000000        0.0000000000000000     
  0.25000000000000000       0.50000000000000000        0.0000000000000000     
  0.28125000000000000       0.50000000000000000        0.0000000000000000     
  0.31250000000000000       0.50000000000000000        0.0000000000000000     
  0.34375000000000000       0.50000000000000000        0.0000000000000000     
  0.37500000000000000       0.50000000000000000        0.0000000000000000     
  0.37500000000000000       0.37500000000000000        0.0000000000000000     
  0.40625000000000000       0.37500000000000000        0.0000000000000000     
  0.43750000000000000       0.37500000000000000        0.0000000000000000     
  0.46875000000000000       0.37500000000000000        0.0000000000000000     
  0.50000000000000000       0.37500000000000000        0.0000000000000000     
  0.37500000000000000       0.40625000000000000        0.0000000000000000     
  0.40625000000000000       0.40625000000000000        0.0000000000000000     
  0.43750000000000000       0.40625000000000000        0.0000000000000000     
  0.46875000000000000       0.40625000000000000        0.0000000000000000     
  0.50000000000000000       0.40625000000000000        0.0000000000000000     
  0.37500000000000000       0.43750000000000000        0.0000000000000000     
  0.40625000000000000       0.43750000000000000        0.0000000000000000     
  0.43750000000000000       0.43750000000000000        0.0000000000000000     
  0.46875000000000000       0.43750000000000000        0.0000000000000000     
  0.50000000000000000       0.43750000000000000        0.0000000000000000     
  0.37500000000000000       0.46875000000000000        0.0000000000000000     
  0.40625000000000000       0.46875000000000000        0.0000000000000000     
  0.43750000000000000       0.46875000000000000        0.0000000000000000     
  0.46875000000000000       0.46875000000000000        0.0000000000000000     
  0.50000000000000000       0.46875000000000000        0.0000000000000000     
  0.37500000000000000       0.50000000000000000        0.0000000000000000     
  0.40625000000000000       0.50000000000000000        0.0000000000000000     
  0.43750000000000000       0.50000000000000000        0.0000000000000000     
  0.46875000000000000       0.50000000000000000        0.0000000000000000     
  0.50000000000000000       0.50000000000000000        0.0000000000000000     
  0.50000000000000000       0.37500000000000000        0.0000000000000000     
  0.53125000000000000       0.37500000000000000        0.0000000000000000     
  0.56250000000000000       0.37500000000000000        0.0000000000000000     
  0.59375000000000000       0.37500000000000000        0.0000000000000000     
  0.62500000000000000       0.37500000000000000        0.0000000000000000     
  0.50000000000000000       0.40625000000000000        0.0000000000000000     
  0.53125000000000000       0.40625000000000000        0.0000000000000000     
  0.56250000000000000       0.40625000000000000        0.0000000000000000     
  0.59375000000000000       0.40625000000000000        0.0000000000000000     
  0.62500000000000000       0.40625000000000000        0.0000000000000000     
  0.50000000000000000       0.43750000000000000        0.0000000000000000     
  0.53125000000000000       0.43750000000000000        0.0000000000000000     
  0.56250000000000000       0.43750000000000000        0.0000000000000000     
  0.59375000000000000       0.43750000000000000        0.0000000000000000     
  0.62500000000000000       0.43750000000000000        0.0000000000000000     
  0.50000000000000000       0.46875000000000000        0.0000000000000000     
  0.53125000000000000       0.46875000000000000        0.0000000000000000     
  0.56250000000000000       0.46875000000000000        0.0000000000000000     
  0.59375000000000000       0.46875000000000000        0.0000000000000000     
  0.62500000000000000       0.46875000000000000        0.0000000000000000     
  0.50000000000000000       0.50000000000000000        0.0000000000000000     
  0.53125000000000000       0.50000000000000000        0.0000000000000000     
  0.56250000000000000       0.50000000000000000        0.0000000000000000     
  0.59375000000000000       0.50000000000000000        0.0000000000000000     
  0.62500000000000000       0.50000000000000000        0.0000000000000000     
  0.62500000000000000       0.37500000000000000        0.0000000000000000     
  0.65625000000000000       0.37500000000000000        0.0000000000000000     
  0.68750000000000000       0.37500000000000000        0.0000000000000000     
  0.71875000000000000       0.37500000000000000        0.0000000000000000     
  0.75000000000000000       0.37500000000000000        0.0000000000000000     
  0.62500000000000000       0.40625000000000000        0.0000000000000000     
  0.65625000000000000       0.40625000000000000        0.0000000000000000     
  0.68750000000000000       0.40625000000000000        0.0000000000000000     
  0.71875000000000000       0.40625000000000000        0.0000000000000000     
  0.75000000000000000       0.40625000000000000        0.0000000000000000     
  0.62500000000000000       0.43750000000000000        0.0000000000000000     
  0.65625000000000000       0.43750000000000000        0.0000000000000000     
  0.68750000000000000       0.43750000000000000        0.0000000000000000     
  0.71875000000000000       0.43750000000000000        0.0000000000000000     
  0.75000000000000000       0.43750000000000000        0.0000000000000000     
  0.62500000000000000       0.46875000000000000        0.0000000000000000     
  0.65625000000000000       0.46875000000000000        0.0000000000000000     
  0.68750000000000000       0.46875000000000000        0.0000000000000000     
  0.71875000000000000       0.46875000000000000        0.0000000000000000     
  0.75000000000000000       0.46875000000000000        0.0000000000000000     
  0.62500000000000000       0.50000000000000000        0.0000000000000000     
  0.65625000000000000       0.50000000000000000        0.0000000000000000     
  0.68750000000000000       0.50000000000000000        0.0000000000000000     
  0.71875000000000000       0.50000000000000000        0.0000000000000000     
  0.75000000000000000       0.50000000000000000        0.0000000000000000     
  0.75000000000000000       0.37500000000000000        0.0000000000000000     
  0.78125000000000000       0.37500000000000000        0.0000000000000000     
  0.81250000000000000       0.37500000000000000        0.0000000000000000     
  0.84375000000000000       0.37500000000000000        0.0000000000000000     
  0.87500000000000000       0.37500000000000000        0.0000000000000000     
  0.75000000000000000       0.40625000000000000        0.0000000000000000     
  0.78125000000000000       0.40625000000000000        0.0000000000000000     
  0.81250000000000000       0.40625000000000000        0.0000000000000000     
  0.84375000000000000       0.40625000000000000        0.0000000000000000     
  0.87500000000000000       0.40625000000000000        0.0000000000000000     
  0.75000000000000000       0.43750000000000000        0.0000000000000000     
  0.78125000000000000       0.43750000000000000        0.0000000000000000     
  0.81250000000000000       0.43750000000000000        0.0000000000000000     
  0.84375000000000000       0.43750000000000000        0.0000000000000000     
  0.87500000000000000       0.43750000000000000        0.0000000000000000     
  0.75000000000000000       0.46875000000000000        0.0000000000000000     
  0.78125000000000000       0.46875000000000000        0.0000000000000000     
  0.81250000000000000       0.46875000000000000        0.0000000000000000     
  0.84375000000000000       0.46875000000000000        0.0000000000000000     
  0.87500000000000000       0.46875000000000000        0.0000000000000000     
  0.75000000000000000       0.50000000000000000        0.0000000000000000     
  0.78125000000000000       0.50000000000000000        0.0000000000000000     
  0.81250000000000000       0.50000000000000000        0.0000000000000000     
  0.84375000000000000       0.50000000000000000        0.0000000000000000     
  0.87500000000000000       0.50000000000000000        0.0000000000000000     
  0.87500000000000000       0.37500000000000000        0.0000000000000000     
  0.90625000000000000       0.37500000000000000        0.0000000000000000     
  0.93750000000000000       0.37500000000000000        0.0000000000000000     
  0.96875000000000000       0.37500000000000000        0.0000000000000000     
   1.0000000000000000       0.37500000000000000        0.0000000000000000     
  0.87500000000000000       0.40625000000000000        0.0000000000000000     
  0.90625000000000000       0.40625000000000000        0.0000000000000000     
  0.93750000000000000       0.40625000000000000        0.0000000000000000     
  0.96875000000000000       0.40625000000000000        0.0000000000000000     
   1.0000000000000000       0.40625000000000000        0.0000000000000000     
  0.87500000000000000       0.43750000000000000        0.0000000000000000     
  0.90625000000000000       0.43750000000000000        0.0000000000000000     
  0.93750000000000000       0.43750000000000000        0.0000000000000000     
  0.96875000000000000       0.43750000000000000        0.0000000000000000     
   1.0000000000000000       0.43750000000000000        0.0000000000000000     
  0.87500000000000000       0.46875000000000000        0.0000000000000000     
  0.90625000000000000       0.46875000000000000        0.0000000000000000     
  0.93750000000000000       0.46875000000000000        0.0000000000000000     
  0.96875000000000000       0.46875000000000000        0.0000000000000000     
   1.0000000000000000       0.46875000000000000        0.0000000000000000     
  0.87500000000000000       0.50000000000000000        0.0000000000000000     
  0.90625000000000000       0.50000000000000000        0.0000000000000000     
  0.93750000000000000       0.50000000000000000        0.0000000000000000     
  0.96875000000000000       0.50000000000000000        0.0000000000000000     
   1.0000000000000000       0.50000000000000000        0.0000000000000000     
   0.0000000000000000       0.50000000000000000        0.0000000000000000     
   3.1250000000000000E-002  0.50000000000000000        0.0000000000000000     
   6.2500000000000000E-002  0.50000000000000000        0.0000000000000000     
   9.3750000000000000E-002  0.50000000000000000        0.0000000000000000     
  0.12500000000000000       0.50000000000000000        0.0000000000000000     
   0.0000000000000000       0.53125000000000000        0.0000000000000000     
   3.1250000000000000E-002  0.53125000000000000        0.0000000000000000     
   6.2500000000000000E-002  0.53125000000000000        0.0000000000000000     
   9.3750000000000000E-002  0.53125000000000000        0.0000000000000000     
  0.12500000000000000       0.53125000000000000        0.0000000000000000     
   0.0000000000000000       0.56250000000000000        0.0000000000000000     
   3.1250000000000000E-002  0.56250000000000000        0.0000000000000000     
   6.2500000000000000E-002  0.56250000000000000        0.0000000000000000     
   9.3750000000000000E-002  0.56250000000000000        0.0000000000000000     
  0.12500000000000000       0.56250000000000000        0.0000000000000000     
   0.0000000000000000       0.59375000000000000        0.0000000000000000     
   3.1250000000000000E-002  0.59375000000000000        0.0000000000000000     
   6.2500000000000000E-002  0.59375000000000000        0.0000000000000000     
   9.3750000000000000E-002  0.59375000000000000        0.0000000000000000     
  0.12500000000000000       0.59375000000000000        0.0000000000000000     
   0.0000000000000000       0.62500000000000000        0.0000000000000000     
   3.1250000000000000E-002  0.62500000000000000        0.0000000000000000     
   6.2500000000000000E-002  0.62500000000000000        0.0000000000000000     
   9.3750000000000000E-002  0.62500000000000000        0.0000000000000000     
  0.12500000000000000       0.62500000000000000        0.0000000000000000     
  0.12500000000000000       0.50000000000000000        0.0000000000000000     
  0.15625000000000000       0.50000000000000000        0.0000000000000000     
  0.18750000000000000       0.50000000000000000        0.0000000000000000     
  0.21875000000000000       0.50000000000000000        0.0000000000000000     
  0.25000000000000000       0.50000000000000000        0.0000000000000000     
  0.12500000000000000       0.53125000000000000        0.0000000000000000     
  0.15625000000000000       0.53125000000000000        0.0000000000000000     
  0.18750000000000000       0.53125000000000000        0.0000000000000000     
  0.21875000000000000       0.53125000000000000        0.0000000000000000     
  0.25000000000000000       0.53125000000000000        0.0000000000000000     
  0.12500000000000000       0.56250000000000000        0.0000000000000000     
  0.15625000000000000       0.56250000000000000        0.0000000000000000     
  0.18750000000000000       0.56250000000000000        0.0000000000000000     
  0.21875000000000000       0.56250000000000000        0.0000000000000000     
  0.25000000000000000       0.56250000000000000        0.0000000000000000     
  0.12500000000000000       0.59375000000000000        0.0000000000000000     
  0.15625000000000000       0.59375000000000000        0.0000000000000000     
  0.18750000000000000       0.59375000000000000        0.0000000000000000     
  0.21875000000000000       0.59375000000000000        0.0000000000000000     
  0.25000000000000000       0.59375000000000000        0.0000000000000000     
  0.12500000000000000       0.62500000000000000        0.0000000000000000     
  0.15625000000000000       0.62500000000000000        0.0000000000000000     
  0.18750000000000000       0.62500000000000000        0.0000000000000000     
  0.21875000000000000       0.62500000000000000        0.0000000000000000     
  0.25000000000000000       0.62500000000000000        0.0000000000000000     
  0.25000000000000000       0.50000000000000000        0.0000000000000000     
  0.28125000000000000       0.50000000000000000        0.0000000000000000     
  0.31250000000000000       0.50000000000000000        0.0000000000000000     
  0.34375000000000000       0.50000000000000000        0.0000000000000000     
  0.37500000000000000       0.50000000000000000        0.0000000000000000     
  0.25000000000000000       0.53125000000000000        0.0000000000000000     
  0.28125000000000000       0.53125000000000000        0.0000000000000000     
  0.31250000000000000       0.53125000000000000        0.0000000000000000     
  0.34375000000000000       0.53125000000000000        0.0000000000000000     
  0.37500000000000000       0.53125000000000000        0.0000000000000000     
  0.25000000000000000       0.56250000000000000        0.0000000000000000     
  0.28125000000000000       0.56250000000000000        0.0000000000000000     
  0.31250000000000000       0.56250000000000000        0.0000000000000000     
  0.34375000000000000       0.56250000000000000        0.0000000000000000     
  0.37500000000000000       0.56250000000000000        0.0000000000000000     
  0.25000000000000000       0.59375000000000000        0.0000000000000000     
  0.28125000000000000       0.59375000000000000        0.0000000000000000     
  0.31250000000000000       0.59375000000000000        0.0000000000000000     
  0.34375000000000000       0.59375000000000000        0.0000000000000000     
  0.37500000000000000       0.59375000000000000        0.0000000000000000     
  0.25000000000000000       0.62500000000000000        0.0000000000000000     
  0.28125000000000000       0.62500000000000000        0.0000000000000000     
  0.31250000000000000       0.62500000000000000        0.0000000000000000     
  0.34375000000000000       0.62500000000000000        0.0000000000000000     
  0.37500000000000000       0.62500000000000000        0.0000000000000000     
  0.37500000000000000       0.50000000000000000        0.0000000000000000     
  0.40625000000000000       0.50000000000000000        0.0000000000000000     
  0.43750000000000000       0.50000000000000000        0.0000000000000000     
  0.46875000000000000       0.50000000000000000        0.0000000000000000     
  0.50000000000000000       0.50000000000000000        0.0000000000000000     
  0.37500000000000000       0.53125000000000000        0.0000000000000000     
  0.40625000000000000       0.53125000000000000        0.0000000000000000     
  0.43750000000000000       0.53125000000000000        0.0000000000000000     
  0.46875000000000000       0.53125000000000000        0.0000000000000000     
  0.50000000000000000       0.53125000000000000        0.0000000000000000     
  0.37500000000000000       0.56250000000000000        0.0000000000000000     
  0.40625000000000000       0.56250000000000000        0.0000000000000000     
  0.43750000000000000       0.56250000000000000        0.0000000000000000     
  0.46875000000000000       0.56250000000000000        0.0000000000000000     
  0.50000000000000000       0.56250000000000000        0.0000000000000000     
  0.37500000000000000       0.59375000000000000        0.0000000000000000     
  0.40625000000000000       0.59375000000000000        0.0000000000000000     
  0.43750000000000000       0.59375000000000000        0.0000000000000000     
  0.46875000000000000       0.59375000000000000        0.0000000000000000     
  0.50000000000000000       0.59375000000000000        0.0000000000000000     
  0.37500000000000000       0.62500000000000000        0.0000000000000000     
  0.40625000000000000       0.62500000000000000        0.0000000000000000     
  0.43750000000000000       0.62500000000000000        0.0000000000000000     
  0.46875000000000000       0.62500000000000000        0.0000000000000000     
  0.50000000000000000       0.62500000000000000        0.0000000000000000     
  0.50000000000000000       0.50000000000000000        0.0000000000000000     
  0.53125000000000000       0.50000000000000000        0.0000000000000000     
  0.56250000000000000       0.50000000000000000        0.0000000000000000     
  0.59375000000000000       0.50000000000000000        0.0000000000000000     
  0.62500000000000000       0.50000000000000000        0.0000000000000000     
  0.50000000000000000       0.53125000000000000        0.0000000000000000     
  0.53125000000000000       0.53125000000000000        0.0000000000000000     
  0.56250000000000000       0.53125000000000000        0.0000000000000000     
  0.59375000000000000       0.53125000000000000        0.0000000000000000     
  0.62500000000000000       0.53125000000000000        0.0000000000000000     
  0.50000000000000000       0.56250000000000000        0.0000000000000000     
  0.53125000000000000       0.56250000000000000        0.0000000000000000     
  0.56250000000000000       0.56250000000000000        0.0000000000000000     
  0.59375000000000000       0.56250000000000000        0.0000000000000000     
  0.62500000000000000       0.56250000000000000        0.0000000000000000     
  0.50000000000000000       0.59375000000000000        0.0000000000000000     
  0.53125000000000000       0.59375000000000000        0.0000000000000000     
  0.56250000000000000       0.59375000000000000        0.0000000000000000     
  0.59375000000000000       0.59375000000000000        0.0000000000000000     
  0.62500000000000000       0.59375000000000000        0.0000000000000000     
  0.50000000000000000       0.62500000000000000        0.0000000000000000     
  0.53125000000000000       0.62500000000000000        0.0000000000000000     
  0.56250000000000000       0.62500000000000000        0.0000000000000000     
  0.59375000000000000       0.62500000000000000        0.0000000000000000     
  0.62500000000000000       0.62500000000000000        0.0000000000000000     
  0.62500000000000000       0.50000000000000000        0.0000000000000000     
  0.65625000000000000       0.50000000000000000        0.0000000000000000     
  0.68750000000000000       0.50000000000000000        0.0000000000000000     
  0.71875000000000000       0.50000000000000000        0.0000000000000000     
  0.75000000000000000       0.50000000000000000        0.0000000000000000     
  0.62500000000000000       0.53125000000000000        0.0000000000000000     
  0.65625000000000000       0.53125000000000000        0.0000000000000000     
  0.68750000000000000       0.53125000000000000        0.0000000000000000     
  0.71875000000000000       0.53125000000000000        0.0000000000000000     
  0.75000000000000000       0.53125000000000000        0.0000000000000000     
  0.62500000000000000       0.56250000000000000        0.0000000000000000     
  0.65625000000000000       0.56250000000000000        0.0000000000000000     
  0.68750000000000000       0.56250000000000000        0.0000000000000000     
  0.71875000000000000       0.56250000000000000        0.0000000000000000     
  0.75000000000000000       0.56250000000000000        0.0000000000000000     
  0.62500000000000000       0.59375000000000000        0.0000000000000000     
  0.65625000000000000       0.59375000000000000        0.0000000000000000     
  0.68750000000000000       0.59375000000000000        0.0000000000000000     
  0.71875000000000000       0.59375000000000000        0.0000000000000000     
  0.75000000000000000       0.59375000000000000        0.0000000000000000     
  0.62500000000000000       0.62500000000000000        0.0000000000000000     
  0.65625000000000000       0.62500000000000000        0.0000000000000000     
  0.68750000000000000       0.62500000000000000        0.0000000000000000     
  0.71875000000000000       0.62500000000000000        0.0000000000000000     
  0.75000000000000000       0.62500000000000000        0.0000000000000000     
  0.75000000000000000       0.50000000000000000        0.0000000000000000     
  0.78125000000000000       0.50000000000000000        0.0000000000000000     
  0.81250000000000000       0.50000000000000000        0.0000000000000000     
  0.84375000000000000       0.50000000000000000        0.0000000000000000     
  0.87500000000000000       0.50000000000000000        0.0000000000000000     
  0.75000000000000000       0.53125000000000000        0.0000000000000000     
  0.78125000000000000       0.53125000000000000        0.0000000000000000     
  0.81250000000000000       0.53125000000000000        0.0000000000000000     
  0.84375000000000000       0.53125000000000000        0.0000000000000000     
  0.87500000000000000       0.53125000000000000        0.0000000000000000     
  0.75000000000000000       0.56250000000000000        0.0000000000000000     
  0.78125000000000000       0.56250000000000000        0.0000000000000000     
  0.81250000000000000       0.56250000000000000        0.0000000000000000     
  0.84375000000000000       0.56250000000000000        0.0000000000000000     
  0.87500000000000000       0.56250000000000000        0.0000000000000000     
  0.75000000000000000       0.59375000000000000        0.0000000000000000     
  0.78125000000000000       0.59375000000000000        0.0000000000000000     
  0.81250000000000000       0.59375000000000000        0.0000000000000000     
  0.84375000000000000       0.59375000000000000        0.0000000000000000     
  0.87500000000000000       0.59375000000000000        0.0000000000000000     
  0.75000000000000000       0.62500000000000000        0.0000000000000000     
  0.78125000000000000       0.62500000000000000        0.0000000000000000     
  0.81250000000000000       0.62500000000000000        0.0000000000000000     
  0.84375000000000000       0.62500000000000000        0.0000000000000000     
  0.87500000000000000       0.62500000000000000        0.0000000000000000     
  0.87500000000000000       0.50000000000000000        0.0000000000000000     
  0.90625000000000000       0.50000000000000000        0.0000000000000000     
  0.93750000000000000       0.50000000000000000        0.0000000000000000     
  0.96875000000000000       0.50000000000000000        0.0000000000000000     
   1.0000000000000000       0.50000000000000000        0.0000000000000000     
  0.87500000000000000       0.53125000000000000        0.0000000000000000     
  0.90625000000000000       0.53125000000000000        0.0000000000000000     
  0.93750000000000000       0.53125000000000000        0.0000000000000000     
  0.96875000000000000       0.53125000000000000        0.0000000000000000     
   1.0000000000000000       0.53125000000000000        0.0000000000000000     
  0.87500000000000000       0.56250000000000000        0.0000000000000000     
  0.90625000000000000       0.56250000000000000        0.0000000000000000     
  0.93750000000000000       0.56250000000000000        0.0000000000000000     
  0.96875000000000000       0.56250000000000000        0.0000000000000000     
   1.0000000000000000       0.56250000000000000        0.0000000000000000     
  0.87500000000000000       0.59375000000000000        0.0000000000000000     
  0.90625000000000000       0.59375000000000000        0.0000000000000000     
  0.93750000000000000       0.59375000000000000        0.0000000000000000     
  0.96875000000000000       0.59375000000000000        0.0000000000000000     
   1.0000000000000000       0.59375000000000000        0.0000000000000000     
  0.87500000000000000       0.62500000000000000        0.0000000000000000     
  0.90625000000000000       0.62500000000000000        0.0000000000000000     
  0.93750000000000000       0.62500000000000000        0.0000000000000000     
  0.96875000000000000       0.62500000000000000        0.0000000000000000     
   1.0000000000000000       0.62500000000000000        0.0000000000000000     
   0.0000000000000000       0.62500000000000000        0.0000000000000000     
   3.1250000000000000E-002  0.62500000000000000        0.0000000000000000     
   6.2500000000000000E-002  0.62500000000000000        0.0000000000000000     
   9.3750000000000000E-002  0.62500000000000000        0.0000000000000000     
  0.12500000000000000       0.62500000000000000        0.0000000000000000     
   0.0000000000000000       0.65625000000000000        0.0000000000000000     
   3.1250000000000000E-002  0.65625000000000000        0.0000000000000000     
   6.2500000000000000E-002  0.65625000000000000        0.0000000000000000     
   9.3750000000000000E-002  0.65625000000000000        0.0000000000000000     
  0.12500000000000000       0.65625000000000000        0.0000000000000000     
   0.0000000000000000       0.68750000000000000        0.0000000000000000     
   3.1250000000000000E-002  0.68750000000000000        0.0000000000000000     
   6.2500000000000000E-002  0.68750000000000000        0.0000000000000000     
   9.3750000000000000E-002  0.68750000000000000        0.0000000000000000     
  0.12500000000000000       0.68750000000000000        0.0000000000000000     
   0.0000000000000000       0.71875000000000000        0.0000000000000000     
   3.1250000000000000E-002  0.71875000000000000        0.0000000000000000     
   6.2500000000000000E-002  0.71875000000000000        0.0000000000000000     
   9.3750000000000000E-002  0.71875000000000000        0.0000000000000000     
  0.12500000000000000       0.71875000000000000        0.0000000000000000     
   0.0000000000000000       0.75000000000000000        0.0000000000000000     
   3.1250000000000000E-002  0.75000000000000000        0.0000000000000000     
   6.2500000000000000E-002  0.75000000000000000        0.0000000000000000     
   9.3750000000000000E-002  0.75000000000000000        0.0000000000000000     
  0.12500000000000000       0.75000000000000000        0.0000000000000000     
  0.12500000000000000       0.62500000000000000        0.0000000000000000     
  0.15625000000000000       0.62500000000000000        0.0000000000000000     
  0.18750000000000000       0.62500000000000000        0.0000000000000000     
  0.21875000000000000       0.62500000000000000        0.0000000000000000     
  0.25000000000000000       0.62500000000000000        0.0000000000000000     
  0.12500000000000000       0.65625000000000000        0.0000000000000000     
  0.15625000000000000       0.65625000000000000        0.0000000000000000     
  0.18750000000000000       0.65625000000000000        0.0000000000000000     
  0.21875000000000000       0.65625000000000000        0.0000000000000000     
  0.25000000000000000       0.65625000000000000        0.0000000000000000     
  0.12500000000000000       0.68750000000000000        0.0000000000000000     
  0.15625000000000000       0.68750000000000000        0.0000000000000000     
  0.18750000000000000       0.68750000000000000        0.0000000000000000     
  0.21875000000000000       0.68750000000000000        0.0000000000000000     
  0.25000000000000000       0.68750000000000000        0.0000000000000000     
  0.12500000000000000       0.71875000000000000        0.0000000000000000     
  0.15625000000000000       0.71875000000000000        0.0000000000000000     
  0.18750000000000000       0.71875000000000000        0.0000000000000000     
  0.21875000000000000       0.71875000000000000        0.0000000000000000     
  0.25000000000000000       0.71875000000000000        0.0000000000000000     
  0.12500000000000000       0.75000000000000000        0.0000000000000000     
  0.15625000000000000       0.75000000000000000        0.0000000000000000     
  0.18750000000000000       0.75000000000000000        0.0000000000000000     
  0.21875000000000000       0.75000000000000000        0.0000000000000000     
  0.25000000000000000       0.75000000000000000        0.0000000000000000     
  0.25000000000000000       0.62500000000000000        0.0000000000000000     
  0.28125000000000000       0.62500000000000000        0.0000000000000000     
  0.31250000000000000       0.62500000000000000        0.0000000000000000     
  0.34375000000000000       0.62500000000000000        0.0000000000000000     
  0.37500000000000000       0.62500000000000000        0.0000000000000000     
  0.25000000000000000       0.65625000000000000        0.0000000000000000     
  0.28125000000000000       0.65625000000000000        0.0000000000000000     
  0.31250000000000000       0.65625000000000000        0.0000000000000000     
  0.34375000000000000       0.65625000000000000        0.0000000000000000     
  0.37500000000000000       0.65625000000000000        0.0000000000000000     
  0.25000000000000000       0.68750000000000000        0.0000000000000000     
  0.28125000000000000       0.68750000000000000        0.0000000000000000     
  0.31250000000000000       0.68750000000000000        0.0000000000000000     
  0.34375000000000000       0.68750000000000000        0.0000000000000000     
  0.37500000000000000       0.68750000000000000        0.0000000000000000     
  0.25000000000000000       0.71875000000000000        0.0000000000000000     
  0.28125000000000000       0.71875000000000000        0.0000000000000000     
  0.31250000000000000       0.71875000000000000        0.0000000000000000     
  0.34375000000000000       0.71875000000000000        0.0000000000000000     
  0.37500000000000000       0.71875000000000000        0.0000000000000000     
  0.25000000000000000       0.75000000000000000        0.0000000000000000     
  0.28125000000000000       0.75000000000000000        0.0000000000000000     
  0.31250000000000000       0.75000000000000000        0.0000000000000000     
  0.34375000000000000       0.75000000000000000        0.0000000000000000     
  0.37500000000000000       0.75000000000000000        0.0000000000000000     
  0.37500000000000000       0.62500000000000000        0.0000000000000000     
  0.40625000000000000       0.62500000000000000        0.0000000000000000     
  0.43750000000000000       0.62500000000000000        0.0000000000000000     
  0.46875000000000000       0.62500000000000000        0.0000000000000000     
  0.50000000000000000       0.62500000000000000        0.0000000000000000     
  0.37500000000000000       0.65625000000000000        0.0000000000000000     
  0.40625000000000000       0.65625000000000000        0.0000000000000000     
  0.43750000000000000       0.65625000000000000        0.0000000000000000     
  0.46875000000000000       0.65625000000000000        0.0000000000000000     
  0.50000000000000000       0.65625000000000000        0.0000000000000000     
  0.37500000000000000       0.68750000000000000        0.0000000000000000     
  0.40625000000000000       0.68750000000000000        0.0000000000000000     
  0.43750000000000000       0.68750000000000000        0.0000000000000000     
  0.46875000000000000       0.68750000000000000        0.0000000000000000     
  0.50000000000000000       0.68750000000000000        0.0000000000000000     
  0.37500000000000000       0.71875000000000000        0.0000000000000000     
  0.40625000000000000       0.71875000000000000        0.0000000000000000     
  0.43750000000000000       0.71875000000000000        0.0000000000000000     
  0.46875000000000000       0.71875000000000000        0.0000000000000000     
  0.50000000000000000       0.71875000000000000        0.0000000000000000     
  0.37500000000000000       0.75000000000000000        0.0000000000000000     
  0.40625000000000000       0.75000000000000000        0.0000000000000000     
  0.43750000000000000       0.75000000000000000        0.0000000000000000     
  0.46875000000000000       0.75000000000000000        0.0000000000000000     
  0.50000000000000000       0.75000000000000000        0.0000000000000000     
  0.50000000000000000       0.62500000000000000        0.0000000000000000     
  0.53125000000000000       0.62500000000000000        0.0000000000000000     
  0.56250000000000000       0.62500000000000000        0.0000000000000000     
  0.59375000000000000       0.62500000000000000        0.0000000000000000     
  0.62500000000000000       0.62500000000000000        0.0000000000000000     
  0.50000000000000000       0.65625000000000000        0.0000000000000000     
  0.53125000000000000       0.65625000000000000        0.0000000000000000     
  0.56250000000000000       0.65625000000000000        0.0000000000000000     
  0.59375000000000000       0.65625000000000000        0.0000000000000000     
  0.62500000000000000       0.65625000000000000        0.0000000000000000     
  0.50000000000000000       0.68750000000000000        0.0000000000000000     
  0.53125000000000000       0.68750000000000000        0.0000000000000000     
  0.56250000000000000       0.68750000000000000        0.0000000000000000     
  0.59375000000000000       0.68750000000000000        0.0000000000000000     
  0.62500000000000000       0.68750000000000000        0.0000000000000000     
  0.50000000000000000       0.71875000000000000        0.0000000000000000     
  0.53125000000000000       0.71875000000000000        0.0000000000000000     
  0.56250000000000000       0.71875000000000000        0.0000000000000000     
  0.59375000000000000       0.71875000000000000        0.0000000000000000     
  0.62500000000000000       0.71875000000000000        0.0000000000000000     
  0.50000000000000000       0.75000000000000000        0.0000000000000000     
  0.53125000000000000       0.75000000000000000        0.0000000000000000     
  0.56250000000000000       0.75000000000000000        0.0000000000000000     
  0.59375000000000000       0.75000000000000000        0.0000000000000000     
  0.62500000000000000       0.75000000000000000        0.0000000000000000     
  0.62500000000000000       0.62500000000000000        0.0000000000000000     
  0.65625000000000000       0.62500000000000000        0.0000000000000000     
  0.68750000000000000       0.62500000000000000        0.0000000000000000     
  0.71875000000000000       0.62500000000000000        0.0000000000000000     
  0.75000000000000000       0.62500000000000000        0.0000000000000000     
  0.62500000000000000       0.65625000000000000        0.0000000000000000     
  0.65625000000000000       0.65625000000000000        0.0000000000000000     
  0.68750000000000000       0.65625000000000000        0.0000000000000000     
  0.71875000000000000       0.65625000000000000        0.0000000000000000     
  0.75000000000000000       0.65625000000000000        0.0000000000000000     
  0.62500000000000000       0.68750000000000000        0.0000000000000000     
  0.65625000000000000       0.68750000000000000        0.0000000000000000     
  0.68750000000000000       0.68750000000000000        0.0000000000000000     
  0.71875000000000000       0.68750000000000000        0.0000000000000000     
  0.75000000000000000       0.68750000000000000        0.0000000000000000     
  0.62500000000000000       0.71875000000000000        0.0000000000000000     
  0.65625000000000000       0.71875000000000000        0.0000000000000000     
  0.68750000000000000       0.71875000000000000        0.0000000000000000     
  0.71875000000000000       0.71875000000000000        0.0000000000000000     
  0.75000000000000000       0.71875000000000000        0.0000000000000000     
  0.62500000000000000       0.75000000000000000        0.0000000000000000     
  0.65625000000000000       0.75000000000000000        0.0000000000000000     
  0.68750000000000000       0.75000000000000000        0.0000000000000000     
  0.71875000000000000       0.75000000000000000        0.0000000000000000     
  0.75000000000000000       0.75000000000000000        0.0000000000000000     
  0.75000000000000000       0.62500000000000000        0.0000000000000000     
  0.78125000000000000       0.62500000000000000        0.0000000000000000     
  0.81250000000000000       0.62500000000000000        0.0000000000000000     
  0.84375000000000000       0.62500000000000000        0.0000000000000000     
  0.87500000000000000       0.62500000000000000        0.0000000000000000     
  0.75000000000000000       0.65625000000000000        0.0000000000000000     
  0.78125000000000000       0.65625000000000000        0.0000000000000000     
  0.81250000000000000       0.65625000000000000        0.0000000000000000     
  0.84375000000000000       0.65625000000000000        0.0000000000000000     
  0.87500000000000000       0.65625000000000000        0.0000000000000000     
  0.75000000000000000       0.68750000000000000        0.0000000000000000     
  0.78125000000000000       0.68750000000000000        0.0000000000000000     
  0.81250000000000000       0.68750000000000000        0.0000000000000000     
  0.84375000000000000       0.68750000000000000        0.0000000000000000     
  0.87500000000000000       0.68750000000000000        0.0000000000000000     
  0.75000000000000000       0.71875000000000000        0.0000000000000000     
  0.78125000000000000       0.71875000000000000        0.0000000000000000     
  0.81250000000000000       0.71875000000000000        0.0000000000000000     
  0.84375000000000000       0.71875000000000000        0.0000000000000000     
  0.87500000000000000       0.71875000000000000        0.0000000000000000     
  0.75000000000000000       0.75000000000000000        0.0000000000000000     
  0.78125000000000000       0.75000000000000000        0.0000000000000000     
  0.81250000000000000       0.75000000000000000        0.0000000000000000     
  0.84375000000000000       0.75000000000000000        0.0000000000000000     
  0.87500000000000000       0.75000000000000000        0.0000000000000000     
  0.87500000000000000       0.62500000000000000        0.0000000000000000     
  0.90625000000000000       0.62500000000000000        0.0000000000000000     
  0.93750000000000000       0.62500000000000000        0.0000000000000000     
  0.96875000000000000       0.62500000000000000        0.0000000000000000     
   1.0000000000000000       0.62500000000000000        0.0000000000000000     
  0.87500000000000000       0.65625000000000000        0.0000000000000000     
  0.90625000000000000       0.65625000000000000        0.0000000000000000     
  0.93750000000000000       0.65625000000000000        0.0000000000000000     
  0.96875000000000000       0.65625000000000000        0.0000000000000000     
   1.0000000000000000       0.65625000000000000        0.0000000000000000     
  0.87500000000000000       0.68750000000000000        0.0000000000000000     
  0.90625000000000000       0.68750000000000000        0.0000000000000000     
  0.93750000000000000       0.68750000000000000        0.0000000000000000     
  0.96875000000000000       0.68750000000000000        0.0000000000000000     
   1.0000000000000000       0.68750000000000000        0.0000000000000000     
  0.87500000000000000       0.71875000000000000        0.0000000000000000     
  0.90625000000000000       0.71875000000000000        0.0000000000000000     
  0.93750000000000000       0.71875000000000000        0.0000000000000000     
  0.96875000000000000       0.71875000000000000        0.0000000000000000     
   1.0000000000000000       0.71875000000000000        0.0000000000000000     
  0.87500000000000000       0.75000000000000000        0.0000000000000000     
  0.90625000000000000       0.75000000000000000        0.0000000000000000     
  0.93750000000000000       0.75000000000000000        0.0000000000000000     
  0.96875000000000000       0.75000000000000000        0.0000000000000000     
   1.0000000000000000       0.75000000000000000        0.0000000000000000     
   0.0000000000000000       0.75000000000000000        0.0000000000000000     
   3.1250000000000000E-002  0.75000000000000000        0.0000000000000000     
   6.2500000000000000E-002  0.75000000000000000        0.0000000000000000     
   9.3750000000000000E-002  0.75000000000000000        0.0000000000000000     
  0.12500000000000000       0.75000000000000000        0.0000000000000000     
   0.0000000000000000       0.78125000000000000        0.0000000000000000     
   3.1250000000000000E-002  0.78125000000000000        0.0000000000000000     
   6.2500000000000000E-002  0.78125000000000000        0.0000000000000000     
   9.3750000000000000E-002  0.78125000000000000        0.0000000000000000     
  0.12500000000000000       0.78125000000000000        0.0000000000000000     
   0.0000000000000000       0.81250000000000000        0.0000000000000000     
   3.1250000000000000E-002  0.81250000000000000        0.0000000000000000     
   6.2500000000000000E-002  0.81250000000000000        0.0000000000000000     
   9.3750000000000000E-002  0.81250000000000000        0.0000000000000000     
  0.12500000000000000       0.81250000000000000        0.0000000000000000     
   0.0000000000000000       0.84375000000000000        0.0000000000000000     
   3.1250000000000000E-002  0.84375000000000000        0.0000000000000000     
   6.2500000000000000E-002  0.84375000000000000        0.0000000000000000     
   9.3750000000000000E-002  0.84375000000000000        0.0000000000000000     
  0.12500000000000000       0.84375000000000000        0.0000000000000000     
   0.0000000000000000       0.87500000000000000        0.0000000000000000     
   3.1250000000000000E-002  0.87500000000000000        0.0000000000000000     
   6.2500000000000000E-002  0.87500000000000000        0.0000000000000000     
   9.3750000000000000E-002  0.87500000000000000        0.0000000000000000     
  0.12500000000000000       0.87500000000000000        0.0000000000000000     
  0.12500000000000000       0.75000000000000000        0.0000000000000000     
  0.15625000000000000       0.75000000000000000        0.0000000000000000     
  0.18750000000000000       0.75000000000000000        0.0000000000000000     
  0.21875000000000000       0.75000000000000000        0.0000000000000000     
  0.25000000000000000       0.75000000000000000        0.0000000000000000     
  0.12500000000000000       0.78125000000000000        0.0000000000000000     
  0.15625000000000000       0.78125000000000000        0.0000000000000000     
  0.18750000000000000       0.78125000000000000        0.0000000000000000     
  0.21875000000000000       0.78125000000000000        0.0000000000000000     
  0.25000000000000000       0.78125000000000000        0.0000000000000000     
  0.12500000000000000       0.81250000000000000        0.0000000000000000     
  0.15625000000000000       0.81250000000000000        0.0000000000000000     
  0.18750000000000000       0.81250000000000000        0.0000000000000000     
  0.21875000000000000       0.81250000000000000        0.0000000000000000     
  0.25000000000000000       0.81250000000000000        0.0000000000000000     
  0.12500000000000000       0.84375000000000000        0.0000000000000000     
  0.15625000000000000       0.84375000000000000        0.0000000000000000     
  0.18750000000000000       0.84375000000000000        0.0000000000000000     
  0.21875000000000000       0.84375000000000000        0.0000000000000000     
  0.25000000000000000       0.84375000000000000        0.0000000000000000     
  0.12500000000000000       0.87500000000000000        0.0000000000000000     
  0.15625000000000000       0.87500000000000000        0.0000000000000000     
  0.18750000000000000       0.87500000000000000        0.0000000000000000     
  0.21875000000000000       0.87500000000000000        0.0000000000000000     
  0.25000000000000000       0.87500000000000000        0.0000000000000000     
  0.25000000000000000       0.75000000000000000        0.0000000000000000     
  0.28125000000000000       0.75000000000000000        0.0000000000000000     
  0.31250000000000000       0.75000000000000000        0.0000000000000000     
  0.34375000000000000       0.75000000000000000        0.0000000000000000     
  0.37500000000000000       0.75000000000000000        0.0000000000000000     
  0.25000000000000000       0.78125000000000000        0.0000000000000000     
  0.28125000000000000       0.78125000000000000        0.0000000000000000     
  0.31250000000000000       0.78125000000000000        0.0000000000000000     
  0.34375000000000000       0.78125000000000000        0.0000000000000000     
  0.37500000000000000       0.78125000000000000        0.0000000000000000     
  0.25000000000000000       0.81250000000000000        0.0000000000000000     
  0.28125000000000000       0.81250000000000000        0.0000000000000000     
  0.31250000000000000       0.81250000000000000        0.0000000000000000     
  0.34375000000000000       0.81250000000000000        0.0000000000000000     
  0.37500000000000000       0.81250000000000000        0.0000000000000000     
  0.25000000000000000       0.84375000000000000        0.0000000000000000     
  0.28125000000000000       0.84375000000000000        0.0000000000000000     
  0.31250000000000000       0.84375000000000000        0.0000000000000000     
  0.34375000000000000       0.84375000000000000        0.0000000000000000     
  0.37500000000000000       0.84375000000000000        0.0000000000000000     
  0.25000000000000000       0.87500000000000000        0.0000000000000000     
  0.28125000000000000       0.87500000000000000        0.0000000000000000     
  0.31250000000000000       0.87500000000000000        0.0000000000000000     
  0.34375000000000000       0.87500000000000000        0.0000000000000000     
  0.37500000000000000       0.87500000000000000        0.0000000000000000     
  0.37500000000000000       0.75000000000000000        0.0000000000000000     
  0.40625000000000000       0.75000000000000000        0.0000000000000000     
  0.43750000000000000       0.75000000000000000        0.0000000000000000     
  0.46875000000000000       0.75000000000000000        0.0000000000000000     
  0.50000000000000000       0.75000000000000000        0.0000000000000000     
  0.37500000000000000       0.78125000000000000        0.0000000000000000     
  0.40625000000000000       0.78125000000000000        0.0000000000000000     
  0.43750000000000000       0.78125000000000000        0.0000000000000000     
  0.46875000000000000       0.78125000000000000        0.0000000000000000     
  0.50000000000000000       0.78125000000000000        0.0000000000000000     
  0.37500000000000000       0.81250000000000000        0.0000000000000000     
  0.40625000000000000       0.81250000000000000        0.0000000000000000     
  0.43750000000000000       0.81250000000000000        0.0000000000000000     
  0.46875000000000000       0.81250000000000000        0.0000000000000000     
  0.50000000000000000       0.81250000000000000        0.0000000000000000     
  0.37500000000000000       0.84375000000000000        0.0000000000000000     
  0.40625000000000000       0.84375000000000000        0.0000000000000000     
  0.43750000000000000       0.84375000000000000        0.0000000000000000     
  0.46875000000000000       0.84375000000000000        0.0000000000000000     
  0.50000000000000000       0.84375000000000000        0.0000000000000000     
  0.37500000000000000       0.87500000000000000        0.0000000000000000     
  0.40625000000000000       0.87500000000000000        0.0000000000000000     
  0.43750000000000000       0.87500000000000000        0.0000000000000000     
  0.46875000000000000       0.87500000000000000        0.0000000000000000     
  0.50000000000000000       0.87500000000000000        0.0000000000000000     
  0.50000000000000000       0.75000000000000000        0.0000000000000000     
  0.53125000000000000       0.75000000000000000        0.0000000000000000     
  0.56250000000000000       0.75000000000000000        0.0000000000000000     
  0.59375000000000000       0.75000000000000000        0.0000000000000000     
  0.62500000000000000       0.75000000000000000        0.0000000000000000     
  0.50000000000000000       0.78125000000000000        0.0000000000000000     
  0.53125000000000000       0.78125000000000000        0.0000000000000000     
  0.56250000000000000       0.78125000000000000        0.0000000000000000     
  0.59375000000000000       0.78125000000000000        0.0000000000000000     
  0.62500000000000000       0.78125000000000000        0.0000000000000000     
  0.50000000000000000       0.81250000000000000        0.0000000000000000     
  0.53125000000000000       0.81250000000000000        0.0000000000000000     
  0.56250000000000000       0.81250000000000000        0.0000000000000000     
  0.59375000000000000       0.81250000000000000        0.0000000000000000     
  0.62500000000000000       0.81250000000000000        0.0000000000000000     
  0.50000000000000000       0.84375000000000000        0.0000000000000000     
  0.53125000000000000       0.84375000000000000        0.0000000000000000     
  0.56250000000000000       0.84375000000000000        0.0000000000000000     
  0.59375000000000000       0.84375000000000000        0.0000000000000000     
  0.62500000000000000       0.84375000000000000        0.0000000000000000     
  0.50000000000000000       0.87500000000000000        0.0000000000000000     
  0.53125000000000000       0.87500000000000000        0.0000000000000000     
  0.56250000000000000       0.87500000000000000        0.0000000000000000     
  0.59375000000000000       0.87500000000000000        0.0000000000000000     
  0.62500000000000000       0.87500000000000000        0.0000000000000000     
  0.62500000000000000       0.75000000000000000        0.0000000000000000     
  0.65625000000000000       0.75000000000000000        0.0000000000000000     
  0.68750000000000000       0.75000000000000000        0.0000000000000000     
  0.71875000000000000       0.75000000000000000        0.0000000000000000     
  0.75000000000000000       0.75000000000000000        0.0000000000000000     
  0.62500000000000000       0.78125000000000000        0.0000000000000000     
  0.65625000000000000       0.78125000000000000        0.0000000000000000     
  0.68750000000000000       0.78125000000000000        0.0000000000000000     
  0.71875000000000000       0.78125000000000000        0.0000000000000000     
  0.75000000000000000       0.78125000000000000        0.0000000000000000     
  0.62500000000000000       0.81250000000000000        0.0000000000000000     
  0.65625000000000000       0.81250000000000000        0.0000000000000000     
  0.68750000000000000       0.81250000000000000        0.0000000000000000     
  0.71875000000000000       0.81250000000000000        0.0000000000000000     
  0.75000000000000000       0.81250000000000000        0.0000000000000000     
  0.62500000000000000       0.84375000000000000        0.0000000000000000     
  0.65625000000000000       0.84375000000000000        0.0000000000000000     
  0.68750000000000000       0.84375000000000000        0.0000000000000000     
  0.71875000000000000       0.84375000000000000        0.0000000000000000     
  0.75000000000000000       0.84375000000000000        0.0000000000000000     
  0.62500000000000000       0.87500000000000000        0.0000000000000000     
  0.65625000000000000       0.87500000000000000        0.0000000000000000     
  0.68750000000000000       0.87500000000000000        0.0000000000000000     
  0.71875000000000000       0.87500000000000000        0.0000000000000000     
  0.75000000000000000       0.87500000000000000        0.0000000000000000     
  0.75000000000000000       0.75000000000000000        0.0000000000000000     
  0.78125000000000000       0.75000000000000000        0.0000000000000000     
  0.81250000000000000       0.75000000000000000        0.0000000000000000     
  0.84375000000000000       0.75000000000000000        0.0000000000000000     
  0.87500000000000000       0.75000000000000000        0.0000000000000000     
  0.75000000000000000       0.78125000000000000        0.0000000000000000     
  0.78125000000000000       0.78125000000000000        0.0000000000000000     
  0.81250000000000000       0.78125000000000000        0.0000000000000000     
  0.84375000000000000       0.78125000000000000        0.0000000000000000     
  0.87500000000000000       0.78125000000000000        0.0000000000000000     
  0.75000000000000000       0.81250000000000000        0.0000000000000000     
  0.78125000000000000       0.81250000000000000        0.0000000000000000     
  0.81250000000000000       0.81250000000000000        0.0000000000000000     
  0.84375000000000000       0.81250000000000000        0.0000000000000000     
  0.87500000000000000       0.81250000000000000        0.0000000000000000     
  0.75000000000000000       0.84375000000000000        0.0000000000000000     
  0.78125000000000000       0.84375000000000000        0.0000000000000000     
  0.81250000000000000       0.84375000000000000        0.0000000000000000     
  0.84375000000000000       0.84375000000000000        0.0000000000000000     
  0.87500000000000000       0.84375000000000000        0.0000000000000000     
  0.75000000000000000       0.87500000000000000        0.0000000000000000     
  0.78125000000000000       0.87500000000000000        0.0000000000000000     
  0.81250000000000000       0.87500000000000000        0.0000000000000000     
  0.84375000000000000       0.87500000000000000        0.0000000000000000     
  0.87500000000000000       0.87500000000000000        0.0000000000000000     
  0.87500000000000000       0.75000000000000000        0.0000000000000000     
  0.90625000000000000       0.75000000000000000        0.0000000000000000     
  0.93750000000000000       0.75000000000000000        0.0000000000000000     
  0.96875000000000000       0.75000000000000000        0.0000000000000000     
   1.0000000000000000       0.75000000000000000        0.0000000000000000     
  0.87500000000000000       0.78125000000000000        0.0000000000000000     
  0.90625000000000000       0.78125000000000000        0.0000000000000000     
  0.93750000000000000       0.78125000000000000        0.0000000000000000     
  0.96875000000000000       0.78125000000000000        0.0000000000000000     
   1.0000000000000000       0.78125000000000000        0.0000000000000000     
  0.87500000000000000       0.81250000000000000        0.0000000000000000     
  0.90625000000000000       0.81250000000000000        0.0000000000000000     
  0.93750000000000000       0.81250000000000000        0.0000000000000000     
  0.96875000000000000       0.81250000000000000        0.0000000000000000     
   1.0000000000000000       0.81250000000000000        0.0000000000000000     
  0.87500000000000000       0.84375000000000000        0.0000000000000000     
  0.90625000000000000       0.84375000000000000        0.0000000000000000     
  0.93750000000000000       0.84375000000000000        0.0000000000000000     
  0.96875000000000000       0.84375000000000000        0.0000000000000000     
   1.0000000000000000       0.84375000000000000        0.0000000000000000     
  0.87500000000000000       0.87500000000000000        0.0000000000000000     
  0.90625000000000000       0.87500000000000000        0.0000000000000000     
  0.93750000000000000       0.87500000000000000        0.0000000000000000     
  0.96875000000000000       0.87500000000000000        0.0000000000000000     
   1.0000000000000000       0.87500000000000000        0.0000000000000000     
   0.0000000000000000       0.87500000000000000        0.0000000000000000     
   3.1250000000000000E-002  0.87500000000000000        0.0000000000000000     
   6.2500000000000000E-002  0.87500000000000000        0.0000000000000000     
   9.3750000000000000E-002  0.87500000000000000        0.0000000000000000     
  0.12500000000000000       0.87500000000000000        0.0000000000000000     
   0.0000000000000000       0.90625000000000000        0.0000000000000000     
   3.1250000000000000E-002  0.90625000000000000        0.0000000000000000     
   6.2500000000000000E-002  0.90625000000000000        0.0000000000000000     
   9.3750000000000000E-002  0.90625000000000000        0.0000000000000000     
  0.12500000000000000       0.90625000000000000        0.0000000000000000     
   0.0000000000000000       0.93750000000000000        0.0000000000000000     
   3.1250000000000000E-002  0.93750000000000000        0.0000000000000000     
   6.2500000000000000E-002  0.93750000000000000        0.0000000000000000     
   9.3750000000000000E-002  0.93750000000000000        0.0000000000000000     
  0.12500000000000000       0.93750000000000000        0.0000000000000000     
   0.0000000000000000       0.96875000000000000        0.0000000000000000     
   3.1250000000000000E-002  0.96875000000000000        0.0000000000000000     
   6.2500000000000000E-002  0.96875000000000000        0.0000000000000000     
   9.3750000000000000E-002  0.96875000000000000        0.0000000000000000     
  0.12500000000000000       0.96875000000000000        0.0000000000000000     
   0.0000000000000000        1.0000000000000000        0.0000000000000000     
   3.1250000000000000E-002   1.0000000000000000        0.0000000000000000     
   6.2500000000000000E-002   1.0000000000000000        0.0000000000000000     
   9.3750000000000000E-002   1.0000000000000000        0.0000000000000000     
  0.12500000000000000        1.0000000000000000        0.0000000000000000     
  0.12500000000000000       0.87500000000000000        0.0000000000000000     
  0.15625000000000000       0.87500000000000000        0.0000000000000000     
  0.18750000000000000       0.87500000000000000        0.0000000000000000     
  0.21875000000000000       0.87500000000000000        0.0000000000000000     
  0.25000000000000000       0.87500000000000000        0.0000000000000000     
  0.12500000000000000       0.90625000000000000        0.0000000000000000     
  0.15625000000000000       0.90625000000000000        0.0000000000000000     
  0.18750000000000000       0.90625000000000000        0.0000000000000000     
  0.21875000000000000       0.90625000000000000        0.0000000000000000     
  0.25000000000000000       0.90625000000000000        0.0000000000000000     
  0.12500000000000000       0.93750000000000000        0.0000000000000000     
  0.15625000000000000       0.93750000000000000        0.0000000000000000     
  0.18750000000000000       0.93750000000000000        0.0000000000000000     
  0.21875000000000000       0.93750000000000000        0.0000000000000000     
  0.25000000000000000       0.93750000000000000        0.0000000000000000     
  0.12500000000000000       0.96875000000000000        0.0000000000000000     
  0.15625000000000000       0.96875000000000000        0.0000000000000000     
  0.18750000000000000       0.96875000000000000        0.0000000000000000     
  0.21875000000000000       0.96875000000000000        0.0000000000000000     
  0.25000000000000000       0.96875000000000000        0.0000000000000000     
  0.12500000000000000        1.0000000000000000        0.0000000000000000     
  0.15625000000000000        1.0000000000000000        0.0000000000000000     
  0.18750000000000000        1.0000000000000000        0.0000000000000000     
  0.21875000000000000        1.0000000000000000        0.0000000000000000     
  0.25000000000000000        1.0000000000000000        0.0000000000000000     
  0.25000000000000000       0.87500000000000000        0.0000000000000000     
  0.28125000000000000       0.87500000000000000        0.0000000000000000     
  0.31250000000000000       0.87500000000000000        0.0000000000000000     
  0.34375000000000000       0.87500000000000000        0.0000000000000000     
  0.37500000000000000       0.87500000000000000        0.0000000000000000     
  0.25000000000000000       0.90625000000000000        0.0000000000000000     
  0.28125000000000000       0.90625000000000000        0.0000000000000000     
  0.31250000000000000       0.90625000000000000        0.0000000000000000     
  0.34375000000000000       0.90625000000000000        0.0000000000000000     
  0.37500000000000000       0.90625000000000000        0.0000000000000000     
  0.25000000000000000       0.93750000000000000        0.0000000000000000     
  0.28125000000000000       0.93750000000000000        0.0000000000000000     
  0.31250000000000000       0.93750000000000000        0.0000000000000000     
  0.34375000000000000       0.93750000000000000        0.0000000000000000     
  0.37500000000000000       0.93750000000000000        0.0000000000000000     
  0.25000000000000000       0.96875000000000000        0.0000000000000000     
  0.28125000000000000       0.96875000000000000        0.0000000000000000     
  0.31250000000000000       0.96875000000000000        0.0000000000000000     
  0.34375000000000000       0.96875000000000000        0.0000000000000000     
  0.37500000000000000       0.96875000000000000        0.0000000000000000     
  0.25000000000000000        1.0000000000000000        0.0000000000000000     
  0.28125000000000000        1.0000000000000000        0.0000000000000000     
  0.31250000000000000        1.0000000000000000        0.0000000000000000     
  0.34375000000000000        1.0000000000000000        0.0000000000000000     
  0.37500000000000000        1.0000000000000000        0.0000000000000000     
  0.37500000000000000       0.87500000000000000        0.0000000000000000     
  0.40625000000000000       0.87500000000000000        0.0000000000000000     
  0.43750000000000000       0.87500000000000000        0.0000000000000000     
  0.46875000000000000       0.87500000000000000        0.0000000000000000     
  0.50000000000000000       0.87500000000000000        0.0000000000000000     
  0.37500000000000000       0.90625000000000000        0.0000000000000000     
  0.40625000000000000       0.90625000000000000        0.0000000000000000     
  0.43750000000000000       0.90625000000000000        0.0000000000000000     
  0.46875000000000000       0.90625000000000000        0.0000000000000000     
  0.50000000000000000       0.90625000000000000        0.0000000000000000     
  0.37500000000000000       0.93750000000000000        0.0000000000000000     
  0.40625000000000000       0.93750000000000000        0.0000000000000000     
  0.43750000000000000       0.93750000000000000        0.0000000000000000     
  0.46875000000000000       0.93750000000000000        0.0000000000000000     
  0.50000000000000000       0.93750000000000000        0.0000000000000000     
  0.37500000000000000       0.96875000000000000        0.0000000000000000     
  0.40625000000000000       0.96875000000000000        0.0000000000000000     
  0.43750000000000000       0.96875000000000000        0.0000000000000000     
  0.46875000000000000       0.96875000000000000        0.0000000000000000     
  0.50000000000000000       0.96875000000000000        0.0000000000000000     
  0.37500000000000000        1.0000000000000000        0.0000000000000000     
  0.40625000000000000        1.0000000000000000        0.0000000000000000     
  0.43750000000000000        1.0000000000000000        0.0000000000000000     
  0.46875000000000000        1.0000000000000000        0.0000000000000000     
  0.50000000000000000        1.0000000000000000        0.0000000000000000     
  0.50000000000000000       0.87500000000000000        0.0000000000000000     
  0.53125000000000000       0.87500000000000000        0.0000000000000000     
  0.56250000000000000       0.87500000000000000        0.0000000000000000     
  0.59375000000000000       0.87500000000000000        0.0000000000000000     
  0.62500000000000000       0.87500000000000000        0.0000000000000000     
  0.50000000000000000       0.90625000000000000        0.0000000000000000     
  0.53125000000000000       0.90625000000000000        0.0000000000000000     
  0.56250000000000000       0.90625000000000000        0.0000000000000000     
  0.59375000000000000       0.90625000000000000        0.0000000000000000     
  0.62500000000000000       0.90625000000000000        0.0000000000000000     
  0.50000000000000000       0.93750000000000000        0.0000000000000000     
  0.53125000000000000       0.93750000000000000        0.0000000000000000     
  0.56250000000000000       0.93750000000000000        0.0000000000000000     
  0.59375000000000000       0.93750000000000000        0.0000000000000000     
  0.62500000000000000       0.93750000000000000        0.0000000000000000     
  0.50000000000000000       0.96875000000000000        0.0000000000000000     
  0.53125000000000000       0.96875000000000000        0.0000000000000000     
  0.56250000000000000       0.96875000000000000        0.0000000000000000     
  0.59375000000000000       0.96875000000000000        0.0000000000000000     
  0.62500000000000000       0.96875000000000000        0.0000000000000000     
  0.50000000000000000        1.0000000000000000        0.0000000000000000     
  0.53125000000000000        1.0000000000000000        0.0000000000000000     
  0.56250000000000000        1.0000000000000000        0.0000000000000000     
  0.59375000000000000        1.0000000000000000        0.0000000000000000     
  0.62500000000000000        1.0000000000000000        0.0000000000000000     
  0.62500000000000000       0.87500000000000000        0.0000000000000000     
  0.65625000000000000       0.87500000000000000        0.0000000000000000     
  0.68750000000000000       0.87500000000000000        0.0000000000000000     
  0.71875000000000000       0.87500000000000000        0.0000000000000000     
  0.75000000000000000       0.87500000000000000        0.0000000000000000     
  0.62500000000000000       0.90625000000000000        0.0000000000000000     
  0.65625000000000000       0.90625000000000000        0.0000000000000000     
  0.68750000000000000       0.90625000000000000        0.0000000000000000     
  0.71875000000000000       0.90625000000000000        0.0000000000000000     
  0.75000000000000000       0.90625000000000000        0.0000000000000000     
  0.62500000000000000       0.93750000000000000        0.0000000000000000     
  0.65625000000000000       0.93750000000000000        0.0000000000000000     
  0.68750000000000000       0.93750000000000000        0.0000000000000000     
  0.71875000000000000       0.93750000000000000        0.0000000000000000     
  0.75000000000000000       0.93750000000000000        0.0000000000000000     
  0.62500000000000000       0.96875000000000000        0.0000000000000000     
  0.65625000000000000       0.96875000000000000        0.0000000000000000     
  0.68750000000000000       0.96875000000000000        0.0000000000000000     
  0.71875000000000000       0.96875000000000000        0.0000000000000000     
  0.75000000000000000       0.96875000000000000        0.0000000000000000     
  0.62500000000000000        1.0000000000000000        0.0000000000000000     
  0.65625000000000000        1.0000000000000000        0.0000000000000000     
  0.68750000000000000        1.0000000000000000        0.0000000000000000     
  0.71875000000000000        1.0000000000000000        0.0000000000000000     
  0.75000000000000000        1.0000000000000000        0.0000000000000000     
  0.75000000000000000       0.87500000000000000        0.0000000000000000     
  0.78125000000000000       0.87500000000000000        0.0000000000000000     
  0.81250000000000000       0.87500000000000000        0.0000000000000000     
  0.84375000000000000       0.87500000000000000        0.0000000000000000     
  0.87500000000000000       0.87500000000000000        0.0000000000000000     
  0.75000000000000000       0.90625000000000000        0.0000000000000000     
  0.78125000000000000       0.90625000000000000        0.0000000000000000     
  0.81250000000000000       0.90625000000000000        0.0000000000000000     
  0.84375000000000000       0.90625000000000000        0.0000000000000000     
  0.87500000000000000       0.90625000000000000        0.0000000000000000     
  0.75000000000000000       0.93750000000000000        0.0000000000000000     
  0.78125000000000000       0.93750000000000000        0.0000000000000000     
  0.81250000000000000       0.93750000000000000        0.0000000000000000     
  0.84375000000000000       0.93750000000000000        0.0000000000000000     
  0.87500000000000000       0.93750000000000000        0.0000000000000000     
  0.75000000000000000       0.96875000000000000        0.0000000000000000     
  0.78125000000000000       0.96875000000000000        0.0000000000000000     
  0.81250000000000000       0.96875000000000000        0.0000000000000000     
  0.84375000000000000       0.96875000000000000        0.0000000000000000     
  0.87500000000000000       0.96875000000000000        0.0000000000000000     
  0.75000000000000000        1.0000000000000000        0.0000000000000000     
  0.78125000000000000        1.0000000000000000        0.0000000000000000     
  0.81250000000000000        1.0000000000000000        0.0000000000000000     
  0.84375000000000000        1.0000000000000000        0.0000000000000000     
  0.87500000000000000        1.0000000000000000        0.0000000000000000     
  0.87500000000000000       0.87500000000000000        0.0000000000000000     
  0.90625000000000000       0.87500000000000000        0.0000000000000000     
  0.93750000000000000       0.87500000000000000        0.0000000000000000     
  0.96875000000000000       0.87500000000000000        0.0000000000000000     
   1.0000000000000000       0.87500000000000000        0.0000000000000000     
  0.87500000000000000       0.90625000000000000        0.0000000000000000     
  0.90625000000000000       0.90625000000000000        0.0000000000000000     
  0.93750000000000000       0.90625000000000000        0.0000000000000000     
  0.96875000000000000       0.90625000000000000        0.0000000000000000     
   1.0000000000000000       0.90625000000000000        0.0000000000000000     
  0.87500000000000000       0.93750000000000000        0.0000000000000000     
  0.90625000000000000       0.93750000000000000        0.0000000000000000     
  0.93750000000000000       0.93750000000000000        0.0000000000000000     
  0.96875000000000000       0.93750000000000000        0.0000000000000000     
   1.0000000000000000       0.93750000000000000        0.0000000000000000     
  0.87500000000000000       0.96875000000000000        0.0000000000000000     
  0.90625000000000000       0.96875000000000000        0.0000000000000000     
  0.93750000000000000       0.96875000000000000        0.0000000000000000     
  0.96875000000000000       0.96875000000000000        0.0000000000000000     
   1.0000000000000000       0.96875000000000000        0.0000000000000000     
  0.87500000000000000        1.0000000000000000        0.0000000000000000     
  0.90625000000000000        1.0000000000000000        0.0000000000000000     
  0.93750000000000000        1.0000000000000000        0.0000000000000000     
  0.96875000000000000        1.0000000000000000        0.0000000000000000     
   1.0000000000000000        1.0000000000000000        0.0000000000000000     
 </DataArray>
 </Points>
 <Cells>
 <DataArray  type="Int32"  Name="connectivity"  format="ascii">
           0           1           6           5
           1           2           7           6
           2           3           8           7
           3           4           9           8
           5           6          11          10
           6           7          12          11
           7           8          13          12
           8           9          14          13
          10          11          16          15
          11          12          17          16
          12          13          18          17
          13          14          19          18
          15          16          21          20
          16          17          22          21
          17          18          23          22
          18          19          24          23
          25          26          31          30
          26          27          32          31
          27          28          33          32
          28          29          34          33
          30          31          36          35
          31          32          37          36
          32          33          38          37
          33          34          39          38
          35          36          41          40
          36          37          42          41
          37          38          43          42
          38          39          44          43
          40          41          46          45
          41          42          47          46
          42          43          48          47
          43          44          49          48
          50          51          56          55
          51          52          57          56
          52          53          58          57
          53          54          59          58
          55          56          61          60
          56          57          62          61
          57          58          63          62
          58          59          64          63
          60          61          66          65
          61          62          67          66
          62          63          68          67
          63          64          69          68
          65          66          71          70
          66          67          72          71
          67          68          73          72
          68          69          74          73
          75          76          81          80
          76          77          82          81
          77          78          83          82
          78          79          84          83
          80          81          86          85
          81          82          87          86
          82          83          88          87
          83          84          89          88
          85          86          91          90
          86          87          92          91
          87          88          93          92
          88          89          94          93
          90          91          96          95
          91          92          97          96
          92          93          98          97
          93          94          99          98
         100         101         106         105
         101         102         107         106
         102         103         108         107
         103         104         109         108
         105         106         111         110
         106         107         112         111
         107         108         113         112
         108         109         114         113
         110         111         116         115
         111         112         117         116
         112         113         118         117
         113         114         119         118
         115         116         121         120
         116         117         122         121
         117         118         123         122
         118         119         124         123
         125         126         131         130
         126         127         132         131
         127         128         133         132
         128         129         134         133
         130         131         136         135
         131         132         137         136
         132         133         138         137
         133         134         139         138
         135         136         141         140
         136         137         142         141
         137         138         143         142
         138         139         144         143
         140         141         146         145
         141         142         147         146
         142         143         148         147
         143         144         149         148
         150         151         156         155
         151         152         157         156
         152         153         158         157
         153         154         159         158
         155         156         161         160
         156         157         162         161
         157         158         163         162
         158         159         164         163
         160         161         166         165
         161         162         167         166
         162         163         168         167
         163         164         169         168
         165         166         171         170
         166         167         172         171
         167         168         173         172
         168         169         174         173
         175         176         181         180
         176         177         182         181
         177         178         183         182
         178         179         184         183
         180         181         186         185
         181         182         187         186
         182         183         188         187
         183         184         189         188
         185         186         191         190
         186         187         192         191
         187         188         193         192
         188         189         194         193
         190         191         196         195
         191         192         197         196
         192         193         198         197
         193         194         199         198
         200         201         206         205
         201         202         207         206
         202         203         208         207
         203         204         209         208
         205         206         211         210
         206         207         212         211
         207         208         213         212
         208         209         214         213
         210         211         216         215
         211         212         217         216
         212         213         218         217
         213         214         219         218
         215         216         221         220
         216         217         222         221
         217         218         223         222
         218         219         224         223
         225         226         231         230
         226         227         232         231
         227         228         233         232
         228         229         234         233
         230         231         236         235
         231         232         237         236
         232         233         238         237
         233         234         239         238
         235         236         241         240
         236         237         242         241
         237         238         243         242
         238         239         244         243
         240         241         246         245
         241         242         247         246
         242         243         248         247
         243         244         249         248
         250         251         256         255
         251         252         257         256
         252         253         258         257
         253         254         259         258
         255         256         261         260
         256         257         262         261
         257         258         263         262
         258         259         264         263
         260         261         266         265
         261         262         267         266
         262         263         268         267
         263         264         269         268
         265         266         271         270
         266         267         272         271
         267         268         273         272
         268         269         274         273
         275         276         281         280
         276         277         282         281
         277         278         283         282
         278         279         284         283
         280         281         286         285
         281         282         287         286
         282         283         288         287
         283         284         289         288
         285         286         291         290
         286         287         292         291
         287         288         293         292
         288         289         294         293
         290         291         296         295
         291         292         297         296
         292         293         298         297
         293         294         299         298
         300         301         306         305
         301         302         307         306
         302         303         308         307
         303         304         309         308
         305         306         311         310
         306         307         312         311
         307         308         313         312
         308         309         314         313
         310         311         316         315
         311         312         317         316
         312         313         318         317
         313         314         319         318
         315         316         321         320
         316         317         322         321
         317         318         323         322
         318         319         324         323
         325         326         331         330
         326         327         332         331
         327         328         333         332
         328         329         334         333
         330         331         336         335
         331         332         337         336
         332         333         338         337
         333         334         339         338
         335         336         341         340
         336         337         342         341
         337         338         343         342
         338         339         344         343
         340         341         346         345
         341         342         347         346
         342         343         348         347
         343         344         349         348
         350         351         356         355
         351         352         357         356
         352         353         358         357
         353         354         359         358
         355         356         361         360
         356         357         362         361
         357         358         363         362
         358         359         364         363
         360         361         366         365
         361         362         367         366
         362         363         368         367
         363         364         369         368
         365         366         371         370
         366         367         372         371
         367         368         373         372
         368         369         374         373
         375         376         381         380
         376         377         382         381
         377         378         383         382
         378         379         384         383
         380         381         386         385
         381         382         387         386
         382         383         388         387
         383         384         389         388
         385         386         391         390
         386         387         392         391
         387         388         393         392
         388         389         394         393
         390         391         396         395
         391         392         397         396
         392         393         398         397
         393         394         399         398
         400         401         406         405
         401         402         407         406
         402         403         408         407
         403         404         409         408
         405         406         411         410
         406         407         412         411
         407         408         413         412
         408         409         414         413
         410         411         416         415
         411         412         417         416
         412         413         418         417
         413         414         419         418
         415         416         421         420
         416         417         422         421
         417         418         423         422
         418         419         424         423
         425         426         431         430
         426         427         432         431
         427         428         433         432
         428         429         434         433
         430         431         436         435
         431         432         437         436
         432         433         438         437
         433         434         439         438
         435         436         441         440
         436         437         442         441
         437         438         443         442
         438         439         444         443
         440         441         446         445
         441         442         447         446
         442         443         448         447
         443         444         449         448
         450         451         456         455
         451         452         457         456
         452         453         458         457
         453         454         459         458
         455         456         461         460
         456         457         462         461
         457         458         463         462
         458         459         464         463
         460         461         466         465
         461         462         467         466
         462         463         468         467
         463         464         469         468
         465         466         471         470
         466         467         472         471
         467         468         473         472
         468         469         474         473
         475         476         481         480
         476         477         482         481
         477         478         483         482
         478         479         484         483
         480         481         486         485
         481         482         487         486
         482         483         488         487
         483         484         489         488
         485         486         491         490
         486         487         492         491
         487         488         493         492
         488         489         494         493
         490         491         496         495
         491         492         497         496
         492         493         498         497
         493         494         499         498
         500         501         506         505
         501         502         507         506
         502         503         508         507
         503         504         509         508
         505         506         511         510
         506         507         512         511
         507         508         513         512
         508         509         514         513
         510         511         516         515
         511         512         517         516
         512         513         518         517
         513         514         519         518
         515         516         521         520
         516         517         522         521
         517         518         523         522
         518         519         524         523
         525         526         531         530
         526         527         532         531
         527         528         533         532
         528         529         534         533
         530         531         536         535
         531         532         537         536
         532         533         538         537
         533         534         539         538
         535         536         541         540
         536         537         542         541
         537         538         543         542
         538         539         544         543
         540         541         546         545
         541         542         547         546
         542         543         548         547
         543         544         549         548
         550         551         556         555
         551         552         557         556
         552         553         558         557
         553         554         559         558
         555         556         561         560
         556         557         562         561
         557         558         563         562
         558         559         564         563
         560         561         566         565
         561         562         567         566
         562         563         568         567
         563         564         569         568
         565         566         571         570
         566         567         572         571
         567         568         573         572
         568         569         574         573
         575         576         581         580
         576         577         582         581
         577         578         583         582
         578         579         584         583
         580         581         586         585
         581         582         587         586
         582         583         588         587
         583         584         589         588
         585         586         591         590
         586         587         592         591
         587         588         593         592
         588         589         594         593
         590         591         596         595
         591         592         597         596
         592         593         598         597
         593         594         599         598
         600         601         606         605
         601         602         607         606
         602         603         608         607
         603         604         609         608
         605         606         611         610
         606         607         612         611
         607         608         613         612
         608         609         614         613
         610         611         616         615
         611         612         617         616
         612         613         618         617
         613         614         619         618
         615         616         621         620
         616         617         622         621
         617         618         623         622
         618         619         624         623
         625         626         631         630
         626         627         632         631
         627         628         633         632
         628         629         634         633
         630         631         636         635
         631         632         637         636
         632         633         638         637
         633         634         639         638
         635         636         641         640
         636         637         642         641
         637         638         643         642
         638         639         644         643
         640         641         646         645
         641         642         647         646
         642         643         648         647
         643         644         649         648
         650         651         656         655
         651         652         657         656
         652         653         658         657
         653         654         659         658
         655         656         661         660
         656         657         662         661
         657         658         663         662
         658         659         664         663
         660         661         666         665
         661         662         667         666
         662         663         668         667
         663         664         669         668
         665         666         671         670
         666         667         672         671
         667         668         673         672
         668         669         674         673
         675         676         681         680
         676         677         682         681
         677         678         683         682
         678         679         684         683
         680         681         686         685
         681         682         687         686
         682         683         688         687
         683         684         689         688
         685         686         691         690
         686         687         692         691
         687         688         693         692
         688         689         694         693
         690         691         696         695
         691         692         697         696
         692         693         698         697
         693         694         699         698
         700         701         706         705
         701         702         707         706
         702         703         708         707
         703         704         709         708
         705         706         711         710
         706         707         712         711
         707         708         713         712
         708         709         714         713
         710         711         716         715
         711         712         717         716
         712         713         718         717
         713         714         719         718
         715         716         721         720
         716         717         722         721
         717         718         723         722
         718         719         724         723
         725         726         731         730
         726         727         732         731
         727         728         733         732
         728         729         734         733
         730         731         736         735
         731         732         737         736
         732         733         738         737
         733         734         739         738
         735         736         741         740
         736         737         742         741
         737         738         743         742
         738         739         744         743
         740         741         746         745
         741         742         747         746
         742         743         748         747
         743         744         749         748
         750         751         756         755
         751         752         757         756
         752         753         758         757
         753         754         759         758
         755         756         761         760
         756         757         762         761
         757         758         763         762
         758         759         764         763
         760         761         766         765
         761         762         767         766
         762         763         768         767
         763         764         769         768
         765         766         771         770
         766         767         772         771
         767         768         773         772
         768         769         774         773
         775         776         781         780
         776         777         782         781
         777         778         783         782
         778         779         784         783
         780         781         786         785
         781         782         787         786
         782         783         788         787
         783         784         789         788
         785         786         791         790
         786         787         792         791
         787         788         793         792
         788         789         794         793
         790         791         796         795
         791         792         797         796
         792         793         798         797
         793         794         799         798
         800         801         806         805
         801         802         807         806
         802         803         808         807
         803         804         809         808
         805         806         811         810
         806         807         812         811
         807         808         813         812
         808         809         814         813
         810         811         816         815
         811         812         817         816
         812         813         818         817
         813         814         819         818
         815         816         821         820
         816         817         822         821
         817         818         823         822
         818         819         824         823
         825         826         831         830
         826         827         832         831
         827         828         833         832
         828         829         834         833
         830         831         836         835
         831         832         837         836
         832         833         838         837
         833         834         839         838
         835         836         841         840
         836         837         842         841
         837         838         843         842
         838         839         844         843
         840         841         846         845
         841         842         847         846
         842         843         848         847
         843         844         849         848
         850         851         856         855
         851         852         857         856
         852         853         858         857
         853         854         859         858
         855         856         861         860
         856         857         862         861
         857         858         863         862
         858         859         864         863
         860         861         866         865
         861         862         867         866
         862         863         868         867
         863         864         869         868
         865         866         871         870
         866         867         872         871
         867         868         873         872
         868         869         874         873
         875         876         881         880
         876         877         882         881
         877         878         883         882
         878         879         884         883
         880         881         886         885
         881         882         887         886
         882         883         888         887
         883         884         889         888
         885         886         891         890
         886         887         892         891
         887         888         893         892
         888         889         894         893
         890         891         896         895
         891         892         897         896
         892         893         898         897
         893         894         899         898
         900         901         906         905
         901         902         907         906
         902         903         908         907
         903         904         909         908
         905         906         911         910
         906         907         912         911
         907         908         913         912
         908         909         914         913
         910         911         916         915
         911         912         917         916
         912         913         918         917
         913         914         919         918
         915         916         921         920
         916         917         922         921
         917         918         923         922
         918         919         924         923
         925         926         931         930
         926         927         932         931
         927         928         933         932
         928         929         934         933
         930         931         936         935
         931         932         937         936
         932         933         938         937
         933         934         939         938
         935         936         941         940
         936         937         942         941
         937         938         943         942
         938         939         944         943
         940         941         946         945
         941         942         947         946
         942         943         948         947
         943         944         949         948
         950         951         956         955
         951         952         957         956
         952         953         958         957
         953         954         959         958
         955         956         961         960
         956         957         962         961
         957         958         963         962
         958         959         964         963
         960         961         966         965
         961         962         967         966
         962         963         968         967
         963         964         969         968
         965         966         971         970
         966         967         972         971
         967         968         973         972
         968         969         974         973
         975         976         981         980
         976         977         982         981
         977         978         983         982
         978         979         984         983
         980         981         986         985
         981         982         987         986
         982         983         988         987
         983         984         989         988
         985         986         991         990
         986         987         992         991
         987         988         993         992
         988         989         994         993
         990         991         996         995
         991         992         997         996
         992         993         998         997
         993         994         999         998
        1000        1001        1006        1005
        1001        1002        1007        1006
        1002        1003        1008        1007
        1003        1004        1009        1008
        1005        1006        1011        1010
        1006        1007        1012        1011
        1007        1008        1013        1012
        1008        1009        1014        1013
        1010        1011        1016        1015
        1011        1012        1017        1016
        1012        1013        1018        1017
        1013        1014        1019        1018
        1015        1016        1021        1020
        1016        1017        1022        1021
        1017        1018        1023        1022
        1018        1019        1024        1023
        1025        1026        1031        1030
        1026        1027        1032        1031
        1027        1028        1033        1032
        1028        1029        1034        1033
        1030        1031        1036        1035
        1031        1032        1037        1036
        1032        1033        1038        1037
        1033        1034        1039        1038
        1035        1036        1041        1040
        1036        1037        1042        1041
        1037        1038        1043        1042
        1038        1039        1044        1043
        1040        1041        1046        1045
        1041        1042        1047        1046
        1042        1043        1048        1047
        1043        1044        1049        1048
        1050        1051        1056        1055
        1051        1052        1057        1056
        1052        1053        1058        1057
        1053        1054        1059        1058
        1055        1056        1061        1060
        1056        1057        1062        1061
        1057        1058        1063        1062
        1058        1059        1064        1063
        1060        1061        1066        1065
        1061        1062        1067        1066
        1062        1063        1068        1067
        1063        1064        1069        1068
        1065        1066        1071        1070
        1066        1067        1072        1071
        1067        1068        1073        1072
        1068        1069        1074        1073
        1075        1076        1081        1080
        1076        1077        1082        1081
        1077        1078        1083        1082
        1078        1079        1084        1083
        1080        1081        1086        1085
        1081        1082        1087        1086
        1082        1083        1088        1087
        1083        1084        1089        1088
        1085        1086        1091        1090
        1086        1087        1092        1091
        1087        1088        1093        1092
        1088        1089        1094        1093
        1090        1091        1096        1095
        1091        1092        1097        1096
        1092        1093        1098        1097
        1093        1094        1099        1098
        1100        1101        1106        1105
        1101        1102        1107        1106
        1102        1103        1108        1107
        1103        1104        1109        1108
        1105        1106        1111        1110
        1106        1107        1112        1111
        1107        1108        1113        1112
        1108        1109        1114        1113
        1110        1111        1116        1115
        1111        1112        1117        1116
        1112        1113        1118        1117
        1113        1114        1119        1118
        1115        1116        1121        1120
        1116        1117        1122        1121
        1117        1118        1123        1122
        1118        1119        1124        1123
        1125        1126        1131        1130
        1126        1127        1132        1131
        1127        1128        1133        1132
        1128        1129        1134        1133
        1130        1131        1136        1135
        1131        1132        1137        1136
        1132        1133        1138        1137
        1133        1134        1139        1138
        1135        1136        1141        1140
        1136        1137        1142        1141
        1137        1138        1143        1142
        1138        1139        1144        1143
        1140        1141        1146        1145
        1141        1142        1147        1146
        1142        1143        1148        1147
        1143        1144        1149        1148
        1150        1151        1156        1155
        1151        1152        1157        1156
        1152        1153        1158        1157
        1153        1154        1159        1158
        1155        1156        1161        1160
        1156        1157        1162        1161
        1157        1158        1163        1162
        1158        1159        1164        1163
        1160        1161        1166        1165
        1161        1162        1167        1166
        1162        1163        1168        1167
        1163        1164        1169        1168
        1165        1166        1171        1170
        1166        1167        1172        1171
        1167        1168        1173        1172
        1168        1169        1174        1173
        1175        1176        1181        1180
        1176        1177        1182        1181
        1177        1178        1183        1182
        1178        1179        1184        1183
        1180        1181        1186        1185
        1181        1182        1187        1186
        1182        1183        1188        1187
        1183        1184        1189        1188
        1185        1186        1191        1190
        1186        1187        1192        1191
        1187        1188        1193        1192
        1188        1189        1194        1193
        1190        1191        1196        1195
        1191        1192        1197        1196
        1192        1193        1198        1197
        1193        1194        1199        1198
        1200        1201        1206        1205
        1201        1202        1207        1206
        1202        1203        1208        1207
        1203        1204        1209        1208
        1205        1206        1211        1210
        1206        1207        1212        1211
        1207        1208        1213        1212
        1208        1209        1214        1213
        1210        1211        1216        1215
        1211        1212        1217        1216
        1212        1213        1218        1217
        1213        1214        1219        1218
        1215        1216        1221        1220
        1216        1217        1222        1221
        1217        1218        1223        1222
        1218        1219        1224        1223
        1225        1226        1231        1230
        1226        1227        1232        1231
        1227        1228        1233        1232
        1228        1229        1234        1233
        1230        1231        1236        1235
        1231        1232        1237        1236
        1232        1233        1238        1237
        1233        1234        1239        1238
        1235        1236        1241        1240
        1236        1237        1242        1241
        1237        1238        1243        1242
        1238        1239        1244        1243
        1240        1241        1246        1245
        1241        1242        1247        1246
        1242        1243        1248        1247
        1243        1244        1249        1248
        1250        1251        1256        1255
        1251        1252        1257        1256
        1252        1253        1258        1257
        1253        1254        1259        1258
        1255        1256        1261        1260
        1256        1257        1262        1261
        1257        1258        1263        1262
        1258        1259        1264        1263
        1260        1261        1266        1265
        1261        1262        1267        1266
        1262        1263        1268        1267
        1263        1264        1269        1268
        1265        1266        1271        1270
        1266        1267        1272        1271
        1267        1268        1273        1272
        1268        1269        1274        1273
        1275        1276        1281        1280
        1276        1277        1282        1281
        1277        1278        1283        1282
        1278        1279        1284        1283
        1280        1281        1286        1285
        1281        1282        1287        1286
        1282        1283        1288        1287
        1283        1284        1289        1288
        1285        1286        1291        1290
        1286        1287        1292        1291
        1287        1288        1293        1292
        1288        1289        1294        1293
        1290        1291        1296        1295
        1291        1292        1297        1296
        1292        1293        1298        1297
        1293        1294        1299        1298
        1300        1301        1306        1305
        1301        1302        1307        1306
        1302        1303        1308        1307
        1303        1304        1309        1308
        1305        1306        1311        1310
        1306        1307        1312        1311
        1307        1308        1313        1312
        1308        1309        1314        1313
        1310        1311        1316        1315
        1311        1312        1317        1316
        1312        1313        1318        1317
        1313        1314        1319        1318
        1315        1316        1321        1320
        1316        1317        1322        1321
        1317        1318        1323        1322
        1318        1319        1324        1323
        1325        1326        1331        1330
        1326        1327        1332        1331
        1327        1328        1333        1332
        1328        1329        1334        1333
        1330        1331        1336        1335
        1331        1332        1337        1336
        1332        1333        1338        1337
        1333        1334        1339        1338
        1335        1336        1341        1340
        1336        1337        1342        1341
        1337        1338        1343        1342
        1338        1339        1344        1343
        1340        1341        1346        1345
        1341        1342        1347        1346
        1342        1343        1348        1347
        1343        1344        1349        1348
        1350        1351        1356        1355
        1351        1352        1357        1356
        1352        1353        1358        1357
        1353        1354        1359        1358
        1355        1356        1361        1360
        1356        1357        1362        1361
        1357        1358        1363        1362
        1358        1359        1364        1363
        1360        1361        1366        1365
        1361        1362        1367        1366
        1362        1363        1368        1367
        1363        1364        1369        1368
        1365        1366        1371        1370
        1366        1367        1372        1371
        1367        1368        1373        1372
        1368        1369        1374        1373
        1375        1376        1381        1380
        1376        1377        1382        1381
        1377        1378        1383        1382
        1378        1379        1384        1383
        1380        1381        1386        1385
        1381        1382        1387        1386
        1382        1383        1388        1387
        1383        1384        1389        1388
        1385        1386        1391        1390
        1386        1387        1392        1391
        1387        1388        1393        1392
        1388        1389        1394        1393
        1390        1391        1396        1395
        1391        1392        1397        1396
        1392        1393        1398        1397
        1393        1394        1399        1398
        1400        1401        1406        1405
        1401        1402        1407        1406
        1402        1403        1408        1407
        1403        1404        1409        1408
        1405        1406        1411        1410
        1406        1407        1412        1411
        1407        1408        1413        1412
        1408        1409        1414        1413
        1410        1411        1416        1415
        1411        1412        1417        1416
        1412        1413        1418        1417
        1413        1414        1419        1418
        1415        1416        1421        1420
        1416        1417        1422        1421
        1417        1418        1423        1422
        1418        1419        1424        1423
        1425        1426        1431        1430
        1426        1427        1432        1431
        1427        1428        1433        1432
        1428        1429        1434        1433
        1430        1431        1436        1435
        1431        1432        1437        1436
        1432        1433        1438        1437
        1433        1434        1439        1438
        1435        1436        1441        1440
        1436        1437        1442        1441
        1437        1438        1443        1442
        1438        1439        1444        1443
        1440        1441        1446        1445
        1441        1442        1447        1446
        1442        1443        1448        1447
        1443        1444        1449        1448
        1450        1451        1456        1455
        1451        1452        1457        1456
        1452        1453        1458        1457
        1453        1454        1459        1458
        1455        1456        1461        1460
        1456        1457        1462        1461
        1457        1458        1463        1462
        1458        1459        1464        1463
        1460        1461        1466        1465
        1461        1462        1467        1466
        1462        1463        1468        1467
        1463        1464        1469        1468
        1465        1466        1471        1470
        1466        1467        1472        1471
        1467        1468        1473        1472
        1468        1469        1474        1473
        1475        1476        1481        1480
        1476        1477        1482        1481
        1477        1478        1483        1482
        1478        1479        1484        1483
        1480        1481        1486        1485
        1481        1482        1487        1486
        1482        1483        1488        1487
        1483        1484        1489        1488
        1485        1486        1491        1490
        1486        1487        1492        1491
        1487        1488        1493        1492
        1488        1489        1494        1493
        1490        1491        1496        1495
        1491        1492        1497        1496
        1492        1493        1498        1497
        1493        1494        1499        1498
        1500        1501        1506        1505
        1501        1502        1507        1506
        1502        1503        1508        1507
        1503        1504        1509        1508
        1505        1506        1511        1510
        1506        1507        1512        1511
        1507        1508        1513        1512
        1508        1509        1514        1513
        1510        1511        1516        1515
        1511        1512        1517        1516
        1512        1513        1518        1517
        1513        1514        1519        1518
        1515        1516        1521        1520
        1516        1517        1522        1521
        1517        1518        1523        1522
        1518        1519        1524        1523
        1525        1526        1531        1530
        1526        1527        1532        1531
        1527        1528        1533        1532
        1528        1529        1534        1533
        1530        1531        1536        1535
        1531        1532        1537        1536
        1532        1533        1538        1537
        1533        1534        1539        1538
        1535        1536        1541        1540
        1536        1537        1542        1541
        1537        1538        1543        1542
        1538        1539        1544        1543
        1540        1541        1546        1545
        1541        1542        1547        1546
        1542        1543        1548        1547
        1543        1544        1549        1548
        1550        1551        1556        1555
        1551        1552        1557        1556
        1552        1553        1558        1557
        1553        1554        1559        1558
        1555        1556        1561        1560
        1556        1557        1562        1561
        1557        1558        1563        1562
        1558        1559        1564        1563
        1560        1561        1566        1565
        1561        1562        1567        1566
        1562        1563        1568        1567
        1563        1564        1569        1568
        1565        1566        1571        1570
        1566        1567        1572        1571
        1567        1568        1573        1572
        1568        1569        1574        1573
        1575        1576        1581        1580
        1576        1577        1582        1581
        1577        1578        1583        1582
        1578        1579        1584        1583
        1580        1581        1586        1585
        1581        1582        1587        1586
        1582        1583        1588        1587
        1583        1584        1589        1588
        1585        1586        1591        1590
        1586        1587        1592        1591
        1587        1588        1593        1592
        1588        1589        1594        1593
        1590        1591        1596        1595
        1591        1592        1597        1596
        1592        1593        1598        1597
        1593        1594        1599        1598
 </DataArray>
 <DataArray  type="Int32"  Name="offsets"  format="ascii"> 
           4
           8
          12
          16
          20
          24
          28
          32
          36
          40
          44
          48
          52
          56
          60
          64
          68
          72
          76
          80
          84
          88
          92
          96
         100
         104
         108
         112
         116
         120
         124
         128
         132
         136
         140
         144
         148
         152
         156
         160
         164
         168
         172
         176
         180
         184
         188
         192
         196
         200
         204
         208
         212
         216
         220
         224
         228
         232
         236
         240
         244
         248
         252
         256
         260
         264
         268
         272
         276
         280
         284
         288
         292
         296
         300
         304
         308
         312
         316
         320
         324
         328
         332
         336
         340
         344
         348
         352
         356
         360
         364
         368
         372
         376
         380
         384
         388
         392
         396
         400
         404
         408
         412
         416
         420
         424
         428
         432
         436
         440
         444
         448
         452
         456
         460
         464
         468
         472
         476
         480
         484
         488
         492
         496
         500
         504
         508
         512
         516
         520
         524
         528
         532
         536
         540
         544
         548
         552
         556
         560
         564
         568
         572
         576
         580
         584
         588
         592
         596
         600
         604
         608
         612
         616
         620
         624
         628
         632
         636
         640
         644
         648
         652
         656
         660
         664
         668
         672
         676
         680
         684
         688
         692
         696
         700
         704
         708
         712
         716
         720
         724
         728
         732
         736
         740
         744
         748
         752
         756
         760
         764
         768
         772
         776
         780
         784
         788
         792
         796
         800
         804
         808
         812
         816
         820
         824
         828
         832
         836
         840
         844
         848
         852
         856
         860
         864
         868
         872
         876
         880
         884
         888
         892
         896
         900
         904
         908
         912
         916
         920
         924
         928
         932
         936
         940
         944
         948
         952
         956
         960
         964
         968
         972
         976
         980
         984
         988
         992
         996
        1000
        1004
        1008
        1012
        1016
        1020
        1024
        1028
        1032
        1036
        1040
        1044
        1048
        1052
        1056
        1060
        1064
        1068
        1072
        1076
        1080
        1084
        1088
        1092
        1096
        1100
        1104
        1108
        1112
        1116
        1120
        1124
        1128
        1132
        1136
        1140
        1144
        1148
        1152
        1156
        1160
        1164
        1168
        1172
        1176
        1180
        1184
        1188
        1192
        1196
        1200
        1204
        1208
        1212
        1216
        1220
        1224
        1228
        1232
        1236
        1240
        1244
        1248
        1252
        1256
        1260
        1264
        1268
        1272
        1276
        1280
        1284
        1288
        1292
        1296
        1300
        1304
        1308
        1312
        1316
        1320
        1324
        1328
        1332
        1336
        1340
        1344
        1348
        1352
        1356
        1360
        1364
        1368
        1372
        1376
        1380
        1384
        1388
        1392
        1396
        1400
        1404
        1408
        1412
        1416
        1420
        1424
        1428
        1432
        1436
        1440
        1444
        1448
        1452
        1456
        1460
        1464
        1468
        1472
        1476
        1480
        1484
        1488
        1492
        1496
        1500
        1504
        1508
        1512
        1516
        1520
        1524
        1528
        1532
        1536
        1540
        1544
        1548
        1552
        1556
        1560
        1564
        1568
        1572
        1576
        1580
        1584
        1588
        1592
        1596
        1600
        1604
        1608
        1612
        1616
        1620
        1624
        1628
        1632
        1636
        1640
        1644
        1648
        1652
        1656
        1660
        1664
        1668
        1672
        1676
        1680
        1684
        1688
        1692
        1696
        1700
        1704
        1708
        1712
        1716
        1720
        1724
        1728
        1732
        1736
        1740
        1744
        1748
        1752
        1756
        1760
        1764
        1768
        1772
        1776
        1780
        1784
        1788
        1792
        1796
        1800
        1804
        1808
        1812
        1816
        1820
        1824
        1828
        1832
        1836
        1840
        1844
        1848
        1852
        1856
        1860
        1864
        1868
        1872
        1876
        1880
        1884
        1888
        1892
        1896
        1900
        1904
        1908
        1912
        1916
        1920
        1924
        1928
        1932
        1936
        1940
        1944
        1948
        1952
        1956
        1960
        1964
        1968
        1972
        1976
        1980
        1984
        1988
        1992
        1996
        2000
        2004
        2008
        2012
        2016
        2020
        2024
        2028
        2032
        2036
        2040
        2044
        2048
        2052
        2056
        2060
        2064
        2068
        2072
        2076
        2080
        2084
        2088
        2092
        2096
        2100
        2104
        2108
        2112
        2116
        2120
        2124
        2128
        2132
        2136
        2140
        2144
        2148
        2152
        2156
        2160
        2164
        2168
        2172
        2176
        2180
        2184
        2188
        2192
        2196
        2200
        2204
        2208
        2212
        2216
        2220
        2224
        2228
        2232
        2236
        2240
        2244
        2248
        2252
        2256
        2260
        2264
        2268
        2272
        2276
        2280
        2284
        2288
        2292
        2296
        2300
        2304
        2308
        2312
        2316
        2320
        2324
        2328
        2332
        2336
        2340
        2344
        2348
        2352
        2356
        2360
        2364
        2368
        2372
        2376
        2380
        2384
        2388
        2392
        2396
        2400
        2404
        2408
        2412
        2416
        2420
        2424
        2428
        2432
        2436
        2440
        2444
        2448
        2452
        2456
        2460
        2464
        2468
        2472
        2476
        2480
        2484
        2488
        2492
        2496
        2500
        2504
        2508
        2512
        2516
        2520
        2524
        2528
        2532
        2536
        2540
        2544
        2548
        2552
        2556
        2560
        2564
        2568
        2572
        2576
        2580
        2584
        2588
        2592
        2596
        2600
        2604
        2608
        2612
        2616
        2620
        2624
        2628
        2632
        2636
        2640
        2644
        2648
        2652
        2656
        2660
        2664
        2668
        2672
        2676
        2680
        2684
        2688
        2692
        2696
        2700
        2704
        2708
        2712
        2716
        2720
        2724
        2728
        2732
        2736
        2740
        2744
        2748
        2752
        2756
        2760
        2764
        2768
        2772
        2776
        2780
        2784
        2788
        2792
        2796
        2800
        2804
        2808
        2812
        2816
        2820
        2824
        2828
        2832
        2836
        2840
        2844
        2848
        2852
        2856
        2860
        2864
        2868
        2872
        2876
        2880
        2884
        2888
        2892
        2896
        2900
        2904
        2908
        2912
        2916
        2920
        2924
        2928
        2932
        2936
        2940
        2944
        2948
        2952
        2956
        2960
        2964
        2968
        2972
        2976
        2980
        2984
        2988
        2992
        2996
        3000
        3004
        3008
        3012
        3016
        3020
        3024
        3028
        3032
        3036
        3040
        3044
        3048
        3052
        3056
        3060
        3064
        3068
        3072
        3076
        3080
        3084
        3088
        3092
        3096
        3100
        3104
        3108
        3112
        3116
        3120
        3124
        3128
        3132
        3136
        3140
        3144
        3148
        3152
        3156
        3160
        3164
        3168
        3172
        3176
        3180
        3184
        3188
        3192
        3196
        3200
        3204
        3208
        3212
        3216
        3220
        3224
        3228
        3232
        3236
        3240
        3244
        3248
        3252
        3256
        3260
        3264
        3268
        3272
        3276
        3280
        3284
        3288
        3292
        3296
        3300
        3304
        3308
        3312
        3316
        3320
        3324
        3328
        3332
        3336
        3340
        3344
        3348
        3352
        3356
        3360
        3364
        3368
        3372
        3376
        3380
        3384
        3388
        3392
        3396
        3400
        3404
        3408
        3412
        3416
        3420
        3424
        3428
        3432
        3436
        3440
        3444
        3448
        3452
        3456
        3460
        3464
        3468
        3472
        3476
        3480
        3484
        3488
        3492
        3496
        3500
        3504
        3508
        3512
        3516
        3520
        3524
        3528
        3532
        3536
        3540
        3544
        3548
        3552
        3556
        3560
        3564
        3568
        3572
        3576
        3580
        3584
        3588
        3592
        3596
        3600
        3604
        3608
        3612
        3616
        3620
        3624
        3628
        3632
        3636
        3640
        3644
        3648
        3652
        3656
        3660
        3664
        3668
        3672
        3676
        3680
        3684
        3688
        3692
        3696
        3700
        3704
        3708
        3712
        3716
        3720
        3724
        3728
        3732
        3736
        3740
        3744
        3748
        3752
        3756
        3760
        3764
        3768
        3772
        3776
        3780
        3784
        3788
        3792
        3796
        3800
        3804
        3808
        3812
        3816
        3820
        3824
        3828
        3832
        3836
        3840
        3844
        3848
        3852
        3856
        3860
        3864
        3868
        3872
        3876
        3880
        3884
        3888
        3892
        3896
        3900
        3904
        3908
        3912
        3916
        3920
        3924
        3928
        3932
        3936
        3940
        3944
        3948
        3952
        3956
        3960
        3964
        3968
        3972
        3976
        3980
        3984
        3988
        3992
        3996
        4000
        4004
        4008
        4012
        4016
        4020
        4024
        4028
        4032
        4036
        4040
        4044
        4048
        4052
        4056
        4060
        4064
        4068
        4072
        4076
        4080
        4084
        4088
        4092
        4096
 </DataArray>
 <DataArray  type="UInt8"  Name="types"  format="ascii">
 9
 9
 9
 9
 9
 9
 9
 9
 9
 9
 9
 9
 9
 9
 9
 9
 9
 9
 9
 9
 9
 9
 9
 9
 9
 9
 9
 9
 9
 9
 9
 9
 9
 9
 9
 9
 9
 9
 9
 9
 9
 9
 9
 9
 9
 9
 9
 9
 9
 9
 9
 9
 9
 9
 9
 9
 9
 9
 9
 9
 9
 9
 9
 9
 9
 9
 9
 9
 9
 9
 9
 9
 9
 9
 9
 9
 9
 9
 9
 9
 9
 9
 9
 9
 9
 9
 9
 9
 9
 9
 9
 9
 9
 9
 9
 9
 9
 9
 9
 9
 9
 9
 9
 9
 9
 9
 9
 9
 9
 9
 9
 9
 9
 9
 9
 9
 9
 9
 9
 9
 9
 9
 9
 9
 9
 9
 9
 9
 9
 9
 9
 9
 9
 9
 9
 9
 9
 9
 9
 9
 9
 9
 9
 9
 9
 9
 9
 9
 9
 9
 9
 9
 9
 9
 9
 9
 9
 9
 9
 9
 9
 9
 9
 9
 9
 9
 9
 9
 9
 9
 9
 9
 9
 9
 9
 9
 9
 9
 9
 9
 9
 9
 9
 9
 9
 9
 9
 9
 9
 9
 9
 9
 9
 9
 9
 9
 9
 9
 9
 9
 9
 9
 9
 9
 9
 9
 9
 9
 9
 9
 9
 9
 9
 9
 9
 9
 9
 9
 9
 9
 9
 9
 9
 9
 9
 9
 9
 9
 9
 9
 9
 9
 9
 9
 9
 9
 9
 9
 9
 9
 9
 9
 9
 9
 9
 9
 9
 9
 9
 9
 9
 9
 9
 9
 9
 9
 9
 9
 9
 9
 9
 9
 9
 9
 9
 9
 9
 9
 9
 9
 9
 9
 9
 9
 9
 9
 9
 9
 9
 9
 9
 9
 9
 9
 9
 9
 9
 9
 9
 9
 9
 9
 9
 9
 9
 9
 9
 9
 9
 9
 9
 9
 9
 9
 9
 9
 9
 9
 9
 9
 9
 9
 9
 9
 9
 9
 9
 9
 9
 9
 9
 9
 9
 9
 9
 9
 9
 9
 9
 9
 9
 9
 9
 9
 9
 9
 9
 9
 9
 9
 9
 9
 9
 9
 9
 9
 9
 9
 9
 9
 9
 9
 9
 9
 9
 9
 9
 9
 9
 9
 9
 9
 9
 9
 9
 9
 9
 9
 9
 9
 9
 9
 9
 9
 9
 9
 9
 9
 9
 9
 9
 9
 9
 9
 9
 9
 9
 9
 9
 9
 9
 9
 9
 9
 9
 9
 9
 9
 9
 9
 9
 9
 9
 9
 9
 9
 9
 9
 9
 9
 9
 9
 9
 9
 9
 9
 9
 9
 9
 9
 9
 9
 9
 9
 9
 9
 9
 9
 9
 9
 9
 9
 9
 9
 9
 9
 9
 9
 9
 9
 9
 9
 9
 9
 9
 9
 9
 9
 9
 9
 9
 9
 9
 9
 9
 9
 9
 9
 9
 9
 9
 9
 9
 9
 9
 9
 9
 9
 9
 9
 9
 9
 9
 9
 9
 9
 9
 9
 9
 9
 9
 9
 9
 9
 9
 9
 9
 9
 9
 9
 9
 9
 9
 9
 9
 9
 9
 9
 9
 9
 9
 9
 9
 9
 9
 9
 9
 9
 9
 9
 9
 9
 9
 9
 9
 9
 9
 9
 9
 9
 9
 9
 9
 9
 9
 9
 9
 9
 9
 9
 9
 9
 9
 9
 9
 9
 9
 9
 9
 9
 9
 9
 9
 9
 9
 9
 9
 9
 9
 9
 9
 9
 9
 9
 9
 9
 9
 9
 9
 9
 9
 9
 9
 9
 9
 9
 9
 9
 9
 9
 9
 9
 9
 9
 9
 9
 9
 9
 9
 9
 9
 9
 9
 9
 9
 9
 9
 9
 9
 9
 9
 9
 9
 9
 9
 9
 9
 9
 9
 9
 9
 9
 9
 9
 9
 9
 9
 9
 9
 9
 9
 9
 9
 9
 9
 9
 9
 9
 9
 9
 9
 9
 9
 9
 9
 9
 9
 9
 9
 9
 9
 9
 9
 9
 9
 9
 9
 9
 9
 9
 9
 9
 9
 9
 9
 9
 9
 9
 9
 9
 9
 9
 9
 9
 9
 9
 9
 9
 9
 9
 9
 9
 9
 9
 9
 9
 9
 9
 9
 9
 9
 9
 9
 9
 9
 9
 9
 9
 9
 9
 9
 9
 9
 9
 9
 9
 9
 9
 9
 9
 9
 9
 9
 9
 9
 9
 9
 9
 9
 9
 9
 9
 9
 9
 9
 9
 9
 9
 9
 9
 9
 9
 9
 9
 9
 9
 9
 9
 9
 9
 9
 9
 9
 9
 9
 9
 9
 9
 9
 9
 9
 9
 9
 9
 9
 9
 9
 9
 9
 9
 9
 9
 9
 9
 9
 9
 9
 9
 9
 9
 9
 9
 9
 9
 9
 9
 9
 9
 9
 9
 9
 9
 9
 9
 9
 9
 9
 9
 9
 9
 9
 9
 9
 9
 9
 9
 9
 9
 9
 9
 9
 9
 9
 9
 9
 9
 9
 9
 9
 9
 9
 9
 9
 9
 9
 9
 9
 9
 9
 9
 9
 9
 9
 9
 9
 9
 9
 9
 9
 9
 9
 9
 9
 9
 9
 9
 9
 9
 9
 9
 9
 9
 9
 9
 9
 9
 9
 9
 9
 9
 9
 9
 9
 9
 9
 9
 9
 9
 9
 9
 9
 9
 9
 9
 9
 9
 9
 9
 9
 9
 9
 9
 9
 9
 9
 9
 9
 9
 9
 9
 9
 9
 9
 9
 9
 9
 9
 9
 9
 9
 9
 9
 9
 9
 9
 9
 9
 9
 9
 9
 9
 9
 9
 9
 9
 9
 9
 9
 9
 9
 9
 9
 9
 9
 9
 9
 9
 9
 9
 9
 9
 9
 9
 9
 9
 9
 9
 9
 9
 9
 9
 9
 9
 9
 9
 9
 9
 9
 9
 9
 9
 9
 9
 9
 9
 9
 9
 9
 9
 9
 9
 9
 9
 9
 9
 9
 9
 9
 9
 9
 9
 9
 9
 9
 9
 9
 9
 9
 9
 9
 9
 9
 9
 9
 9
 9
 9
 9
 9
 9
 9
 9
 9
 9
 9
 9
 9
 9
 9
 9
 9
 9
 9
 9
 9
 9
 9
 9
 9
 9
 9
 9
 9
 9
 9
 9
 9
 9
 9
 9
 9
 9
 9
 9
 9
 9
 9
 9
 9
 9
 9
 9
 9
 9
 9
 9
 9
 9
 9
 9
 9
 9
 9
 9
 9
 9
 9
 9
 9
 9
 9
 9
 9
 9
 </DataArray>
 </Cells> 
 <PointData>
 <DataArray  type="Float64" Name="disp" NumberOfComponents="3" format="ascii">
   0.0000000000000000        0.0000000000000000        0.0000000000000000     
   6.0959853227955992E-003   3.7904674485987749E-003   0.0000000000000000     
   1.1666009283161406E-002   7.3239267807065859E-003   0.0000000000000000     
   1.6710071881097417E-002   1.0600377996323433E-002   0.0000000000000000     
   2.1228173116603643E-002   1.3619821095449316E-002   0.0000000000000000     
   0.0000000000000000        0.0000000000000000        0.0000000000000000     
   4.8911492495856213E-003   3.0221977681058340E-003   0.0000000000000000     
   9.5736110414022801E-003   6.0606399838240375E-003   0.0000000000000000     
   1.4047385375449972E-002   9.1153266471546111E-003   0.0000000000000000     
   1.8312472251728700E-002   1.2186257758097556E-002   0.0000000000000000     
   0.0000000000000000        0.0000000000000000        0.0000000000000000     
   3.9535518621814057E-003   2.4251781764254372E-003   0.0000000000000000     
   7.9105852173278202E-003   5.0630113883835719E-003   0.0000000000000000     
   1.1871100065439238E-002   7.9134996358744027E-003   0.0000000000000000     
   1.5835096406515665E-002   1.0976642918897932E-002   0.0000000000000000     
   0.0000000000000000        0.0000000000000000        0.0000000000000000     
   3.2831931605829534E-003   1.9994086735575850E-003   0.0000000000000000     
   6.6769318109380265E-003   4.3310409943851874E-003   0.0000000000000000     
   1.0181215951065218E-002   6.9948969624828074E-003   0.0000000000000000     
   1.3796045580964532E-002   9.9909765778504432E-003   0.0000000000000000     
   0.0000000000000000        0.0000000000000000        0.0000000000000000     
   2.8800731447902630E-003   1.7448892595022768E-003   0.0000000000000000     
   5.8726508222328999E-003   3.8647288018288845E-003   0.0000000000000000     
   8.9777330323279111E-003   6.3595186269798229E-003   0.0000000000000000     
   1.2195319775075297E-002   9.2292587349550939E-003   0.0000000000000000     
   2.1228173116603643E-002   1.3619821095449316E-002   0.0000000000000000     
   2.5433211999183768E-002   1.6612844192283382E-002   0.0000000000000000     
   2.9538087538341491E-002   1.9810035401024786E-002   0.0000000000000000     
   3.3542799734076818E-002   2.3211394721673530E-002   0.0000000000000000     
   3.7447348586389734E-002   2.6816922154229608E-002   0.0000000000000000     
   1.8312472251728700E-002   1.2186257758097556E-002   0.0000000000000000     
   2.2407090817650282E-002   1.5341781621982012E-002   0.0000000000000000     
   2.6369460220626535E-002   1.8650246544137127E-002   0.0000000000000000     
   3.0199580460657450E-002   2.2111652524562906E-002   0.0000000000000000     
   3.3897451537743040E-002   2.5725999563259338E-002   0.0000000000000000     
   1.5835096406515665E-002   1.0976642918897932E-002   0.0000000000000000     
   1.9730796541825059E-002   1.4211265713907796E-002   0.0000000000000000     
   2.3486422772635369E-002   1.7576192497357642E-002   0.0000000000000000     
   2.7101975098946601E-002   2.1071423269247460E-002   0.0000000000000000     
   3.0577453520758753E-002   2.4696958029577262E-002   0.0000000000000000     
   1.3796045580964532E-002   9.9909765778504432E-003   0.0000000000000000     
   1.7404329171708078E-002   1.3221296468060738E-002   0.0000000000000000     
   2.0888975194367988E-002   1.6587873260686319E-002   0.0000000000000000     
   2.4249983648944252E-002   2.0090706955727199E-002   0.0000000000000000     
   2.7487354535436884E-002   2.3729797553183374E-002   0.0000000000000000     
   1.2195319775075297E-002   9.2292587349550939E-003   0.0000000000000000     
   1.5427688707299358E-002   1.2371873884440832E-002   0.0000000000000000     
   1.8577117485824399E-002   1.5685288834123175E-002   0.0000000000000000     
   2.1643606110650422E-002   1.9169503584002129E-002   0.0000000000000000     
   2.4627154581777423E-002   2.2824518134077685E-002   0.0000000000000000     
   3.7447348586389734E-002   2.6816922154229608E-002   0.0000000000000000     
   4.1255929192278766E-002   3.0622005844380490E-002   0.0000000000000000     
   4.4972736648742448E-002   3.4622033937813650E-002   0.0000000000000000     
   4.8597770955780745E-002   3.8817006434529074E-002   0.0000000000000000     
   5.2131032113393691E-002   4.3206923334526776E-002   0.0000000000000000     
   3.3897451537743040E-002   2.5725999563259338E-002   0.0000000000000000     
   3.7486128029053309E-002   2.9522159221940361E-002   0.0000000000000000     
   4.0988664511758297E-002   3.3529003062319908E-002   0.0000000000000000     
   4.4405060985857982E-002   3.7746531084397975E-002   0.0000000000000000     
   4.7735317451352399E-002   4.2174743288174575E-002   0.0000000000000000     
   3.0577453520758753E-002   2.4696958029577262E-002   0.0000000000000000     
   3.3942195734399355E-002   2.8497390802941835E-002   0.0000000000000000     
   3.7225539436195929E-002   3.2517315613935976E-002   0.0000000000000000     
   4.0427484626148487E-002   3.6756732462559685E-002   0.0000000000000000     
   4.3548031304257016E-002   4.1215641348812976E-002   0.0000000000000000     
   2.7487354535436884E-002   2.3729797553183374E-002   0.0000000000000000     
   3.0624132308316902E-002   2.7547700587384906E-002   0.0000000000000000     
   3.3683361422055365E-002   3.1586971592661842E-002   0.0000000000000000     
   3.6665041876652253E-002   3.5847610569014199E-002   0.0000000000000000     
   3.9569173672107570E-002   4.0329617516441978E-002   0.0000000000000000     
   2.4627154581777423E-002   2.2824518134077685E-002   0.0000000000000000     
   2.7531937750805955E-002   2.6673088575269573E-002   0.0000000000000000     
   3.0362130469336574E-002   3.0737970998497521E-002   0.0000000000000000     
   3.3117732737369274E-002   3.5019165403761515E-002   0.0000000000000000     
   3.5798744554904047E-002   3.9516671791061581E-002   0.0000000000000000     
   5.2131032113393691E-002   4.3206923334526776E-002   0.0000000000000000     
   5.5570376759423862E-002   4.7796100825567324E-002   0.0000000000000000     
   5.8913661531713832E-002   5.2588855095411301E-002   0.0000000000000000     
   6.2160886430263608E-002   5.7585186144058692E-002   0.0000000000000000     
   6.5312051455073183E-002   6.2785093971509512E-002   0.0000000000000000     
   4.7735317451352399E-002   4.2174743288174575E-002   0.0000000000000000     
   5.0975588314982306E-002   4.6806906265241151E-002   0.0000000000000000     
   5.4122027983488509E-002   5.1636286607189191E-002   0.0000000000000000     
   5.7174636456871028E-002   5.6662884314018676E-002   0.0000000000000000     
   6.0133413735129829E-002   6.1886699385729618E-002   0.0000000000000000     
   4.3548031304257016E-002   4.1215641348812976E-002   0.0000000000000000     
   4.6583110705800242E-002   4.5881314286287708E-002   0.0000000000000000     
   4.9528654066056881E-002   5.0741023288575784E-002   0.0000000000000000     
   5.2384661385026933E-002   5.5794768355677191E-002   0.0000000000000000     
   5.5151132662710392E-002   6.1042549487591941E-002   0.0000000000000000     
   3.9569173672107570E-002   4.0329617516441978E-002   0.0000000000000000     
   4.2392943931877682E-002   4.5019324888706982E-002   0.0000000000000000     
   4.5133539779418932E-002   4.9903065139571080E-002   0.0000000000000000     
   4.7790961214731344E-002   5.4980838269034236E-002   0.0000000000000000     
   5.0365208237814874E-002   6.0252644277096472E-002   0.0000000000000000     
   3.5798744554904047E-002   3.9516671791061581E-002   0.0000000000000000     
   3.8405087993214619E-002   4.4220938072498994E-002   0.0000000000000000     
   4.0936685123574686E-002   4.9122412160175079E-002   0.0000000000000000     
   4.3393535945984232E-002   5.4221094054089820E-002   0.0000000000000000     
   4.5775640460443287E-002   5.9516983754243219E-002   0.0000000000000000     
   6.5312051455073183E-002   6.2785093971509512E-002   0.0000000000000000     
   6.8369298136895462E-002   6.8175711094108055E-002   0.0000000000000000     
   7.1334768006483265E-002   7.3744170028198608E-002   0.0000000000000000     
   7.4208461063836662E-002   7.9490470773781186E-002   0.0000000000000000     
   7.6990377308955582E-002   8.5414613330855788E-002   0.0000000000000000     
   6.0133413735129829E-002   6.1886699385729618E-002   0.0000000000000000     
   6.3001948398589622E-002   6.7299364174719795E-002   0.0000000000000000     
   6.5783829027575069E-002   7.2892511033386995E-002   0.0000000000000000     
   6.8479055622086171E-002   7.8666139961731218E-002   0.0000000000000000     
   7.1087628182122914E-002   8.4620250959752480E-002   0.0000000000000000     
   5.5151132662710392E-002   6.1042549487591941E-002   0.0000000000000000     
   5.7831969630991992E-002   6.6478322849042606E-002   0.0000000000000000     
   6.0431074021756466E-002   7.2096044604751830E-002   0.0000000000000000     
   6.2948445835003794E-002   7.7895714754719597E-002   0.0000000000000000     
   6.5384085070733997E-002   8.3877333298945894E-002   0.0000000000000000     
   5.0365208237814874E-002   6.0252644277096472E-002   0.0000000000000000     
   5.2859361834102586E-002   6.5712587117076532E-002   0.0000000000000000     
   5.5276502989027476E-002   7.1354770742293128E-002   0.0000000000000000     
   5.7616631702589537E-002   7.7179195152746322E-002   0.0000000000000000     
   5.9879747974788802E-002   8.3185860348436058E-002   0.0000000000000000     
   4.5775640460443287E-002   5.9516983754243219E-002   0.0000000000000000     
   4.8084125007921391E-002   6.5002156978821501E-002   0.0000000000000000     
   5.0320115929388093E-002   7.0668689446010874E-002   0.0000000000000000     
   5.2483613224843413E-002   7.6516581155811350E-002   0.0000000000000000     
   5.4574616894287331E-002   8.2545832108222916E-002   0.0000000000000000     
   7.6990377308955582E-002   8.5414613330855788E-002   0.0000000000000000     
   7.9675142883872868E-002   9.1507039631027229E-002   0.0000000000000000     
   8.2257383930621306E-002   9.7758191605900324E-002   0.0000000000000000     
   8.4737100449200881E-002  0.10416806925547509        0.0000000000000000     
   8.7114292439611607E-002  0.11073667257975151        0.0000000000000000     
   7.1087628182122914E-002   8.4620250959752480E-002   0.0000000000000000     
   7.3604885575611567E-002   9.0743268458953710E-002   0.0000000000000000     
   7.6026166670478290E-002   9.7023616890837869E-002   0.0000000000000000     
   7.8351471466723138E-002  0.10346129625540497        0.0000000000000000     
   8.0580799964346070E-002  0.11005630655265498        0.0000000000000000     
   6.5384085070733997E-002   8.3877333298945894E-002   0.0000000000000000     
   6.7734097636058296E-002   9.0028171900559520E-002   0.0000000000000000     
   6.9994589438087979E-002   9.6335502222689315E-002   0.0000000000000000     
   7.2165560476822987E-002  0.10279932426533521        0.0000000000000000     
   7.4247010752263365E-002  0.10941963802849725        0.0000000000000000     
   5.9879747974788802E-002   8.3185860348436058E-002   0.0000000000000000     
   6.2062779065213104E-002   8.9361749955844685E-002   0.0000000000000000     
   6.4162652233450329E-002   9.5693847601454607E-002   0.0000000000000000     
   6.6179367479500470E-002  0.10218215328526582        0.0000000000000000     
   6.8112924803363534E-002  0.10882666700727830        0.0000000000000000     
   5.4574616894287331E-002   8.2545832108222916E-002   0.0000000000000000     
   5.6590929863075949E-002   8.8744002624809207E-002   0.0000000000000000     
   5.8530355056565370E-002   9.5098653027133828E-002   0.0000000000000000     
   6.0392892474755565E-002  0.10160978331519682        0.0000000000000000     
   6.2178542117646549E-002  0.10827739348899812        0.0000000000000000     
   8.7114292439611607E-002  0.11073667257975151        0.0000000000000000     
   8.9398300749479534E-002  0.11745130990191048        0.0000000000000000     
   9.1598466226430669E-002  0.12429928954513296        0.0000000000000000     
   9.3714788870465041E-002  0.13128061150941892        0.0000000000000000     
   9.5747268681582620E-002  0.13839527579476835        0.0000000000000000     
   8.0580799964346070E-002  0.11005630655265498        0.0000000000000000     
   8.2722071114492743E-002  0.11679716352352221        0.0000000000000000     
   8.4783203868308829E-002  0.12367238290894088        0.0000000000000000     
   8.6764198225794301E-002  0.13068196470891100        0.0000000000000000     
   8.8665054186949199E-002  0.13782590892343255        0.0000000000000000     
   7.4247010752263365E-002  0.10941963802849725        0.0000000000000000     
   7.6245744610037275E-002  0.11618572520903062        0.0000000000000000     
   7.8168566395772895E-002  0.12308686750379044        0.0000000000000000     
   8.0015476109470227E-002  0.13012306491277675        0.0000000000000000     
   8.1786473751129282E-002  0.13729431743598949        0.0000000000000000     
   6.8112924803363534E-002  0.10882666700727830        0.0000000000000000     
   6.9969321236113116E-002  0.11561699495843571        0.0000000000000000     
   7.1754553808822882E-002  0.12254274332968165        0.0000000000000000     
   7.3468622521492805E-002  0.12960391212101616        0.0000000000000000     
   7.5111527374122897E-002  0.13680050133243915        0.0000000000000000     
   6.2178542117646549E-002  0.10827739348899812        0.0000000000000000     
   6.3892800992720308E-002  0.11509097277173748        0.0000000000000000     
   6.5541166107458790E-002  0.12204001038661451        0.0000000000000000     
   6.7123637461862021E-002  0.12912450633362921        0.0000000000000000     
   6.8640215055929987E-002  0.13634446061278160        0.0000000000000000     
   9.5747268681582620E-002  0.13839527579476835        0.0000000000000000     
   9.7682366012810717E-002  0.14563165739550135        0.0000000000000000     
   9.9506541217176558E-002  0.15297813130593796        0.0000000000000000     
  0.10121979429468017       0.16043469752607811        0.0000000000000000     
  0.10282212524532154       0.16800135605592192        0.0000000000000000     
   8.8665054186949199E-002  0.13782590892343255        0.0000000000000000     
   9.0474695448998138E-002  0.14509100359858215        0.0000000000000000     
   9.2182045709165730E-002  0.15246403678043646        0.0000000000000000     
   9.3787104967452004E-002  0.15994500846899540        0.0000000000000000     
   9.5289873223856958E-002  0.16753391866425901        0.0000000000000000     
   8.1786473751129282E-002  0.13729431743598949        0.0000000000000000     
   8.3472102858771421E-002  0.14458640319501992        0.0000000000000000     
   8.5062906970418017E-002  0.15198510031145923        0.0000000000000000     
   8.6558886086069028E-002  0.15949040878530743        0.0000000000000000     
   8.7960040205724510E-002  0.16710232861656449        0.0000000000000000     
   7.5111527374122897E-002  0.13680050133243915        0.0000000000000000     
   7.6674588242130595E-002  0.14411785618481462        0.0000000000000000     
   7.8149125000933378E-002  0.15154132189900626        0.0000000000000000     
   7.9535137650531260E-002  0.15907089847501424        0.0000000000000000     
   8.0832626190924239E-002  0.16670658591283838        0.0000000000000000     
   6.8640215055929987E-002  0.13634446061278160        0.0000000000000000     
   7.0082151599075618E-002  0.14368536256796627        0.0000000000000000     
   7.1440699800711840E-002  0.15113270154307765        0.0000000000000000     
   7.2715859660838683E-002  0.15868647753811579        0.0000000000000000     
   7.3907631179456104E-002  0.16634669055308071        0.0000000000000000     
   0.0000000000000000        0.0000000000000000        0.0000000000000000     
   2.8800731447902630E-003   1.7448892595022768E-003   0.0000000000000000     
   5.8726508222328999E-003   3.8647288018288845E-003   0.0000000000000000     
   8.9777330323279111E-003   6.3595186269798229E-003   0.0000000000000000     
   1.2195319775075297E-002   9.2292587349550939E-003   0.0000000000000000     
   0.0000000000000000        0.0000000000000000        0.0000000000000000     
   2.6103403203559632E-003   1.5889657023173698E-003   0.0000000000000000     
   5.2897511808872207E-003   3.5567691965790668E-003   0.0000000000000000     
   8.0382325815937742E-003   5.9034104827850918E-003   0.0000000000000000     
   1.0855784522475622E-002   8.6288895609354464E-003   0.0000000000000000     
   0.0000000000000000        0.0000000000000000        0.0000000000000000     
   2.3401431928326806E-003   1.4589837700607210E-003   0.0000000000000000     
   4.7202418165757688E-003   3.2998565645001397E-003   0.0000000000000000     
   7.1402958712292620E-003   5.5226183833182564E-003   0.0000000000000000     
   9.6003053567931644E-003   8.1272692265150718E-003   0.0000000000000000     
   0.0000000000000000        0.0000000000000000        0.0000000000000000     
   2.0694817622204167E-003   1.3549434627323303E-003   0.0000000000000000     
   4.1641227292985418E-003   3.0939909055921018E-003   0.0000000000000000     
   6.2839229012343761E-003   5.2171423285793149E-003   0.0000000000000000     
   8.4288822780279188E-003   7.7243977316939711E-003   0.0000000000000000     
   0.0000000000000000        0.0000000000000000        0.0000000000000000     
   1.7983560285191706E-003   1.2768447803321976E-003   0.0000000000000000     
   3.6213939190555427E-003   2.9391722198549540E-003   0.0000000000000000     
   5.4691136716091167E-003   4.9869823185682690E-003   0.0000000000000000     
   7.3415152861798913E-003   7.4202750764721433E-003   0.0000000000000000     
   1.2195319775075297E-002   9.2292587349550939E-003   0.0000000000000000     
   1.5427688707299358E-002   1.2371873884440832E-002   0.0000000000000000     
   1.8577117485824399E-002   1.5685288834123175E-002   0.0000000000000000     
   2.1643606110650422E-002   1.9169503584002129E-002   0.0000000000000000     
   2.4627154581777423E-002   2.2824518134077685E-002   0.0000000000000000     
   1.0855784522475622E-002   8.6288895609354464E-003   0.0000000000000000     
   1.3689097500705218E-002   1.1650934061549699E-002   0.0000000000000000     
   1.6484862013455007E-002   1.4887271615147437E-002   0.0000000000000000     
   1.9243078060724998E-002   1.8337902221728646E-002   0.0000000000000000     
   2.1963745642515187E-002   2.2002825881293341E-002   0.0000000000000000     
   9.6003053567931644E-003   8.1272692265150718E-003   0.0000000000000000     
   1.2076777904031980E-002   1.1046413097888971E-002   0.0000000000000000     
   1.4546221143710219E-002   1.4212654001238343E-002   0.0000000000000000     
   1.7008635075827883E-002   1.7625991936563185E-002   0.0000000000000000     
   1.9464019700384975E-002   2.1286426903863495E-002   0.0000000000000000     
   8.4288822780279188E-003   7.7243977316939711E-003   0.0000000000000000     
   1.0590729917279648E-002   1.0558310993458640E-002   0.0000000000000000     
   1.2761194876590035E-002   1.3661435992395891E-002   0.0000000000000000     
   1.4940277155959079E-002   1.7033772728505727E-002   0.0000000000000000     
   1.7127976755386787E-002   2.0675321201788152E-002   0.0000000000000000     
   7.3415152861798913E-003   7.4202750764721433E-003   0.0000000000000000     
   9.2309535404482210E-003   1.0186627748258705E-002   0.0000000000000000     
   1.1129783212094452E-002   1.3233617588620088E-002   0.0000000000000000     
   1.3038004301118587E-002   1.6561244597556292E-002   0.0000000000000000     
   1.4955616807520628E-002   2.0169508775067308E-002   0.0000000000000000     
   2.4627154581777423E-002   2.2824518134077685E-002   0.0000000000000000     
   2.7531937750805955E-002   2.6673088575269573E-002   0.0000000000000000     
   3.0362130469336574E-002   3.0737970998497521E-002   0.0000000000000000     
   3.3117732737369274E-002   3.5019165403761515E-002   0.0000000000000000     
   3.5798744554904047E-002   3.9516671791061581E-002   0.0000000000000000     
   2.1963745642515187E-002   2.2002825881293341E-002   0.0000000000000000     
   2.4630324186752615E-002   2.5880081191591173E-002   0.0000000000000000     
   2.7226273121364324E-002   2.9967706750371803E-002   0.0000000000000000     
   2.9751592446350318E-002   3.4265702557635246E-002   0.0000000000000000     
   3.2206282161710606E-002   3.8774068613381479E-002   0.0000000000000000     
   1.9464019700384975E-002   2.1286426903863495E-002   0.0000000000000000     
   2.1884003741042973E-002   2.5175204861345023E-002   0.0000000000000000     
   2.4240215921463373E-002   2.9273571767213513E-002   0.0000000000000000     
   2.6532656241646174E-002   3.3581527621468953E-002   0.0000000000000000     
   2.8761324701591370E-002   3.8099072424111355E-002   0.0000000000000000     
   1.7127976755386787E-002   2.0675321201788152E-002   0.0000000000000000     
   1.9292976413677037E-002   2.4558459584531126E-002   0.0000000000000000     
   2.1403958869633713E-002   2.8655566049022634E-002   0.0000000000000000     
   2.3460924123256822E-002   3.2966640595262664E-002   0.0000000000000000     
   2.5463872174546355E-002   3.7491683223251221E-002   0.0000000000000000     
   1.4955616807520628E-002   2.0169508775067308E-002   0.0000000000000000     
   1.6857242204654805E-002   2.4029845361149493E-002   0.0000000000000000     
   1.8717501965875349E-002   2.8113689595799175E-002   0.0000000000000000     
   2.0536396091182265E-002   3.2421041479016366E-002   0.0000000000000000     
   2.2313924580575552E-002   3.6951901010801064E-002   0.0000000000000000     
   3.5798744554904047E-002   3.9516671791061581E-002   0.0000000000000000     
   3.8405087993214619E-002   4.4220938072498994E-002   0.0000000000000000     
   4.0936685123574686E-002   4.9122412160175079E-002   0.0000000000000000     
   4.3393535945984232E-002   5.4221094054089820E-002   0.0000000000000000     
   4.5775640460443287E-002   5.9516983754243219E-002   0.0000000000000000     
   3.2206282161710606E-002   3.8774068613381479E-002   0.0000000000000000     
   3.4592710631587968E-002   4.3488287219197654E-002   0.0000000000000000     
   3.6913246220125213E-002   4.8403840676670917E-002   0.0000000000000000     
   3.9167888927322349E-002   5.3520728985801277E-002   0.0000000000000000     
   4.1356638753179367E-002   5.8838952146588727E-002   0.0000000000000000     
   2.8761324701591370E-002   3.8099072424111355E-002   0.0000000000000000     
   3.0928979588774635E-002   4.2823505710336898E-002   0.0000000000000000     
   3.3038379190671638E-002   4.7752127015341782E-002   0.0000000000000000     
   3.5089523507282380E-002   5.2884936339125985E-002   0.0000000000000000     
   3.7082412538606856E-002   5.8221933681689528E-002   0.0000000000000000     
   2.5463872174546355E-002   3.7491683223251221E-002   0.0000000000000000     
   2.7413894864774628E-002   4.2226593545916728E-002   0.0000000000000000     
   2.9312084035213952E-002   4.7167271176187645E-002   0.0000000000000000     
   3.1158439685864327E-002   5.2313716114063935E-002   0.0000000000000000     
   3.2952961816725766E-002   5.7665928359545635E-002   0.0000000000000000     
   2.2313924580575552E-002   3.6951901010801064E-002   0.0000000000000000     
   2.4047456459587932E-002   4.1697550725937144E-002   0.0000000000000000     
   2.5734360753752152E-002   4.6649273159208499E-002   0.0000000000000000     
   2.7374637463068202E-002   5.1807068310615129E-002   0.0000000000000000     
   2.8968286587536089E-002   5.7170936180157034E-002   0.0000000000000000     
   4.5775640460443287E-002   5.9516983754243219E-002   0.0000000000000000     
   4.8084125007921391E-002   6.5002156978821501E-002   0.0000000000000000     
   5.0320115929388093E-002   7.0668689446010874E-002   0.0000000000000000     
   5.2483613224843413E-002   7.6516581155811350E-002   0.0000000000000000     
   5.4574616894287331E-002   8.2545832108222916E-002   0.0000000000000000     
   4.1356638753179367E-002   5.8838952146588727E-002   0.0000000000000000     
   4.3478587830449583E-002   6.4347983992331770E-002   0.0000000000000000     
   4.5532828291886325E-002   7.0037298356328936E-002   0.0000000000000000     
   4.7519360137489586E-002   7.5906895238580213E-002   0.0000000000000000     
   4.9438183367259365E-002   8.1956774639085614E-002   0.0000000000000000     
   3.7082412538606856E-002   5.8221933681689528E-002   0.0000000000000000     
   3.9015078979688346E-002   6.3751019715661536E-002   0.0000000000000000     
   4.0885555525570154E-002   6.9460095113671155E-002   0.0000000000000000     
   4.2693842176252252E-002   7.5349159875718358E-002   0.0000000000000000     
   4.4439938931734660E-002   8.1418214001803185E-002   0.0000000000000000     
   3.2952961816725766E-002   5.7665928359545635E-002   0.0000000000000000     
   3.4693598455637700E-002   6.3211264148810800E-002   0.0000000000000000     
   3.6378297630439593E-002   6.8937079718037531E-002   0.0000000000000000     
   3.8007059341131431E-002   7.4843375067225812E-002   0.0000000000000000     
   3.9579883587713208E-002   8.0930150196375658E-002   0.0000000000000000     
   2.8968286587536089E-002   5.7170936180157034E-002   0.0000000000000000     
   3.0514146258297625E-002   6.2728717291779562E-002   0.0000000000000000     
   3.2011054606494622E-002   6.8468252169428076E-002   0.0000000000000000     
   3.3459011632127091E-002   7.4389540813102562E-002   0.0000000000000000     
   3.4858017335195030E-002   8.0492583222803032E-002   0.0000000000000000     
   5.4574616894287331E-002   8.2545832108222916E-002   0.0000000000000000     
   5.6590929863075949E-002   8.8744002624809207E-002   0.0000000000000000     
   5.8530355056565370E-002   9.5098653027133828E-002   0.0000000000000000     
   6.0392892474755565E-002  0.10160978331519682        0.0000000000000000     
   6.2178542117646549E-002  0.10827739348899812        0.0000000000000000     
   4.9438183367259365E-002   8.1956774639085614E-002   0.0000000000000000     
   5.1287791821589844E-002   8.8175263515453559E-002   0.0000000000000000     
   5.3066679340875229E-002   9.4550688825292467E-002   0.0000000000000000     
   5.4774845925115508E-002  0.10108305056860237        0.0000000000000000     
   5.6412291574310679E-002  0.10777234874538325        0.0000000000000000     
   4.4439938931734660E-002   8.1418214001803185E-002   0.0000000000000000     
   4.6122606732697781E-002   8.7655866235778201E-002   0.0000000000000000     
   4.7740606519822086E-002   9.4050725321496026E-002   0.0000000000000000     
   4.9293938293107527E-002  0.10060279125895666        0.0000000000000000     
   5.0782602052554152E-002  0.10731206404816009        0.0000000000000000     
   3.9579883587713208E-002   8.0930150196375658E-002   0.0000000000000000     
   4.1095374596399774E-002   8.7185810785783191E-002   0.0000000000000000     
   4.2552136593405905E-002   9.3598762515744532E-002   0.0000000000000000     
   4.3950169578731650E-002  0.10016900538625971        0.0000000000000000     
   4.5289473552376967E-002  0.10689653939732870        0.0000000000000000     
   3.4858017335195030E-002   8.0492583222803032E-002   0.0000000000000000     
   3.6206095412695788E-002   8.6765097165468499E-002   0.0000000000000000     
   3.7501269561626714E-002   9.3194800408037987E-002   0.0000000000000000     
   3.8743539781987829E-002   9.9781692950511522E-002   0.0000000000000000     
   3.9932906073779126E-002  0.10652577479288906        0.0000000000000000     
   6.2178542117646549E-002  0.10827739348899812        0.0000000000000000     
   6.3892800992720308E-002  0.11509097277173748        0.0000000000000000     
   6.5541166107458790E-002  0.12204001038661451        0.0000000000000000     
   6.7123637461862021E-002  0.12912450633362921        0.0000000000000000     
   6.8640215055929987E-002  0.13634446061278160        0.0000000000000000     
   5.6412291574310679E-002  0.10777234874538325        0.0000000000000000     
   5.7984142445846001E-002  0.11460782405985309        0.0000000000000000     
   5.9495524697106728E-002  0.12157871721622993        0.0000000000000000     
   6.0946438328092864E-002  0.12868502821451375        0.0000000000000000     
   6.2336883338804411E-002  0.13592675705470456        0.0000000000000000     
   5.0782602052554152E-002  0.10731206404816009        0.0000000000000000     
   5.2211304161477415E-002  0.11416771423369969        0.0000000000000000     
   5.3584750983192798E-002  0.12115891236016881        0.0000000000000000     
   5.4902942517700309E-002  0.12828565842756751        0.0000000000000000     
   5.6165878764999969E-002  0.13554795243589574        0.0000000000000000     
   4.5289473552376967E-002  0.10689653939732870        0.0000000000000000     
   4.6574286139614528E-002  0.11377064329327727        0.0000000000000000     
   4.7808844965717003E-002  0.12078059581843119        0.0000000000000000     
   4.8993150030684371E-002  0.12792639697279048        0.0000000000000000     
   5.0127201334516661E-002  0.13520804675635514        0.0000000000000000     
   3.9932906073779126E-002  0.10652577479288906        0.0000000000000000     
   4.1073088380257361E-002  0.11341661123858585        0.0000000000000000     
   4.2167806644679340E-002  0.12044376759101705        0.0000000000000000     
   4.3217060867045042E-002  0.12760724385018271        0.0000000000000000     
   4.4220851047354473E-002  0.13490704001608281        0.0000000000000000     
   6.8640215055929987E-002  0.13634446061278160        0.0000000000000000     
   7.0082151599075618E-002  0.14368536256796627        0.0000000000000000     
   7.1440699800711840E-002  0.15113270154307765        0.0000000000000000     
   7.2715859660838683E-002  0.15868647753811579        0.0000000000000000     
   7.3907631179456104E-002  0.16634669055308071        0.0000000000000000     
   6.2336883338804411E-002  0.13592675705470456        0.0000000000000000     
   6.3657821117563615E-002  0.14328973801087821        0.0000000000000000     
   6.4900213052692779E-002  0.15075980535711059        0.0000000000000000     
   6.6064059144191875E-002  0.15833695909340170        0.0000000000000000     
   6.7149359392060903E-002  0.16602119921975150        0.0000000000000000     
   5.6165878764999969E-002  0.13554795243589574        0.0000000000000000     
   5.7364624985551713E-002  0.14293179817995394        0.0000000000000000     
   5.8490246439815534E-002  0.15042319945454249        0.0000000000000000     
   5.9542743127791432E-002  0.15802215625966157        0.0000000000000000     
   6.0522115049479394E-002  0.16572866859531099        0.0000000000000000     
   5.0127201334516661E-002  0.13520804675635514        0.0000000000000000     
   5.1202563203039883E-002  0.14261154307519339        0.0000000000000000     
   5.2210799962080112E-002  0.15012288383537351        0.0000000000000000     
   5.3151911611637362E-002  0.15774206903689539        0.0000000000000000     
   5.4025898151711597E-002  0.16546909867975912        0.0000000000000000     
   4.4220851047354473E-002  0.13490704001608281        0.0000000000000000     
   4.5171635770028133E-002  0.14232897269659661        0.0000000000000000     
   4.6061873619486535E-002  0.14985885849960340        0.0000000000000000     
   4.6891564595729650E-002  0.15749669742510317        0.0000000000000000     
   4.7660708698757506E-002  0.16524248947309594        0.0000000000000000     
   0.0000000000000000        0.0000000000000000        0.0000000000000000     
   1.7983560285191706E-003   1.2768447803321976E-003   0.0000000000000000     
   3.6213939190555427E-003   2.9391722198549540E-003   0.0000000000000000     
   5.4691136716091167E-003   4.9869823185682690E-003   0.0000000000000000     
   7.3415152861798913E-003   7.4202750764721433E-003   0.0000000000000000     
   0.0000000000000000        0.0000000000000000        0.0000000000000000     
   1.5350457532330045E-003   1.2175691793850515E-003   0.0000000000000000     
   3.0994163043922911E-003   2.8208833387293338E-003   0.0000000000000000     
   4.6931116534778593E-003   4.8099424780328470E-003   0.0000000000000000     
   6.3161318004897092E-003   7.1847465972955920E-003   0.0000000000000000     
   0.0000000000000000        0.0000000000000000        0.0000000000000000     
   1.2878306978659801E-003   1.1699981164156206E-003   0.0000000000000000     
   2.6055508038543077E-003   2.7246070936558812E-003   0.0000000000000000     
   3.9531603179649814E-003   4.6638269317207815E-003   0.0000000000000000     
   5.3306592401980019E-003   6.9876576306103196E-003   0.0000000000000000     
   0.0000000000000000        0.0000000000000000        0.0000000000000000     
   1.0567108624180974E-003   1.1341315914239051E-003   0.0000000000000000     
   2.1397974174415923E-003   2.6503434846345949E-003   0.0000000000000000     
   3.2492596650704835E-003   4.5486356796320699E-003   0.0000000000000000     
   4.3850976053047700E-003   6.8290081764163296E-003   0.0000000000000000     
   0.0000000000000000        0.0000000000000000        0.0000000000000000     
   8.4168624688935685E-004   1.1099696044099042E-003   0.0000000000000000     
   1.7021561451541450E-003   2.5980925116654754E-003   0.0000000000000000     
   2.5814096947943646E-003   4.4643687217667139E-003   0.0000000000000000     
   3.4794468958100149E-003   6.7087982347136194E-003   0.0000000000000000     
   7.3415152861798913E-003   7.4202750764721433E-003   0.0000000000000000     
   9.2309535404482210E-003   1.0186627748258705E-002   0.0000000000000000     
   1.1129783212094452E-002   1.3233617588620088E-002   0.0000000000000000     
   1.3038004301118587E-002   1.6561244597556292E-002   0.0000000000000000     
   1.4955616807520628E-002   2.0169508775067308E-002   0.0000000000000000     
   6.3161318004897092E-003   7.1847465972955920E-003   0.0000000000000000     
   7.9557896579694563E-003   9.8957361779933098E-003   0.0000000000000000     
   9.5993981384587153E-003   1.2893351701601743E-002   0.0000000000000000     
   1.1246957241957485E-002   1.6177593168120896E-002   0.0000000000000000     
   1.2898466968465767E-002   1.9748460577550767E-002   0.0000000000000000     
   5.3306592401980019E-003   6.9876576306103196E-003   0.0000000000000000     
   6.7235791542751156E-003   9.6500090983665902E-003   0.0000000000000000     
   8.1174516439180642E-003   1.2604791243031679E-002   0.0000000000000000     
   9.5122767091268476E-003   1.5852004064605588E-002   0.0000000000000000     
   1.0908054349901469E-002   1.9391647563088320E-002   0.0000000000000000     
   4.3850976053047700E-003   6.8290081764163296E-003   0.0000000000000000     
   5.5343220293651964E-003   9.4494465093785448E-003   0.0000000000000000     
   6.6839437284725006E-003   1.2367936212909891E-002   0.0000000000000000     
   7.8339627026266807E-003   1.5584477287010370E-002   0.0000000000000000     
   8.9843789518277376E-003   1.9099069731679973E-002   0.0000000000000000     
   3.4794468958100149E-003   6.7087982347136194E-003   0.0000000000000000     
   4.3880182832396987E-003   9.2940484110291804E-003   0.0000000000000000     
   5.2988743921220209E-003   1.2182786611236384E-002   0.0000000000000000     
   6.2120152224569786E-003   1.5375012835335234E-002   0.0000000000000000     
   7.1274407742445735E-003   1.8870727083325725E-002   0.0000000000000000     
   1.4955616807520628E-002   2.0169508775067308E-002   0.0000000000000000     
   1.6857242204654805E-002   2.4029845361149493E-002   0.0000000000000000     
   1.8717501965875349E-002   2.8113689595799175E-002   0.0000000000000000     
   2.0536396091182265E-002   3.2421041479016366E-002   0.0000000000000000     
   2.2313924580575552E-002   3.6951901010801064E-002   0.0000000000000000     
   1.2898466968465767E-002   1.9748460577550767E-002   0.0000000000000000     
   1.4537509140865211E-002   2.3579821726065892E-002   0.0000000000000000     
   1.6147665582037476E-002   2.7645544409840819E-002   0.0000000000000000     
   1.7728936291982564E-002   3.1945628628875546E-002   0.0000000000000000     
   1.9281321270700466E-002   3.6480074383170066E-002   0.0000000000000000     
   1.0908054349901469E-002   1.9391647563088320E-002   0.0000000000000000     
   1.2294485249197191E-002   2.3198848214146119E-002   0.0000000000000000     
   1.3661270089969289E-002   2.7248732493445230E-002   0.0000000000000000     
   1.5008408872217759E-002   3.1541300400985656E-002   0.0000000000000000     
   1.6335901595942601E-002   3.6076551936767398E-002   0.0000000000000000     
   8.9843789518277376E-003   1.9099069731679973E-002   0.0000000000000000     
   1.0128170529650747E-002   2.2886924825390165E-002   0.0000000000000000     
   1.1258315489670790E-002   2.6923253846612413E-002   0.0000000000000000     
   1.2374813831887857E-002   3.1208056795346710E-002   0.0000000000000000     
   1.3477665556301956E-002   3.5741333671593059E-002   0.0000000000000000     
   7.1274407742445735E-003   1.8870727083325725E-002   0.0000000000000000     
   8.0385649822258820E-003   2.2644051559798043E-002   0.0000000000000000     
   8.9388017811419754E-003   2.6669108469342367E-002   0.0000000000000000     
   9.8281511709928607E-003   3.0945897811958702E-002   0.0000000000000000     
   1.0706613151778533E-002   3.5474419587647049E-002   0.0000000000000000     
   2.2313924580575552E-002   3.6951901010801064E-002   0.0000000000000000     
   2.4047456459587932E-002   4.1697550725937144E-002   0.0000000000000000     
   2.5734360753752152E-002   4.6649273159208499E-002   0.0000000000000000     
   2.7374637463068202E-002   5.1807068310615129E-002   0.0000000000000000     
   2.8968286587536089E-002   5.7170936180157034E-002   0.0000000000000000     
   1.9281321270700466E-002   3.6480074383170066E-002   0.0000000000000000     
   2.0798433910542174E-002   4.1234771536772380E-002   0.0000000000000000     
   2.2273887603858674E-002   4.6195609953730482E-002   0.0000000000000000     
   2.3707682350649968E-002   5.1362589634044387E-002   0.0000000000000000     
   2.5099818150916053E-002   5.6735710577714073E-002   0.0000000000000000     
   1.6335901595942601E-002   3.6076551936767398E-002   0.0000000000000000     
   1.7635596754964948E-002   4.0836650264796673E-002   0.0000000000000000     
   1.8899342843105946E-002   4.5803758549079705E-002   0.0000000000000000     
   2.0127139860365587E-002   5.0977876789616496E-002   0.0000000000000000     
   2.1318987806743871E-002   5.6359004986407064E-002   0.0000000000000000     
   1.3477665556301956E-002   3.5741333671593059E-002   0.0000000000000000     
   1.4558944992856265E-002   4.0503186910010015E-002   0.0000000000000000     
   1.5610726471493969E-002   4.5473718945256154E-002   0.0000000000000000     
   1.6633009992215064E-002   5.0652929777331497E-002   0.0000000000000000     
   1.7625795555019554E-002   5.6040819406236002E-002   0.0000000000000000     
   1.0706613151778533E-002   3.5474419587647049E-002   0.0000000000000000     
   1.1568478624216116E-002   4.0234381472412428E-002   0.0000000000000000     
   1.2408038489022740E-002   4.5205491142259857E-002   0.0000000000000000     
   1.3225292746198398E-002   5.0387748597189350E-002   0.0000000000000000     
   1.4020241395743092E-002   5.5781153837200892E-002   0.0000000000000000     
   2.8968286587536089E-002   5.7170936180157034E-002   0.0000000000000000     
   3.0514146258297625E-002   6.2728717291779562E-002   0.0000000000000000     
   3.2011054606494622E-002   6.8468252169428076E-002   0.0000000000000000     
   3.3459011632127091E-002   7.4389540813102562E-002   0.0000000000000000     
   3.4858017335195030E-002   8.0492583222803032E-002   0.0000000000000000     
   2.5099818150916053E-002   5.6735710577714073E-002   0.0000000000000000     
   2.6450190344412688E-002   6.2303514926520302E-002   0.0000000000000000     
   2.7758694270895636E-002   6.8054544822243837E-002   0.0000000000000000     
   2.9025329930364902E-002   7.3988800264884691E-002   0.0000000000000000     
   3.0250097322820482E-002   8.0106281254442843E-002   0.0000000000000000     
   2.1318987806743871E-002   5.6359004986407064E-002   0.0000000000000000     
   2.2475198670727458E-002   6.1935792834985480E-002   0.0000000000000000     
   2.3596084440802991E-002   6.7696890030885887E-002   0.0000000000000000     
   2.4681645116970491E-002   7.3642296574108285E-002   0.0000000000000000     
   2.5731880699229936E-002   7.9772012464652653E-002   0.0000000000000000     
   1.7625795555019554E-002   5.6040819406236002E-002   0.0000000000000000     
   1.8589171237241933E-002   6.1625551017175102E-002   0.0000000000000000     
   1.9523225116216698E-002   6.7395287795354225E-002   0.0000000000000000     
   2.0427957191943864E-002   7.3350029740773356E-002   0.0000000000000000     
   2.1303367464423410E-002   7.9489776853432462E-002   0.0000000000000000     
   1.4020241395743092E-002   5.5781153837200892E-002   0.0000000000000000     
   1.4792108043956117E-002   6.1372789473089169E-002   0.0000000000000000     
   1.5540116297136752E-002   6.7149738115648838E-002   0.0000000000000000     
   1.6264266155285010E-002   7.3111999764879865E-002   0.0000000000000000     
   1.6964557618400884E-002   7.9259574420782297E-002   0.0000000000000000     
   3.4858017335195030E-002   8.0492583222803032E-002   0.0000000000000000     
   3.6206095412695788E-002   8.6765097165468499E-002   0.0000000000000000     
   3.7501269561626714E-002   9.3194800408037987E-002   0.0000000000000000     
   3.8743539781987829E-002   9.9781692950511522E-002   0.0000000000000000     
   3.9932906073779126E-002  0.10652577479288906        0.0000000000000000     
   3.0250097322820482E-002   8.0106281254442843E-002   0.0000000000000000     
   3.1430445435324729E-002   8.6393919020002860E-002   0.0000000000000000     
   3.2563823254939998E-002   9.2838644790649238E-002   0.0000000000000000     
   3.3650230781666297E-002   9.9440458566382076E-002   0.0000000000000000     
   3.4689668015503619E-002  0.10619936034720126        0.0000000000000000     
   2.5731880699229936E-002   7.9772012464652653E-002   0.0000000000000000     
   2.6744100918025478E-002   8.6072469994554979E-002   0.0000000000000000     
   2.7715615503801246E-002   9.2530101455851207E-002   0.0000000000000000     
   2.8646424456557237E-002   9.9144906848541325E-002   0.0000000000000000     
   2.9536527776293450E-002  0.10591688617262537        0.0000000000000000     
   2.1303367464423410E-002   7.9489776853432462E-002   0.0000000000000000     
   2.2147061860798040E-002   8.5800750089124897E-002   0.0000000000000000     
   2.2956646308210451E-002   9.2269170403643852E-002   0.0000000000000000     
   2.3732120806660640E-002   9.8895037796989355E-002   0.0000000000000000     
   2.4473485356148614E-002  0.10567835226916140        0.0000000000000000     
   1.6964557618400884E-002   7.9259574420782297E-002   0.0000000000000000     
   1.7639328263642409E-002   8.5578759303712587E-002   0.0000000000000000     
   1.8286915668167619E-002   9.2055851634027186E-002   0.0000000000000000     
   1.8907319831976521E-002   9.8690851411726122E-002   0.0000000000000000     
   1.9500540755069108E-002  0.10548375863680938        0.0000000000000000     
   3.9932906073779126E-002  0.10652577479288906        0.0000000000000000     
   4.1073088380257361E-002  0.11341661123858585        0.0000000000000000     
   4.2167806644679340E-002  0.12044376759101705        0.0000000000000000     
   4.3217060867045042E-002  0.12760724385018271        0.0000000000000000     
   4.4220851047354473E-002  0.13490704001608281        0.0000000000000000     
   3.4689668015503619E-002  0.10619936034720126        0.0000000000000000     
   3.5685326371162833E-002  0.11310520914605247        0.0000000000000000     
   3.6640397263354808E-002  0.12014786397588129        0.0000000000000000     
   3.7554880692079545E-002  0.12732732483668777        0.0000000000000000     
   3.8428776657337044E-002  0.13464359172847185        0.0000000000000000     
   2.9536527776293450E-002  0.10591688617262537        0.0000000000000000     
   3.0388615600087855E-002  0.11283602809210426        0.0000000000000000     
   3.1205378065018410E-002  0.11989232127097887        0.0000000000000000     
   3.1986815171085113E-002  0.12708576570924929        0.0000000000000000     
   3.2732926918287969E-002  0.13441636140691543        0.0000000000000000     
   2.4473485356148614E-002  0.10567835226916140        0.0000000000000000     
   2.5182956067032431E-002  0.11260906807674119        0.0000000000000000     
   2.5862749049670133E-002  0.11967713947630979        0.0000000000000000     
   2.6512864304061749E-002  0.12688256646786722        0.0000000000000000     
   2.7133301830207266E-002  0.13422534905141351        0.0000000000000000     
   1.9500540755069108E-002  0.10548375863680938        0.0000000000000000     
   2.0068347771996543E-002  0.11242432909996324        0.0000000000000000     
   2.0612510217309993E-002  0.11950231859187399        0.0000000000000000     
   2.1133028091009448E-002  0.12671772711254162        0.0000000000000000     
   2.1629901393094918E-002  0.13407055466196618        0.0000000000000000     
   4.4220851047354473E-002  0.13490704001608281        0.0000000000000000     
   4.5171635770028133E-002  0.14232897269659661        0.0000000000000000     
   4.6061873619486535E-002  0.14985885849960340        0.0000000000000000     
   4.6891564595729650E-002  0.15749669742510317        0.0000000000000000     
   4.7660708698757506E-002  0.16524248947309594        0.0000000000000000     
   3.8428776657337044E-002  0.13464359172847185        0.0000000000000000     
   3.9255568353200550E-002  0.14208228444996390        0.0000000000000000     
   4.0028738973743316E-002  0.14962902279989437        0.0000000000000000     
   4.0748288518965350E-002  0.15728380677826323        0.0000000000000000     
   4.1414216988866638E-002  0.16504663638507044        0.0000000000000000     
   3.2732926918287969E-002  0.13441636140691543        0.0000000000000000     
   3.3438086619241199E-002  0.14186967574109571        0.0000000000000000     
   3.4096667586559035E-002  0.14943127608890852        0.0000000000000000     
   3.4708669820241476E-002  0.15710116245035391        0.0000000000000000     
   3.5274093320288517E-002  0.16487933482543182        0.0000000000000000     
   2.7133301830207266E-002  0.13422534905141351        0.0000000000000000     
   2.7719190568150101E-002  0.14169114656999199        0.0000000000000000     
   2.8265659457933696E-002  0.14926561836664590        0.0000000000000000     
   2.8772708499558045E-002  0.15694876444137520        0.0000000000000000     
   2.9240337693023137E-002  0.16474058479417997        0.0000000000000000     
   2.1629901393094918E-002  0.13407055466196618        0.0000000000000000     
   2.2098880199927243E-002  0.14154669693665273        0.0000000000000000     
   2.2535714587867288E-002  0.14913204963310639        0.0000000000000000     
   2.2940404556915043E-002  0.15682661275132712        0.0000000000000000     
   2.3312950107070511E-002  0.16463038629131499        0.0000000000000000     
   0.0000000000000000        0.0000000000000000        0.0000000000000000     
   8.4168624688935685E-004   1.1099696044099042E-003   0.0000000000000000     
   1.7021561451541450E-003   2.5980925116654754E-003   0.0000000000000000     
   2.5814096947943646E-003   4.4643687217667139E-003   0.0000000000000000     
   3.4794468958100149E-003   6.7087982347136194E-003   0.0000000000000000     
   0.0000000000000000        0.0000000000000000        0.0000000000000000     
   6.3384810228029134E-004   1.0939486011388672E-003   0.0000000000000000     
   1.2780824746601166E-003   2.5620034385918453E-003   0.0000000000000000     
   1.9327031171394761E-003   4.4041645123589351E-003   0.0000000000000000     
   2.5977100297183697E-003   6.6204318224401372E-003   0.0000000000000000     
   0.0000000000000000        0.0000000000000000        0.0000000000000000     
   4.2428767959143464E-004   1.0825050273760412E-003   0.0000000000000000     
   8.5303189362765785E-004   2.5362255292570263E-003   0.0000000000000000     
   1.2862326421086696E-003   4.3611615056429560E-003   0.0000000000000000     
   1.7238899250344697E-003   6.5573129565338305E-003   0.0000000000000000     
   0.0000000000000000        0.0000000000000000        0.0000000000000000     
   2.1300497882278661E-004   1.0756388831214270E-003   0.0000000000000000     
   4.2700440205676817E-004   2.5207587836610194E-003   0.0000000000000000     
   6.4199826970194477E-004   4.3353597016187757E-003   0.0000000000000000     
   8.5798658175831625E-004   6.5194416369947000E-003   0.0000000000000000     
   0.0000000000000000        0.0000000000000000        0.0000000000000000     
  -2.5652575766713093E-014   1.0733501683750240E-003   0.0000000000000000     
  -5.2551984031784515E-014   2.5156032018038232E-003   0.0000000000000000     
  -8.0698360320485829E-014   4.3267591002863967E-003   0.0000000000000000     
  -1.1009148779238254E-013   6.5068178638227458E-003   0.0000000000000000     
   3.4794468958100149E-003   6.7087982347136194E-003   0.0000000000000000     
   4.3880182832396987E-003   9.2940484110291804E-003   0.0000000000000000     
   5.2988743921220209E-003   1.2182786611236384E-002   0.0000000000000000     
   6.2120152224569786E-003   1.5375012835335234E-002   0.0000000000000000     
   7.1274407742445735E-003   1.8870727083325725E-002   0.0000000000000000     
   2.5977100297183697E-003   6.6204318224401372E-003   0.0000000000000000     
   3.2701468479783198E-003   9.1778345396291618E-003   0.0000000000000000     
   3.9470572075008484E-003   1.2043401834719724E-002   0.0000000000000000     
   4.6284411082859571E-003   1.5217133707711827E-002   0.0000000000000000     
   5.3142985503336444E-003   1.8699030158605467E-002   0.0000000000000000     
   1.7238899250344697E-003   6.5573129565338305E-003   0.0000000000000000     
   2.1661866556607502E-003   9.0948246314891679E-003   0.0000000000000000     
   2.6133057472432020E-003   1.1943841280068493E-002   0.0000000000000000     
   3.0652471997818249E-003   1.5104362902271800E-002   0.0000000000000000     
   3.5220110132766188E-003   1.8576389498099095E-002   0.0000000000000000     
   8.5798658175831625E-004   6.5194416369947000E-003   0.0000000000000000     
   1.0761377062869918E-003   9.0450186866091985E-003   0.0000000000000000     
   1.2976200113490803E-003   1.1884104947282682E-002   0.0000000000000000     
   1.5224334969445824E-003   1.5036700419015151E-002   0.0000000000000000     
   1.7505781630734972E-003   1.8502805101806605E-002   0.0000000000000000     
  -1.1009148779238254E-013   6.5068178638227458E-003   0.0000000000000000     
  -1.4295564786191012E-013   9.0284167049892519E-003   0.0000000000000000     
  -1.8151549463800085E-013   1.1864192836362298E-002   0.0000000000000000     
  -2.2577059952198341E-013   1.5014146257941879E-002   0.0000000000000000     
  -2.7572085239957467E-013   1.8478276969728001E-002   0.0000000000000000     
   7.1274407742445735E-003   1.8870727083325725E-002   0.0000000000000000     
   8.0385649822258820E-003   2.2644051559798043E-002   0.0000000000000000     
   8.9388017811419754E-003   2.6669108469342367E-002   0.0000000000000000     
   9.8281511709928607E-003   3.0945897811958702E-002   0.0000000000000000     
   1.0706613151778533E-002   3.5474419587647049E-002   0.0000000000000000     
   5.3142985503336444E-003   1.8699030158605467E-002   0.0000000000000000     
   5.9977164497935324E-003   2.2461746881292956E-002   0.0000000000000000     
   6.6717817228152433E-003   2.6477939569666594E-002   0.0000000000000000     
   7.3364943693987779E-003   3.0747608223726398E-002   0.0000000000000000     
   7.9918543895441327E-003   3.5270752843472350E-002   0.0000000000000000     
   3.5220110132766188E-003   1.8576389498099095E-002   0.0000000000000000     
   3.9776727752246508E-003   2.2331529253798114E-002   0.0000000000000000     
   4.4263080731229854E-003   2.6341390355616608E-002   0.0000000000000000     
   4.8679169069716244E-003   3.0605972803554558E-002   0.0000000000000000     
   5.3024992767705661E-003   3.5125276597611985E-002   0.0000000000000000     
   1.7505781630734972E-003   1.8502805101806605E-002   0.0000000000000000     
   1.9784339585192340E-003   2.2253398677313522E-002   0.0000000000000000     
   2.2023808320652022E-003   2.6259460827192379E-002   0.0000000000000000     
   2.4224187837114000E-003   3.0520991551443177E-002   0.0000000000000000     
   2.6385478134578295E-003   3.5037990850065918E-002   0.0000000000000000     
  -2.7572085239957467E-013   1.8478276969728001E-002   0.0000000000000000     
  -3.2271657134791409E-013   2.2227355151839177E-002   0.0000000000000000     
  -3.5810818286435842E-013   2.6232150984393930E-002   0.0000000000000000     
  -3.8189495511244120E-013   3.0492664467392259E-002   0.0000000000000000     
  -3.9407756571852026E-013   3.5008895600834172E-002   0.0000000000000000     
   1.0706613151778533E-002   3.5474419587647049E-002   0.0000000000000000     
   1.1568478624216116E-002   4.0234381472412428E-002   0.0000000000000000     
   1.2408038489022740E-002   4.5205491142259857E-002   0.0000000000000000     
   1.3225292746198398E-002   5.0387748597189350E-002   0.0000000000000000     
   1.4020241395743092E-002   5.5781153837200892E-002   0.0000000000000000     
   7.9918543895441327E-003   3.5270752843472350E-002   0.0000000000000000     
   8.6349184562483933E-003   4.0027464553269700E-002   0.0000000000000000     
   9.2627432425086368E-003   4.4997834477483664E-002   0.0000000000000000     
   9.8753287483248613E-003   5.0181862616114251E-002   0.0000000000000000     
   1.0472674973697070E-002   5.5579548969161452E-002   0.0000000000000000     
   5.3024992767705661E-003   3.5125276597611985E-002   0.0000000000000000     
   5.7289852961569807E-003   3.9879666753847673E-002   0.0000000000000000     
   6.1463050787680341E-003   4.4849508288320496E-002   0.0000000000000000     
   6.5544586246037281E-003   5.0034801201030377E-002   0.0000000000000000     
   6.9534459336640601E-003   5.5435545491977378E-002   0.0000000000000000     
   2.6385478134578295E-003   3.5037990850065918E-002   0.0000000000000000     
   2.8506791439418776E-003   3.9790988074146369E-002   0.0000000000000000     
   3.0587239978009328E-003   4.4760512574770310E-002   0.0000000000000000     
   3.2626823750349946E-003   4.9946564351937735E-002   0.0000000000000000     
   3.4625542756440641E-003   5.5349143405648657E-002   0.0000000000000000     
  -3.9407756571852026E-013   3.5008895600834172E-002   0.0000000000000000     
  -3.9691611542630456E-013   3.9761428514165753E-002   0.0000000000000000     
  -3.9266853657515810E-013   4.4730847336833142E-002   0.0000000000000000     
  -3.8133656388855686E-013   4.9917152068836332E-002   0.0000000000000000     
  -3.6291954684519734E-013   5.5320342710175302E-002   0.0000000000000000     
   1.4020241395743092E-002   5.5781153837200892E-002   0.0000000000000000     
   1.4792108043956117E-002   6.1372789473089169E-002   0.0000000000000000     
   1.5540116297136752E-002   6.7149738115648838E-002   0.0000000000000000     
   1.6264266155285010E-002   7.3111999764879865E-002   0.0000000000000000     
   1.6964557618400884E-002   7.9259574420782297E-002   0.0000000000000000     
   1.0472674973697070E-002   5.5579548969161452E-002   0.0000000000000000     
   1.1053165486295568E-002   6.1176770741772357E-002   0.0000000000000000     
   1.1615183853790657E-002   6.6959405139094014E-002   0.0000000000000000     
   1.2158730076182343E-002   7.2927452161126435E-002   0.0000000000000000     
   1.2683804153470623E-002   7.9080911807869608E-002   0.0000000000000000     
   6.9534459336640601E-003   5.5435545491977378E-002   0.0000000000000000     
   7.3414999596858529E-003   6.1036757362269302E-002   0.0000000000000000     
   7.7168536564059219E-003   6.6823453013014053E-002   0.0000000000000000     
   8.0795070238242669E-003   7.2795632444211611E-002   0.0000000000000000     
   8.4294600619408914E-003   7.8953295655861955E-002   0.0000000000000000     
   3.4625542756440641E-003   5.5349143405648657E-002   0.0000000000000000     
   3.6571114641269697E-003   6.0952749334580072E-002   0.0000000000000000     
   3.8451257049825428E-003   6.6741881737408998E-002   0.0000000000000000     
   4.0265969982107809E-003   7.2716540614135405E-002   0.0000000000000000     
   4.2015253438116842E-003   7.8876725964759295E-002   0.0000000000000000     
  -3.6291954684519734E-013   5.5320342710175302E-002   0.0000000000000000     
  -3.8107884903215705E-013   6.0924746658704600E-002   0.0000000000000000     
  -4.7947876138237921E-013   6.6714691312278765E-002   0.0000000000000000     
  -6.5811654628537830E-013   7.2690176670897777E-002   0.0000000000000000     
  -9.1699542924261745E-013   7.8851202734561671E-002   0.0000000000000000     
   1.6964557618400884E-002   7.9259574420782297E-002   0.0000000000000000     
   1.7639328263642409E-002   8.5578759303712587E-002   0.0000000000000000     
   1.8286915668167619E-002   9.2055851634027186E-002   0.0000000000000000     
   1.8907319831976521E-002   9.8690851411726122E-002   0.0000000000000000     
   1.9500540755069108E-002  0.10548375863680938        0.0000000000000000     
   1.2683804153470623E-002   7.9080911807869608E-002   0.0000000000000000     
   1.3189559596750560E-002   8.5406273856520706E-002   0.0000000000000000     
   1.3675149917117218E-002   9.1890028084276779E-002   0.0000000000000000     
   1.4140575114570599E-002   9.8532174491137894E-002   0.0000000000000000     
   1.4585835189110699E-002  0.10533271307710403        0.0000000000000000     
   8.4294600619408914E-003   7.8953295655861955E-002   0.0000000000000000     
   8.7664153303144785E-003   8.5283069965751898E-002   0.0000000000000000     
   9.0900753885037166E-003   9.1771582691668241E-002   0.0000000000000000     
   9.4004402365086073E-003   9.8418833833610983E-002   0.0000000000000000     
   9.6975098743291507E-003  0.10522482339158014        0.0000000000000000     
   4.2015253438116842E-003   7.8876725964759295E-002   0.0000000000000000     
   4.3698954643341609E-003   8.5209147631406218E-002   0.0000000000000000     
   4.5316920823271160E-003   9.1700515456201573E-002   0.0000000000000000     
   4.6869151977905511E-003   9.8350829439145429E-002   0.0000000000000000     
   4.8355648107244638E-003  0.10516008958023772        0.0000000000000000     
  -9.1699542924261745E-013   7.8851202734561671E-002   0.0000000000000000     
  -1.1903911016630797E-012   8.5184506853483583E-002   0.0000000000000000     
  -1.4125838628149812E-012   9.1676826377876747E-002   0.0000000000000000     
  -1.5835742683519352E-012   9.8328161307741149E-002   0.0000000000000000     
  -1.7033622776163604E-012  0.10513851164307678        0.0000000000000000     
   1.9500540755069108E-002  0.10548375863680938        0.0000000000000000     
   2.0068347771996543E-002  0.11242432909996324        0.0000000000000000     
   2.0612510217309993E-002  0.11950231859187399        0.0000000000000000     
   2.1133028091009448E-002  0.12671772711254162        0.0000000000000000     
   2.1629901393094918E-002  0.13407055466196618        0.0000000000000000     
   1.4585835189110699E-002  0.10533271307710403        0.0000000000000000     
   1.5012264029130876E-002  0.11228115419960756        0.0000000000000000     
   1.5421195523024497E-002  0.11936700821608093        0.0000000000000000     
   1.5812629670791549E-002  0.12659027512652407        0.0000000000000000     
   1.6186566472432044E-002  0.13395095493093703        0.0000000000000000     
   9.6975098743291507E-003  0.10522482339158014        0.0000000000000000     
   9.9821781525860909E-003  0.11217888641351126        0.0000000000000000     
   1.0255338921900170E-002  0.11927035794733989        0.0000000000000000     
   1.0516992182271393E-002  0.12649923799306606        0.0000000000000000     
   1.0767137933699758E-002  0.13386552655068976        0.0000000000000000     
   4.8355648107244638E-003  0.10516008958023772        0.0000000000000000     
   4.9780901423621777E-003  0.11211752574167427        0.0000000000000000     
   5.1149404139370150E-003  0.11921236778565091        0.0000000000000000     
   5.2461156254489747E-003  0.12644461571216761        0.0000000000000000     
   5.3716157768980578E-003  0.13381426952122433        0.0000000000000000     
  -1.7033622776163604E-012  0.10513851164307678        0.0000000000000000     
  -1.5408575023551085E-012  0.11209707218409670        0.0000000000000000     
  -8.6497161429915925E-013  0.11919303773101401        0.0000000000000000     
   3.2429476313523831E-013  0.12642640828382873        0.0000000000000000     
   2.0269437170372662E-012  0.13379718384254080        0.0000000000000000     
   2.1629901393094918E-002  0.13407055466196618        0.0000000000000000     
   2.2098880199927243E-002  0.14154669693665273        0.0000000000000000     
   2.2535714587867288E-002  0.14913204963310639        0.0000000000000000     
   2.2940404556915043E-002  0.15682661275132712        0.0000000000000000     
   2.3312950107070511E-002  0.16463038629131499        0.0000000000000000     
   1.6186566472432044E-002  0.13395095493093703        0.0000000000000000     
   1.6539437042582421E-002  0.14143521330489783        0.0000000000000000     
   1.6867672495879140E-002  0.14902921592398455        0.0000000000000000     
   1.7171272832322199E-002  0.15673296278819712        0.0000000000000000     
   1.7450238051911589E-002  0.16454645389753564        0.0000000000000000     
   1.0767137933699758E-002  0.13386552655068976        0.0000000000000000     
   1.1003142624125431E-002  0.14135558213854729        0.0000000000000000     
   1.1222372701488586E-002  0.14895576327497495        0.0000000000000000     
   1.1424828165789222E-002  0.15666606995997276        0.0000000000000000     
   1.1610509017027341E-002  0.16448650219354066        0.0000000000000000     
   5.3716157768980578E-003  0.13381426952122433        0.0000000000000000     
   5.4899969445562722E-003  0.14130780343760102        0.0000000000000000     
   5.5998152046956269E-003  0.14891169168607754        0.0000000000000000     
   5.7010705573161237E-003  0.15662593426665392        0.0000000000000000     
   5.7937630024177574E-003  0.16445053117933014        0.0000000000000000     
   2.0269437170372662E-012  0.13379718384254080        0.0000000000000000     
   3.8749418170697103E-012  0.14129187720205907        0.0000000000000000     
   5.5002579097199189E-012  0.14889700115729237        0.0000000000000000     
   6.9028940820770740E-012  0.15661255570824067        0.0000000000000000     
   8.0828468917992780E-012  0.16443854085490400        0.0000000000000000     
   0.0000000000000000        0.0000000000000000        0.0000000000000000     
  -2.5652575766713093E-014   1.0733501683750240E-003   0.0000000000000000     
  -5.2551984031784515E-014   2.5156032018038232E-003   0.0000000000000000     
  -8.0698360320485829E-014   4.3267591002863967E-003   0.0000000000000000     
  -1.1009148779238254E-013   6.5068178638227458E-003   0.0000000000000000     
   0.0000000000000000        0.0000000000000000        0.0000000000000000     
  -2.1300497887322015E-004   1.0756388831358538E-003   0.0000000000000000     
  -4.2700440216019076E-004   2.5207587836842777E-003   0.0000000000000000     
  -6.4199826986091157E-004   4.3353597016452710E-003   0.0000000000000000     
  -8.5798658197538274E-004   6.5194416370188326E-003   0.0000000000000000     
   0.0000000000000000        0.0000000000000000        0.0000000000000000     
  -4.2428767963925348E-004   1.0825050274029383E-003   0.0000000000000000     
  -8.5303189372603597E-004   2.5362255293012218E-003   0.0000000000000000     
  -1.2862326422603473E-003   4.3611615056948511E-003   0.0000000000000000     
  -1.7238899252421877E-003   6.5573129565838252E-003   0.0000000000000000     
   0.0000000000000000        0.0000000000000000        0.0000000000000000     
  -6.3384810232375234E-004   1.0939486011762767E-003   0.0000000000000000     
  -1.2780824747500874E-003   2.5620034386546562E-003   0.0000000000000000     
  -1.9327031172790053E-003   4.4041645124351389E-003   0.0000000000000000     
  -2.5977100299105055E-003   6.6204318225177227E-003   0.0000000000000000     
   0.0000000000000000        0.0000000000000000        0.0000000000000000     
  -8.4168624692671694E-004   1.1099696044558696E-003   0.0000000000000000     
  -1.7021561452323455E-003   2.5980925117445805E-003   0.0000000000000000     
  -2.5814096949168855E-003   4.4643687218661335E-003   0.0000000000000000     
  -3.4794468959803366E-003   6.7087982348205261E-003   0.0000000000000000     
  -1.1009148779238254E-013   6.5068178638227458E-003   0.0000000000000000     
  -1.4295564786191012E-013   9.0284167049892519E-003   0.0000000000000000     
  -1.8151549463800085E-013   1.1864192836362298E-002   0.0000000000000000     
  -2.2577059952198341E-013   1.5014146257941879E-002   0.0000000000000000     
  -2.7572085239957467E-013   1.8478276969728001E-002   0.0000000000000000     
  -8.5798658197538274E-004   6.5194416370188326E-003   0.0000000000000000     
  -1.0761377065690559E-003   9.0450186866312988E-003   0.0000000000000000     
  -1.2976200117073816E-003   1.1884104947309003E-002   0.0000000000000000     
  -1.5224334973903606E-003   1.5036700419051946E-002   0.0000000000000000     
  -1.7505781636179924E-003   1.8502805101860129E-002   0.0000000000000000     
  -1.7238899252421877E-003   6.5573129565838252E-003   0.0000000000000000     
  -2.1661866559312716E-003   9.0948246315373116E-003   0.0000000000000000     
  -2.6133057475873148E-003   1.1943841280124474E-002   0.0000000000000000     
  -3.0652472002103163E-003   1.5104362902345314E-002   0.0000000000000000     
  -3.5220110138002754E-003   1.8576389498199834E-002   0.0000000000000000     
  -2.5977100299105055E-003   6.6204318225177227E-003   0.0000000000000000     
  -3.2701468482296031E-003   9.1778345397072886E-003   0.0000000000000000     
  -3.9470572078213135E-003   1.2043401834808709E-002   0.0000000000000000     
  -4.6284411086856356E-003   1.5217133707821988E-002   0.0000000000000000     
  -5.3142985508225693E-003   1.8699030158747118E-002   0.0000000000000000     
  -3.4794468959803366E-003   6.7087982348205261E-003   0.0000000000000000     
  -4.3880182834640504E-003   9.2940484111412279E-003   0.0000000000000000     
  -5.2988743924093787E-003   1.2182786611361705E-002   0.0000000000000000     
  -6.2120152228163196E-003   1.5375012835481958E-002   0.0000000000000000     
  -7.1274407746848741E-003   1.8870727083501987E-002   0.0000000000000000     
  -2.7572085239957467E-013   1.8478276969728001E-002   0.0000000000000000     
  -3.2271657134791409E-013   2.2227355151839177E-002   0.0000000000000000     
  -3.5810818286435842E-013   2.6232150984393930E-002   0.0000000000000000     
  -3.8189495511244120E-013   3.0492664467392259E-002   0.0000000000000000     
  -3.9407756571852026E-013   3.5008895600834172E-002   0.0000000000000000     
  -1.7505781636179924E-003   1.8502805101860129E-002   0.0000000000000000     
  -1.9784339591569543E-003   2.2253398677370466E-002   0.0000000000000000     
  -2.2023808327739239E-003   2.6259460827219860E-002   0.0000000000000000     
  -2.4224187844688995E-003   3.0520991551408326E-002   0.0000000000000000     
  -2.6385478142418820E-003   3.5037990849935856E-002   0.0000000000000000     
  -3.5220110138002754E-003   1.8576389498199834E-002   0.0000000000000000     
  -3.9776727758392312E-003   2.2331529253902749E-002   0.0000000000000000     
  -4.4263080738092229E-003   2.6341390355668761E-002   0.0000000000000000     
  -4.8679169077102498E-003   3.0605972803497888E-002   0.0000000000000000     
  -5.3024992775423108E-003   3.5125276597390120E-002   0.0000000000000000     
  -5.3142985508225693E-003   1.8699030158747118E-002   0.0000000000000000     
  -5.9977164503695491E-003   2.2461746881436030E-002   0.0000000000000000     
  -6.6717817234640082E-003   2.6477939569740646E-002   0.0000000000000000     
  -7.3364943701059466E-003   3.0747608223660950E-002   0.0000000000000000     
  -7.9918543902953634E-003   3.5270752843196959E-002   0.0000000000000000     
  -7.1274407746848741E-003   1.8870727083501987E-002   0.0000000000000000     
  -8.0385649827479054E-003   2.2644051559970322E-002   0.0000000000000000     
  -8.9388017817382780E-003   2.6669108469435494E-002   0.0000000000000000     
  -9.8281511716559883E-003   3.0945897811897508E-002   0.0000000000000000     
  -1.0706613152501043E-002   3.5474419587356358E-002   0.0000000000000000     
  -3.9407756571852026E-013   3.5008895600834172E-002   0.0000000000000000     
  -3.9691611542630456E-013   3.9761428514165753E-002   0.0000000000000000     
  -3.9266853657515810E-013   4.4730847336833142E-002   0.0000000000000000     
  -3.8133656388855686E-013   4.9917152068836332E-002   0.0000000000000000     
  -3.6291954684519734E-013   5.5320342710175302E-002   0.0000000000000000     
  -2.6385478142418820E-003   3.5037990849935856E-002   0.0000000000000000     
  -2.8506791447353605E-003   3.9790988073936176E-002   0.0000000000000000     
  -3.0587239985918236E-003   4.4760512574542964E-002   0.0000000000000000     
  -3.2626823758112712E-003   4.9946564351756234E-002   0.0000000000000000     
  -3.4625542763937040E-003   5.5349143405576014E-002   0.0000000000000000     
  -5.3024992775423108E-003   3.5125276597390120E-002   0.0000000000000000     
  -5.7289852969494197E-003   3.9879666753487926E-002   0.0000000000000000     
  -6.1463050795755887E-003   4.4849508287933749E-002   0.0000000000000000     
  -6.5544586254208167E-003   5.0034801200727598E-002   0.0000000000000000     
  -6.9534459344851047E-003   5.5435545491869472E-002   0.0000000000000000     
  -7.9918543902953634E-003   3.5270752843196959E-002   0.0000000000000000     
  -8.6349184570390907E-003   4.0027464552821010E-002   0.0000000000000000     
  -9.2627432433439634E-003   4.4997834477005491E-002   0.0000000000000000     
  -9.8753287492099710E-003   5.0181862615750389E-002   0.0000000000000000     
  -1.0472674974637122E-002   5.5579548969055696E-002   0.0000000000000000     
  -1.0706613152501043E-002   3.5474419587356358E-002   0.0000000000000000     
  -1.1568478625004378E-002   4.0234381471935463E-002   0.0000000000000000     
  -1.2408038489896944E-002   4.5205491141758217E-002   0.0000000000000000     
  -1.3225292747178735E-002   5.0387748596824621E-002   0.0000000000000000     
  -1.4020241396849754E-002   5.5781153837134674E-002   0.0000000000000000     
  -3.6291954684519734E-013   5.5320342710175302E-002   0.0000000000000000     
  -3.8107884903215705E-013   6.0924746658704600E-002   0.0000000000000000     
  -4.7947876138237921E-013   6.6714691312278765E-002   0.0000000000000000     
  -6.5811654628537830E-013   7.2690176670897777E-002   0.0000000000000000     
  -9.1699542924261745E-013   7.8851202734561671E-002   0.0000000000000000     
  -3.4625542763937040E-003   5.5349143405576014E-002   0.0000000000000000     
  -3.6571114649220212E-003   6.0952749334647609E-002   0.0000000000000000     
  -3.8451257059791241E-003   6.6741881737616388E-002   0.0000000000000000     
  -4.0265969995650118E-003   7.2716540614482322E-002   0.0000000000000000     
  -4.2015253456796856E-003   7.8876725965245462E-002   0.0000000000000000     
  -6.9534459344851047E-003   5.5435545491869472E-002   0.0000000000000000     
  -7.3414999605795816E-003   6.1036757362413742E-002   0.0000000000000000     
  -7.7168536575153790E-003   6.6823453013414774E-002   0.0000000000000000     
  -8.0795070252924935E-003   7.2795632444872582E-002   0.0000000000000000     
  -8.4294600639109249E-003   7.8953295656787131E-002   0.0000000000000000     
  -1.0472674974637122E-002   5.5579548969055696E-002   0.0000000000000000     
  -1.1053165487353763E-002   6.1176770742003013E-002   0.0000000000000000     
  -1.1615183855088241E-002   6.6959405139673939E-002   0.0000000000000000     
  -1.2158730077840560E-002   7.2927452162068460E-002   0.0000000000000000     
  -1.2683804155610713E-002   7.9080911809186638E-002   0.0000000000000000     
  -1.4020241396849754E-002   5.5781153837134674E-002   0.0000000000000000     
  -1.4792108045244560E-002   6.1372789473415415E-002   0.0000000000000000     
  -1.5540116298697709E-002   6.7149738116393895E-002   0.0000000000000000     
  -1.6264266157209210E-002   7.3111999766070079E-002   0.0000000000000000     
  -1.6964557620779048E-002   7.9259574422443996E-002   0.0000000000000000     
  -9.1699542924261745E-013   7.8851202734561671E-002   0.0000000000000000     
  -1.1903911016630797E-012   8.5184506853483583E-002   0.0000000000000000     
  -1.4125838628149812E-012   9.1676826377876747E-002   0.0000000000000000     
  -1.5835742683519352E-012   9.8328161307741149E-002   0.0000000000000000     
  -1.7033622776163604E-012  0.10513851164307678        0.0000000000000000     
  -4.2015253456796856E-003   7.8876725965245462E-002   0.0000000000000000     
  -4.3698954667442166E-003   8.5209147631955529E-002   0.0000000000000000     
  -4.5316920851796727E-003   9.1700515456662246E-002   0.0000000000000000     
  -4.6869152009860566E-003   9.8350829439365642E-002   0.0000000000000000     
  -4.8355648141633666E-003  0.10516008958006570        0.0000000000000000     
  -8.4294600639109249E-003   7.8953295656787131E-002   0.0000000000000000     
  -8.7664153328123468E-003   8.5283069966793426E-002   0.0000000000000000     
  -9.0900753914384333E-003   9.1771582692526527E-002   0.0000000000000000     
  -9.4004402397891828E-003   9.8418833833986391E-002   0.0000000000000000     
  -9.6975098778645900E-003  0.10522482339117299        0.0000000000000000     
  -1.2683804155610713E-002   7.9080911809186638E-002   0.0000000000000000     
  -1.3189559599394789E-002   8.5406273857997345E-002   0.0000000000000000     
  -1.3675149920188871E-002   9.1890028085469588E-002   0.0000000000000000     
  -1.4140575117992949E-002   9.8532174491603314E-002   0.0000000000000000     
  -1.4585835192807033E-002  0.10533271307639859        0.0000000000000000     
  -1.6964557620779048E-002   7.9259574422443996E-002   0.0000000000000000     
  -1.7639328266491540E-002   8.5578759305567242E-002   0.0000000000000000     
  -1.8286915671430978E-002   9.2055851635491404E-002   0.0000000000000000     
  -1.8907319835597361E-002   9.8690851412216521E-002   0.0000000000000000     
  -1.9500540758990697E-002  0.10548375863574255        0.0000000000000000     
  -1.7033622776163604E-012  0.10513851164307678        0.0000000000000000     
  -1.5408575023551085E-012  0.11209707218409670        0.0000000000000000     
  -8.6497161429915925E-013  0.11919303773101401        0.0000000000000000     
   3.2429476313523831E-013  0.12642640828382873        0.0000000000000000     
   2.0269437170372662E-012  0.13379718384254080        0.0000000000000000     
  -4.8355648141633666E-003  0.10516008958006570        0.0000000000000000     
  -4.9780901455113635E-003  0.11211752574081094        0.0000000000000000     
  -5.1149404158298047E-003  0.11921236778364980        0.0000000000000000     
  -5.2461156251186912E-003  0.12644461570858226        0.0000000000000000     
  -5.3716157733780211E-003  0.13381426951560838        0.0000000000000000     
  -9.6975098778645900E-003  0.10522482339117299        0.0000000000000000     
  -9.9821781559376894E-003  0.11217888641184945        0.0000000000000000     
  -1.0255338924281501E-002  0.11927035794377883        0.0000000000000000     
  -1.0516992182896033E-002  0.12649923798696111        0.0000000000000000     
  -1.0767137931781275E-002  0.13386552654139627        0.0000000000000000     
  -1.4585835192807033E-002  0.10533271307639859        0.0000000000000000     
  -1.5012264032819836E-002  0.11228115419721223        0.0000000000000000     
  -1.5421195526220063E-002  0.11936700821140112        0.0000000000000000     
  -1.5812629673007731E-002  0.12659027511896523        0.0000000000000000     
  -1.6186566473182819E-002  0.13395095491990458        0.0000000000000000     
  -1.9500540758990697E-002  0.10548375863574255        0.0000000000000000     
  -2.0068347776157798E-002  0.11242432909689933        0.0000000000000000     
  -2.0612510221645494E-002  0.11950231858651669        0.0000000000000000     
  -2.1133028095453775E-002  0.12671772710459467        0.0000000000000000     
  -2.1629901397582654E-002  0.13407055465113321        0.0000000000000000     
   2.0269437170372662E-012  0.13379718384254080        0.0000000000000000     
   3.8749418170697103E-012  0.14129187720205907        0.0000000000000000     
   5.5002579097199189E-012  0.14889700115729237        0.0000000000000000     
   6.9028940820770740E-012  0.15661255570824067        0.0000000000000000     
   8.0828468917992780E-012  0.16443854085490400        0.0000000000000000     
  -5.3716157733780211E-003  0.13381426951560838        0.0000000000000000     
  -5.4899969375742808E-003  0.14130780343274701        0.0000000000000000     
  -5.5998151946739586E-003  0.14891169168801721        0.0000000000000000     
  -5.7010705446770499E-003  0.15662593428141880        0.0000000000000000     
  -5.7937629875835558E-003  0.16445053121295192        0.0000000000000000     
  -1.0767137931781275E-002  0.13386552654139627        0.0000000000000000     
  -1.1003142619447123E-002  0.14135558213049051        0.0000000000000000     
  -1.1222372694403460E-002  0.14895576327764978        0.0000000000000000     
  -1.1424828156650290E-002  0.15666606998287413        0.0000000000000000     
  -1.1610509006187611E-002  0.16448650224616360        0.0000000000000000     
  -1.6186566473182819E-002  0.13395095491990458        0.0000000000000000     
  -1.6539437041743581E-002  0.14143521329528944        0.0000000000000000     
  -1.6867672493688250E-002  0.14902921592619015        0.0000000000000000     
  -1.7171272829016836E-002  0.15673296281260665        0.0000000000000000     
  -1.7450238047729317E-002  0.16454645395453898        0.0000000000000000     
  -2.1629901397582654E-002  0.13407055465113321        0.0000000000000000     
  -2.2098880204463656E-002  0.14154669692714389        0.0000000000000000     
  -2.2535714592528330E-002  0.14913204963363824        0.0000000000000000     
  -2.2940404561776675E-002  0.15682661277061635        0.0000000000000000     
  -2.3312950112208675E-002  0.16463038633807808        0.0000000000000000     
   0.0000000000000000        0.0000000000000000        0.0000000000000000     
  -8.4168624692671694E-004   1.1099696044558696E-003   0.0000000000000000     
  -1.7021561452323455E-003   2.5980925117445805E-003   0.0000000000000000     
  -2.5814096949168855E-003   4.4643687218661335E-003   0.0000000000000000     
  -3.4794468959803366E-003   6.7087982348205261E-003   0.0000000000000000     
   0.0000000000000000        0.0000000000000000        0.0000000000000000     
  -1.0567108624480177E-003   1.1341315914772472E-003   0.0000000000000000     
  -2.1397974175052224E-003   2.6503434847281512E-003   0.0000000000000000     
  -3.2492596651716135E-003   4.5486356797527112E-003   0.0000000000000000     
  -4.3850976054471908E-003   6.8290081765509285E-003   0.0000000000000000     
   0.0000000000000000        0.0000000000000000        0.0000000000000000     
  -1.2878306978875256E-003   1.1699981164759396E-003   0.0000000000000000     
  -2.6055508039011300E-003   2.7246070937625238E-003   0.0000000000000000     
  -3.9531603180408149E-003   4.6638269318597519E-003   0.0000000000000000     
  -5.3306592403065791E-003   6.9876576307676252E-003   0.0000000000000000     
   0.0000000000000000        0.0000000000000000        0.0000000000000000     
  -1.5350457532452403E-003   1.2175691794519470E-003   0.0000000000000000     
  -3.0994163044200701E-003   2.8208833388476979E-003   0.0000000000000000     
  -4.6931116535244895E-003   4.8099424781872539E-003   0.0000000000000000     
  -6.3161318005584980E-003   7.1847465974706108E-003   0.0000000000000000     
   0.0000000000000000        0.0000000000000000        0.0000000000000000     
  -1.7983560285211623E-003   1.2768447804052693E-003   0.0000000000000000     
  -3.6213939190620418E-003   2.9391722199836748E-003   0.0000000000000000     
  -5.4691136716226380E-003   4.9869823187352162E-003   0.0000000000000000     
  -7.3415152862029518E-003   7.4202750766598942E-003   0.0000000000000000     
  -3.4794468959803366E-003   6.7087982348205261E-003   0.0000000000000000     
  -4.3880182834640504E-003   9.2940484111412279E-003   0.0000000000000000     
  -5.2988743924093787E-003   1.2182786611361705E-002   0.0000000000000000     
  -6.2120152228163196E-003   1.5375012835481958E-002   0.0000000000000000     
  -7.1274407746848741E-003   1.8870727083501987E-002   0.0000000000000000     
  -4.3850976054471908E-003   6.8290081765509285E-003   0.0000000000000000     
  -5.5343220295546490E-003   9.4494465095232329E-003   0.0000000000000000     
  -6.6839437287166828E-003   1.2367936213070051E-002   0.0000000000000000     
  -7.8339627029332913E-003   1.5584477287191386E-002   0.0000000000000000     
  -8.9843789522044745E-003   1.9099069731887235E-002   0.0000000000000000     
  -5.3306592403065791E-003   6.9876576307676252E-003   0.0000000000000000     
  -6.7235791544214343E-003   9.6500090985373981E-003   0.0000000000000000     
  -8.1174516441084015E-003   1.2604791243220330E-002   0.0000000000000000     
  -9.5122767093674763E-003   1.5852004064816422E-002   0.0000000000000000     
  -1.0908054350198659E-002   1.9391647563325665E-002   0.0000000000000000     
  -6.3161318005584980E-003   7.1847465974706108E-003   0.0000000000000000     
  -7.9557896580644081E-003   9.8957361781837269E-003   0.0000000000000000     
  -9.5993981385845330E-003   1.2893351701812541E-002   0.0000000000000000     
  -1.1246957242118872E-002   1.6177593168357061E-002   0.0000000000000000     
  -1.2898466968667421E-002   1.9748460577817283E-002   0.0000000000000000     
  -7.3415152862029518E-003   7.4202750766598942E-003   0.0000000000000000     
  -9.2309535404835694E-003   1.0186627748462216E-002   0.0000000000000000     
  -1.1129783212145077E-002   1.3233617588846690E-002   0.0000000000000000     
  -1.3038004301187478E-002   1.6561244597813312E-002   0.0000000000000000     
  -1.4955616807610768E-002   2.0169508775362090E-002   0.0000000000000000     
  -7.1274407746848741E-003   1.8870727083501987E-002   0.0000000000000000     
  -8.0385649827479054E-003   2.2644051559970322E-002   0.0000000000000000     
  -8.9388017817382780E-003   2.6669108469435494E-002   0.0000000000000000     
  -9.8281511716559883E-003   3.0945897811897508E-002   0.0000000000000000     
  -1.0706613152501043E-002   3.5474419587356358E-002   0.0000000000000000     
  -8.9843789522044745E-003   1.9099069731887235E-002   0.0000000000000000     
  -1.0128170530101054E-002   2.2886924825588410E-002   0.0000000000000000     
  -1.1258315490193849E-002   2.6923253846725725E-002   0.0000000000000000     
  -1.2374813832482857E-002   3.1208056795299175E-002   0.0000000000000000     
  -1.3477665556968083E-002   3.5741333671308759E-002   0.0000000000000000     
  -1.0908054350198659E-002   1.9391647563325665E-002   0.0000000000000000     
  -1.2294485249555745E-002   2.3198848214373097E-002   0.0000000000000000     
  -1.3661270090392535E-002   2.7248732493583720E-002   0.0000000000000000     
  -1.5008408872709026E-002   3.1541300400957546E-002   0.0000000000000000     
  -1.6335901596505220E-002   3.6076551936494568E-002   0.0000000000000000     
  -1.2898466968667421E-002   1.9748460577817283E-002   0.0000000000000000     
  -1.4537509141111979E-002   2.3579821726324376E-002   0.0000000000000000     
  -1.6147665582334342E-002   2.7645544410009489E-002   0.0000000000000000     
  -1.7728936292334498E-002   3.1945628628872624E-002   0.0000000000000000     
  -1.9281321271112459E-002   3.6480074382913785E-002   0.0000000000000000     
  -1.4955616807610768E-002   2.0169508775362090E-002   0.0000000000000000     
  -1.6857242204769758E-002   2.4029845361442249E-002   0.0000000000000000     
  -1.8717501966019259E-002   2.8113689596003019E-002   0.0000000000000000     
  -2.0536396091359269E-002   3.2421041479044420E-002   0.0000000000000000     
  -2.2313924580789794E-002   3.6951901010566418E-002   0.0000000000000000     
  -1.0706613152501043E-002   3.5474419587356358E-002   0.0000000000000000     
  -1.1568478625004378E-002   4.0234381471935463E-002   0.0000000000000000     
  -1.2408038489896944E-002   4.5205491141758217E-002   0.0000000000000000     
  -1.3225292747178735E-002   5.0387748596824621E-002   0.0000000000000000     
  -1.4020241396849754E-002   5.5781153837134674E-002   0.0000000000000000     
  -1.3477665556968083E-002   3.5741333671308759E-002   0.0000000000000000     
  -1.4558944993610250E-002   4.0503186909536672E-002   0.0000000000000000     
  -1.5610726472370088E-002   4.5473718944765096E-002   0.0000000000000000     
  -1.6633009993247592E-002   5.0652929776994038E-002   0.0000000000000000     
  -1.7625795556242774E-002   5.6040819406223491E-002   0.0000000000000000     
  -1.6335901596505220E-002   3.6076551936494568E-002   0.0000000000000000     
  -1.7635596755621676E-002   4.0836650264330081E-002   0.0000000000000000     
  -1.8899342843898947E-002   4.5803758548599360E-002   0.0000000000000000     
  -2.0127139861337039E-002   5.0977876789302407E-002   0.0000000000000000     
  -2.1318987807935941E-002   5.6359004986439219E-002   0.0000000000000000     
  -1.9281321271112459E-002   3.6480074382913785E-002   0.0000000000000000     
  -2.0798433911038652E-002   4.1234771536315676E-002   0.0000000000000000     
  -2.2273887604483525E-002   4.6195609953260990E-002   0.0000000000000000     
  -2.3707682351447056E-002   5.1362589633749720E-002   0.0000000000000000     
  -2.5099818151929267E-002   5.6735710577781859E-002   0.0000000000000000     
  -2.2313924580789794E-002   3.6951901010566418E-002   0.0000000000000000     
  -2.4047456459861186E-002   4.1697550725493471E-002   0.0000000000000000     
  -2.5734360754123810E-002   4.6649273158749983E-002   0.0000000000000000     
  -2.7374637463577666E-002   5.1807068310335963E-002   0.0000000000000000     
  -2.8968286588222751E-002   5.7170936180251417E-002   0.0000000000000000     
  -1.4020241396849754E-002   5.5781153837134674E-002   0.0000000000000000     
  -1.4792108045244560E-002   6.1372789473415415E-002   0.0000000000000000     
  -1.5540116298697709E-002   6.7149738116393895E-002   0.0000000000000000     
  -1.6264266157209210E-002   7.3111999766070079E-002   0.0000000000000000     
  -1.6964557620779048E-002   7.9259574422443996E-002   0.0000000000000000     
  -1.7625795556242774E-002   5.6040819406223491E-002   0.0000000000000000     
  -1.8589171238698902E-002   6.1625551017589174E-002   0.0000000000000000     
  -1.9523225117959276E-002   6.7395287796226777E-002   0.0000000000000000     
  -2.0427957194023891E-002   7.3350029742136308E-002   0.0000000000000000     
  -2.1303367466892747E-002   7.9489776855317745E-002   0.0000000000000000     
  -2.1318987807935941E-002   5.6359004986439219E-002   0.0000000000000000     
  -2.2475198672163722E-002   6.1935792835462453E-002   0.0000000000000000     
  -2.3596084442488428E-002   6.7696890031824733E-002   0.0000000000000000     
  -2.4681645118910054E-002   7.3642296575526067E-002   0.0000000000000000     
  -2.5731880701428608E-002   7.9772012466566442E-002   0.0000000000000000     
  -2.5099818151929267E-002   5.6735710577781859E-002   0.0000000000000000     
  -2.6450190345639012E-002   6.2303514927035265E-002   0.0000000000000000     
  -2.7758694272285157E-002   6.8054544823187776E-002   0.0000000000000000     
  -2.9025329931867700E-002   7.3988800266239371E-002   0.0000000000000000     
  -3.0250097324386636E-002   8.0106281256190057E-002   0.0000000000000000     
  -2.8968286588222751E-002   5.7170936180251417E-002   0.0000000000000000     
  -3.0514146259124776E-002   6.2728717292307626E-002   0.0000000000000000     
  -3.2011054607349466E-002   6.8468252170315880E-002   0.0000000000000000     
  -3.3459011632896822E-002   7.4389540814276234E-002   0.0000000000000000     
  -3.4858017335766836E-002   8.0492583224188605E-002   0.0000000000000000     
  -1.6964557620779048E-002   7.9259574422443996E-002   0.0000000000000000     
  -1.7639328266491540E-002   8.5578759305567242E-002   0.0000000000000000     
  -1.8286915671430978E-002   9.2055851635491404E-002   0.0000000000000000     
  -1.8907319835597361E-002   9.8690851412216521E-002   0.0000000000000000     
  -1.9500540758990697E-002  0.10548375863574255        0.0000000000000000     
  -2.1303367466892747E-002   7.9489776855317745E-002   0.0000000000000000     
  -2.2147061863664844E-002   8.5800750091209937E-002   0.0000000000000000     
  -2.2956646311439181E-002   9.2269170405251622E-002   0.0000000000000000     
  -2.3732120810215761E-002   9.8895037797442825E-002   0.0000000000000000     
  -2.4473485359994596E-002  0.10567835226778355        0.0000000000000000     
  -2.5731880701428608E-002   7.9772012466566442E-002   0.0000000000000000     
  -2.6744100920476941E-002   8.6072469996632262E-002   0.0000000000000000     
  -2.7715615506487910E-002   9.2530101457409836E-002   0.0000000000000000     
  -2.8646424459461511E-002   9.9144906848899192E-002   0.0000000000000000     
  -2.9536527779397744E-002  0.10591688617110033        0.0000000000000000     
  -3.0250097324386636E-002   8.0106281256190057E-002   0.0000000000000000     
  -3.1430445436927842E-002   8.6393919021834173E-002   0.0000000000000000     
  -3.2563823256577161E-002   9.2838644791966018E-002   0.0000000000000000     
  -3.3650230783334595E-002   9.9440458566585593E-002   0.0000000000000000     
  -3.4689668017200158E-002  0.10619936034569293        0.0000000000000000     
  -3.4858017335766836E-002   8.0492583224188605E-002   0.0000000000000000     
  -3.6206095413017531E-002   8.6765097166815700E-002   0.0000000000000000     
  -3.7501269561706935E-002   9.3194800408920184E-002   0.0000000000000000     
  -3.8743539781835021E-002   9.9781692950502057E-002   0.0000000000000000     
  -3.9932906073401817E-002  0.10652577479156131        0.0000000000000000     
  -1.9500540758990697E-002  0.10548375863574255        0.0000000000000000     
  -2.0068347776157798E-002  0.11242432909689933        0.0000000000000000     
  -2.0612510221645494E-002  0.11950231858651669        0.0000000000000000     
  -2.1133028095453775E-002  0.12671772710459467        0.0000000000000000     
  -2.1629901397582654E-002  0.13407055465113321        0.0000000000000000     
  -2.4473485359994596E-002  0.10567835226778355        0.0000000000000000     
  -2.5182956071320661E-002  0.11260906807322002        0.0000000000000000     
  -2.5862749054738975E-002  0.11967713947069852        0.0000000000000000     
  -2.6512864310249535E-002  0.12688256646021909        0.0000000000000000     
  -2.7133301837852335E-002  0.13422534904178166        0.0000000000000000     
  -2.9536527779397744E-002  0.10591688617110033        0.0000000000000000     
  -3.0388615603677515E-002  0.11283602808848368        0.0000000000000000     
  -3.1205378069681721E-002  0.11989232126551964        0.0000000000000000     
  -3.1986815177410359E-002  0.12708576570220823        0.0000000000000000     
  -3.2732926926863429E-002  0.13441636139854937        0.0000000000000000     
  -3.4689668017200158E-002  0.10619936034569293        0.0000000000000000     
  -3.5685326373228347E-002  0.11310520914269029        0.0000000000000000     
  -3.6640397266473709E-002  0.12014786397097997        0.0000000000000000     
  -3.7554880696936244E-002  0.12732732483056203        0.0000000000000000     
  -3.8428776664615943E-002  0.13464359172143639        0.0000000000000000     
  -3.9932906073401817E-002  0.10652577479156131        0.0000000000000000     
  -4.1073088379973172E-002  0.11341661123583983        0.0000000000000000     
  -4.2167806645114964E-002  0.12044376758707956        0.0000000000000000     
  -4.3217060868827199E-002  0.12760724384528052        0.0000000000000000     
  -4.4220851051109858E-002  0.13490704001044268        0.0000000000000000     
  -2.1629901397582654E-002  0.13407055465113321        0.0000000000000000     
  -2.2098880204463656E-002  0.14154669692714389        0.0000000000000000     
  -2.2535714592528330E-002  0.14913204963363824        0.0000000000000000     
  -2.2940404561776675E-002  0.15682661277061635        0.0000000000000000     
  -2.3312950112208675E-002  0.16463038633807808        0.0000000000000000     
  -2.7133301837852335E-002  0.13422534904178166        0.0000000000000000     
  -2.7719190577383222E-002  0.14169114656144988        0.0000000000000000     
  -2.8265659468678029E-002  0.14926561836528734        0.0000000000000000     
  -2.8772708511736765E-002  0.15694876445329409        0.0000000000000000     
  -2.9240337706559413E-002  0.16474058482547013        0.0000000000000000     
  -3.2732926926863429E-002  0.13441636139854937        0.0000000000000000     
  -3.3438086630278134E-002  0.14186967573360343        0.0000000000000000     
  -3.4096667599891682E-002  0.14943127608643059        0.0000000000000000     
  -3.4708669835704052E-002  0.15710116245703087        0.0000000000000000     
  -3.5274093337715251E-002  0.16487933484540429        0.0000000000000000     
  -3.8428776664615943E-002  0.13464359172143639        0.0000000000000000     
  -3.9255568363148412E-002  0.14208228444360455        0.0000000000000000     
  -4.0028738986169286E-002  0.14962902279706800        0.0000000000000000     
  -4.0748288533678553E-002  0.15728380678182663        0.0000000000000000     
  -4.1414217005676206E-002  0.16504663639788056        0.0000000000000000     
  -4.4220851051109858E-002  0.13490704001044268        0.0000000000000000     
  -4.5171635775994042E-002  0.14232897269145328        0.0000000000000000     
  -4.6061873627510831E-002  0.14985885849719952        0.0000000000000000     
  -4.6891564605660234E-002  0.15749669742768138        0.0000000000000000     
  -4.7660708710442243E-002  0.16524248948289894        0.0000000000000000     
   0.0000000000000000        0.0000000000000000        0.0000000000000000     
  -1.7983560285211623E-003   1.2768447804052693E-003   0.0000000000000000     
  -3.6213939190620418E-003   2.9391722199836748E-003   0.0000000000000000     
  -5.4691136716226380E-003   4.9869823187352162E-003   0.0000000000000000     
  -7.3415152862029518E-003   7.4202750766598942E-003   0.0000000000000000     
   0.0000000000000000        0.0000000000000000        0.0000000000000000     
  -2.0694817622116568E-003   1.3549434628092284E-003   0.0000000000000000     
  -4.1641227292826388E-003   3.0939909057272797E-003   0.0000000000000000     
  -6.2839229012129480E-003   5.2171423287541542E-003   0.0000000000000000     
  -8.4288822780025814E-003   7.7243977318898534E-003   0.0000000000000000     
   0.0000000000000000        0.0000000000000000        0.0000000000000000     
  -2.3401431928130887E-003   1.4589837701371447E-003   0.0000000000000000     
  -4.7202418165374575E-003   3.2998565646353397E-003   0.0000000000000000     
  -7.1402958711731046E-003   5.5226183834945842E-003   0.0000000000000000     
  -9.6003053567200302E-003   8.1272692267148772E-003   0.0000000000000000     
   0.0000000000000000        0.0000000000000000        0.0000000000000000     
  -2.6103403203254589E-003   1.5889657023890193E-003   0.0000000000000000     
  -5.2897511808264958E-003   3.5567691967078536E-003   0.0000000000000000     
  -8.0382325815031106E-003   5.9034104829565016E-003   0.0000000000000000     
  -1.0855784522355300E-002   8.6288895611349656E-003   0.0000000000000000     
   0.0000000000000000        0.0000000000000000        0.0000000000000000     
  -2.8800731447487676E-003   1.7448892595648513E-003   0.0000000000000000     
  -5.8726508221497555E-003   3.8647288019448217E-003   0.0000000000000000     
  -8.9777330322029641E-003   6.3595186271399092E-003   0.0000000000000000     
  -1.2195319774908391E-002   9.2292587351501167E-003   0.0000000000000000     
  -7.3415152862029518E-003   7.4202750766598942E-003   0.0000000000000000     
  -9.2309535404835694E-003   1.0186627748462216E-002   0.0000000000000000     
  -1.1129783212145077E-002   1.3233617588846690E-002   0.0000000000000000     
  -1.3038004301187478E-002   1.6561244597813312E-002   0.0000000000000000     
  -1.4955616807610768E-002   2.0169508775362090E-002   0.0000000000000000     
  -8.4288822780025814E-003   7.7243977318898534E-003   0.0000000000000000     
  -1.0590729917251695E-002   1.0558310993670715E-002   0.0000000000000000     
  -1.2761194876560446E-002   1.3661435992633076E-002   0.0000000000000000     
  -1.4940277155928836E-002   1.7033772728776941E-002   0.0000000000000000     
  -1.7127976755356863E-002   2.0675321202102307E-002   0.0000000000000000     
  -9.6003053567200302E-003   8.1272692267148772E-003   0.0000000000000000     
  -1.2076777903941570E-002   1.1046413098107073E-002   0.0000000000000000     
  -1.4546221143601056E-002   1.4212654001482019E-002   0.0000000000000000     
  -1.7008635075698490E-002   1.7625991936839721E-002   0.0000000000000000     
  -1.9464019700233873E-002   2.1286426904180169E-002   0.0000000000000000     
  -1.0855784522355300E-002   8.6288895611349656E-003   0.0000000000000000     
  -1.3689097500553192E-002   1.1650934061771288E-002   0.0000000000000000     
  -1.6484862013266908E-002   1.4887271615393518E-002   0.0000000000000000     
  -1.9243078060496438E-002   1.8337902222001649E-002   0.0000000000000000     
  -2.1963745642241801E-002   2.2002825881595682E-002   0.0000000000000000     
  -1.2195319774908391E-002   9.2292587351501167E-003   0.0000000000000000     
  -1.5427688707086563E-002   1.2371873884663362E-002   0.0000000000000000     
  -1.8577117485557990E-002   1.5685288834367567E-002   0.0000000000000000     
  -2.1643606110322688E-002   1.9169503584262726E-002   0.0000000000000000     
  -2.4627154581380640E-002   2.2824518134348840E-002   0.0000000000000000     
  -1.4955616807610768E-002   2.0169508775362090E-002   0.0000000000000000     
  -1.6857242204769758E-002   2.4029845361442249E-002   0.0000000000000000     
  -1.8717501966019259E-002   2.8113689596003019E-002   0.0000000000000000     
  -2.0536396091359269E-002   3.2421041479044420E-002   0.0000000000000000     
  -2.2313924580789794E-002   3.6951901010566418E-002   0.0000000000000000     
  -1.7127976755356863E-002   2.0675321202102307E-002   0.0000000000000000     
  -1.9292976413649153E-002   2.4558459584848175E-002   0.0000000000000000     
  -2.1403958869610346E-002   2.8655566049253553E-002   0.0000000000000000     
  -2.3460924123240429E-002   3.2966640595318439E-002   0.0000000000000000     
  -2.5463872174539416E-002   3.7491683223042839E-002   0.0000000000000000     
  -1.9464019700233873E-002   2.1286426904180169E-002   0.0000000000000000     
  -2.1884003740870243E-002   2.5175204861663619E-002   0.0000000000000000     
  -2.4240215921270639E-002   2.9273571767450306E-002   0.0000000000000000     
  -2.6532656241435072E-002   3.3581527621540236E-002   0.0000000000000000     
  -2.8761324701363521E-002   3.8099072423933400E-002   0.0000000000000000     
  -2.1963745642241801E-002   2.2002825881595682E-002   0.0000000000000000     
  -2.4630324186433020E-002   2.5880081191888577E-002   0.0000000000000000     
  -2.7226273121000143E-002   2.9967706750593275E-002   0.0000000000000000     
  -2.9751592445943168E-002   3.4265702557709790E-002   0.0000000000000000     
  -3.2206282161262104E-002   3.8774068613238115E-002   0.0000000000000000     
  -2.4627154581380640E-002   2.2824518134348840E-002   0.0000000000000000     
  -2.7531937750337489E-002   2.6673088575523050E-002   0.0000000000000000     
  -3.0362130468798858E-002   3.0737970998682473E-002   0.0000000000000000     
  -3.3117732736764757E-002   3.5019165403827122E-002   0.0000000000000000     
  -3.5798744554235165E-002   3.9516671790956991E-002   0.0000000000000000     
  -2.2313924580789794E-002   3.6951901010566418E-002   0.0000000000000000     
  -2.4047456459861186E-002   4.1697550725493471E-002   0.0000000000000000     
  -2.5734360754123810E-002   4.6649273158749983E-002   0.0000000000000000     
  -2.7374637463577666E-002   5.1807068310335963E-002   0.0000000000000000     
  -2.8968286588222751E-002   5.7170936180251417E-002   0.0000000000000000     
  -2.5463872174539416E-002   3.7491683223042839E-002   0.0000000000000000     
  -2.7413894864793665E-002   4.2226593545496155E-002   0.0000000000000000     
  -2.9312084035289527E-002   4.7167271175747830E-002   0.0000000000000000     
  -3.1158439686027009E-002   5.2313716113797835E-002   0.0000000000000000     
  -3.2952961817006118E-002   5.7665928359646193E-002   0.0000000000000000     
  -2.8761324701363521E-002   3.8099072423933400E-002   0.0000000000000000     
  -3.0928979588540472E-002   4.2823505709956425E-002   0.0000000000000000     
  -3.3038379190450384E-002   4.7752127014935974E-002   0.0000000000000000     
  -3.5089523507093261E-002   5.2884936338872000E-002   0.0000000000000000     
  -3.7082412538469112E-002   5.8221933681764523E-002   0.0000000000000000     
  -3.2206282161262104E-002   3.8774068613238115E-002   0.0000000000000000     
  -3.4592710631101621E-002   4.3488287218874301E-002   0.0000000000000000     
  -3.6913246219606392E-002   4.8403840676314418E-002   0.0000000000000000     
  -3.9167888926776431E-002   5.3520728985558444E-002   0.0000000000000000     
  -4.1356638752611724E-002   5.8838952146606401E-002   0.0000000000000000     
  -3.5798744554235165E-002   3.9516671790956991E-002   0.0000000000000000     
  -3.8405087992477091E-002   4.4220938072249770E-002   0.0000000000000000     
  -4.0936685122757541E-002   4.9122412159883173E-002   0.0000000000000000     
  -4.3393535945076493E-002   5.4221094053857187E-002   0.0000000000000000     
  -4.5775640459433956E-002   5.9516983754171818E-002   0.0000000000000000     
  -2.8968286588222751E-002   5.7170936180251417E-002   0.0000000000000000     
  -3.0514146259124776E-002   6.2728717292307626E-002   0.0000000000000000     
  -3.2011054607349466E-002   6.8468252170315880E-002   0.0000000000000000     
  -3.3459011632896822E-002   7.4389540814276234E-002   0.0000000000000000     
  -3.4858017335766836E-002   8.0492583224188605E-002   0.0000000000000000     
  -3.2952961817006118E-002   5.7665928359646193E-002   0.0000000000000000     
  -3.4693598455968359E-002   6.3211264149306542E-002   0.0000000000000000     
  -3.6378297630655275E-002   6.8937079718792496E-002   0.0000000000000000     
  -3.8007059341066844E-002   7.4843375068104068E-002   0.0000000000000000     
  -3.9579883587203088E-002   8.0930150197241271E-002   0.0000000000000000     
  -3.7082412538469112E-002   5.8221933681764523E-002   0.0000000000000000     
  -3.9015078979517115E-002   6.3751019716059024E-002   0.0000000000000000     
  -4.0885555525176476E-002   6.9460095114200981E-002   0.0000000000000000     
  -4.2693842175447187E-002   7.5349159876190383E-002   0.0000000000000000     
  -4.4439938930329284E-002   8.1418214002027242E-002   0.0000000000000000     
  -4.1356638752611724E-002   5.8838952146606401E-002   0.0000000000000000     
  -4.3478587829771015E-002   6.4347983992565097E-002   0.0000000000000000     
  -4.5532828290913069E-002   7.0037298356541350E-002   0.0000000000000000     
  -4.7519360136037858E-002   7.5906895238535180E-002   0.0000000000000000     
  -4.9438183365145404E-002   8.1956774638546559E-002   0.0000000000000000     
  -4.5775640459433956E-002   5.9516983754171818E-002   0.0000000000000000     
  -4.8084125006730094E-002   6.5002156978824735E-002   0.0000000000000000     
  -5.0320115927865068E-002   7.0668689445813601E-002   0.0000000000000000     
  -5.2483613222838850E-002   7.6516581155138402E-002   0.0000000000000000     
  -5.4574616891651467E-002   8.2545832106799180E-002   0.0000000000000000     
  -3.4858017335766836E-002   8.0492583224188605E-002   0.0000000000000000     
  -3.6206095413017531E-002   8.6765097166815700E-002   0.0000000000000000     
  -3.7501269561706935E-002   9.3194800408920184E-002   0.0000000000000000     
  -3.8743539781835021E-002   9.9781692950502057E-002   0.0000000000000000     
  -3.9932906073401817E-002  0.10652577479156131        0.0000000000000000     
  -3.9579883587203088E-002   8.0930150197241271E-002   0.0000000000000000     
  -4.1095374595366600E-002   8.7185810786458887E-002   0.0000000000000000     
  -4.2552136591860010E-002   9.3598762516011735E-002   0.0000000000000000     
  -4.3950169576683289E-002  0.10016900538589979        0.0000000000000000     
  -4.5289473549836465E-002  0.10689653939612309        0.0000000000000000     
  -4.4439938930329284E-002   8.1418214002027242E-002   0.0000000000000000     
  -4.6122606730595636E-002   8.7655866235645738E-002   0.0000000000000000     
  -4.7740606517019182E-002   9.4050725320980008E-002   0.0000000000000000     
  -4.9293938289599895E-002  0.10060279125803008        0.0000000000000000     
  -5.0782602048337816E-002  0.10731206404679594        0.0000000000000000     
  -4.9438183365145404E-002   8.1956774638546559E-002   0.0000000000000000     
  -5.1287791818704617E-002   8.8175263514376268E-002   0.0000000000000000     
  -5.3066679337184432E-002   9.4550688823825058E-002   0.0000000000000000     
  -5.4774845920584854E-002  0.10108305056689292        0.0000000000000000     
  -5.6412291568905877E-002  0.10777234874357985        0.0000000000000000     
  -5.4574616891651467E-002   8.2545832106799180E-002   0.0000000000000000     
  -5.6590929859693564E-002   8.8744002622650461E-002   0.0000000000000000     
  -5.8530355052355806E-002   9.5098653024546828E-002   0.0000000000000000     
  -6.0392892469638158E-002  0.10160978331248828        0.0000000000000000     
  -6.2178542111540648E-002  0.10827739348647480        0.0000000000000000     
  -3.9932906073401817E-002  0.10652577479156131        0.0000000000000000     
  -4.1073088379973172E-002  0.11341661123583983        0.0000000000000000     
  -4.2167806645114964E-002  0.12044376758707956        0.0000000000000000     
  -4.3217060868827199E-002  0.12760724384528052        0.0000000000000000     
  -4.4220851051109858E-002  0.13490704001044268        0.0000000000000000     
  -4.5289473549836465E-002  0.10689653939612309        0.0000000000000000     
  -4.6574286136843758E-002  0.11377064329118446        0.0000000000000000     
  -4.7808844963229451E-002  0.12078059581558676        0.0000000000000000     
  -4.8993150028993522E-002  0.12792639696932995        0.0000000000000000     
  -5.0127201334136000E-002  0.13520804675241405        0.0000000000000000     
  -5.0782602048337816E-002  0.10731206404679594        0.0000000000000000     
  -5.2211304156771901E-002  0.11416771423197627        0.0000000000000000     
  -5.3584750978441155E-002  0.12115891235826977        0.0000000000000000     
  -5.4902942513345571E-002  0.12828565842567641        0.0000000000000000     
  -5.6165878761485148E-002  0.13554795243419623        0.0000000000000000     
  -5.6412291568905877E-002  0.10777234874357985        0.0000000000000000     
  -5.7984142439757580E-002  0.11460782405821530        0.0000000000000000     
  -5.9495524690750062E-002  0.12157871721512867        0.0000000000000000     
  -6.0946438321883310E-002  0.12868502821432001        0.0000000000000000     
  -6.2336883333157345E-002  0.13592675705578919        0.0000000000000000     
  -6.2178542111540648E-002  0.10827739348647480        0.0000000000000000     
  -6.3892800985800816E-002  0.11509097276990150        0.0000000000000000     
  -6.5541166100156201E-002  0.12204001038616343        0.0000000000000000     
  -6.7123637454606769E-002  0.12912450633526062        0.0000000000000000     
  -6.8640215049152548E-002  0.13634446061719305        0.0000000000000000     
  -4.4220851051109858E-002  0.13490704001044268        0.0000000000000000     
  -4.5171635775994042E-002  0.14232897269145328        0.0000000000000000     
  -4.6061873627510831E-002  0.14985885849719952        0.0000000000000000     
  -4.6891564605660234E-002  0.15749669742768138        0.0000000000000000     
  -4.7660708710442243E-002  0.16524248948289894        0.0000000000000000     
  -5.0127201334136000E-002  0.13520804675241405        0.0000000000000000     
  -5.1202563204188693E-002  0.14261154307172136        0.0000000000000000     
  -5.2210799964683474E-002  0.15012288383413422        0.0000000000000000     
  -5.3151911615620342E-002  0.15774206903965254        0.0000000000000000     
  -5.4025898156999271E-002  0.16546909868827636        0.0000000000000000     
  -5.6165878761485148E-002  0.13554795243419623        0.0000000000000000     
  -5.7364624983106030E-002  0.14293179817898061        0.0000000000000000     
  -5.8490246438454317E-002  0.15042319945518098        0.0000000000000000     
  -5.9542743127530037E-002  0.15802215626279736        0.0000000000000000     
  -6.0522115050333149E-002  0.16572866860182975        0.0000000000000000     
  -6.2336883333157345E-002  0.13592675705578919        0.0000000000000000     
  -6.3657821112746052E-002  0.14328973801323103        0.0000000000000000     
  -6.4900213048823402E-002  0.15075980536033992        0.0000000000000000     
  -6.6064059141389325E-002  0.15833695909711598        0.0000000000000000     
  -6.7149359390443891E-002  0.16602119922355918        0.0000000000000000     
  -6.8640215049152548E-002  0.13634446061719305        0.0000000000000000     
  -7.0082151593108780E-002  0.14368536257447254        0.0000000000000000     
  -7.1440699795790666E-002  0.15113270154961098        0.0000000000000000     
  -7.2715859657198234E-002  0.15868647754260828        0.0000000000000000     
  -7.3907631177331456E-002  0.16634669055346452        0.0000000000000000     
   0.0000000000000000        0.0000000000000000        0.0000000000000000     
  -2.8800731447487676E-003   1.7448892595648513E-003   0.0000000000000000     
  -5.8726508221497555E-003   3.8647288019448217E-003   0.0000000000000000     
  -8.9777330322029641E-003   6.3595186271399092E-003   0.0000000000000000     
  -1.2195319774908391E-002   9.2292587351501167E-003   0.0000000000000000     
   0.0000000000000000        0.0000000000000000        0.0000000000000000     
  -3.2831931605336101E-003   1.9994086736096674E-003   0.0000000000000000     
  -6.6769318108379763E-003   4.3310409944854128E-003   0.0000000000000000     
  -1.0181215950913102E-002   6.9948969626272370E-003   0.0000000000000000     
  -1.3796045580758986E-002   9.9909765780351392E-003   0.0000000000000000     
   0.0000000000000000        0.0000000000000000        0.0000000000000000     
  -3.9535518621305827E-003   2.4251781764684922E-003   0.0000000000000000     
  -7.9105852172219049E-003   5.0630113884687954E-003   0.0000000000000000     
  -1.1871100065273966E-002   7.9134996360009108E-003   0.0000000000000000     
  -1.5835096406286768E-002   1.0976642919064838E-002   0.0000000000000000     
   0.0000000000000000        0.0000000000000000        0.0000000000000000     
  -4.8911492495396858E-003   3.0221977681413265E-003   0.0000000000000000     
  -9.5736110413015378E-003   6.0606399838949712E-003   0.0000000000000000     
  -1.4047385375285553E-002   9.1153266472609323E-003   0.0000000000000000     
  -1.8312472251491733E-002   1.2186257758239215E-002   0.0000000000000000     
   0.0000000000000000        0.0000000000000000        0.0000000000000000     
  -6.0959853227609204E-003   3.7904674486281694E-003   0.0000000000000000     
  -1.1666009283076874E-002   7.3239267807639367E-003   0.0000000000000000     
  -1.6710071880947863E-002   1.0600377996407302E-002   0.0000000000000000     
  -2.1228173116373889E-002   1.3619821095558267E-002   0.0000000000000000     
  -1.2195319774908391E-002   9.2292587351501167E-003   0.0000000000000000     
  -1.5427688707086563E-002   1.2371873884663362E-002   0.0000000000000000     
  -1.8577117485557990E-002   1.5685288834367567E-002   0.0000000000000000     
  -2.1643606110322688E-002   1.9169503584262726E-002   0.0000000000000000     
  -2.4627154581380640E-002   2.2824518134348840E-002   0.0000000000000000     
  -1.3796045580758986E-002   9.9909765780351392E-003   0.0000000000000000     
  -1.7404329171442925E-002   1.3221296468277169E-002   0.0000000000000000     
  -2.0888975194032215E-002   1.6587873260921371E-002   0.0000000000000000     
  -2.4249983648526853E-002   2.0090706955967753E-002   0.0000000000000000     
  -2.7487354534926851E-002   2.3729797553416310E-002   0.0000000000000000     
  -1.5835096406286768E-002   1.0976642919064838E-002   0.0000000000000000     
  -1.9730796541523529E-002   1.4211265714106585E-002   0.0000000000000000     
  -2.3486422772247467E-002   1.7576192497572144E-002   0.0000000000000000     
  -2.7101975098458585E-002   2.1071423269461539E-002   0.0000000000000000     
  -3.0577453520156884E-002   2.4696958029774743E-002   0.0000000000000000     
  -1.8312472251491733E-002   1.2186257758239215E-002   0.0000000000000000     
  -2.2407090817328369E-002   1.5341781622151603E-002   0.0000000000000000     
  -2.6369460220203755E-002   1.8650246544319887E-002   0.0000000000000000     
  -3.0199580460117875E-002   2.2111652524744070E-002   0.0000000000000000     
  -3.3897451537070744E-002   2.5725999563424147E-002   0.0000000000000000     
  -2.1228173116373889E-002   1.3619821095558267E-002   0.0000000000000000     
  -2.5433211998857456E-002   1.6612844192412234E-002   0.0000000000000000     
  -2.9538087537901065E-002   1.9810035401164595E-002   0.0000000000000000     
  -3.3542799733504727E-002   2.3211394721815357E-002   0.0000000000000000     
  -3.7447348585668422E-002   2.6816922154364518E-002   0.0000000000000000     
  -2.4627154581380640E-002   2.2824518134348840E-002   0.0000000000000000     
  -2.7531937750337489E-002   2.6673088575523050E-002   0.0000000000000000     
  -3.0362130468798858E-002   3.0737970998682473E-002   0.0000000000000000     
  -3.3117732736764757E-002   3.5019165403827122E-002   0.0000000000000000     
  -3.5798744554235165E-002   3.9516671790956991E-002   0.0000000000000000     
  -2.7487354534926851E-002   2.3729797553416310E-002   0.0000000000000000     
  -3.0624132307710685E-002   2.7547700587587681E-002   0.0000000000000000     
  -3.3683361421356847E-002   3.1586971592802521E-002   0.0000000000000000     
  -3.6665041875865327E-002   3.5847610569060821E-002   0.0000000000000000     
  -3.9569173671236135E-002   4.0329617516362583E-002   0.0000000000000000     
  -3.0577453520156884E-002   2.4696958029774743E-002   0.0000000000000000     
  -3.3942195733679660E-002   2.8497390803103130E-002   0.0000000000000000     
  -3.7225539435364170E-002   3.2517315614038048E-002   0.0000000000000000     
  -4.0427484625210446E-002   3.6756732462579503E-002   0.0000000000000000     
  -4.3548031303218465E-002   4.1215641348727489E-002   0.0000000000000000     
  -3.3897451537070744E-002   2.5725999563424147E-002   0.0000000000000000     
  -3.7486128028244393E-002   2.9522159222069386E-002   0.0000000000000000     
  -4.0988664510820838E-002   3.3529003062389068E-002   0.0000000000000000     
  -4.4405060984800092E-002   3.7746531084383160E-002   0.0000000000000000     
  -4.7735317450182148E-002   4.2174743288051701E-002   0.0000000000000000     
  -3.7447348585668422E-002   2.6816922154364518E-002   0.0000000000000000     
  -4.1255929191404889E-002   3.0622005844486457E-002   0.0000000000000000     
  -4.4972736647726830E-002   3.4622033937855554E-002   0.0000000000000000     
  -4.8597770954634266E-002   3.8817006434471814E-002   0.0000000000000000     
  -5.2131032112127176E-002   4.3206923334335227E-002   0.0000000000000000     
  -3.5798744554235165E-002   3.9516671790956991E-002   0.0000000000000000     
  -3.8405087992477091E-002   4.4220938072249770E-002   0.0000000000000000     
  -4.0936685122757541E-002   4.9122412159883173E-002   0.0000000000000000     
  -4.3393535945076493E-002   5.4221094053857187E-002   0.0000000000000000     
  -4.5775640459433956E-002   5.9516983754171818E-002   0.0000000000000000     
  -3.9569173671236135E-002   4.0329617516362583E-002   0.0000000000000000     
  -4.2392943930908443E-002   4.5019324888514733E-002   0.0000000000000000     
  -4.5133539778321421E-002   4.9903065139324208E-002   0.0000000000000000     
  -4.7790961213475050E-002   5.4980838268791001E-002   0.0000000000000000     
  -5.0365208236369363E-002   6.0252644276915103E-002   0.0000000000000000     
  -4.3548031303218465E-002   4.1215641348727489E-002   0.0000000000000000     
  -4.6583110704637207E-002   4.5881314286101128E-002   0.0000000000000000     
  -4.9528654064715613E-002   5.0741023288319517E-002   0.0000000000000000     
  -5.2384661383453698E-002   5.5794768355382662E-002   0.0000000000000000     
  -5.5151132660851462E-002   6.1042549487290571E-002   0.0000000000000000     
  -4.7735317450182148E-002   4.2174743288051701E-002   0.0000000000000000     
  -5.0975588313663368E-002   4.6806906265008927E-002   0.0000000000000000     
  -5.4122027981940130E-002   5.1636286606869093E-002   0.0000000000000000     
  -5.7174636455012411E-002   5.6662884313632193E-002   0.0000000000000000     
  -6.0133413732880239E-002   6.1886699385298248E-002   0.0000000000000000     
  -5.2131032112127176E-002   4.3206923334335227E-002   0.0000000000000000     
  -5.5570376757986949E-002   4.7796100825238157E-002   0.0000000000000000     
  -5.8913661529994964E-002   5.2588855094972943E-002   0.0000000000000000     
  -6.2160886428151221E-002   5.7585186143539593E-002   0.0000000000000000     
  -6.5312051452455708E-002   6.2785093970938108E-002   0.0000000000000000     
  -4.5775640459433956E-002   5.9516983754171818E-002   0.0000000000000000     
  -4.8084125006730094E-002   6.5002156978824735E-002   0.0000000000000000     
  -5.0320115927865068E-002   7.0668689445813601E-002   0.0000000000000000     
  -5.2483613222838850E-002   7.6516581155138402E-002   0.0000000000000000     
  -5.4574616891651467E-002   8.2545832106799180E-002   0.0000000000000000     
  -5.0365208236369363E-002   6.0252644276915103E-002   0.0000000000000000     
  -5.2859361832402293E-002   6.5712587116833004E-002   0.0000000000000000     
  -5.5276502986971815E-002   7.1354770741681200E-002   0.0000000000000000     
  -5.7616631700077942E-002   7.7179195151459684E-002   0.0000000000000000     
  -5.9879747971720645E-002   8.3185860346168441E-002   0.0000000000000000     
  -5.5151132660851462E-002   6.1042549487290571E-002   0.0000000000000000     
  -5.7831969628795554E-002   6.6478322848584986E-002   0.0000000000000000     
  -6.0431074019172699E-002   7.2096044603807641E-002   0.0000000000000000     
  -6.2948445831982877E-002   7.7895714752958548E-002   0.0000000000000000     
  -6.5384085067226080E-002   8.3877333296037693E-002   0.0000000000000000     
  -6.0133413732880239E-002   6.1886699385298248E-002   0.0000000000000000     
  -6.3001948395909904E-002   6.7299364174080667E-002   0.0000000000000000     
  -6.5783829024467694E-002   7.2892511032192922E-002   0.0000000000000000     
  -6.8479055618553650E-002   7.8666139959635006E-002   0.0000000000000000     
  -7.1087628178167800E-002   8.4620250956406906E-002   0.0000000000000000     
  -6.5312051452455708E-002   6.2785093970938108E-002   0.0000000000000000     
  -6.8369298133745302E-002   6.8175711093320074E-002   0.0000000000000000     
  -7.1334768002856833E-002   7.3744170026837044E-002   0.0000000000000000     
  -7.4208461059790315E-002   7.9490470771489075E-002   0.0000000000000000     
  -7.6990377304545776E-002   8.5414613327276109E-002   0.0000000000000000     
  -5.4574616891651467E-002   8.2545832106799180E-002   0.0000000000000000     
  -5.6590929859693564E-002   8.8744002622650461E-002   0.0000000000000000     
  -5.8530355052355806E-002   9.5098653024546828E-002   0.0000000000000000     
  -6.0392892469638158E-002  0.10160978331248828        0.0000000000000000     
  -6.2178542111540648E-002  0.10827739348647480        0.0000000000000000     
  -5.9879747971720645E-002   8.3185860346168441E-002   0.0000000000000000     
  -6.2062779061500206E-002   8.9361749952665645E-002   0.0000000000000000     
  -6.4162652229016903E-002   9.5693847597809439E-002   0.0000000000000000     
  -6.6179367474270723E-002  0.10218215328159985        0.0000000000000000     
  -6.8112924797261692E-002  0.10882666700403681        0.0000000000000000     
  -6.5384085067226080E-002   8.3877333296037693E-002   0.0000000000000000     
  -6.7734097632062285E-002   9.0028171896619172E-002   0.0000000000000000     
  -6.9994589433651416E-002   9.6335502218276997E-002   0.0000000000000000     
  -7.2165560471993503E-002  0.10279932426101124        0.0000000000000000     
  -7.4247010747088546E-002  0.10941963802482188        0.0000000000000000     
  -7.1087628178167800E-002   8.4620250956406906E-002   0.0000000000000000     
  -7.3604885571379772E-002   9.0743268454510972E-002   0.0000000000000000     
  -7.6026166666259345E-002   9.7023616885949487E-002   0.0000000000000000     
  -7.8351471462806480E-002  0.10346129625072251        0.0000000000000000     
  -8.0580799961021188E-002  0.11005630654882997        0.0000000000000000     
  -7.6990377304545776E-002   8.5414613327276109E-002   0.0000000000000000     
  -7.9675142879452709E-002   9.1507039626341088E-002   0.0000000000000000     
  -8.2257383926840663E-002   9.7758191600826910E-002   0.0000000000000000     
  -8.4737100446709651E-002  0.10416806925073360        0.0000000000000000     
  -8.7114292439059660E-002  0.11073667257606112        0.0000000000000000     
  -6.2178542111540648E-002  0.10827739348647480        0.0000000000000000     
  -6.3892800985800816E-002  0.11509097276990150        0.0000000000000000     
  -6.5541166100156201E-002  0.12204001038616343        0.0000000000000000     
  -6.7123637454606769E-002  0.12912450633526062        0.0000000000000000     
  -6.8640215049152548E-002  0.13634446061719305        0.0000000000000000     
  -6.8112924797261692E-002  0.10882666700403681        0.0000000000000000     
  -6.9969321229300371E-002  0.11561699495635758        0.0000000000000000     
  -7.1754553801697402E-002  0.12254274332979935        0.0000000000000000     
  -7.3468622514452769E-002  0.12960391212436206        0.0000000000000000     
  -7.5111527367566461E-002  0.13680050134004579        0.0000000000000000     
  -7.4247010747088546E-002  0.10941963802482188        0.0000000000000000     
  -7.6245744604655039E-002  0.11618572520690623        0.0000000000000000     
  -7.8168566390411601E-002  0.12308686750446161        0.0000000000000000     
  -8.0015476104358149E-002  0.13012306491748807        0.0000000000000000     
  -8.1786473746494739E-002  0.13729431744598558        0.0000000000000000     
  -8.0580799961021188E-002  0.11005630654882997        0.0000000000000000     
  -8.2722071111864831E-002  0.11679716352154743        0.0000000000000000     
  -8.4783203866298756E-002  0.12367238291015029        0.0000000000000000     
  -8.6764198224322936E-002  0.13068196471463861        0.0000000000000000     
  -8.8665054185937411E-002  0.13782590893501231        0.0000000000000000     
  -8.7114292439059660E-002  0.11073667257606112        0.0000000000000000     
  -8.9398300750929749E-002  0.11745130990028116        0.0000000000000000     
  -9.1598466229358896E-002  0.12429928954686534        0.0000000000000000     
  -9.3714788874347144E-002  0.13128061151581369        0.0000000000000000     
  -9.5747268685894449E-002  0.13839527580712616        0.0000000000000000     
  -6.8640215049152548E-002  0.13634446061719305        0.0000000000000000     
  -7.0082151593108780E-002  0.14368536257447254        0.0000000000000000     
  -7.1440699795790666E-002  0.15113270154961098        0.0000000000000000     
  -7.2715859657198234E-002  0.15868647754260828        0.0000000000000000     
  -7.3907631177331456E-002  0.16634669055346452        0.0000000000000000     
  -7.5111527367566461E-002  0.13680050134004579        0.0000000000000000     
  -7.6674588236404953E-002  0.14411785619539041        0.0000000000000000     
  -7.8149124996334668E-002  0.15154132190893579        0.0000000000000000     
  -7.9535137647355605E-002  0.15907089848068198        0.0000000000000000     
  -8.0832626189467793E-002  0.16670658591062898        0.0000000000000000     
  -8.1786473746494739E-002  0.13729431744598558        0.0000000000000000     
  -8.3472102854845326E-002  0.14458640320866969        0.0000000000000000     
  -8.5062906967433863E-002  0.15198510032425611        0.0000000000000000     
  -8.6558886084260336E-002  0.15949040879274473        0.0000000000000000     
  -8.7960040205324788E-002  0.16710232861413571        0.0000000000000000     
  -8.8665054185937411E-002  0.13782590893501231        0.0000000000000000     
  -9.0474695448429926E-002  0.14509100361431043        0.0000000000000000     
  -9.2182045709088264E-002  0.15246403679557186        0.0000000000000000     
  -9.3787104967912455E-002  0.15994500847879659        0.0000000000000000     
  -9.5289873224902455E-002  0.16753391866398462        0.0000000000000000     
  -9.5747268685894449E-002  0.13839527580712616        0.0000000000000000     
  -9.7682366017158725E-002  0.14563165741231268        0.0000000000000000     
  -9.9506541221297887E-002  0.15297813132288310        0.0000000000000000     
 -0.10121979429831189       0.16043469753883749        0.0000000000000000     
 -0.10282212524820077       0.16800135606017577        0.0000000000000000     
 </DataArray>
 <DataArray  type="Float64" Name="stress" NumberOfComponents="3" format="ascii">
   13416719480.989176        4025015844.2967529        2894009728.1311436     
   11766511593.728575        1890475606.3120835        1715821273.2852437     
   10313582790.055035        413532313.61762047        810735377.17725706     
   9057933069.9685574       -405814033.78663778        178752039.80718336     
   7999562433.4691391       -567563435.90068865       -180128738.82497674     
   10539941229.299559        3161982368.7898674        2225778863.4828176     
   9667542076.2200737        1589584921.5796182        1446722408.5697889     
   8943783569.0557671        512656294.08663654        863152546.41791666     
   8368665707.8066444       -68803513.689074993        475069277.02720159     
   7942188492.4727001       -154794501.74751806        282472600.39764196     
   8337887189.1669159        2501366156.7500749        1712382024.8559427     
   8021536867.4778156        1424583529.4770253        1275712725.9252570     
   7805188754.0320110        681141596.34830666        956914053.77897108     
   7688842848.8295088        271040357.36391973        755986008.41708457     
   7672499151.8703032        194279812.52386522        672928589.83959925     
   6810557360.5912476        2043167208.1773744        1353819212.2505178     
   6828495967.5017967        1395471430.0043049        1202792225.3516471     
   6897798344.9837637        918988220.40262914        1092019899.2604194     
   7018464493.0371485        613717579.37234759        1021502233.9768355     
   7190494411.6619511        479659506.91346002        991239229.50089431     
   5957951743.5725565        1787385523.0717669        1150090425.6665440     
   6088419376.2920208        1502248623.1614571        1227960906.8489599     
   6221612341.9110231        1226196166.2496037        1268470082.8622625     
   6357530640.4295635        959228152.33620822        1271617953.7064519     
   6496174271.8476391        701344581.42126822        1237404519.3815277     
   7999562433.4691391       -567563435.90068865       -180128738.82497674     
   7917481720.4981575       -200120414.56725216       -78223371.027599856     
   7793927712.7679968        29078290.902244091       -8970083.3588516042     
   7628900410.2786598        120032680.50781965        27631124.181261905     
   7422399813.0301361        72742754.249454975        31580251.592744999     
   7942188492.4727001       -154794501.74751806        282472600.39764196     
   7739619613.5931301        16370544.837373734        281196305.97447276     
   7513673957.1766367        109612999.63252687        265183804.38452986     
   7264351523.2232246        124932862.63794136        234435095.62781468     
   6991652311.7328873        62330133.853610516        188950179.70432460     
   7672499151.8703032        194279812.52386522        672928589.83959925     
   7400630315.5445995        184523346.89895535        589583236.62184715     
   7123481218.9042311        157166013.55849457        509417549.19918239     
   6841051861.9491940        112207812.50248599        432431527.57160401     
   6553342244.6794968        49648743.730925560        358625171.73911047     
   7190494411.6619511        479659506.91346002        991239229.50089431     
   6900513826.3525667        304337991.61748219        846937420.91452813     
   6623349497.9507713        171737332.68014503        723731151.08510733     
   6359001426.4565735        81857530.101450682        621620420.01263094     
   6107469611.8699627        34698583.881396055        540605227.69709897     
   6496174271.8476391        701344581.42126822        1237404519.3815277     
   6239270146.0170269        375814478.99295807        1053258858.8525140     
   6013278794.3162661        153326956.99748230        908124610.04230535     
   5818200216.7453527        33882015.434837341        802001772.95089912     
   5654034413.3042917        17479654.305027008        734890347.57829654     
   7422399813.0301361        72742754.249454975        31580251.592744999     
   7218943255.7603369       -18097613.660884857        14636525.007364215     
   7027643298.5383368       -68415981.411882877        2181878.6800625022     
   6848499941.3641376       -78212349.003552437       -5783687.3891663840     
   6681513184.2377396       -47486716.435880184       -9260173.2003158797     
   6991652311.7328873        62330133.853610516        188950179.70432460     
   6808434421.0113344        2899886.5222907066        180653553.66688922     
   6632985451.9293642       -30633955.343759060        176187563.04410106     
   6465305404.4869804       -38271391.744514465        175552207.83596632     
   6305394278.6841831       -20012422.679994583        178747488.04247421     
   6553342244.6794968        49648743.730925560        358625171.73911047     
   6388481749.5249691        21064235.684250593        353856688.10669941     
   6227002497.6018076        3750538.4088013172        352260395.04551017     
   6068904488.9100151       -2292348.0954232216        353836292.55554223     
   5914187723.4495935        2935576.1715843678        358584380.63679498     
   6107469611.8699627        34698583.881396055        540605227.69709897     
   5959085241.3012381        36395433.825001240        534245928.32679570     
   5809694435.5556660        34737499.845781565        530400374.68428648     
   5659297194.6332445        29724781.943731785        529068566.76956719     
   5507893518.5339737        21357280.118852615        530250504.58264244     
   5654034413.3042917        17479654.305027008        734890347.57829654     
   5520244896.3401470        48893480.944548845        721821274.32718062     
   5381061265.7909384        62326928.967185736        710607501.96042836     
   5236483521.6566639        57779998.372939587        701249030.47804415     
   5086511663.9373236        35252689.161813498        693745859.88002217     
   6681513184.2377396       -47486716.435880184       -9260173.2003158797     
   6509044649.8946333       -7598638.9756624699       -3676047.9722186117     
   6331544995.5416698        15519038.451704502        2790864.4604476201     
   6149014221.1788578        21866315.846248388        10140564.097679613     
   5961452326.8061924        11443193.207934856        18373050.939480573     
   6305394278.6841831       -20012422.679994583        178747488.04247421     
   6131630315.9759817        1294017.0843617916        175117759.52898186     
   5954846874.5544453        12535527.804247618        173896830.69067660     
   5775043954.4195557        13712109.479624271        175084701.52753934     
   5592221555.5713196        4823762.1105272770        178681372.03958693     
   5914187723.4495935        2935576.1715843678        358584380.63679498     
   5743488368.0066280        6968388.9291908741        348087713.22764146     
   5571781175.1468182        7641743.6306598186        341525857.96427691     
   5399066144.8701696        4955640.2759952545        338898814.84669358     
   5225343277.1766825       -1089921.1348159313        340206583.87490690     
   5507893518.5339737        21357280.118852615        530250504.58264244     
   5344618805.9865522        9424476.5587990284        515233813.12374461     
   5182347897.3187971        837685.93096232414        505677946.28124970     
   5021080792.5307007       -4403091.7646713257        501582904.05515158     
   4860817491.6222744       -6297856.5280869007        502948686.44544929     
   5086511663.9373236        35252689.161813498        693745859.88002217     
   4935021629.9157639        8662279.9731898308        676556059.21730554     
   4786547041.0703745       -7876645.2948617935        666353095.64159799     
   4641087897.4011526       -14364086.642361164        663136969.15290153     
   4498644198.9081030       -10800044.069289207        666907679.75121522     
   5961452326.8061924        11443193.207934856        18373050.939480573     
   5781433025.0519285       -1249547.6725096703        9971301.9209396038     
   5603456450.3222408       -7133198.4710240364        5426861.0832438525     
   5427522602.6171446       -6207759.1875758171        4739728.4263705825     
   5253631481.9366140        1526770.1777672768        7909903.9503393285     
   5592221555.5713196        4823762.1105272770        178681372.03958693     
   5423682270.5149212       -2388034.1083419323        172978390.80144796     
   5256442651.2132025       -5267611.1449375153        170984050.07431817     
   5090502697.6661596       -3814968.9992833138        172698349.85820147     
   4925862409.8738022        1969892.3286497593        178121290.15308177     
   5225343277.1766825       -1089921.1348159313        340206583.87490690     
   5067859244.0472145       -2948202.1233778000        336335465.60229027     
   4910931815.4025202       -2951134.8293602467        336024320.17085099     
   4754560991.2426090       -1098719.2527370453        339273147.58058876     
   4598746771.5674744        2609044.6064641476        346081947.83150774     
   4860817491.6222744       -6297856.5280869007        502948686.44544929     
   4713963945.6488008       -2930051.7176320553        500042526.32346672     
   4566923942.8902016       -183769.52426934242        500547671.37282842     
   4419697483.3464832        1940990.0520286560        504464121.59354669     
   4272284567.0176368        3444227.0112321377        511791876.98560929     
   4498644198.9081030       -10800044.069289207        666907679.75121522     
   4361996375.3196831       -2333582.8911001682        664099572.96497416     
   4224419033.6762438        3034484.7703359127        664554103.68025780     
   4085912173.9777756        5304158.9150245190        668271271.89706600     
   3946475796.2242775        4475439.5429441929        675251077.61539590     
   5253631481.9366140        1526770.1777672768        7909903.9503393285     
   5057555904.3352661        4098491.7872591019        1327122.3928058317     
   4860421684.9755173        3141407.5354070663       -385817.94123244868     
   4662228823.8573713       -1344482.5777673721        2771082.9482020698     
   4462977320.9808254       -9359178.5522716045        10797825.061117714     
   4925862409.8738022        1969892.3286497593        178121290.15308177     
   4741849497.1939049        2841827.9091763496        170703021.51538053     
   4557129574.8377247        1357064.5687403679        168086142.98508251     
   4371702642.8052378       -2484397.6927034855        170270654.56218162     
   4185568701.0964599       -8682558.8751308918        177256556.24667564     
   4598746771.5674744        2609044.6064641476        346081947.83150774     
   4426600949.1916733        1722521.7728531361        338238429.54274911     
   4254099749.2216687       -348593.04141831398        335127850.24530494     
   4081243171.6574802       -3604299.8363204002        336750209.93918753     
   3908031216.4990840       -8044598.6118962765        343105508.62438810     
   4272284567.0176368        3444227.0112321377        511791876.98560929     
   4111810260.3285394        740573.37824535370        503933346.47491592     
   3951332208.1273551       -1975565.2950477600        500739303.83945799     
   3790850410.4140773       -4704189.0086436272        502209749.07923627     
   3630364867.1887074       -7445297.7625474930        508344682.19424880     
   3946475796.2242775        4475439.5429441929        675251077.61539590     
   3797477430.6045251       -104017.27461123466        667787772.31188071     
   3648826951.5547791       -3523852.1921494007        664920503.76751578     
   3500524359.0750432       -5784065.2096486092        666649271.98231554     
   3352569653.1653175       -6884656.3271157742        672974076.95627010     
   4462977320.9808254       -9359178.5522716045        10797825.061117714     
   4302987471.4202223       -6064546.4202363491        3786300.8775003320     
   4143746922.1532440       -272246.64280867577       -682336.36473705817     
   3985255673.1798816        8017720.7800126076       -2608086.6656130315     
   3827513724.5001378        18805355.848240137       -1990950.0251102941     
   4185568701.0964599       -8682558.8751308918        177256556.24667564     
   4032768523.3569827       -5130748.1575753689        171145926.21919098     
   3880510416.4207282        227965.23739147186        167963577.13145334     
   3728794380.2877064        7393581.3098175526        167709508.98346686     
   3577620414.9579153        16366100.059655666        170383721.77522293     
   3908031216.4990840       -8044598.6118962765        343105508.62438810     
   3763521836.2903681       -3905271.5959317684        337654005.01423931     
   3619347297.3944888        1350193.1294875145        335516176.34221798     
   3475507599.8114510        7721795.5643785000        336692022.60832494     
   3332002743.5412502        15209535.708731890        341181543.81255716     
   3630364867.1887074       -7445297.7625474930        508344682.19424880     
   3495247410.2203908       -2388116.7352948189        503310537.26265806     
   3360257565.0745258        3094437.0334568024        501975461.26757056     
   3225395331.7511144        9002363.5437247753        504339454.20898235     
   3090660710.2501545        15335662.795482278        510402516.08689177     
   3352569653.1653175       -6884656.3271157742        672974076.95627010     
   3227945245.1470513       -579283.57566797733        668115522.96444476     
   3103241219.4608393        5460696.9493070841        667341431.90749681     
   2978457576.1066923        11235285.247820377        670651803.78542626     
   2853594315.0846095        16744481.319891095        678046638.59822607     
   3827513724.5001378        18805355.848240137       -1990950.0251102941     
   3612199637.2065196        10993343.454485655       -13869633.246076630     
   3395260641.3481698       -2235030.8216958046       -18944364.815242343     
   3176696736.9251070       -20879766.980276823       -17215144.732629213     
   2956507923.9373088       -44940865.021275759       -8681972.9981975239     
   3577620414.9579153        16366100.059655666        170383721.77522293     
   3379427089.6584849        10384094.435383558        157980813.40231758     
   3180132100.3361087        729875.40129935741        151521461.04172933     
   2979735446.9907856       -12596557.042634845        151005664.69344535     
   2778237129.6225104       -29595202.896385431        156433424.35748872     
   3332002743.5412502        15209535.708731890        341181543.81255716     
   3148471906.9803448        10320054.877263427        328864862.25311810     
   2964362650.9382753        3502509.1085426807        321631341.06651843     
   2779674975.4150281       -5243101.5974100828        319480980.25274068     
   2594408880.4106097       -15916777.240599036        322413779.81180233     
   3090660710.2501545        15335662.795482278        510402516.08689177     
   2919334089.1721001        10801224.780085325        498782513.30633092     
   2747952293.1546645        6082870.3000563383        491385275.25911617     
   2576515322.1978340        1180599.3553700447        488210801.94525635     
   2405023176.3015962       -3905588.0539734364        489259093.36473751     
   2853594315.0846095        16744481.319891095        678046638.59822607     
   2692013636.2337594        11827604.143901587        667733766.56195223     
   2530901026.9852858        8470958.9758378267        660783263.61953712     
   2370256487.3392029        6674545.8157339096        657195129.77097762     
   2210080017.2954917        6438364.6635384560        656969365.01630139     
   5957951743.5725565        1787385523.0717669        1150090425.6665440     
   6088419376.2920208        1502248623.1614571        1227960906.8489599     
   6221612341.9110231        1226196166.2496037        1268470082.8622625     
   6357530640.4295635        959228152.33620822        1271617953.7064519     
   6496174271.8476391        701344581.42126822        1237404519.3815277     
   5434665600.5661163        1630399680.1698349        1033511487.7626138     
   5489912475.4863338        1372504472.7820063        1113909874.9371636     
   5547355347.7336483        1121929256.4844997        1167520901.4685256     
   5606994217.3080606        878674031.27731454        1194344567.3566999     
   5668829084.2095661        642738797.16044998        1194380872.6016858     
   4895294194.0272055        1468588258.2081616        936398221.19732082     
   4905531581.2222490        1246998124.3650367        1018706956.1961575     
   4917435630.1719475        1030963529.7040977        1084802275.0777321     
   4931006340.8763037        820484474.22534525        1134684177.8420434     
   4946243713.3353138        615560957.92877841        1168352664.4890924     
   4339837523.9558229        1301951257.1867471        858750625.97066545     
   4335276693.4997644        1125729577.9105468        942352150.62594151     
   4331853189.2259207        953298985.90839767        1020314203.6898805     
   4329567011.1342926        784659481.18029976        1092636785.1624823     
   4328418159.2248793        619811063.72625220        1159319895.0437465     
   3768295590.3519716        1130488677.1055915        800568702.08264720     
   3779147812.3188820        1008698833.4185379        884845458.22651565     
   3790608024.8955679        888935625.09739995        974056687.30497229     
   3802676228.0820284        771199052.14217830        1068202389.3180170     
   3815352421.8782640        655489114.55287170        1167282564.2656488     
   6496174271.8476391        701344581.42126822        1237404519.3815277     
   6239270146.0170269        375814478.99295807        1053258858.8525140     
   6013278794.3162661        153326956.99748230        908124610.04230535     
   5818200216.7453527        33882015.434837341        802001772.95089912     
   5654034413.3042917        17479654.305027008        734890347.57829654     
   5668829084.2095661        642738797.16044998        1194380872.6016858     
   5518880972.3222818        383221936.60689902        1073527846.5026255     
   5393079676.6463280        204194463.42445946        980703440.51622176     
   5291425197.1817093        105656377.61312675        915907654.64247429     
   5213917533.9284229        87607679.172906160        879140488.88138247     
   4946243713.3353138        615560957.92877841        1168352664.4890924     
   4871872210.8023615        412643517.87328815        1102898655.2483819     
   4814881566.5622244        267662272.12718558        1054490474.5141804     
   4775271780.6149054        180617220.69046974        1023128122.2864879     
   4753042852.9603996        151508363.56313968        1008811598.5653038     
   4328418159.2248793        619811063.72625220        1159319895.0437465     
   4298243861.4572687        464079222.79212558        1141371285.0897827     
   4278684464.0639558        343730383.10566235        1129485712.0361807     
   4269739967.0449433        258764544.66686392        1123663175.8829405     
   4271410370.4002304        209181707.47572994        1123903676.6300619     
   3815352421.8782640        655489114.55287170        1167282564.2656488     
   3797995924.2870007        537529051.36341035        1188945736.0268285     
   3784488369.1515203        432398796.35988963        1205689153.0822229     
   3774829756.4718213        340098349.54231167        1217512815.4318314     
   3769020086.2479067        260627710.91067314        1224416723.0756550     
   5654034413.3042917        17479654.305027008        734890347.57829654     
   5520244896.3401470        48893480.944548845        721821274.32718062     
   5381061265.7909384        62326928.967185736        710607501.96042836     
   5236483521.6566639        57779998.372939587        701249030.47804415     
   5086511663.9373236        35252689.161813498        693745859.88002217     
   5213917533.9284229        87607679.172906160        879140488.88138247     
   5077621835.2581367        85318185.209874868        855488071.13186955     
   4939198407.2571478        75936260.144494057        835830209.78616738     
   4798647249.9254589        59461903.976772785        820166904.84427357     
   4655968363.2630606        35895116.706702471        808498156.30618751     
   4753042852.9603996        151508363.56313968        1008811598.5653038     
   4620353131.2109566        117349196.58564782        978386617.94748473     
   4488802064.3851748        86985546.020348549        954095449.25291765     
   4358389652.4830503        60417411.867241144        935938092.48160374     
   4229115895.5045815        37644794.126327276        923914547.63354361     
   4271410370.4002304        209181707.47572994        1123903676.6300619     
   4148438784.1986117        144986515.07187223        1090516914.7740231     
   4029872237.1750150        95474786.594747782        1065403220.3606803     
   3915710729.3294344        60646522.044348717        1048562593.3900340     
   3805954260.6618743        40501721.420683384        1039995033.8620845     
   3769020086.2479067        260627710.91067314        1224416723.0756550     
   3661878794.2210970        168230140.66854501        1191878961.6114848     
   3562408925.6266694        101403981.86768901        1169753523.1094553     
   3470610480.4646196        60149234.508095741        1158040407.5695660     
   3386483458.7349505        44465898.589774370        1156739614.9918168     
   5086511663.9373236        35252689.161813498        693745859.88002217     
   4935021629.9157639        8662279.9731898308        676556059.21730554     
   4786547041.0703745       -7876645.2948617935        666353095.64159799     
   4641087897.4011526       -14364086.642361164        663136969.15290153     
   4498644198.9081030       -10800044.069289207        666907679.75121522     
   4655968363.2630606        35895116.706702471        808498156.30618751     
   4523324149.2036743        15462177.085487843        795198889.42133987     
   4392889057.3549623        2392978.1665225029        787988615.52021074     
   4264663087.7169242       -3312480.0501985550        786867334.60280728     
   4138646240.2895584       -1654197.5646777153        791835046.66912282     
   4229115895.5045815        37644794.126327276        923914547.63354361     
   4112752232.5408249        22599743.412557364        913565104.40015221     
   3997791368.8222489        12230690.182720184        908406810.04719532     
   3884233304.3488503        6537634.4368064404        908439664.57467020     
   3772078039.1206326        5520576.1748232841        913663667.98257446     
   3805954260.6618743        40501721.420683384        1039995033.8620845     
   3703305879.9272161        30074978.954401255        1031654704.1537427     
   3601253975.4722347        21636490.753722906        1027607679.2225412     
   3499798547.2969418        15186256.818664789        1027853959.0684869     
   3398939595.4013305        10724277.149211884        1032393543.6915724     
   3386483458.7349505        44465898.589774370        1156739614.9918168     
   3294985091.3628435        37887883.711012483        1149467688.6821103     
   3203276877.3049207        30610379.879541516        1145591223.0462558     
   3111358816.5611877        22633387.095367312        1145110218.0842590     
   3019230909.1316428        13956905.358481526        1148024673.7961144     
   4498644198.9081030       -10800044.069289207        666907679.75121522     
   4361996375.3196831       -2333582.8911001682        664099572.96497416     
   4224419033.6762438        3034484.7703359127        664554103.68025780     
   4085912173.9777756        5304158.9150245190        668271271.89706600     
   3946475796.2242775        4475439.5429441929        675251077.61539590     
   4138646240.2895584       -1654197.5646777153        791835046.66912282     
   4009686181.7237477        1814081.8835582733        786203143.94111061     
   3880292579.1698432        3837214.7048110962        784375695.66664636     
   3750465432.6278448        4415200.8990855217        786352701.84573019     
   3620204742.0977554        3548040.4663848877        792134162.47836185     
   3772078039.1206326        5520576.1748232841        913663667.98257446     
   3652353794.0117850        4455088.4234066010        905786605.72421098     
   3532691978.9817791        3597700.9347906113        902255814.87141979     
   3413092594.0306139        2948413.7089679241        903071295.42420208     
   3293555639.1582813        2507226.7459366322        908233047.38255560     
   3398939595.4013305        10724277.149211884        1032393543.6915724     
   3289999212.1838074        5589436.7284524441        1022849958.3142781     
   3181617233.1120548        2315943.4602719545        1018194461.2945793     
   3073793658.1860723        903797.34465038776        1018427052.6324830     
   2966528487.4058647        1352998.3816059828        1023547732.3279825     
   3019230909.1316428        13956905.358481526        1148024673.7961144     
   2922622436.2398009        5217126.7986896038        1137393201.7113068     
   2827068341.5606656       -8057.7187498807907        1132191634.9361272     
   2732568625.0942316       -1718648.1938486099        1132419973.4705660     
   2639123286.8405013        85355.373394727707        1138078217.3146350     
   3946475796.2242775        4475439.5429441929        675251077.61539590     
   3797477430.6045251       -104017.27461123466        667787772.31188071     
   3648826951.5547791       -3523852.1921494007        664920503.76751578     
   3500524359.0750432       -5784065.2096486092        666649271.98231554     
   3352569653.1653175       -6884656.3271157742        672974076.95627010     
   3620204742.0977554        3548040.4663848877        792134162.47836185     
   3483486653.4398980        435062.56221270561        784833620.61366963     
   3346998637.5394959       -1911006.1504495144        782044990.67281020     
   3210740694.3965521       -3490165.6715868711        783768272.65577984     
   3074712824.0110555       -4302416.0012222528        790003466.56257617     
   3293555639.1582813        2507226.7459366322        908233047.38255560     
   3168877470.7899628        788620.75344681740        900957819.50871336     
   3044311561.3665428       -555788.75604796410        898110378.72336888     
   2919857910.8880224       -1526001.7825431824        899690725.02652907     
   2795516519.3544011       -2122018.3260397911        905698858.41819155     
   2966528487.4058647        1352998.3816059828        1023547732.3279825     
   2853649882.6547155        956657.29908454418        1016160368.9970019     
   2740765723.0359178        541799.99104928970        1013116667.9191954     
   2627876008.5494595        108426.45749616623        1014416629.0945669     
   2514980739.1953487       -343463.30158162117        1020060252.5231096     
   2639123286.8405013        85355.373394727707        1138078217.3146350     
   2537803889.0341659        939172.19913625717        1130441269.0785398     
   2436361122.5476189        1381760.0908449888        1127063858.2602887     
   2334794987.3808632        1413119.0485198498        1127945984.8598878     
   2233105483.5338945        1033249.0721559525        1133087648.8773370     
   3352569653.1653175       -6884656.3271157742        672974076.95627010     
   3227945245.1470513       -579283.57566797733        668115522.96444476     
   3103241219.4608393        5460696.9493070841        667341431.90749681     
   2978457576.1066923        11235285.247820377        670651803.78542626     
   2853594315.0846095        16744481.319891095        678046638.59822607     
   3074712824.0110555       -4302416.0012222528        790003466.56257617     
   2960445427.3948607        1805431.7021721601        784567990.00755727     
   2846206390.4842129        8007811.7574051619        783060565.06879866     
   2731995713.2791224        14304724.164489150        785481191.74630606     
   2617813395.7795868        20696168.923422575        791829870.04009330     
   2795516519.3544011       -2122018.3260397911        905698858.41819155     
   2691159244.6585321        3654237.4847716093        899812432.90237403     
   2586938307.0417128        9884950.2257351875        897697647.68421924     
   2482853706.5039406        16570119.896857858        899354502.76372480     
   2378905443.0452113        23709746.498131156        904782998.14088690     
   2514980739.1953487       -343463.30158162117        1020060252.5231096     
   2420086696.9380765        4967133.7721326351        1013848851.6489092     
   2325436969.1333442        11092112.354307652        1011252679.7537581     
   2231031555.7811470        18031472.444934607        1012271736.8376600     
   2136870456.8814945        25785214.044045925        1016906022.9006186     
   2233105483.5338945        1033249.0721559525        1133087648.8773370     
   2147227784.2334836        5744120.5642557144        1126677246.2471564     
   2061702376.7591045        11629298.143123031        1123725661.2774208     
   1976529261.1107550        18688781.808752894        1124232893.9681292     
   1891708437.2884345        26922571.561150908        1128198944.3192832     
   2853594315.0846095        16744481.319891095        678046638.59822607     
   2692013636.2337594        11827604.143901587        667733766.56195223     
   2530901026.9852858        8470958.9758378267        660783263.61953712     
   2370256487.3392029        6674545.8157339096        657195129.77097762     
   2210080017.2954917        6438364.6635384560        656969365.01630139     
   2617813395.7795868        20696168.923422575        791829870.04009330     
   2465681298.4453697        16282577.041783690        781115700.51032901     
   2313903191.2802286        13048952.390379071        774191158.75464571     
   2162479074.2841544        10995294.969202042        771056244.77305269     
   2011408947.4571440        10121604.778251171        771710958.56553614     
   2378905443.0452113        23709746.498131156        904782998.14088690     
   2237442666.3139768        20165661.636762857        893534438.44544518     
   2096219800.3184988        17421279.227909446        886502765.20430636     
   1955236845.0587783        15476599.271572471        883687978.41746473     
   1814493800.5348051        14331621.767752886        885090078.08492053     
   2136870456.8814945        25785214.044045925        1016906022.9006186     
   2007297739.8395810        23476857.928838968        1004989980.3672913     
   1877850854.1001070        21587939.488448977        997718082.96848452     
   1748529799.6630747        20118458.722851038        995090330.70420420     
   1619334576.5284820        19068415.632062972        997106723.57444251     
   1891708437.2884345        26922571.561150908        1128198944.3192832     
   1775246519.0221806        26216165.918026805        1115482326.2758808     
   1658796352.6250501        25548933.171977460        1107837112.0472105     
   1542357938.0970452        24920873.323024035        1105263301.6332893     
   1425931275.4381785        24331986.371185482        1107760895.0340993     
   3768295590.3519716        1130488677.1055915        800568702.08264720     
   3779147812.3188820        1008698833.4185379        884845458.22651565     
   3790608024.8955679        888935625.09739995        974056687.30497229     
   3802676228.0820284        771199052.14217830        1068202389.3180170     
   3815352421.8782640        655489114.55287170        1167282564.2656488     
   3207841802.4155364        962352540.72466087        756699093.71478367     
   3235898695.6138740        868196811.32424843        853055264.52042210     
   3263679678.9997005        773121382.54879999        951334221.58026850     
   3291184752.5730166        677126254.39831686        1051535964.8943217     
   3318413916.3338218        580211426.87279701        1153660494.4625833     
   2685649569.3464055        805694870.80392158        721988445.04859138     
   2722306314.6893682        736591809.96410966        829392813.35666740     
   2757803249.7975340        663622715.00831056        935708281.23857021     
   2792140374.6709046        586787585.93652487        1040934848.6943007     
   2825317689.3094788        506086422.74875200        1145072515.7238572     
   2201718891.1445785        660515667.34337354        696436756.08407080     
   2238370669.5453653        613883829.33812177        813858104.73525107     
   2272978737.2890692        560439622.47593153        927178866.27987790     
   2305543094.3756933        500183046.75680345        1036399040.7179512     
   2336063740.8052344        433114102.18073654        1141518628.0494702     
   1756049767.8100562        526814930.34301686        680044026.82122159     
   1784091760.1818647        500072869.44628465        806451138.65617323     
   1809206141.4743061        463572104.95166302        925745976.70419109     
   1831392911.6873806        417312636.85915124        1037928540.9652745     
   1850652070.8210883        361294465.16875064        1142998831.4394238     
   3815352421.8782640        655489114.55287170        1167282564.2656488     
   3797995924.2870007        537529051.36341035        1188945736.0268285     
   3784488369.1515203        432398796.35988963        1205689153.0822229     
   3774829756.4718213        340098349.54231167        1217512815.4318314     
   3769020086.2479067        260627710.91067314        1224416723.0756550     
   3318413916.3338218        580211426.87279701        1153660494.4625833     
   3293834629.9794679        472996485.09740937        1181992880.5414333     
   3272987794.6143360        378223046.61942971        1207209386.5665958     
   3255873410.2384257        295891111.43885744        1229310012.5380726     
   3242491476.8517389        226000679.55569267        1248294758.4558625     
   2825317689.3094788        506086422.74875200        1145072515.7238572     
   2798669541.7694583        411162780.66066486        1179938209.4093904     
   2775637353.7520990        328292336.98145139        1213491897.6933355     
   2756221125.2574024        257475091.71111381        1245733580.5756934     
   2740420856.2853680        198711044.84965014        1276663258.0564628     
   2336063740.8052344        433114102.18073654        1141518628.0494702     
   2312500659.6569719        352027938.05317718        1182781722.6307003     
   2292437046.5648122        282606667.44595915        1224536686.4624417     
   2275872901.5287538        224850290.35908306        1266783519.5446942     
   2262808224.5487995        178758806.79254854        1309522221.8774562     
   1850652070.8210883        361294465.16875064        1142998831.4394238     
   1835327983.6420102        295591957.27494770        1190523420.2053640     
   1823386873.0524735        241166038.01295197        1240343752.8739135     
   1814828739.0524802        198016707.38276571        1292459829.4450738     
   1809653581.6420293        166143965.38438720        1346871649.9188435     
   3769020086.2479067        260627710.91067314        1224416723.0756550     
   3661878794.2210970        168230140.66854501        1191878961.6114848     
   3562408925.6266694        101403981.86768901        1169753523.1094553     
   3470610480.4646196        60149234.508095741        1158040407.5695660     
   3386483458.7349505        44465898.589774370        1156739614.9918168     
   3242491476.8517389        226000679.55569267        1248294758.4558625     
   3164729110.6504078        151661472.07188344        1231136077.5996699     
   3093035625.9282618        97551869.518687963        1221996933.0105557     
   3027411022.6852999        63671871.896106362        1220877324.6885180     
   2967855300.9215221        50021479.204136014        1227777252.6335611     
   2740420856.2853680        198711044.84965014        1276663258.0564628     
   2685200882.4950547        140379240.09982169        1273014025.5295179     
   2634447248.2307281        96935233.769951463        1274991542.5745912     
   2588159953.4923897        68379025.860037923        1282595809.1916792     
   2546338998.2800393        54710616.370084763        1295826825.3807831     
   2262808224.5487995        178758806.79254854        1309522221.8774562     
   2223294109.7550373        134383444.75235844        1317512805.4010313     
   2186643792.5340686        99554074.621477008        1328737351.8015616     
   2152857272.8858891        74270696.399894476        1343195861.0790451     
   2121934550.8105001        58533310.087615848        1360888333.2334797     
   1809653581.6420293        166143965.38438720        1346871649.9188435     
   1779008792.4303570        133674086.02950203        1364632417.2142086     
   1749625258.8382790        105408392.07326144        1383234360.6914666     
   1721502980.8657961        81346883.515672326        1402677480.3506148     
   1694641958.5129066        61489560.356730580        1422961776.1916542     
   3386483458.7349505        44465898.589774370        1156739614.9918168     
   3294985091.3628435        37887883.711012483        1149467688.6821103     
   3203276877.3049207        30610379.879541516        1145591223.0462558     
   3111358816.5611877        22633387.095367312        1145110218.0842590     
   3019230909.1316428        13956905.358481526        1148024673.7961144     
   2967855300.9215221        50021479.204136014        1227777252.6335611     
   2884532249.4762931        38895232.148034096        1219818781.2692082     
   2801505818.4465814        28757719.810335994        1215803145.8310621     
   2718776007.8323894        19608942.191033721        1215730346.3191273     
   2636342817.6337209        11448899.290137410        1219600382.7333944     
   2546338998.2800393        54710616.370084763        1295826825.3807831     
   2472755192.0541224        39505315.924370170        1287772687.2466719     
   2399974473.3450603        26976973.868167162        1284208760.2911236     
   2327996842.1528521        17125590.201478958        1285135044.5141346     
   2256822298.4774971        9951164.9243018627        1290551539.9157064     
   2121934550.8105001        58533310.087615848        1360888333.2334797     
   2059653919.0963368        39718135.040018797        1353329406.6145010     
   1998682842.0003605        25268142.053048134        1350808066.4264369     
   1939021319.5225708        15183331.126698136        1353324312.6692863     
   1880669351.6629696        9463702.2609765530        1360878145.3430493     
   1694641958.5129066        61489560.356730580        1422961776.1916542     
   1645228430.6029344        39533689.494985759        1416488939.3726947     
   1597630924.4124827        23631224.364978373        1415601064.2370050     
   1551849439.9415495        13782164.966702163        1420298150.7845802     
   1507883977.1901381        9986511.3001599908        1430580199.0154231     
   3019230909.1316428        13956905.358481526        1148024673.7961144     
   2922622436.2398009        5217126.7986896038        1137393201.7113068     
   2827068341.5606656       -8057.7187498807907        1132191634.9361272     
   2732568625.0942316       -1718648.1938486099        1132419973.4705660     
   2639123286.8405013        85355.373394727707        1138078217.3146350     
   2636342817.6337209        11448899.290137410        1219600382.7333944     
   2554020694.0919881        4998729.7052783966        1211035073.3389304     
   2472507369.9054718        1244557.9711501598        1207500986.8330159     
   2391802845.0741720        186384.08774602413        1208998123.2156553     
   2311907119.5980949        1824208.0550774336        1215526482.4868388     
   2256822298.4774971        9951164.9243018627        1290551539.9157064     
   2187647431.6542225        5448876.5248756409        1283765884.5445209     
   2119035785.3286824        2823989.7845671177        1281612769.6408107     
   2050987359.5008793        2076504.7033722401        1284092195.2045743     
   1983502154.1708069        3206421.2812925577        1291204161.2358096     
   1880669351.6629696        9463702.2609765530        1360878145.3430493     
   1823502648.9265113        6567567.2574903965        1355585635.3280780     
   1766653587.8303041        4730237.7215112448        1354526983.3595035     
   1710122168.3743432        3951713.6530195475        1357702189.4373317     
   1653908390.5586374        4231995.0520430803        1365111253.5615554     
   1507883977.1901381        9986511.3001599908        1430580199.0154231     
   1461586345.9088516        8354801.9031246305        1426494325.6896012     
   1415360777.4103303        6963301.7819730639        1426243627.9891005     
   1369207271.6945746        5812010.9367088079        1429828105.9139233     
   1323125828.7615869        4900929.3673326373        1437247759.4640703     
   2639123286.8405013        85355.373394727707        1138078217.3146350     
   2537803889.0341659        939172.19913625717        1130441269.0785398     
   2436361122.5476189        1381760.0908449888        1127063858.2602887     
   2334794987.3808632        1413119.0485198498        1127945984.8598878     
   2233105483.5338945        1033249.0721559525        1133087648.8773370     
   2311907119.5980949        1824208.0550774336        1215526482.4868388     
   2221648647.9248877        1572510.3004906178        1207520876.8748698     
   2131385312.3715534        1304599.6121563911        1204019257.3121469     
   2041117112.9380910        1020475.9900565147        1205021623.7986739     
   1950844049.6245074        720139.43422365189        1210527976.3344510     
   1983502154.1708069        3206421.2812925577        1291204161.2358096     
   1905003033.2918665        2058736.3447195292        1282968153.8480701     
   1826617553.3328893        1289854.4746778011        1279480581.1409760     
   1748345714.2938688        899775.67117154598        1280741443.1145303     
   1670187516.1748102        888499.93419659138        1286750739.7687345     
   1653908390.5586374        4231995.0520430803        1365111253.5615554     
   1587867045.1351087        2397850.3318220377        1356783099.9981415     
   1522057845.4316268        1337524.6784284711        1353447829.7467747     
   1456480791.4481871        1051018.0918385983        1355105442.8074546     
   1391135883.1847939        1538330.5720712543        1361755939.1801839     
   1323125828.7615869        4900929.3673326373        1437247759.4640703     
   1270240683.4546130        2589852.2618166208        1428965715.3250790     
   1217706188.6677659        1447610.2233918905        1425921003.1295409     
   1165522344.4010532        1474203.2520781755        1428113622.8774459     
   1113689150.6544673        2669631.3478595614        1435543574.5688021     
   2233105483.5338945        1033249.0721559525        1133087648.8773370     
   2147227784.2334836        5744120.5642557144        1126677246.2471564     
   2061702376.7591045        11629298.143123031        1123725661.2774208     
   1976529261.1107550        18688781.808752894        1124232893.9681292     
   1891708437.2884345        26922571.561150908        1128198944.3192832     
   1950844049.6245074        720139.43422365189        1210527976.3344510     
   1874167177.7477429        4890332.7020015717        1205180620.9885073     
   1797753415.2846689        9937557.3487572670        1203576779.4366870     
   1721602762.2352889        15861813.374489188        1205716451.6789963     
   1645715218.5996037        22663100.779201984        1211599637.7154264     
   1670187516.1748102        888499.93419659138        1286750739.7687345     
   1603524889.2464905        4762040.2351024151        1282362385.5592973     
   1537036189.3195271        9215337.2071927190        1282002241.2776697     
   1470721416.3939188        14248390.850464404        1285670306.9238436     
   1404580570.4696655        19861201.164923966        1293366582.4978249     
   1391135883.1847939        1538330.5720712543        1361755939.1801839     
   1335300918.7297261        5359243.1635455489        1358222539.9595292     
   1279550698.8636749        9462637.7184117436        1359002046.8003619     
   1223885223.5866399        13848514.236665249        1364094459.7026782     
   1168304492.8986232        18516872.718309879        1373499778.6664834     
   1113689150.6544673        2669631.3478595614        1435543574.5688021     
   1069495266.1974500        6681941.4873367548        1432761084.1891999     
   1025296943.9171112        10679458.882411480        1434576196.0047641     
   981094183.81345308        14662183.533087194        1440988910.0155015     
   936886985.88647842        18630115.439374983        1451999226.2214031     
   1891708437.2884345        26922571.561150908        1128198944.3192832     
   1775246519.0221806        26216165.918026805        1115482326.2758808     
   1658796352.6250501        25548933.171977460        1107837112.0472105     
   1542357938.0970452        24920873.323024035        1105263301.6332893     
   1425931275.4381785        24331986.371185482        1107760895.0340993     
   1645715218.5996037        22663100.779201984        1211599637.7154264     
   1542512418.2041411        21828648.180389702        1200694863.0039165     
   1439414972.3671315        21345377.443084419        1194947555.2142124     
   1336422881.0885756        21213288.567288160        1194357714.3462994     
   1233536144.3684640        21432381.552982867        1198925340.4001870     
   1404580570.4696655        19861201.164923966        1293366582.4978249     
   1314882782.5366011        18972469.987919152        1284382854.2557590     
   1225383951.8513103        18746929.636819839        1280642656.0425467     
   1136084078.4137866        19184580.111634672        1282145987.8581986     
   1046983162.2240506        20285421.412370503        1288892849.7027035     
   1168304492.8986232        18516872.718309879        1373499778.6664834     
   1092357612.0195508        17647631.340583742        1366546300.0314009     
   1016703291.0775737        17753589.753177702        1364922414.5322394     
   941341530.07269478        18834747.956091166        1368628122.1689968     
   866272329.00491238        20891105.949340731        1377663422.9416652     
   936886985.88647842        18630115.439374983        1451999226.2214031     
   874936906.65299869        17854132.238411069        1447185200.3308494     
   813372990.04593575        18365357.792164326        1447786830.6832740     
   752195236.06529689        20163792.100665659        1453804117.2786708     
   691403644.71107757        23249435.163902014        1465237060.1170545     
   1756049767.8100562        526814930.34301686        680044026.82122159     
   1784091760.1818647        500072869.44628465        806451138.65617323     
   1809206141.4743061        463572104.95166302        925745976.70419109     
   1831392911.6873806        417312636.85915124        1037928540.9652745     
   1850652070.8210883        361294465.16875064        1142998831.4394238     
   1326392897.8929746        397917869.36789232        669707433.58656847     
   1339614700.5362191        375518416.20835710        791854106.32391012     
   1350640794.8694332        345799935.34871882        908710766.65609145     
   1359471180.8926160        308762426.78897750        1020277414.5831124     
   1366105858.6057680        264405890.52913299        1126554050.1049728     
   890498979.94346964        267149693.98304090        662324152.70663571     
   894107053.94893277        250654786.88793725        781064272.91059256     
   896251322.41370046        229280527.99051690        896336642.09116292     
   896931785.33777380        203026917.29078013        1008141260.2483464     
   896148442.72115159        171893954.78872651        1116478127.3821435     
   448368013.96154195        134510404.18846259        657894184.18142343     
   447568820.42000490        125481981.48502490        774081638.41622102     
   446037724.10710901        114013882.87705724        888623603.00940573     
   443774725.02285391        100106108.36455935        1001520077.9609771     
   440779823.16723990        83758657.947531551        1112771063.2709355     
  -5.2808718936220723E-002  -1.5842615680866218E-002   656417528.01093161     
  -5.0563805660801001E-002  -3.7966996762623176E-004   770906202.84079516     
  -5.0342007920370635E-002   8.3396873999099508E-003   885571649.41081905     
  -5.2143141281417185E-002   1.0315876043726017E-002   1000413867.7210038     
  -5.5967678980317508E-002   5.5475570337104943E-003   1115432857.7713492     
   1850652070.8210883        361294465.16875064        1142998831.4394238     
   1835327983.6420102        295591957.27494770        1190523420.2053640     
   1823386873.0524735        241166038.01295197        1240343752.8739135     
   1814828739.0524802        198016707.38276571        1292459829.4450738     
   1809653581.6420293        166143965.38438720        1346871649.9188435     
   1366105858.6057680        264405890.52913299        1126554050.1049728     
   1360436090.2897329        216875998.72850952        1181958788.1971598     
   1357303554.4164605        177803548.40376198        1238300500.8752663     
   1356708250.9859512        147188539.55489075        1295579188.1392937     
   1358650179.9982047        125030972.18189645        1353794849.9892416     
   896148442.72115159        171893954.78872651        1116478127.3821435     
   896250795.22047579        141372019.66697735        1178776313.2960005     
   898044636.01578355        116488378.86517343        1240652704.4790881     
   901529965.10707402        97243032.383312225        1302107300.9314075     
   906706782.49434853        83635980.221397042        1363140102.6529572     
   440779823.16723990        83758657.947531551        1112771063.2709355     
   442772098.43423897        69080020.090351239        1180975995.5018868     
   445610117.85044229        57220529.397184715        1247400363.6853793     
   449293881.41584903        48180185.868029326        1312044167.8214135     
   453823389.13045955        41958989.502886921        1374907407.9099894     
  -5.5967678980317508E-002   5.5475570337104943E-003   1115432857.7713492     
  -6.8977630384049582E-002  -1.3685910234765633E-003   1188557834.8148181     
  -7.9562638528767160E-002  -2.0181172438311218E-004   1258543478.4941394     
  -8.7724917331477817E-002   9.0409272044577396E-003   1325389788.8093126     
  -9.3461868281260491E-002   2.6367918837377644E-002   1389096765.7603378     
   1809653581.6420293        166143965.38438720        1346871649.9188435     
   1779008792.4303570        133674086.02950203        1364632417.2142086     
   1749625258.8382790        105408392.07326144        1383234360.6914666     
   1721502980.8657961        81346883.515672326        1402677480.3506148     
   1694641958.5129066        61489560.356730580        1422961776.1916542     
   1358650179.9982047        125030972.18189645        1353794849.9892416     
   1333162001.5981932        99927186.719526649        1372806352.2682719     
   1308619764.9099057        77976540.296235383        1393243434.2453365     
   1285023469.9333420        59179032.912022769        1415106095.9204381     
   1262373116.6685007        43534664.566887379        1438394337.2935765     
   906706782.49434853        83635980.221397042        1363140102.6529572     
   888044939.23784161        66399205.951097995        1383034473.6898003     
   870013723.78518677        51264524.360306323        1404938827.9408247     
   852613136.13638437        38231935.449022889        1428853165.4060304     
   835843176.29143536        27301439.217248887        1454777486.0854187     
   453823389.13045955        41958989.502886921        1374907407.9099894     
   443657605.34929961        33090143.724211082        1395316781.4787970     
   433807135.46412140        25272344.265473843        1418320541.7779298     
   424271979.47492433        18505591.126672819        1443918688.8073905     
   415052137.38170874        12789884.307812378        1472111222.5671780     
  -9.3461868281260491E-002   2.6367918837377644E-002   1389096765.7603378     
  -6.7431557132940495E-002   3.8867426905158778E-002   1409653275.6352601     
  -5.3290773808430739E-002   1.1735175560239015E-002   1433388575.7566538     
  -5.1039358179410403E-002  -5.5028474908659711E-002   1460302666.1245196     
  -6.0677516125149156E-002 -0.16142369034872686        1490395546.7388563     
   1694641958.5129066        61489560.356730580        1422961776.1916542     
   1645228430.6029344        39533689.494985759        1416488939.3726947     
   1597630924.4124827        23631224.364978373        1415601064.2370050     
   1551849439.9415495        13782164.966702163        1420298150.7845802     
   1507883977.1901381        9986511.3001599908        1430580199.0154231     
   1262373116.6685007        43534664.566887379        1438394337.2935765     
   1228456549.3398657        28010834.979813814        1435417220.6592641     
   1195901998.3064508        17027059.710138977        1437291564.0331731     
   1164709463.5682585        10583338.757871628        1444017367.4153059     
   1134878945.1252847        8679672.1230006218        1455594630.8056598     
   835843176.29143536        27301439.217248887        1454777486.0854187     
   815327850.47258174        17580935.183376282        1454766416.6407337     
   795720535.52464890        10887134.052573472        1458873305.5292282     
   777021231.44763732        7220035.8248411119        1467098152.7509010     
   759229938.24154711        6579640.5001784861        1479440958.3057513     
   415052137.38170874        12789884.307812378        1472111222.5671780     
   405842334.00108117        8243990.1056742519        1474536527.3171060     
   397086536.06707484        5211447.3922738284        1480346288.7251685     
   388784743.57969111        3692256.1676152050        1489540506.7913651     
   380936956.53892720        3686416.4316895753        1502119181.5156946     
  -6.0677516125149156E-002 -0.16142369034872686        1490395546.7388563     
  -7.4634575076947152E-002 -0.25329150407130646        1494727552.6883821     
  -6.6270866999191144E-002 -0.27075641408401085        1501710513.6209962     
  -3.5584836359621348E-002 -0.21381358222400265        1511344429.5367007     
   1.7423150834171695E-002  -8.2464575461278791E-002   1523629300.4354939     
   1507883977.1901381        9986511.3001599908        1430580199.0154231     
   1461586345.9088516        8354801.9031246305        1426494325.6896012     
   1415360777.4103303        6963301.7819730639        1426243627.9891005     
   1369207271.6945746        5812010.9367088079        1429828105.9139233     
   1323125828.7615869        4900929.3673326373        1437247759.4640703     
   1134878945.1252847        8679672.1230006218        1455594630.8056598     
   1098935469.2018960        7089814.3735054731        1450799293.1676161     
   1063046040.3653773        5680113.5802406669        1450123856.7224300     
   1027210658.6157212        4450569.7431855798        1453568321.4701054     
   991429323.95293331        3401182.8623579144        1461132687.4106386     
   759229938.24154711        6579640.5001784861        1479440958.3057513     
   734454119.29759157        5275684.8846845925        1473915138.0436022     
   709714331.74460399        4091833.9057524502        1472793944.5418496     
   685010575.58258259        3028087.5633734763        1476077377.8004913     
   660342850.81153023        2084445.8575583100        1483765437.8195300     
   380936956.53892720        3686416.4316895753        1502119181.5156946     
   368142296.19593614        2912413.4366577566        1495841860.3175597     
   355365651.54801464        2198462.7585226893        1494253891.4473572     
   342607022.59516126        1544564.3972831964        1497355274.9050856     
   329866409.33737510        950718.35293310881        1505146010.6907496     
   1.7423150834171695E-002  -8.2464575461278791E-002   1523629300.4354939     
 -0.10307025379705662        2.9422320806821833E-002   1516579459.9894888     
 -0.22439115583953745       0.13855089237074730        1514503697.4389536     
 -0.34654581173552162       0.24489959053360480        1517402012.7838860     
 -0.46952945194859486       0.34848639541827936        1525274406.0242889     
   1323125828.7615869        4900929.3673326373        1437247759.4640703     
   1270240683.4546130        2589852.2618166208        1428965715.3250790     
   1217706188.6677659        1447610.2233918905        1425921003.1295409     
   1165522344.4010532        1474203.2520781755        1428113622.8774459     
   1113689150.6544673        2669631.3478595614        1435543574.5688021     
   991429323.95293331        3401182.8623579144        1461132687.4106386     
   952234509.63522887        1808588.4483255148        1453367388.2138755     
   913302683.19545674        1092620.2940672040        1450729977.2135277     
   874633844.63361323        1253278.3995737433        1453220454.4095943     
   836227993.94969988        2290562.7648447752        1460838819.8020835     
   660342850.81153023        2084445.8575583100        1483765437.8195300     
   634525671.06301165        1116525.2089913189        1476414610.4824219     
   608883816.55022275        733022.01285892725        1474082227.5947032     
   583417287.27316535        933936.26916366816        1476768289.1563733     
   558126083.23183787        1719267.9779016376        1484472795.1674249     
   329866409.33737510        950718.35293310881        1505146010.6907496     
   317114167.73795700        513662.54380746186        1498107382.1307330     
   304449588.73206717        368815.37977720797        1495977754.2730722     
   291872672.31970853        516176.86084920168        1498757127.1177692     
   279383418.50088042        955746.98702487350        1506445500.6648266     
 -0.46952945194859486       0.34848639541827936        1525274406.0242889     
 -0.33993604634482455       0.45276543503402922        1518445703.1587968     
 -0.25901163082452028       0.39481520159428291        1516416557.2486324     
 -0.22675541618381487       0.17463676452746907        1519186968.2937956     
 -0.24316775699256160      -0.20776914987009976        1526756936.2942848     
   1113689150.6544673        2669631.3478595614        1435543574.5688021     
   1069495266.1974500        6681941.4873367548        1432761084.1891999     
   1025296943.9171112        10679458.882411480        1434576196.0047641     
   981094183.81345308        14662183.533087194        1440988910.0155015     
   936886985.88647842        18630115.439374983        1451999226.2214031     
   836227993.94969988        2290562.7648447752        1460838819.8020835     
   803580688.85612321        5449227.6629239619        1457769422.6091459     
   770930055.34990954        8596797.8522148728        1459181402.4024661     
   738276093.43107009        11733273.332750171        1465074759.1820533     
   705618803.09959280        14858654.104496449        1475449492.9479027     
   558126083.23183787        1719267.9779016376        1484472795.1674249     
   536693285.47626024        3924666.0269362032        1481117785.4736145     
   515258268.71874017        6122667.4028308392        1482127927.5571647     
   493821032.95927525        8313272.1055760682        1487503221.4180772     
   472381578.19786781        10496480.135177851        1497243667.0563469     
   279383418.50088042        955746.98702487350        1506445500.6648266     
   268833056.05786639        2108256.5793913007        1502806172.7826159     
   258281584.02360049        3257067.5342525840        1503415771.4688587     
   247729002.39807382        4402179.8515767902        1508274296.7235615     
   237175311.18129557        5543593.5313958824        1517381748.5467246     
 -0.24316775699256160      -0.20776914987009976        1526756936.2942848     
  0.60094429432666630      -0.67970212791479412        1522834584.5361438     
   1.2644900694290817       -1.7535226933488630        1523044934.1375551     
   1.7474694310618384       -3.4292323445158801        1527387985.0985224     
   2.0498822419720897       -5.7068284164230780        1535863737.4190431     
   936886985.88647842        18630115.439374983        1451999226.2214031     
   874936906.65299869        17854132.238411069        1447185200.3308494     
   813372990.04593575        18365357.792164326        1447786830.6832740     
   752195236.06529689        20163792.100665659        1453804117.2786708     
   691403644.71107757        23249435.163902014        1465237060.1170545     
   705618803.09959280        14858654.104496449        1475449492.9479027     
   658044747.97236001        13943218.210487038        1470470184.8291845     
   610760315.39377022        13993190.811958879        1471165881.9399126     
   563765505.36383688        15008571.908945978        1477536584.2800982     
   517060317.88254392        16989361.501409054        1489582291.8497336     
   472381578.19786781        10496480.135177851        1497243667.0563469     
   439924544.28109294        9663890.6793843806        1491986446.6187248     
   407660592.83519256        9474909.4598402530        1492663580.3970268     
   375589723.86016989        9929536.4765542746        1499275068.3912594     
   343711937.35602152        11027771.729519516        1511820910.6014190     
   237175311.18129557        5543593.5313958824        1517381748.5467246     
   220576295.57919440        5016149.6450939476        1511733985.6994660     
   204073822.37019485        4810513.7357937247        1512279926.0546100     
   187667891.55429673        4926685.8034990355        1519019569.6121516     
   171358503.13150650        5364665.8482354879        1531952916.3720996     
   2.0498822419720897       -5.7068284164230780        1535863737.4190431     
   1.8666641492599485       -4.8923926265520805        1529712802.0714154     
   3.9987782316166847        3.6398156924363980        1530014918.9126577     
   8.4462241687856583        19.889795819964913        1536770087.9427831     
   15.209000542487455        43.857547538716460        1549978309.1617806     
  -5.2808718936220723E-002  -1.5842615680866218E-002   656417528.01093161     
  -5.0563805660801001E-002  -3.7966996762623176E-004   770906202.84079516     
  -5.0342007920370635E-002   8.3396873999099508E-003   885571649.41081905     
  -5.2143141281417185E-002   1.0315876043726017E-002   1000413867.7210038     
  -5.5967678980317508E-002   5.5475570337104943E-003   1115432857.7713492     
  -448368014.06525534       -134510404.21957660        657894184.19414341     
  -447568820.52059758       -125481981.48938158        774081638.42609596     
  -446037724.20761853       -114013882.86478265        888623603.01634443     
  -443774725.12631834       -100106108.34577957        1001520077.9648883     
  -440779823.27669716       -83758657.932373121        1112771063.2717288     
  -890498980.04147136       -267149694.01244140        662324152.73004222     
  -894107054.04544258       -250654786.89482680        781064272.92948544     
  -896251322.51074827       -229280527.98166075        896336642.10535967     
  -896931785.43738878       -203026917.27294317        1008141260.2576650     
  -896148442.82536364       -171893954.76867437        1116478127.3864017     
  -1326392897.9814560       -397917869.39443684        669707433.61862803     
  -1339614700.6250985       -375518416.21671540        791854106.35096371     
  -1350640794.9597311       -345799935.34229481        908710766.67786527     
  -1359471180.9853542       -308762426.77117550        1020277414.5993336     
  -1366105858.7019672       -264405890.50335708        1126554050.1153684     
  -1756049767.8852103       -526814930.36556309        680044026.85990083     
  -1784091760.2595658       -500072869.45504725        806451138.69053018     
  -1809206141.5545671       -463572104.94668484        925745976.73386109     
  -1831392911.7702143       -417312636.84047598        1037928540.9898943     
  -1850652070.9065077       -361294465.13642085        1142998831.4586287     
  -5.5967678980317508E-002   5.5475570337104943E-003   1115432857.7713492     
  -6.8977630384049582E-002  -1.3685910234765633E-003   1188557834.8148181     
  -7.9562638528767160E-002  -2.0181172438311218E-004   1258543478.4941394     
  -8.7724917331477817E-002   9.0409272044577396E-003   1325389788.8093126     
  -9.3461868281260491E-002   2.6367918837377644E-002   1389096765.7603378     
  -440779823.27669716       -83758657.932373121        1112771063.2717288     
  -442772098.56799746       -69080020.084262192        1180975995.5083771     
  -445610118.00543416       -57220529.389938563        1247400363.6977899     
  -449293881.58900779       -48180185.849404022        1312044167.8399673     
  -453823389.31871676       -41958989.462655604        1374907407.9349093     
  -896148442.82536364       -171893954.76867437        1116478127.3864017     
  -896250795.34663439       -141372019.65104172        1178776313.3095763     
  -898044636.16260135       -116488378.84906396        1240652704.5024271     
  -901529965.27326548       -97243032.362742275        1302107300.9649544     
  -906706782.67862582       -83635980.192074567        1363140102.6971579     
  -1366105858.7019672       -264405890.50335708        1126554050.1153684     
  -1360436090.4048870       -216875998.70170578        1181958788.2184143     
  -1357303554.5510635       -177803548.37757689        1238300500.9080498     
  -1356708251.1404979       -147188539.53097200        1295579188.1842737     
  -1358650180.1731880       -125030972.16189033        1353794850.0470860     
  -1850652070.9065077       -361294465.13642085        1142998831.4586287     
  -1835327983.7427566       -295591957.23625493        1190523420.2348928     
  -1823386873.1708219       -241166037.97548032        1240343752.9146585     
  -1814828739.1907048       -198016707.35409623        1292459829.4979253     
  -1809653581.8024039       -166143965.37210089        1346871649.9846933     
  -9.3461868281260491E-002   2.6367918837377644E-002   1389096765.7603378     
  -6.7431557132940495E-002   3.8867426905158778E-002   1409653275.6352601     
  -5.3290773808430739E-002   1.1735175560239015E-002   1433388575.7566538     
  -5.1039358179410403E-002  -5.5028474908659711E-002   1460302666.1245196     
  -6.0677516125149156E-002 -0.16142369034872686        1490395546.7388563     
  -453823389.31871676       -41958989.462655604        1374907407.9349093     
  -443657605.48943567       -33090143.665807769        1395316781.4805725     
  -433807135.57397401       -25272344.248356536        1418320541.7551081     
  -424271979.57232964       -18505591.210297704        1443918688.7585151     
  -415052137.48450404       -12789884.551635176        1472111222.4907937     
  -906706782.67862582       -83635980.192074567        1363140102.6971579     
  -888044939.38209426       -66399205.911680162        1383034473.6946464     
  -870013723.90130997       -51264524.350442410        1404938827.9034069     
  -852613136.23627341       -38231935.508363843        1428853165.3234394     
  -835843176.38698363       -27301439.385441780        1454777485.9547424     
  -1358650180.1731880       -125030972.16189033        1353794850.0470860     
  -1333162001.7454057       -99927186.698747933        1372806352.2774823     
  -1308619765.0352998       -77976540.294526458        1393243434.2015498     
  -1285023470.0428700       -59179032.949224532        1415106095.8192894     
  -1262373116.7681162       -43534664.662844598        1438394337.1307001     
  -1809653581.8024039       -166143965.37210089        1346871649.9846933     
  -1779008792.5793717       -133674086.02701187        1364632417.2290797     
  -1749625258.9759421       -105408392.08060360        1383234360.6495373     
  -1721502980.9921196       -81346883.532883227        1402677480.2460682     
  -1694641958.6279016       -61489560.383844197        1422961776.0186691     
  -6.0677516125149156E-002 -0.16142369034872686        1490395546.7388563     
  -7.4634575076947152E-002 -0.25329150407130646        1494727552.6883821     
  -6.6270866999191144E-002 -0.27075641408401085        1501710513.6209962     
  -3.5584836359621348E-002 -0.21381358222400265        1511344429.5367007     
   1.7423150834171695E-002  -8.2464575461278791E-002   1523629300.4354939     
  -415052137.48450404       -12789884.551635176        1472111222.4907937     
  -405842334.12215459       -8243990.4873687625        1474536527.2816982     
  -397086536.17131889       -5211447.7948142439        1480346288.7275643     
  -388784743.63199806       -3692256.4739768654        1489540506.8283925     
  -380936956.50419277       -3686416.5248567909        1502119181.5841827     
  -835843176.38698363       -27301439.385441780        1454777485.9547424     
  -815327850.58583379       -17580935.446292520        1454766416.5808840     
  -795720535.63003421       -10887134.324977249        1458873305.5338597     
  -777021231.51958394       -7220036.0214935839        1467098152.8136702     
  -759229938.25448477       -6579640.5358460248        1479440958.4203160     
  -1262373116.7681162       -43534664.662844598        1438394337.1307001     
  -1228456549.4656732       -28010835.130067408        1435417220.5859373     
  -1195901998.4424160       -17027059.861241817        1437291564.0398812     
  -1164709463.6983426       -10583338.856361270        1444017367.4925334     
  -1134878945.2334566       -8679672.1154421568        1455594630.9438918     
  -1694641958.6279016       -61489560.383844197        1422961776.0186691     
  -1645228430.7616706       -39533689.538686097        1416488939.2968600     
  -1597630924.6084607       -23631224.403597713        1415601064.2456303     
  -1551849440.1682720       -13782164.978580415        1420298150.8649814     
  -1507883977.4411066       -9986511.2636399865        1430580199.1549120     
   1.7423150834171695E-002  -8.2464575461278791E-002   1523629300.4354939     
 -0.10307025379705662        2.9422320806821833E-002   1516579459.9894888     
 -0.22439115583953745       0.13855089237074730        1514503697.4389536     
 -0.34654581173552162       0.24489959053360480        1517402012.7838860     
 -0.46952945194859486       0.34848639541827936        1525274406.0242889     
  -380936956.50419277       -3686416.5248567909        1502119181.5841827     
  -368142296.41073906       -2912413.3624526709        1495841860.3723819     
  -355365652.01110142       -2198462.5127677917        1494253891.4949524     
  -342607023.30527854       -1544563.9757987559        1497355274.9518919     
  -329866410.29327118       -950717.75154903531        1505146010.7432051     
  -759229938.25448477       -6579640.5358460248        1479440958.4203160     
  -734454119.55022538       -5275684.8038770556        1473915138.1342361     
  -709714332.23276484       -4091833.6945705712        1472793944.6214294     
  -685010576.30210376       -3028087.2079281509        1476077377.8818958     
  -660342851.75824296       -2084445.3439551592        1483765437.9156337     
  -1134878945.2334566       -8679672.1154421568        1455594630.9438918     
  -1098935469.5215263       -7089814.2948405147        1450799293.2750521     
  -1063046040.8893824       -5680113.4068604708        1450123856.8183885     
  -1027210659.3370194       -4450569.4514846206        1453568321.5738976     
  -991429324.86444294       -3401182.4287305474        1461132687.5415847     
  -1507883977.4411066       -9986511.2636399865        1430580199.1549120     
  -1461586346.3246450       -8354801.8353567123        1426494325.7948310     
  -1415360777.9809525       -6963301.6496349573        1426243628.0858264     
  -1369207272.4100266       -5812010.7064683437        1429828106.0278969     
  -1323125829.6118708       -4900929.0058710575        1437247759.6210446     
 -0.46952945194859486       0.34848639541827936        1525274406.0242889     
 -0.33993604634482455       0.45276543503402922        1518445703.1587968     
 -0.25901163082452028       0.39481520159428291        1516416557.2486324     
 -0.22675541618381487       0.17463676452746907        1519186968.2937956     
 -0.24316775699256160      -0.20776914987009976        1526756936.2942848     
  -329866410.29327118       -950717.75154903531        1505146010.7432051     
  -317114168.44698060       -513661.75664602220        1498107382.0780895     
  -304449589.28904569       -368814.72292923927        1495977754.1111164     
  -291872672.81947535       -516176.65042734146        1498757126.8422866     
  -279383419.03825760       -955747.53910034895        1506445500.2715971     
  -660342851.75824296       -2084445.3439551592        1483765437.9156337     
  -634525671.78721249       -1116524.5360153317        1476414610.3712611     
  -608883817.14423025       -733021.48823544383        1474082227.2678418     
  -583417287.82929468       -933936.20061126351        1476768288.6053813     
  -558126083.84240735       -1719268.6731495261        1484472794.3838773     
  -991429324.86444294       -3401182.4287305474        1461132687.5415847     
  -952234510.36062992       -1808587.8853378296        1453367388.0383093     
  -913302683.82455397       -1092619.9010683894        1450729976.7188087     
  -874633845.25621998       -1253278.4759386182        1453220453.5830798     
  -836227994.65561676       -2290563.6099132895        1460838818.6311231     
  -1323125829.6118708       -4900929.0058710575        1437247759.6210446     
  -1270240684.1672359       -2589851.8046202064        1428965715.0792384     
  -1217706189.3300292       -1447609.9614677429        1425921002.4640176     
  -1165522345.1002452       -1474203.4763878584        1428113621.7753847     
  -1113689151.4778886       -2669632.3493989706        1435543573.0133348     
 -0.24316775699256160      -0.20776914987009976        1526756936.2942848     
  0.60094429432666630      -0.67970212791479412        1522834584.5361438     
   1.2644900694290817       -1.7535226933488630        1523044934.1375551     
   1.7474694310618384       -3.4292323445158801        1527387985.0985224     
   2.0498822419720897       -5.7068284164230780        1535863737.4190431     
  -279383419.03825760       -955747.53910034895        1506445500.2715971     
  -268833054.95273477       -2108257.8431819081        1502806172.0075960     
  -258281581.47996938       -3257070.1897850931        1503415770.2233105     
  -247728998.61995468       -4402184.5788912326        1508274294.9187450     
  -237175306.37269950       -5543601.0105295926        1517381746.0938962     
  -558126083.84240735       -1719268.6731495261        1484472794.3838773     
  -536693284.74357790       -3924667.2778075933        1481117784.1097934     
  -515258266.68969399       -6122669.3656175137        1482127925.4355915     
  -493821029.68075341       -8313274.9365726113        1487503218.3612719     
  -472381573.71675712       -10496483.990675211        1497243662.8868358     
  -836227994.65561676       -2290563.6099132895        1460838818.6311231     
  -803580688.77158523       -5449228.9835841954        1457769420.8427382     
  -770930054.36468816       -8596799.2810355127        1459181399.7743990     
  -738276091.43492341       -11733274.502260298        1465074755.4261067     
  -705618799.98229039       -14858654.647262692        1475449487.7978613     
  -1113689151.4778886       -2669632.3493989706        1435543573.0133348     
  -1069495267.0367573       -6681942.9605102539        1432761082.2064309     
  -1025296944.5049503       -10679459.936033130        1434576193.2397349     
  -981094183.88246155       -14662183.275953293        1440988906.1132479     
  -936886985.16929984       -18630112.980293095        1451999220.8269708     
   2.0498822419720897       -5.7068284164230780        1535863737.4190431     
   1.8666641492599485       -4.8923926265520805        1529712802.0714154     
   3.9987782316166847        3.6398156924363980        1530014918.9126577     
   8.4462241687856583        19.889795819964913        1536770087.9427831     
   15.209000542487455        43.857547538716460        1549978309.1617806     
  -237175306.37269950       -5543601.0105295926        1517381746.0938962     
  -220576291.27016377       -5016156.0868844688        1511733987.3551087     
  -204073815.55574083       -4810509.1236142889        1512279931.8528209     
  -187667879.22942311       -4926660.1206953228        1519019579.5870347     
  -171358482.29122248       -5364609.0781638324        1531952930.5577466     
  -472381573.71675712       -10496483.990675211        1497243662.8868358     
  -439924540.33525908       -9663894.0598698556        1491986448.7695429     
  -407660588.04531217       -9474907.7675703615        1492663588.9363730     
  -375589716.84691036       -9929525.1137552112        1499275083.3873339     
  -343711926.74006557       -11027746.098454565        1511820932.1224194     
  -705618799.98229039       -14858654.647262692        1475449487.7978613     
  -658044745.32861400       -13943218.811329812        1470470186.3147130     
  -610760313.46992850       -13993192.292031378        1471165890.1633196     
  -563765504.40623438       -15008575.089371085        1477536599.3436778     
  -517060318.13752788       -16989367.203337729        1489582313.8557825     
  -936886985.16929984       -18630112.980293095        1451999220.8269708     
  -874936906.25023162       -17854130.341265261        1447185199.9906266     
  -813372991.82959402       -18365362.697010517        1447786835.5336590     
  -752195241.90738273       -20163810.047510117        1453804127.4560659     
  -691403656.48360980       -23249472.392800093        1465237075.7578456     
  -1756049767.8852103       -526814930.36556309        680044026.85990083     
  -1784091760.2595658       -500072869.45504725        806451138.69053018     
  -1809206141.5545671       -463572104.94668484        925745976.73386109     
  -1831392911.7702143       -417312636.84047598        1037928540.9898943     
  -1850652070.9065077       -361294465.13642085        1142998831.4586287     
  -2201718891.2037086       -660515667.36111259        696436756.12830925     
  -2238370669.6079488       -613883829.34311748        813858104.77563417     
  -2272978737.3554773       -560439622.46941793        927178866.31631219     
  -2305543094.4462943       -500183046.74001431        1036399040.7503439     
  -2336063740.8804007       -433114102.15490627        1141518628.0777290     
  -2685649569.3879261       -805694870.81637788        721988445.09830213     
  -2722306314.7344737       -736591809.96463037        829392813.40257263     
  -2757803249.8469539       -663622714.99932110        935708281.28084838     
  -2792140374.7253647       -586787585.92044973        1040934848.7331290     
  -2825317689.3697066       -506086422.72801536        1145072515.7594149     
  -3207841802.4378643       -962352540.73135924        756699093.76987934     
  -3235898695.6391435       -868196811.31958628        853055264.57134569     
  -3263679679.0289969       -773121382.53639388        951334221.62746871     
  -3291184752.6074252       -677126254.38178182        1051535964.9382490     
  -3318413916.3744273       -580211426.85574961        1153660494.5036860     
  -3768295590.3535204       -1130488677.1060560        800568702.14304090     
  -3779147812.3219557       -1008698833.4079854        884845458.28195357     
  -3790608024.9016080       -888935625.08063722        974056687.35617459     
  -3802676228.0924759       -771199052.12401140        1068202389.3657043     
  -3815352421.8945622       -655489114.53810728        1167282564.3105423     
  -1850652070.9065077       -361294465.13642085        1142998831.4586287     
  -1835327983.7427566       -295591957.23625493        1190523420.2348928     
  -1823386873.1708219       -241166037.97548032        1240343752.9146585     
  -1814828739.1907048       -198016707.35409623        1292459829.4979253     
  -1809653581.8024039       -166143965.37210089        1346871649.9846933     
  -2336063740.8804007       -433114102.15490627        1141518628.0777290     
  -2312500659.7457314       -352027938.02339607        1182781722.6689494     
  -2292437046.6683650       -282606667.41623008        1224536686.5116789     
  -2275872901.6483030       -224850290.33340889        1266783519.6059182     
  -2262808224.6855426       -178758806.77492821        1309522221.9516671     
  -2825317689.3697066       -506086422.72801536        1145072515.7594149     
  -2798669541.8412399       -411162780.63829827        1179938209.4558575     
  -2775637353.8355608       -328292336.95787668        1213491897.7518177     
  -2756221125.3526731       -257475091.68675268        1245733580.6472957     
  -2740420856.3925710       -198711044.82492268        1276663258.1422925     
  -3318413916.3744273       -580211426.85574961        1153660494.5036860     
  -3293834630.0292807       -472996485.08095992        1181992880.5956173     
  -3272987794.6724086       -378223046.60041881        1207209386.6350749     
  -3255873410.3038116       -295891111.41412818        1229310012.6220589     
  -3242491476.9234896       -226000679.52208400        1248294758.5565691     
  -3815352421.8945622       -655489114.53810728        1167282564.3105423     
  -3797995924.3098545       -537529051.35138083        1188945736.0882289     
  -3784488369.1789088       -432398796.34385622        1205689153.1614501     
  -3774829756.5017223       -340098349.51553428        1217512815.5302060     
  -3769020086.2782974       -260627710.86641204        1224416723.1944973     
  -1809653581.8024039       -166143965.37210089        1346871649.9846933     
  -1779008792.5793717       -133674086.02701187        1364632417.2290797     
  -1749625258.9759421       -105408392.08060360        1383234360.6495373     
  -1721502980.9921196       -81346883.532883227        1402677480.2460682     
  -1694641958.6279016       -61489560.383844197        1422961776.0186691     
  -2262808224.6855426       -178758806.77492821        1309522221.9516671     
  -2223294109.8920860       -134383444.74096179        1317512805.4267013     
  -2186643792.6723561       -99554074.619413495        1328737351.7747097     
  -2152857273.0263472       -74270696.410269737        1343195860.9956913     
  -2121934550.9540622       -58533310.113542438        1360888333.0896480     
  -2740420856.3925710       -198711044.82492268        1276663258.1422925     
  -2685200882.6089730       -140379240.07616782        1273014025.5681698     
  -2634447248.3532166       -96935233.753552437        1274991542.5639231     
  -2588159953.6253018       -68379025.857076168        1282595809.1295531     
  -2546338998.4252295       -54710616.386740446        1295826825.2650595     
  -3242491476.9234896       -226000679.52208400        1248294758.5565691     
  -3164729110.7300262       -151661472.03262019        1231136077.6534846     
  -3093035626.0185256       -97551869.483026266        1221996933.0171793     
  -3027411022.7889848       -63671871.873299241        1220877324.6476517     
  -2967855301.0414038       -50021479.203442693        1227777252.5449042     
  -3769020086.2782974       -260627710.86641204        1224416723.1944973     
  -3661878794.2552514       -168230140.61032724        1191878961.6826465     
  -3562408925.6682849       -101403981.80783904        1169753523.1344769     
  -3470610480.5173955       -60149234.458943844        1158040407.5499878     
  -3386483458.8025861       -44465898.563645601        1156739614.9291797     
  -1694641958.6279016       -61489560.383844197        1422961776.0186691     
  -1645228430.7616706       -39533689.538686097        1416488939.2968600     
  -1597630924.6084607       -23631224.403597713        1415601064.2456303     
  -1551849440.1682720       -13782164.978580415        1420298150.8649814     
  -1507883977.4411066       -9986511.2636399865        1430580199.1549120     
  -2121934550.9540622       -58533310.113542438        1360888333.0896480     
  -2059653919.3145893       -39718135.095547795        1353329406.5867229     
  -1998682842.2874746       -25268142.118746400        1350808066.5065956     
  -1939021319.8727190       -15183331.183143020        1353324312.8492661     
  -1880669352.0703213       -9463702.2887330055        1360878145.6147325     
  -2546338998.4252295       -54710616.386740446        1295826825.2650595     
  -2472755192.2918940       -39505315.979724765        1287772687.2651260     
  -2399974473.6702528       -26976973.945024848        1284208760.4402068     
  -2327996842.5603089       -17125590.282645106        1285135044.7903023     
  -2256822298.9620590       -9951164.9925805330        1290551540.3154137     
  -2967855301.0414038       -50021479.203442693        1227777252.5449042     
  -2884532249.6935849       -38895232.191218853        1219818781.3320682     
  -2801505818.7567978       -28757719.882434845        1215803146.0464640     
  -2718776008.2310448       -19608942.277088284        1215730346.6880939     
  -2636342818.1163211       -11448899.375188112        1219600383.2569554     
  -3386483458.8025861       -44465898.563645601        1156739614.9291797     
  -3294985091.5196614       -37887883.730025291        1149467688.7875490     
  -3203276877.5471087       -30610379.930970907        1145591223.3253694     
  -3111358816.8849220       -22633387.166477561        1145110218.5426366     
  -3019230909.5331059       -13956905.436549306        1148024674.4393556     
  -1507883977.4411066       -9986511.2636399865        1430580199.1549120     
  -1461586346.3246450       -8354801.8353567123        1426494325.7948310     
  -1415360777.9809525       -6963301.6496349573        1426243628.0858264     
  -1369207272.4100266       -5812010.7064683437        1429828106.0278969     
  -1323125829.6118708       -4900929.0058710575        1437247759.6210446     
  -1880669352.0703213       -9463702.2887330055        1360878145.6147325     
  -1823502649.4267030       -6567567.2628630400        1355585635.6002905     
  -1766653588.4262686       -4730237.7142720222        1354526983.6639092     
  -1710122169.0690193       -3951713.6429647207        1357702189.8055916     
  -1653908391.3549519       -4231995.0489310026        1365111254.0253367     
  -2256822298.9620590       -9951164.9925805330        1290551540.3154137     
  -2187647432.1427507       -5448876.5745643377        1283765884.9644566     
  -2119035785.8370457       -2823989.8685537577        1281612770.1185479     
  -2050987360.0449376       -2076504.8745318651        1284092195.7776909     
  -1983502154.7664294       -3206421.5925166607        1291204161.9418802     
  -2636342818.1163211       -11448899.375188112        1219600383.2569554     
  -2554020694.4727917       -4998729.7704679966        1211035073.8873308     
  -2472507370.2132788       -1244558.1124657393        1207500987.4497437     
  -2391802845.3377800       -186384.40118145943        1208998123.9441938     
  -2311907119.8462963       -1824208.6366173029        1215526483.3706772     
  -3019230909.5331059       -13956905.436549306        1148024674.4393556     
  -2922622436.4168220       -5217126.8505635262        1137393202.3689148     
  -2827068341.5549707        8057.5539779663086        1132191635.6574960     
  -2732568624.9475479        1718647.7770929337        1132419974.3050997     
  -2639123286.5945582       -85356.181236386299        1138078218.3117261     
  -1323125829.6118708       -4900929.0058710575        1437247759.6210446     
  -1270240684.1672359       -2589851.8046202064        1428965715.0792384     
  -1217706189.3300292       -1447609.9614677429        1425921002.4640176     
  -1165522345.1002452       -1474203.4763878584        1428113621.7753847     
  -1113689151.4778886       -2669632.3493989706        1435543573.0133348     
  -1653908391.3549519       -4231995.0489310026        1365111254.0253367     
  -1587867045.8657777       -2397850.3373267055        1356783100.0425093     
  -1522057846.1278930       -1337524.7966889143        1353447829.3572779     
  -1456480792.1412969       -1051018.4270122647        1355105441.9696376     
  -1391135883.9059935       -1538331.2283118367        1361755937.8795919     
  -1983502154.7664294       -3206421.5925166607        1291204161.9418802     
  -1905003033.8869774       -2058736.7668272257        1282968154.1835265     
  -1826617553.9026825       -1289854.9249907732        1279480581.0937731     
  -1748345714.8135424       -899776.06700456142        1280741442.6726191     
  -1670187516.6195552       -888500.19286322594        1286750738.9200664     
  -2311907119.8462963       -1824208.6366173029        1215526483.3706772     
  -2221648648.2308359       -1572511.0931270123        1207520877.5022869     
  -2131385312.6543970       -1304600.3463686705        1204019257.6735048     
  -2041117113.1169753       -1020476.3963449001        1205021623.8843296     
  -1950844049.6185784       -720139.24305546284        1210527976.1347601     
  -2639123286.5945582       -85356.181236386299        1138078218.3117261     
  -2537803888.8973560       -939173.31622695923        1130441269.9987946     
  -2436361122.3830361       -1381761.0608263016        1127063859.0964737     
  -2334794987.0516033       -1413119.4150475264        1127945985.6047661     
  -2233105482.9030519       -1033248.3788763285        1133087649.5236752     
  -1113689151.4778886       -2669632.3493989706        1435543573.0133348     
  -1069495267.0367573       -6681942.9605102539        1432761082.2064309     
  -1025296944.5049503       -10679459.936033130        1434576193.2397349     
  -981094183.88246155       -14662183.275953293        1440988906.1132479     
  -936886985.16929984       -18630112.980293095        1451999220.8269708     
  -1391135883.9059935       -1538331.2283118367        1361755937.8795919     
  -1335300920.1959519       -5359244.1378116608        1358222538.6074889     
  -1279550700.8998628       -9462638.4271494746        1359002045.1555064     
  -1223885226.0177219       -13848514.096316218        1364094457.5236399     
  -1168304495.5495341       -18516871.145329177        1373499775.7118967     
  -1670187516.6195552       -888500.19286322594        1286750738.9200664     
  -1603524890.8408592       -4762040.5608167648        1282362384.9273610     
  -1537036191.9807444       -9215337.3240471482        1282002240.7346902     
  -1470721420.0392087       -14248390.482543945        1285670306.3420451     
  -1404580575.0162585       -19861200.036319137        1293366581.7494302     
  -1950844049.6185784       -720139.24305546284        1210527976.1347601     
  -1874167178.9714828       -4890332.2295418978        1205180621.1660554     
  -1797753417.7475963       -9937556.6267306805        1203576779.9772887     
  -1721602765.9469266       -15861812.434639335        1205716452.5684614     
  -1645715223.5694709       -22663099.653255403        1211599638.9395711     
  -2233105482.9030519       -1033248.3788763285        1133087649.5236752     
  -2147227784.5878191       -5744119.1439790726        1126677247.3235631     
  -2061702378.2004285       -11629296.335226417        1123725662.8833017     
  -1976529263.7408795       -18688779.952613115        1124232896.2028854     
  -1891708441.2091730       -26922569.996138573        1128198947.2823234     
  -936886985.16929984       -18630112.980293095        1451999220.8269708     
  -874936906.25023162       -17854130.341265261        1447185199.9906266     
  -813372991.82959402       -18365362.697010517        1447786835.5336590     
  -752195241.90738273       -20163810.047510117        1453804127.4560659     
  -691403656.48360980       -23249472.392800093        1465237075.7578456     
  -1168304495.5495341       -18516871.145329177        1373499775.7118967     
  -1092357614.6508987       -17647630.194108248        1366546300.6859908     
  -1016703295.1375911       -17753593.860646963        1364922418.8852510     
  -941341537.00959826       -18834762.144907534        1368628130.3096807     
  -866272340.26693916       -20891135.046942383        1377663434.9592848     
  -1404580575.0162585       -19861200.036319137        1293366581.7494302     
  -1314882786.8643565       -18972469.190793514        1284382856.1659141     
  -1225383956.9846735       -18746932.585995734        1280642660.6533639     
  -1136084085.3772085       -19184590.221930027        1282145995.2117772     
  -1046983172.0419613       -20285442.098585904        1288892859.8411565     
  -1645715223.5694709       -22663099.653255403        1211599638.9395711     
  -1542512422.8906052       -21828647.331316948        1200694866.4304059     
  -1439414977.3708508       -21345378.873082995        1194947560.8380005     
  -1336422887.0102012       -21213294.278553963        1194357722.1623552     
  -1233536151.8086779       -21432393.547740996        1198925350.4034646     
  -1891708441.2091730       -26922569.996138573        1128198947.2823234     
  -1775246522.7296388       -26216164.615662456        1115482331.4794657     
  -1658796356.2961159       -25548932.721899867        1107837119.4391603     
  -1542357941.9085953       -24920874.314805746        1105263311.1614037     
  -1425931279.5670829       -24331989.394402742        1107760906.6462054     
  -3768295590.3535204       -1130488677.1060560        800568702.14304090     
  -3779147812.3219557       -1008698833.4079854        884845458.28195357     
  -3790608024.9016080       -888935625.08063722        974056687.35617459     
  -3802676228.0924759       -771199052.12401140        1068202389.3657043     
  -3815352421.8945622       -655489114.53810728        1167282564.3105423     
  -4339837523.9356356       -1301951257.1806905        858750626.03432584     
  -4335276693.4819269       -1125729577.9019778        942352150.68382263     
  -4331853189.2105055       -953298985.89755368        1020314203.7425889     
  -4329567011.1213703       -784659481.16741860        1092636785.2106240     
  -4328418159.2145214       -619811063.71157205        1159319895.0879290     
  -4895294193.9849482       -1468588258.1954844        936398221.26027322     
  -4905531581.1834936       -1246998124.3584487        1018706956.2541058     
  -4917435630.1353951       -1030963529.6992679        1084802275.1311684     
  -4931006340.8406534       -820484474.21794319        1134684177.8914616     
  -4946243713.2992678       -615560957.91447306        1168352664.5349848     
  -5434665600.5014582       -1630399680.1504376        1033511487.8208823     
  -5489912475.4266548       -1372504472.7773981        1113909874.9928029     
  -5547355347.6762781       -1121929256.4857805        1167520901.5219142     
  -5606994217.2503281       -878674031.27558482        1194344567.4082167     
  -5668829084.1488047       -642738797.14681149        1194380872.6517098     
  -5957951743.4851665       -1787385523.0455499        1150090425.7161541     
  -6088419376.2114124       -1502248623.1588264        1227960906.8999140     
  -6221612341.8331547       -1226196166.2570906        1268470082.9148257     
  -6357530640.3503933       -959228152.34034383        1271617953.7608888     
  -6496174271.7631302       -701344581.40858555        1237404519.4381042     
  -3815352421.8945622       -655489114.53810728        1167282564.3105423     
  -3797995924.3098545       -537529051.35138083        1188945736.0882289     
  -3784488369.1789088       -432398796.34385622        1205689153.1614501     
  -3774829756.5017223       -340098349.51553428        1217512815.5302060     
  -3769020086.2782974       -260627710.86641204        1224416723.1944973     
  -4328418159.2145214       -619811063.71157205        1159319895.0879290     
  -4298243861.4481678       -464079222.77538693        1141371285.1514664     
  -4278684464.0561309       -343730383.08692086        1129485712.1170139     
  -4269739967.0384083       -258764544.64617109        1123663175.9845717     
  -4271410370.3950028       -209181707.45314193        1123903676.7541392     
  -4946243713.2992678       -615560957.91447306        1168352664.5349848     
  -4871872210.7613401       -412643517.85185122        1102898655.3103921     
  -4814881566.5182829       -267662272.10546327        1054490474.5942850     
  -4775271780.5700941       -180617220.67530942        1023128122.3866632     
  -4753042852.9167786       -151508363.56139112        1008811598.6875269     
  -5668829084.1488047       -642738797.14681149        1194380872.6517098     
  -5518880972.2493715       -383221936.58077335        1073527846.5650070     
  -5393079676.5653648       -204194463.39948630        980703440.59326398     
  -5291425197.0967836       -105656377.60294867        915907654.73648226     
  -5213917533.8436232       -87607679.191161156        879140488.99466157     
  -6496174271.7631302       -701344581.40858555        1237404519.4381042     
  -6239270145.9122639       -375814478.96215248        1053258858.9153090     
  -6013278794.1973753       -153326956.96898532        908124610.11395013     
  -5818200216.6184673       -33882015.429084778        802001773.03402710     
  -5654034413.1755409       -17479654.342454195        734890347.67554140     
  -3769020086.2782974       -260627710.86641204        1224416723.1944973     
  -3661878794.2552514       -168230140.61032724        1191878961.6826465     
  -3562408925.6682849       -101403981.80783904        1169753523.1344769     
  -3470610480.5173955       -60149234.458943844        1158040407.5499878     
  -3386483458.8025861       -44465898.563645601        1156739614.9291797     
  -4271410370.3950028       -209181707.45314193        1123903676.7541392     
  -4148438784.1973505       -144986515.04668903        1090516914.8495135     
  -4029872237.1767139       -95474786.563622713        1065403220.3885124     
  -3915710729.3330922       -60646522.003939867        1048562593.3711345     
  -3805954260.6664891       -40501721.367644072        1039995033.7973799     
  -4753042852.9167786       -151508363.56139112        1008811598.6875269     
  -4620353131.1732531       -117349196.59319019        978386618.02569962     
  -4488802064.3476830       -86985546.018166780        954095449.28743958     
  -4358389652.4400635       -60417411.836320877        935938092.47274673     
  -4229115895.4503975       -37644794.047647953        923914547.58162129     
  -5213917533.8436232       -87607679.191161156        879140488.99466157     
  -5077621835.1829605       -85318185.249835014        855488071.21120548     
  -4939198407.1811886       -75936260.171472549        835830209.83126092     
  -4798647249.8383045       -59461903.956080437        820166904.85482681     
  -4655968363.1543121       -35895116.603652716        808498156.28190088     
  -5654034413.1755409       -17479654.342454195        734890347.67554140     
  -5520244896.2264738       -48893481.016619444        721821274.40603137     
  -5381061265.6772327       -62326929.023541451        710607502.01997471     
  -5236483521.5278215       -57779998.363225460        701249030.51737225     
  -5086511663.7782345       -35252689.035657644        693745859.89822173     
  -3386483458.8025861       -44465898.563645601        1156739614.9291797     
  -3294985091.5196614       -37887883.730025291        1149467688.7875490     
  -3203276877.5471087       -30610379.930970907        1145591223.3253694     
  -3111358816.8849220       -22633387.166477561        1145110218.5426366     
  -3019230909.5331059       -13956905.436549306        1148024674.4393556     
  -3805954260.6664891       -40501721.367644072        1039995033.7973799     
  -3703305879.9942517       -30074978.913826704        1031654704.2556444     
  -3601253975.6070871       -21636490.743581533        1027607679.4985000     
  -3499798547.5049944       -15186256.856906176        1027853959.5259461     
  -3398939595.6879711       -10724277.253805637        1032393544.3379833     
  -4229115895.4503975       -37644794.047647953        923914547.58162129     
  -4112752232.5170169       -22599743.312082291        913565104.50262666     
  -3997791368.8434086       -12230690.109094858        908406810.31336558     
  -3884233304.4295740       -6537634.4386889935        908439665.01383793     
  -3772078039.2755170       -5520576.3008642197        913663668.60404122     
  -4655968363.1543121       -35895116.603652716        808498156.28190088     
  -4523324149.0879526       -15462176.924784184        795198889.52849543     
  -4392889057.2560692       -2392978.0275087357        787988615.76996529     
  -4264663087.6586633        3312480.0881714821        786867335.00630856     
  -4138646240.2957311        1654197.4222776890        791835047.23752689     
  -5086511663.7782345       -35252689.035657644        693745859.89822173     
  -4935021629.7070627       -8662279.7519471645        676556059.33325326     
  -4786547040.8450708        7876645.5011732578        666353095.86829996     
  -4641087897.1922588        14364086.723691463        663136969.50336397     
  -4498644198.7486248        10800043.915613651        666907680.23844028     
  -3019230909.5331059       -13956905.436549306        1148024674.4393556     
  -2922622436.4168220       -5217126.8505635262        1137393202.3689148     
  -2827068341.5549707        8057.5539779663086        1132191635.6574960     
  -2732568624.9475479        1718647.7770929337        1132419974.3050997     
  -2639123286.5945582       -85356.181236386299        1138078218.3117261     
  -3398939595.6879711       -10724277.253805637        1032393544.3379833     
  -3289999212.1569095       -5589436.8457293510        1022849958.9245425     
  -3181617232.8083987       -2315943.7128335238        1018194461.8968133     
  -3073793657.6424489       -903797.85513591766        1018427053.2547939     
  -2966528486.6590471       -1352999.2726087570        1023547732.9984874     
  -3772078039.2755170       -5520576.3008642197        913663668.60404122     
  -3652353793.8248439       -4455088.6192417145        905786606.26478612     
  -3532691978.4848504       -3597701.3065588474        902255815.33793247     
  -3413092593.2555423       -2948414.3628160954        903071295.82347798     
  -3293555638.1369109       -2507227.7879986763        908233047.72142589     
  -4138646240.2957311        1654197.4222776890        791835047.23752689     
  -4009686181.4206281       -1814082.1711175442        786203144.38964725     
  -3880292578.5843253       -3837215.2271893024        784375695.98085749     
  -3750465431.7868290       -4415201.7459475994        786352702.01115704     
  -3620204741.0281401       -3548041.7273955345        792134162.48054409     
  -4498644198.7486248        10800043.915613651        666907680.23844028     
  -4361996374.9442577        2333582.4986603260        664099573.29912484     
  -4224419033.1068225       -3034485.4747278690        664554103.82558608     
  -4085912173.2363210       -5304160.0045571327        668271271.81782556     
  -3946475795.3327417       -4475441.0908045769        675251077.27584577     
  -2639123286.5945582       -85356.181236386299        1138078218.3117261     
  -2537803888.8973560       -939173.31622695923        1130441269.9987946     
  -2436361122.3830361       -1381761.0608263016        1127063859.0964737     
  -2334794987.0516033       -1413119.4150475264        1127945985.6047661     
  -2233105482.9030519       -1033248.3788763285        1133087649.5236752     
  -2966528486.6590471       -1352999.2726087570        1023547732.9984874     
  -2853649882.0303221       -956658.53226804733        1016160369.6710241     
  -2740765722.4074626       -541801.14481246471        1013116668.6013520     
  -2627876007.7904620       -108427.11023092270        1014416629.7894688     
  -2514980738.1793303        343463.57146668434        1020060253.2353765     
  -3293555638.1369109       -2507227.7879986763        908233047.72142589     
  -3168877469.8704386       -788622.16045010090        900957819.91928971     
  -3044311560.4328117        555787.37094449997        898110379.22211945     
  -2919857909.8240371        1526000.8061772585        899690725.62991667     
  -2795516518.0441031        2122018.1452548504        905698859.14267862     
  -3620204741.0281401       -3548041.7273955345        792134162.48054409     
  -3483486652.4177094       -435064.20078206062        784833620.74359071     
  -3346998636.4591060        1911004.4864079952        782044990.95877790     
  -3210740693.1523304        3490164.3341619968        783768273.12610698     
  -3074712822.4973850        4302415.3424918652        790003467.24558091     
  -3946475795.3327417       -4475441.0908045769        675251077.27584577     
  -3797477429.6721315        104015.34674024582        667787772.14392722     
  -3648826950.4863296        3523850.2015926838        664920503.81132627     
  -3500524357.7753382        5784063.4737386703        666649272.27804434     
  -3352569651.5391574        6884655.1631884575        672974077.54407942     
  -2233105482.9030519       -1033248.3788763285        1133087649.5236752     
  -2147227784.5878191       -5744119.1439790726        1126677247.3235631     
  -2061702378.2004285       -11629296.335226417        1123725662.8833017     
  -1976529263.7408795       -18688779.952613115        1124232896.2028854     
  -1891708441.2091730       -26922569.996138573        1128198947.2823234     
  -2514980738.1793303        343463.57146668434        1020060253.2353765     
  -2420086696.6703053       -4967132.7101052999        1013848852.6762784     
  -2325436969.6274734       -11092110.545657277        1011252681.1640469     
  -2231031557.0508385       -18031469.935196519        1012271738.6986835     
  -2136870458.9404004       -25785210.878725290        1016906025.2801876     
  -2795516518.0441031        2122018.1452548504        905698859.14267862     
  -2691159243.9498010       -3654236.8353382349        899812433.92984760     
  -2586938306.8600535       -9884948.4977660179        897697649.05090451     
  -2482853706.7748470       -16570116.842011690        899354504.50584936     
  -2378905443.6941919       -23709741.868091345        904783000.29468262     
  -3074712822.4973850        4302415.3424918652        790003467.24558091     
  -2960445426.4263210       -1805431.5196818113        784567991.08427346     
  -2846206389.8981619       -8007810.1915314198        783060566.54387164     
  -2731995712.9129028       -14304720.673049212        785481193.62438095     
  -2617813395.4705381       -20696162.964215517        791829872.32579505     
  -3352569651.5391574        6884655.1631884575        672974077.54407942     
  -3227945244.0998487        579283.23687946796        668115524.13955092     
  -3103241218.7417965       -5460695.6269510984        667341433.64294779     
  -2978457575.4649916       -11235281.428267479        670651806.05427766     
  -2853594314.2694407       -16744474.167109728        678046641.37353301     
  -1891708441.2091730       -26922569.996138573        1128198947.2823234     
  -1775246522.7296388       -26216164.615662456        1115482331.4794657     
  -1658796356.2961159       -25548932.721899867        1107837119.4391603     
  -1542357941.9085953       -24920874.314805746        1105263311.1614037     
  -1425931279.5670829       -24331989.394402742        1107760906.6462054     
  -2136870458.9404004       -25785210.878725290        1016906025.2801876     
  -2007297741.6678138       -23476854.474115133        1004989984.4707052     
  -1877850856.1271508       -21587937.175924659        997718088.73390508     
  -1748529802.3184297       -20118458.984191060        995090338.06979644     
  -1619334580.2416284       -19068419.898881555        997106732.47836912     
  -2378905443.6941919       -23709741.868091345        904783000.29468262     
  -2237442666.7424464       -20165656.173488379        893534441.51165497     
  -2096219801.2085617       -17421275.205078840        886502769.11145365     
  -1955236847.0925348       -15476598.962854266        883687983.09406114     
  -1814493804.3943553       -14331627.446821332        885090083.45950079     
  -2617813395.4705381       -20696162.964215517        791829872.32579505     
  -2465681297.9535475       -16282569.713800669        781115702.60231900     
  -2313903191.5403404       -13048946.809345245        774191160.57179761     
  -2162479076.2309189       -10995294.250805974        771056246.23423100     
  -2011408952.0252681       -10121612.038213730        771710959.58960998     
  -2853594314.2694407       -16744474.167109728        678046641.37353301     
  -2692013635.3011141       -11827595.095062494        667733767.74269235     
  -2530901027.1224871       -8470951.9887077808        660783263.11493886     
  -2370256489.7335658       -6674544.8480315208        657195127.49026716     
  -2210080023.1343632       -6438373.6730608940        656969360.86868572     
  -5957951743.4851665       -1787385523.0455499        1150090425.7161541     
  -6088419376.2114124       -1502248623.1588264        1227960906.8999140     
  -6221612341.8331547       -1226196166.2570906        1268470082.9148257     
  -6357530640.3503933       -959228152.34034383        1271617953.7608888     
  -6496174271.7631302       -701344581.40858555        1237404519.4381042     
  -6810557360.4885759       -2043167208.1465728        1353819212.2904329     
  -6828495967.4024267       -1395471429.9932330        1202792225.3920975     
  -6897798344.8850651       -918988220.40250349        1092019899.3029246     
  -7018464492.9364824       -613717579.37438369        1021502234.0229135     
  -7190494411.5566845       -479659506.90887332        991239229.55206430     
  -8337887189.0641851       -2501366156.7192554        1712382024.8880637     
  -8021536867.3713303       -1424583529.4610066        1275712725.9554658     
  -7805188753.9205446       -681141596.34298801        956914053.81004047     
  -7688842848.7118273       -271040357.36520052        755986008.45178747     
  -7672499151.7451792       -194279812.52764273        672928589.88070798     
  -10539941229.211998       -3161982368.7635994        2225778863.5090466     
  -9667542076.1181202       -1589584921.5621464        1446722408.5900185     
  -8943783568.9395943       -512656294.07854319        863152546.43617368     
  -8368665707.6764297        68803513.687206745        475069277.04751211     
  -7942188492.3286114        154794501.73510933        282472600.42403358     
  -13416719480.932013       -4025015844.2796040        2894009728.1533809     
  -11766511593.642794       -1890475606.2966511        1715821273.2957559     
  -10313582789.942219       -413532313.60917044        810735377.18132448     
  -9057933069.8302841        405814033.78283691        178752039.81008673     
  -7999562433.3069916        567563435.87937307       -180128738.81795719     
  -6496174271.7631302       -701344581.40858555        1237404519.4381042     
  -6239270145.9122639       -375814478.96215248        1053258858.9153090     
  -6013278794.1973753       -153326956.96898532        908124610.11395013     
  -5818200216.6184673       -33882015.429084778        802001773.03402710     
  -5654034413.1755409       -17479654.342454195        734890347.67554140     
  -7190494411.5566845       -479659506.90887332        991239229.55206430     
  -6900513826.2226934       -304337991.60131526        846937420.96588337     
  -6623349497.7996216       -171737332.66348481        723731151.13887095     
  -6359001426.2874660       -81857530.095380545        621620420.07102752     
  -6107469611.6862316       -34698583.897002935        540605227.76235354     
  -7672499151.7451792       -194279812.52764273        672928589.88070798     
  -7400630315.3916855       -184523346.89804792        589583236.66037881     
  -7123481218.7240505       -157166013.55464220        509417549.23695350     
  -6841051861.7422657       -112207812.49741602        432431527.61042869     
  -6553342244.4463406       -49648743.726379395        358625171.78080648     
  -7942188492.3286114        154794501.73510933        282472600.42403358     
  -7739619613.4192390       -16370544.852349758        281196305.99879813     
  -7513673956.9706602       -109612999.64245176        265183804.40819776     
  -7264351522.9828701       -124932862.63519144        234435095.65223122     
  -6991652311.4558773       -62330133.830583096        188950179.73089838     
  -7999562433.3069916        567563435.87937307       -180128738.81795719     
  -7917481720.3053541        200120414.53578329       -78223371.018861249     
  -7793927712.5394497       -29078290.926911831       -8970083.3473981451     
  -7628900410.0092716       -120032680.50870943        27631124.196434755     
  -7422399812.7148304       -72742754.209609509        31580251.612631012     
  -5654034413.1755409       -17479654.342454195        734890347.67554140     
  -5520244896.2264738       -48893481.016619444        721821274.40603137     
  -5381061265.6772327       -62326929.023541451        710607502.01997471     
  -5236483521.5278215       -57779998.363225460        701249030.51737225     
  -5086511663.7782345       -35252689.035657644        693745859.89822173     
  -6107469611.6862316       -34698583.897002935        540605227.76235354     
  -5959085241.1315708       -36395433.862592220        534245928.38549441     
  -5809694435.3912678       -34737499.876028299        530400374.73519760     
  -5659297194.4653130       -29724781.937304258        529068566.81146026     
  -5507893518.3537130       -21357280.046427488        530250504.61428303     
  -6553342244.4463406       -49648743.726379395        358625171.78080648     
  -6388481749.3057804       -21064235.689298153        353856688.14631665     
  -6227002497.3941059       -3750538.4151561260        352260395.08149654     
  -6068904488.7113047        2292348.0960597992        353836292.58634365     
  -5914187723.2573872       -2935576.1556611061        358584380.66086066     
  -6991652311.4558773       -62330133.830583096        188950179.73089838     
  -6808434420.7491093       -2899886.4967408180        180653553.68849790     
  -6632985451.6857500        30633955.359079361        176187563.05887511     
  -6465305404.2657948        38271391.736877203        175552207.84202370     
  -6305394278.4892511        20012422.636653185        178747488.03795618     
  -7422399812.7148304       -72742754.209609509        31580251.612631012     
  -7218943255.4615479        18097613.715084076        14636525.012040922     
  -7027643298.2662020        68415981.446668625        2181878.6673335820     
  -6848499941.1287832        78212348.985149860       -5783687.4214935694     
  -6681513184.0493040        47486716.330510139       -9260173.2544341274     
  -5086511663.7782345       -35252689.035657644        693745859.89822173     
  -4935021629.7070627       -8662279.7519471645        676556059.33325326     
  -4786547040.8450708        7876645.5011732578        666353095.86829996     
  -4641087897.1922588        14364086.723691463        663136969.50336397     
  -4498644198.7486248        10800043.915613651        666907680.23844028     
  -5507893518.3537130       -21357280.046427488        530250504.61428303     
  -5344618805.7282162       -9424476.4211671352        515233813.21901983     
  -5182347897.0047007       -837685.80251646042        505677946.45594573     
  -5021080792.1831722        4403091.8095111847        501582904.32505673     
  -4860817491.2636280        6297856.4149210453        502948686.82635474     
  -5914187723.2573872       -2935576.1556611061        358584380.66086066     
  -5743488367.6999264       -6968388.8755512238        348087713.29369819     
  -5571781174.7372589       -7641743.5780880451        341525858.09089190     
  -5399066144.3693810       -4955640.2632598877        338898815.05244416     
  -5225343276.5962934        1089921.0689353943        340206584.17835504     
  -6305394278.4892511        20012422.636653185        178747488.03795618     
  -6131630315.6221962       -1294017.1151087284        175117759.55728394     
  -5954846874.0427427       -12535527.825529099        173896830.77313837     
  -5775043953.7508841       -13712109.494615078        175084701.68552834     
  -5592221554.7466249       -4823762.1223595142        178681372.29444304     
  -6681513184.0493040        47486716.330510139       -9260173.2544341274     
  -6509044649.4950237        7598638.8601734638       -3676047.9902247214     
  -6331544994.9211512       -15519038.544854879        2790864.5026910724     
  -6149014220.3276806       -21866315.884561062        10140564.224298602     
  -5961452325.7146177       -11443193.158946037        18373051.174618121     
  -4498644198.7486248        10800043.915613651        666907680.23844028     
  -4361996374.9442577        2333582.4986603260        664099573.29912484     
  -4224419033.1068225       -3034485.4747278690        664554103.82558608     
  -4085912173.2363210       -5304160.0045571327        668271271.81782556     
  -3946475795.3327417       -4475441.0908045769        675251077.27584577     
  -4860817491.2636280        6297856.4149210453        502948686.82635474     
  -4713963945.1509943        2930051.4245557785        500042526.53562152     
  -4566923942.2706900        183768.99308013916        500547671.37933725     
  -4419697482.6227160       -1940990.8794808388        504464121.35749954     
  -4272284566.2070670       -3444228.1931447983        511791876.47010773     
  -5225343276.5962934        1089921.0689353943        340206584.17835504     
  -5067859243.4077702        2948201.9354302883        336335465.72657239     
  -4910931814.7169733        2951134.4761600494        336024320.07791084     
  -4754560990.5239029        1098718.6911430359        339273147.23235995     
  -4598746770.8285618       -2609045.4196426868        346081947.18992478     
  -5592221554.7466249       -4823762.1223595142        178681372.29444304     
  -5423682269.7145863        2388034.0312974453        172978390.87198111     
  -5256442650.4456673        5267610.9745299816        170984049.92130071     
  -5090502696.9398832        3814968.7073299885        172698349.44240847     
  -4925862409.1972246       -1969892.7702906132        178121289.43530083     
  -5961452325.7146177       -11443193.158946037        18373051.174618121     
  -5781433024.0714331        1249547.7121670246        9971301.9718392715     
  -5603456449.4567842        7133198.4881517887        5426860.9095212780     
  -5427522601.8706484        6207759.1690959930        4739727.9876462054     
  -5253631481.3130493       -1526770.2450811863        7909903.2062268648     
  -3946475795.3327417       -4475441.0908045769        675251077.27584577     
  -3797477429.6721315        104015.34674024582        667787772.14392722     
  -3648826950.4863296        3523850.2015926838        664920503.81132627     
  -3500524357.7753382        5784063.4737386703        666649272.27804434     
  -3352569651.5391574        6884655.1631884575        672974077.54407942     
  -4272284566.2070670       -3444228.1931447983        511791876.47010773     
  -4111810259.4521184       -740574.82568931580        503933346.19284648     
  -3951332207.1048489        1975563.8495106697        500739303.74346995     
  -3790850409.1652470        4704187.8324792385        502209749.12197679     
  -3630364865.6333256        7445297.1231818199        508344682.32837147     
  -4598746770.8285618       -2609045.4196426868        346081947.18992478     
  -4426600948.6119537       -1722522.8120934963        338238429.17898339     
  -4254099748.7358789        348591.99367260933        335127850.02449310     
  -4081243171.2003417        3604298.9976503849        336750209.72644711     
  -3908031216.0053372        8044598.1998269558        343105508.28485328     
  -4925862409.1972246       -1969892.7702906132        178121289.43530083     
  -4741849497.1516132       -2841828.6124300957        170703021.10233369     
  -4557129575.3794069       -1357065.3659102917        168086142.65438423     
  -4371702643.8806009        2484396.9692788124        170270654.09145138     
  -4185568702.6551952        8682558.3931193352        177256555.41352999     
  -5253631481.3130493       -1526770.2450811863        7909903.2062268648     
  -5057555905.0711145       -4098492.2267224789        1327121.9628984400     
  -4860421687.0354433       -3141408.2292408943       -385818.36684712034     
  -4662228827.2060394        1344481.7473516464        2771082.2169824978     
  -4462977325.5828981        9359177.7030580044        10797823.714400105     
  -3352569651.5391574        6884655.1631884575        672974077.54407942     
  -3227945244.0998487        579283.23687946796        668115524.13955092     
  -3103241218.7417965       -5460695.6269510984        667341433.64294779     
  -2978457575.4649916       -11235281.428267479        670651806.05427766     
  -2853594314.2694407       -16744474.167109728        678046641.37353301     
  -3630364865.6333256        7445297.1231818199        508344682.32837147     
  -3495247409.2317863        2388116.7549998760        503310537.93536419     
  -3360257564.4795794       -3094435.7776248455        501975462.55350703     
  -3225395331.3766928       -9002360.4746536016        504339456.18279147     
  -3090660709.9231443       -15335657.336137772        510402518.82322025     
  -3908031216.0053372        8044598.1998269558        343105508.28485328     
  -3763521836.0609474        3905271.7639520168        337654005.07395273     
  -3619347297.3339682       -1350192.0632836819        335516176.97741151     
  -3475507599.8243804       -7721793.2818455696        336692023.99522775     
  -3332002743.5322065       -15209531.891768217        341181546.12741220     
  -4185568702.6551952        8682558.3931193352        177256555.41352999     
  -4032768524.5873327        5130748.2637424469        171145925.55530769     
  -3880510417.3049583       -227964.48391175270        167963576.91466683     
  -3728794380.8080583       -7393579.8498296738        167709509.49160135     
  -3577620415.0966454       -16366097.834024191        170383723.28611362     
  -4462977325.5828981        9359177.7030580044        10797823.714400105     
  -4302987474.8109503        6064546.2543470860        3786299.3794358391     
  -4143746924.3925552        272246.96046686172       -682337.63472886221     
  -3985255674.3277168       -8017720.1786124706       -2608087.3280981621     
  -3827513724.6164370       -18805355.162872791       -1990949.7006800678     
  -2853594314.2694407       -16744474.167109728        678046641.37353301     
  -2692013635.3011141       -11827595.095062494        667733767.74269235     
  -2530901027.1224871       -8470951.9887077808        660783263.11493886     
  -2370256489.7335658       -6674544.8480315208        657195127.49026716     
  -2210080023.1343632       -6438373.6730608940        656969360.86868572     
  -3090660709.9231443       -15335657.336137772        510402518.82322025     
  -2919334088.9765849       -10801217.863713026        498782513.41050828     
  -2747952293.8624630       -6082864.4994082451        491385272.73172092     
  -2576515324.5807729       -1180597.2432045937        488210796.78685874     
  -2405023181.1315145        3905583.9048779011        489259085.57591474     
  -3332002743.5322065       -15209531.891768217        341181546.12741220     
  -3148471907.0907311       -10320049.963944316        328864861.38297921     
  -2964362651.5244293       -3502504.2866996527        321631337.10330546     
  -2779674976.8332858        5243105.1400320530        319480973.28840399     
  -2594408883.0173039        15916778.316211581        322413769.93825930     
  -3577620415.0966454       -16366097.834024191        170383723.28611362     
  -3379427089.6435761       -10384091.395829678        157980811.66010514     
  -3180132100.1083984       -729871.35059809685        151521456.22970337     
  -2979735446.4911118        12596562.301667571        151005656.99490261     
  -2778237128.7917070        29595209.560974598        156433413.95571473     
  -3827513724.6164370       -18805355.162872791       -1990949.7006800678     
  -3612199636.6350822       -10993342.159273386       -13869635.758106958     
  -3395260639.6143599        2235034.3089072704       -18944369.889099061     
  -3176696733.5542369        20879774.241728663       -17215152.093633328     
  -2956507918.4547496        44940877.639132738       -8681982.3717353679     
 </DataArray>
 <DataArray  type="Float64" Name="VM" NumberOfComponents="1" format="ascii">
   12935705725.181023     
   11340745914.165098     
   10210184853.580627     
   9272676515.5561867     
   8303777791.3932600     
   10130333653.433170     
   9322005582.9031124     
   8826329419.4991760     
   8443468819.8646574     
   8035614401.4095430     
   7982345719.9482088     
   7734951294.1921196     
   7669129034.7458363     
   7669571373.3312416     
   7666346903.5297689     
   6491655852.8837385     
   6586869823.3453274     
   6757417281.2317076     
   6961216740.6090240     
   7171607891.7532177     
   5657817888.0937462     
   5890920621.4633675     
   6116383655.6377058     
   6331747687.8947678     
   6536789548.4200096     
   8303777791.3932600     
   8020559293.8590336     
   7779444840.6514359     
   7569749162.6762247     
   7386499619.1766720     
   8035614401.4095430     
   7746773009.1584759     
   7473599022.8309336     
   7214134354.4672079     
   6968385966.6732512     
   7666346903.5297689     
   7381098430.2228937     
   7101241821.2846050     
   6826855263.1891556     
   6558142298.3481035     
   7171607891.7532177     
   6910971939.3599014     
   6658238223.7651501     
   6409547837.8712282     
   6161755475.6455688     
   6536789548.4200096     
   6328742615.2145157     
   6142890540.8528366     
   5965323958.9319887     
   5787034783.6402187     
   7386499619.1766720     
   7228053512.7503967     
   7062100854.0709190     
   6887946445.7184534     
   6705401836.8585634     
   6968385966.6732512     
   6814172811.6254740     
   6655355377.2109766     
   6491650841.0130873     
   6323008438.6815653     
   6558142298.3481035     
   6407356549.1515741     
   6254956571.9828472     
   6100911354.6917505     
   5945251194.9760485     
   6161755475.6455688     
   6012602945.8082047     
   5864803111.8920393     
   5718395541.5667849     
   5573437925.8239641     
   5787034783.6402187     
   5636370122.3051176     
   5489918855.0029001     
   5347596170.2125273     
   5209451065.0507965     
   6705401836.8585634     
   6512850406.2348404     
   6323801605.6524134     
   6138135403.6910763     
   5955823994.0146570     
   6323008438.6815653     
   6138481592.4623756     
   5956209500.4671335     
   5776166256.3155642     
   5598372151.5245676     
   5945251194.9760485     
   5771583794.7146969     
   5599298658.9066906     
   5428419768.7289238     
   5259004689.4325542     
   5573437925.8239641     
   5413969561.6034718     
   5255427652.1235647     
   5097856041.5871248     
   4941363296.1583557     
   5209451065.0507965     
   5068032092.2020264     
   4927562875.8407297     
   4788091488.9581528     
   4649817134.5607920     
   5955823994.0146570     
   5782083693.7298555     
   5607034331.3222094     
   5430635348.3338346     
   5252886129.6331749     
   5598372151.5245676     
   5433143802.9480104     
   5267410428.7830238     
   5101188737.8383207     
   4934531641.9015627     
   5259004689.4325542     
   5102696514.4931526     
   4946765595.6082420     
   4791283143.4112730     
   4636356164.5434151     
   4941363296.1583557     
   4794309586.2315302     
   4648578009.3815422     
   4504287199.1935549     
   4361594357.8486004     
   4649817134.5607920     
   4512236876.8118134     
   4376962750.0262728     
   4244148157.0047412     
   4113990894.4201269     
   5252886129.6331749     
   5055508427.0066700     
   4858851788.7955351     
   4662903680.7304144     
   4467703408.0735836     
   4934531641.9015627     
   4749640804.7814684     
   4565742693.0122261     
   4382878906.0064459     
   4201150062.2207479     
   4636356164.5434151     
   4464346505.3252525     
   4293690693.9654107     
   4124496448.4111233     
   3956940158.4232774     
   4361594357.8486004     
   4203068583.9330540     
   4046363279.2732897     
   3891663620.6866050     
   3739234760.8227649     
   4113990894.4201269     
   3969767169.0630498     
   3827945440.5425062     
   3688795909.3114109     
   3552679874.7506022     
   4467703408.0735836     
   4306027941.5502882     
   4143883220.7133527     
   3981255430.5875158     
   3818147336.9539127     
   4201150062.2207479     
   4046209607.9430847     
   3891286652.5312710     
   3736411713.0318956     
   3581644290.9655433     
   3956940158.4232774     
   3810622012.1674447     
   3665037950.4291649     
   3520292615.3332701     
   3376538158.4913816     
   3739234760.8227649     
   3603480499.6485152     
   3469420767.9199400     
   3337258569.9190350     
   3207265761.2448044     
   3552679874.7506022     
   3429378339.1423507     
   3308961133.9109049     
   3191738314.7115617     
   3078106669.4280515     
   3818147336.9539127     
   3606795533.6526055     
   3396537206.7896776     
   3187327390.5136056     
   2979270538.0952530     
   3581644290.9655433     
   3385323737.2381582     
   3190579237.0010171     
   2997486371.4688039     
   2806263381.2173948     
   3376538158.4913816     
   3194518076.7358079     
   3014534067.7011199     
   2836793765.4324703     
   2661645608.8309894     
   3207265761.2448044     
   3039316994.6049180     
   2873837475.5019631     
   2711169513.0357766     
   2551797041.9437776     
   3078106669.4280515     
   2924524301.0222998     
   2773805359.2868958     
   2626415103.4441819     
   2482960344.8325953     
   5657817888.0937462     
   5890920621.4633675     
   6116383655.6377058     
   6331747687.8947678     
   6536789548.4200096     
   5151461368.9800138     
   5311342929.7088270     
   5467856208.4188423     
   5618105448.5137501     
   5760624702.8402042     
   4643491146.7973022     
   4755559622.5416517     
   4868752418.2413731     
   4980434590.6302834     
   5088680722.1677523     
   4134170751.5461535     
   4224408197.2335486     
   4320567437.2588577     
   4420992041.7805672     
   4524227658.8868399     
   3625020213.5592446     
   3719712890.6845098     
   3825659226.8667674     
   3942796368.6422944     
   4071032283.8588824     
   6536789548.4200096     
   6328742615.2145157     
   6142890540.8528366     
   5965323958.9319887     
   5787034783.6402187     
   5760624702.8402042     
   5652197457.3515263     
   5559775578.3387308     
   5474297358.0408297     
   5390222253.2175531     
   5088680722.1677523     
   5054129336.9662199     
   5030091046.3266029     
   5011359127.6150951     
   4994732017.4269266     
   4524227658.8868399     
   4539133108.6749182     
   4558705012.4298363     
   4580462635.5691757     
   4602681940.7300940     
   4071032283.8588824     
   4112536111.1296468     
   4151381905.0116167     
   4186669986.3912697     
   4217667254.7774029     
   5787034783.6402187     
   5636370122.3051176     
   5489918855.0029001     
   5347596170.2125273     
   5209451065.0507965     
   5390222253.2175531     
   5248989305.9519787     
   5110990059.2224884     
   4976267245.7027216     
   4844916009.3420982     
   4994732017.4269266     
   4867336056.3738308     
   4743136508.5513439     
   4622102156.2369633     
   4504274465.9821043     
   4602681940.7300940     
   4494082684.7879372     
   4389702331.2345009     
   4289224267.4085784     
   4192558829.1467681     
   4217667254.7774029     
   4133200415.7225127     
   4055214863.0257058     
   3982859931.0719814     
   3915840141.4058037     
   5209451065.0507965     
   5068032092.2020264     
   4927562875.8407297     
   4788091488.9581528     
   4649817134.5607920     
   4844916009.3420982     
   4720993944.0641222     
   4598885308.8046942     
   4478724086.4394617     
   4360762525.1284552     
   4504274465.9821043     
   4396145826.6793184     
   4290594185.9356914     
   4187804350.5378008     
   4088046362.3103924     
   4192558829.1467681     
   4098406566.4682069     
   4007432153.1918674     
   3919837106.0572648     
   3835878452.2245936     
   3915840141.4058037     
   3833712317.5894418     
   3755130354.1849155     
   3680282272.0274553     
   3609389548.4891825     
   4649817134.5607920     
   4512236876.8118134     
   4376962750.0262728     
   4244148157.0047412     
   4113990894.4201269     
   4360762525.1284552     
   4233752333.1398458     
   4109444172.1832762     
   3988045023.8287754     
   3869816523.3603201     
   4088046362.3103924     
   3973007003.6016068     
   3861270860.6088457     
   3753100029.7664928     
   3648824351.5827060     
   3835878452.2245936     
   3734220524.7160239     
   3636685994.0113721     
   3543587330.3771343     
   3455318982.3826632     
   3609389548.4891825     
   3522426907.3022704     
   3440626669.9976482     
   3364335827.1252155     
   3293996440.9898715     
   4113990894.4201269     
   3969767169.0630498     
   3827945440.5425062     
   3688795909.3114109     
   3552679874.7506022     
   3869816523.3603201     
   3739124945.1551008     
   3611590061.0294819     
   3487542418.4557085     
   3367405913.4766240     
   3648824351.5827060     
   3531920296.6468506     
   3418966502.1492615     
   3310341139.3585830     
   3206512204.3506999     
   3455318982.3826632     
   3352362493.7556434     
   3254155534.6539135     
   3161102764.6899652     
   3073688467.6901221     
   3293996440.9898715     
   3204958410.7893844     
   3121427523.4171505     
   3043806288.3530908     
   2972560625.8138824     
   3552679874.7506022     
   3429378339.1423507     
   3308961133.9109049     
   3191738314.7115617     
   3078106669.4280515     
   3367405913.4766240     
   3256614238.5878458     
   3149240321.5668044     
   3045630782.8056717     
   2946214558.9799190     
   3206512204.3506999     
   3108296083.3534546     
   3014027033.7626362     
   2924074465.2102799     
   2838881264.7248826     
   3073688467.6901221     
   2988058212.4048634     
   2906868086.3020835     
   2830491187.1385379     
   2759361183.8387156     
   2972560625.8138824     
   2899394948.7206745     
   2831087046.4766455     
   2767991522.0485902     
   2710508172.7752495     
   3078106669.4280515     
   2924524301.0222998     
   2773805359.2868958     
   2626415103.4441819     
   2482960344.8325953     
   2946214558.9799190     
   2805374654.9912310     
   2668752534.8143344     
   2536975117.2907467     
   2410834528.7660785     
   2838881264.7248826     
   2712314178.9392600     
   2591444303.8385925     
   2477023124.2091918     
   2369966634.2979708     
   2759361183.8387156     
   2648147450.0639410     
   2544125597.9247832     
   2448100853.0846896     
   2361015752.8180237     
   2710508172.7752495     
   2615062101.3791003     
   2528198332.9629359     
   2450688280.9031491     
   2383396506.9147758     
   3625020213.5592446     
   3719712890.6845098     
   3825659226.8667674     
   3942796368.6422944     
   4071032283.8588824     
   3138005304.0829496     
   3255536667.7626171     
   3382486005.4543152     
   3518385011.9508924     
   3662776563.7685442     
   2694781196.2610564     
   2830541988.1063609     
   2973614459.7299051     
   3122916955.4290471     
   3277538983.6129737     
   2298836589.5419383     
   2449520789.0595508     
   2604926009.5855293     
   2763129997.9761524     
   2922703168.5459909     
   1955380054.3618140     
   2119426977.9246848     
   2284829380.8717823     
   2448626839.1101594     
   2608860941.8040810     
   4071032283.8588824     
   4112536111.1296468     
   4151381905.0116167     
   4186669986.3912697     
   4217667254.7774029     
   3662776563.7685442     
   3702218463.4413419     
   3740273502.0991106     
   3776041383.7834878     
   3808771641.7972493     
   3277538983.6129737     
   3320792046.9907708     
   3364283855.7248001     
   3407190409.7785439     
   3448832828.7469745     
   2922703168.5459909     
   2975640425.4018974     
   3030799636.4599261     
   3087498322.3361416     
   3145203367.4539213     
   2608860941.8040810     
   2676814013.7094488     
   2749276201.9579048     
   2825739688.8797641     
   2905852130.5845437     
   4217667254.7774029     
   4133200415.7225127     
   4055214863.0257058     
   3982859931.0719814     
   3915840141.4058037     
   3808771641.7972493     
   3755746556.2763486     
   3708703797.2278714     
   3667169890.6036119     
   3631049664.9904232     
   3448832828.7469745     
   3422682833.4784107     
   3401639058.4988360     
   3385473055.4115624     
   3374170305.9791780     
   3145203367.4539213     
   3141630415.0417709     
   3141697254.6900296     
   3145304711.5524774     
   3152440276.9692483     
   2905852130.5845437     
   2920890030.9305463     
   2937326365.9341755     
   2955107995.9587617     
   2974197403.3513341     
   3915840141.4058037     
   3833712317.5894418     
   3755130354.1849155     
   3680282272.0274553     
   3609389548.4891825     
   3631049664.9904232     
   3560016595.9278941     
   3493312010.9865575     
   3431153741.0460925     
   3373800021.7352571     
   3374170305.9791780     
   3315639820.1262336     
   3262428175.6386118     
   3214764456.5223427     
   3172925737.1120453     
   3152440276.9692483     
   3107482523.3021436     
   3069025232.3672714     
   3037277315.9750338     
   3012503386.9800758     
   2974197403.3513341     
   2943232966.9329686     
   2920104133.3801227     
   2904957710.3117366     
   2898005251.2275023     
   3609389548.4891825     
   3522426907.3022704     
   3440626669.9976482     
   3364335827.1252155     
   3293996440.9898715     
   3373800021.7352571     
   3303043699.4699931     
   3237961235.7181787     
   3178884155.8429766     
   3126214059.6372647     
   3172925737.1120453     
   3117382763.4258809     
   3067886955.6960731     
   3024726908.8566523     
   2988236217.4361405     
   3012503386.9800758     
   2970869622.0827556     
   2935465998.6188869     
   2906517028.9014025     
   2884270747.6619129     
   2898005251.2275023     
   2868580026.5203586     
   2845338590.1713595     
   2828432378.9121971     
   2818021433.1809678     
   3293996440.9898715     
   3204958410.7893844     
   3121427523.4171505     
   3043806288.3530908     
   2972560625.8138824     
   3126214059.6372647     
   3050664128.7592049     
   2981444543.0456924     
   2918956755.5139465     
   2863655371.9487863     
   2988236217.4361405     
   2926284461.1606178     
   2871478530.5821552     
   2824187734.4965487     
   2784820562.6227074     
   2884270747.6619129     
   2835507216.7978954     
   2794653675.7567534     
   2762017178.8411279     
   2737929710.3402400     
   2818021433.1809678     
   2781376891.4432340     
   2753325228.7125835     
   2734090680.8822746     
   2723911447.7541232     
   2972560625.8138824     
   2899394948.7206745     
   2831087046.4766455     
   2767991522.0485902     
   2710508172.7752495     
   2863655371.9487863     
   2803701519.7915149     
   2749534871.8552375     
   2701502621.1144590     
   2659984254.3426337     
   2784820562.6227074     
   2738072051.8480859     
   2697960359.7637239     
   2664791455.6350527     
   2638889110.8109245     
   2737929710.3402400     
   2703739348.9184756     
   2676918246.3034129     
   2657705573.4019942     
   2646346508.5097566     
   2723911447.7541232     
   2700950099.7004952     
   2685968139.0372934     
   2679127266.5767889     
   2680588601.7191601     
   2710508172.7752495     
   2615062101.3791003     
   2528198332.9629359     
   2450688280.9031491     
   2383396506.9147758     
   2659984254.3426337     
   2582857826.4078903     
   2515023898.7070727     
   2457152263.4830790     
   2409958311.8174596     
   2638889110.8109245     
   2579389086.8222733     
   2529640671.6229925     
   2490171638.2342219     
   2461520075.0124803     
   2646346508.5097566     
   2603195236.1258888     
   2570017554.8007746     
   2547190119.3052225     
   2535081126.9139285     
   2680588601.7191601     
   2652026985.8355098     
   2633483461.6192641     
   2625200254.7541628     
   2627406272.1564040     
   1955380054.3618140     
   2119426977.9246848     
   2284829380.8717823     
   2448626839.1101594     
   2608860941.8040810     
   1653900073.8473451     
   1820337994.2295604     
   1988472384.7259293     
   2155606762.6163406     
   2319983047.1763225     
   1393729066.9521008     
   1571091094.8447781     
   1749457385.8469629     
   1926824242.9297833     
   2101941314.5841086     
   1207183099.0926099     
   1399110039.6508377     
   1590613104.2640474     
   1780915516.9365280     
   1969558721.2909043     
   1136948509.4937003     
   1335248711.1902561     
   1533855090.5221119     
   1732767647.4892685     
   1931986382.0917261     
   2608860941.8040810     
   2676814013.7094488     
   2749276201.9579048     
   2825739688.8797641     
   2905852130.5845437     
   2319983047.1763225     
   2407042864.1361799     
   2496541216.1276345     
   2588089282.9699640     
   2681412163.4552565     
   2101941314.5841086     
   2205694344.4622455     
   2309350416.5204425     
   2412673879.1552939     
   2515498295.4603028     
   1969558721.2909043     
   2086706826.7313635     
   2200992394.6334491     
   2312340579.2431550     
   2420699360.8208699     
   1931986382.0917261     
   2058642557.6333220     
   2179861248.2863183     
   2295642454.0507135     
   2405986174.9265089     
   2905852130.5845437     
   2920890030.9305463     
   2937326365.9341755     
   2955107995.9587617     
   2974197403.3513341     
   2681412163.4552565     
   2703308913.0497565     
   2727619143.0113001     
   2754326926.5157275     
   2783425761.7526927     
   2515498295.4603028     
   2544095174.3372068     
   2576142546.9222164     
   2611642757.9761443     
   2650602207.8627052     
   2420699360.8208699     
   2454378352.3531294     
   2492541569.6793728     
   2535192557.8451853     
   2582335714.7922506     
   2405986174.9265089     
   2441591094.4561653     
   2482701840.1993151     
   2529318412.1559587     
   2581440810.3260946     
   2974197403.3513341     
   2943232966.9329686     
   2920104133.3801227     
   2904957710.3117366     
   2898005251.2275023     
   2783425761.7526927     
   2767082904.2340498     
   2758175109.6886272     
   2756790180.4396310     
   2763049468.8558602     
   2650602207.8627052     
   2645707910.5417070     
   2647557468.4909487     
   2656188052.7035956     
   2671650160.1217723     
   2582335714.7922506     
   2585382779.0931673     
   2594207178.3772235     
   2608816682.1080794     
   2629222008.2563143     
   2581440810.3260946     
   2588944064.7293639     
   2601038907.8519201     
   2617725339.6937666     
   2639003360.2549009     
   2898005251.2275023     
   2868580026.5203586     
   2845338590.1713595     
   2828432378.9121971     
   2818021433.1809678     
   2763049468.8558602     
   2741235843.4873319     
   2726286581.5763197     
   2718306911.9604449     
   2717406452.9753861     
   2671650160.1217723     
   2655720888.9811454     
   2647295440.9849672     
   2646429228.5516906     
   2653179262.6989670     
   2629222008.2563143     
   2616695179.6235824     
   2612258103.1943932     
   2615926458.6107140     
   2627716248.4408360     
   2639003360.2549009     
   2626792678.4171662     
   2623197352.2151904     
   2628217381.6489692     
   2641852766.7185097     
   2818021433.1809678     
   2781376891.4432340     
   2753325228.7125835     
   2734090680.8822746     
   2723911447.7541232     
   2717406452.9753861     
   2691070777.1013870     
   2673383154.7802367     
   2664477217.1147552     
   2664491929.8356466     
   2653179262.6989670     
   2634637720.0854197     
   2624699783.8360329     
   2623426284.1435084     
   2630879425.4279542     
   2627716248.4408360     
   2614072675.8724713     
   2608912747.9187436     
   2612251527.6337309     
   2624104252.4154763     
   2641852766.7185097     
   2630025106.4056859     
   2626510522.5933104     
   2631309015.2813830     
   2644420584.4699011     
   2723911447.7541232     
   2700950099.7004952     
   2685968139.0372934     
   2679127266.5767889     
   2680588601.7191601     
   2664491929.8356466     
   2648899354.8166575     
   2641100267.0634770     
   2641185153.4136596     
   2649242863.1375575     
   2630879425.4279542     
   2620511100.3606000     
   2617724851.1766710     
   2622559924.1304464     
   2635054455.4686475     
   2624104252.4154763     
   2616675002.0926604     
   2616611490.1292768     
   2623923122.4760466     
   2638618988.9050789     
   2644420584.4699011     
   2637626871.9396434     
   2637991208.1366396     
   2645513593.0608959     
   2660194026.7124076     
   2680588601.7191601     
   2652026985.8355098     
   2633483461.6192641     
   2625200254.7541628     
   2627406272.1564040     
   2649242863.1375575     
   2628857115.8527341     
   2618714311.1014309     
   2618957533.2181602     
   2629718939.0981307     
   2635054455.4686475     
   2620581287.3144746     
   2616590926.8327689     
   2623149632.9030786     
   2640317505.1572084     
   2638618988.9050789     
   2627468658.3817315     
   2627100928.8447156     
   2637532992.7055717     
   2658780255.8821073     
   2660194026.7124076     
   2649540294.1762452     
   2650063575.8950992     
   2661763871.8689923     
   2684641182.0979052     
   1136948509.4937003     
   1335248711.1902561     
   1533855090.5221119     
   1732767647.4892685     
   1931986382.0917261     
   1207183099.1438379     
   1399110039.6945901     
   1590613104.3011005     
   1780915516.9672847     
   1969558721.3154690     
   1393729067.0349374     
   1571091094.9193194     
   1749457385.9132502     
   1926824242.9878044     
   2101941314.6336975     
   1653900073.9423490     
   1820337994.3197544     
   1988472384.8103271     
   2155606762.6942830     
   2319983047.2472820     
   1955380054.4554892     
   2119426978.0185237     
   2284829380.9642186     
   2448626839.2001634     
   2608860941.8909917     
   1931986382.0917261     
   2058642557.6333220     
   2179861248.2863183     
   2295642454.0507135     
   2405986174.9265089     
   1969558721.3154690     
   2086706826.7689950     
   2200992394.6844597     
   2312340579.3080001     
   2420699360.9000678     
   2101941314.6336975     
   2205694344.5334468     
   2309350416.6137681     
   2412673879.2713742     
   2515498295.5998278     
   2319983047.2472820     
   2407042864.2325463     
   2496541216.2500567     
   2588089283.1190434     
   2681412163.6315889     
   2608860941.8909917     
   2676814013.8213530     
   2749276202.0954914     
   2825739689.0434141     
   2905852130.7745218     
   2405986174.9265089     
   2441591094.4561653     
   2482701840.1993151     
   2529318412.1559587     
   2581440810.3260946     
   2420699360.9000678     
   2454378352.3850350     
   2492541569.6602926     
   2535192557.7712331     
   2582335714.6594982     
   2515498295.5998278     
   2544095174.3994317     
   2576142546.9005280     
   2611642757.8636470     
   2650602207.6523924     
   2681412163.6315889     
   2703308913.1380219     
   2727619143.0029311     
   2754326926.4018693     
   2783425761.5243239     
   2905852130.7745218     
   2920890031.0393829     
   2937326365.9525461     
   2955107995.8772011     
   2974197403.1602173     
   2581440810.3260946     
   2588944064.7293639     
   2601038907.8519201     
   2617725339.6937666     
   2639003360.2549009     
   2582335714.6594982     
   2585382779.0226560     
   2594207178.3671780     
   2608816682.1568666     
   2629222008.3620725     
   2650602207.6523924     
   2645707910.4387403     
   2647557468.4902463     
   2656188052.8003235     
   2671650160.3107753     
   2783425761.5243239     
   2767082904.1433201     
   2758175109.7258220     
   2756790180.5952692     
   2763049469.1201138     
   2974197403.1602173     
   2943232966.8995166     
   2920104133.4888439     
   2904957710.5471287     
   2898005251.5736017     
   2639003360.2549009     
   2626792678.4171662     
   2623197352.2151904     
   2628217381.6489692     
   2641852766.7185097     
   2629222008.3620725     
   2616695179.7528386     
   2612258103.3553805     
   2615926458.8112364     
   2627716248.6883283     
   2671650160.3107753     
   2655720889.2126794     
   2647295441.2762628     
   2646429228.9193306     
   2653179263.1589661     
   2763049469.1201138     
   2741235843.8012013     
   2726286581.9666600     
   2718306912.4535637     
   2717406453.5971618     
   2898005251.5736017     
   2868580026.9056602     
   2845338590.6325507     
   2828432379.4859056     
   2818021433.9038653     
   2641852766.7185097     
   2630025106.4056859     
   2626510522.5933104     
   2631309015.2813830     
   2644420584.4699011     
   2627716248.6883283     
   2614072675.9154954     
   2608912747.7433333     
   2612251527.2270679     
   2624104251.7661686     
   2653179263.1589661     
   2634637720.1535583     
   2624699783.4837394     
   2623426283.3441978     
   2630879424.1576419     
   2717406453.5971618     
   2691070777.1725998     
   2673383154.2566061     
   2664477215.9541292     
   2664491927.9990287     
   2818021433.9038653     
   2781376891.4934168     
   2753325228.0290852     
   2734090679.4055185     
   2723911445.4273539     
   2644420584.4699011     
   2637626871.9396434     
   2637991208.1366396     
   2645513593.0608959     
   2660194026.7124076     
   2624104251.7661686     
   2616675000.5803385     
   2616611487.6050773     
   2623923118.7949762     
   2638618983.9258623     
   2630879424.1576419     
   2620511097.7723708     
   2617724846.9874401     
   2622559918.0593295     
   2635054447.2366495     
   2664491927.9990287     
   2648899351.6771727     
   2641100262.2176714     
   2641185146.4515529     
   2649242853.6420999     
   2723911445.4273539     
   2700950096.5884032     
   2685968134.6332021     
   2679127260.3509746     
   2680588593.1176009     
   2660194026.7124076     
   2649540294.1762452     
   2650063575.8950992     
   2661763871.8689923     
   2684641182.0979052     
   2638618983.9258623     
   2627468660.6237645     
   2627100938.5054474     
   2637533009.9401965     
   2658780280.7955751     
   2635054447.2366495     
   2620581290.0616741     
   2616590940.8349810     
   2623149658.3958983     
   2640317542.3268285     
   2649242853.6420999     
   2628857117.6187835     
   2618714324.3526540     
   2618957558.1859264     
   2629718976.0191450     
   2680588593.1176009     
   2652026985.4471927     
   2633483469.4403558     
   2625200270.8807106     
   2627406296.8006983     
   1955380054.4554892     
   2119426978.0185237     
   2284829380.9642186     
   2448626839.2001634     
   2608860941.8909917     
   2298836589.6268845     
   2449520789.1481185     
   2604926009.6766763     
   2763129998.0690861     
   2922703168.6401062     
   2694781196.3337021     
   2830541988.1841106     
   2973614459.8122978     
   3122916955.5156150     
   3277538983.7032461     
   3138005304.1408386     
   3255536667.8254690     
   3382486005.5222101     
   3518385012.0237050     
   3662776563.8459759     
   3625020213.6005297     
   3719712890.7292776     
   3825659226.9155693     
   3942796368.6953154     
   4071032283.9160032     
   2608860941.8909917     
   2676814013.8213530     
   2749276202.0954914     
   2825739689.0434141     
   2905852130.7745218     
   2922703168.6401062     
   2975640425.5192857     
   3030799636.6015749     
   3087498322.5028639     
   3145203367.6464462     
   3277538983.7032461     
   3320792047.1030107     
   3364283855.8602943     
   3407190409.9385624     
   3448832828.9327841     
   3662776563.8459759     
   3702218463.5395918     
   3740273502.2196941     
   3776041383.9280543     
   3808771641.9675322     
   4071032283.9160032     
   4112536111.2064943     
   4151381905.1098266     
   4186669986.5127354     
   4217667254.9241652     
   2905852130.7745218     
   2920890031.0393829     
   2937326365.9525461     
   2955107995.8772011     
   2974197403.1602173     
   3145203367.6464462     
   3141630415.1716685     
   3141697254.7506704     
   3145304711.5368638     
   3152440276.8700304     
   3448832828.9327841     
   3422682833.6168833     
   3401639058.5858407     
   3385473055.4422927     
   3374170305.9482265     
   3808771641.9675322     
   3755746556.4097085     
   3708703797.3224440     
   3667169890.6565108     
   3631049664.9979234     
   4217667254.9241652     
   4133200415.8370590     
   4055214863.1081886     
   3982859931.1211662     
   3915840141.4194045     
   2974197403.1602173     
   2943232966.8995166     
   2920104133.4888439     
   2904957710.5471287     
   2898005251.5736017     
   3152440276.8700304     
   3107482523.3914218     
   3069025232.6380625     
   3037277316.4205427     
   3012503387.5933576     
   3374170305.9482265     
   3315639820.3036642     
   3262428176.0249109     
   3214764457.1185665     
   3172925737.9196029     
   3631049664.9979234     
   3560016596.1503615     
   3493312011.4306498     
   3431153741.7194357     
   3373800022.6463976     
   3915840141.4194045     
   3833712317.8103070     
   3755130354.6244583     
   3680282272.6983967     
   3609389549.4056573     
   2898005251.5736017     
   2868580026.9056602     
   2845338590.6325507     
   2828432379.4859056     
   2818021433.9038653     
   3012503387.5933576     
   2970869622.7602062     
   2935465999.4006338     
   2906517029.8286734     
   2884270748.7773581     
   3172925737.9196029     
   3117382764.2697349     
   3067886956.6167707     
   3024726909.8973837     
   2988236218.6434913     
   3373800022.6463976     
   3303043700.3422503     
   3237961236.5892315     
   3178884156.7546487     
   3126214060.6370068     
   3609389549.4056573     
   3522426908.0645990     
   3440626670.6374068     
   3364335827.6792793     
   3293996441.5027170     
   2818021433.9038653     
   2781376891.4934168     
   2753325228.0290852     
   2734090679.4055185     
   2723911445.4273539     
   2884270748.7773581     
   2835507217.2689104     
   2794653675.5377493     
   2762017177.8850913     
   2737929708.5995140     
   2988236218.6434913     
   2926284461.8519468     
   2871478530.7383633     
   2824187734.0945721     
   2784820561.6354828     
   3126214060.6370068     
   3050664129.4387593     
   2981444543.4235034     
   2918956755.6031761     
   2863655371.7565751     
   3293996441.5027170     
   3204958411.2128901     
   3121427523.8163776     
   3043806288.7882895     
   2972560626.3393650     
   2723911445.4273539     
   2700950096.5884032     
   2685968134.6332021     
   2679127260.3509746     
   2680588593.1176009     
   2737929708.5995140     
   2703739347.3649092     
   2676918244.6010671     
   2657705571.1915283     
   2646346505.4065685     
   2784820561.6354828     
   2738072051.7977238     
   2697960360.4683657     
   2664791456.8946428     
   2638889112.4052515     
   2863655371.7565751     
   2803701520.9945164     
   2749534874.4045067     
   2701502624.9537935     
   2659984259.4077635     
   2972560626.3393650     
   2899394950.7606797     
   2831087050.0864096     
   2767991527.2909360     
   2710508179.7226372     
   2680588593.1176009     
   2652026985.4471927     
   2633483469.4403558     
   2625200270.8807106     
   2627406296.8006983     
   2646346505.4065685     
   2603195238.4847918     
   2570017562.5443974     
   2547190132.4484725     
   2535081145.5767264     
   2638889112.4052515     
   2579389092.0632381     
   2529640680.4009199     
   2490171650.5145845     
   2461520090.8451014     
   2659984259.4077635     
   2582857834.2118826     
   2515023909.1685100     
   2457152276.5719337     
   2409958327.5590944     
   2710508179.7226372     
   2615062110.9652753     
   2528198345.2134299     
   2450688295.8721604     
   2383396524.6817412     
   3625020213.6005297     
   3719712890.7292776     
   3825659226.9155693     
   3942796368.6953154     
   4071032283.9160032     
   4134170751.5690823     
   4224408197.2584682     
   4320567437.2854881     
   4420992041.8087740     
   4524227658.9166155     
   4643491146.8001938     
   4755559622.5456657     
   4868752418.2454596     
   4980434590.6341448     
   5088680722.1717272     
   5151461368.9611969     
   5311342929.6910496     
   5467856208.4003363     
   5618105448.4940939     
   5760624702.8201046     
   5657817888.0512991     
   5890920621.4228868     
   6116383655.5966997     
   6331747687.8526211     
   6536789548.3776293     
   4071032283.9160032     
   4112536111.2064943     
   4151381905.1098266     
   4186669986.5127354     
   4217667254.9241652     
   4524227658.9166155     
   4539133108.7195101     
   4558705012.4902515     
   4580462635.6465387     
   4602681940.8257093     
   5088680722.1717272     
   5054129336.9775286     
   5030091046.3453302     
   5011359127.6412354     
   4994732017.4609156     
   5760624702.8201046     
   5652197457.3293352     
   5559775578.3136463     
   5474297358.0114689     
   5390222253.1831102     
   6536789548.3776293     
   6328742615.1590528     
   6142890540.7829494     
   5965323958.8448935     
   5787034783.5334978     
   4217667254.9241652     
   4133200415.8370590     
   4055214863.1081886     
   3982859931.1211662     
   3915840141.4194045     
   4602681940.8257093     
   4494082684.8525581     
   4389702331.2699175     
   4289224267.4159050     
   4192558829.1263452     
   4994732017.4609156     
   4867336056.3822622     
   4743136508.5380316     
   4622102156.2055025     
   4504274465.9357853     
   5390222253.1831102     
   5248989305.8999805     
   5110990059.1591349     
   4976267245.6341457     
   4844916009.2745867     
   5787034783.5334978     
   5636370122.1899061     
   5489918854.8882380     
   5347596170.1071825     
   5209451064.9640064     
   3915840141.4194045     
   3833712317.8103070     
   3755130354.6244583     
   3680282272.6983967     
   3609389549.4056573     
   4192558829.1263452     
   4098406566.6235209     
   4007432153.5294781     
   3919837106.5855594     
   3835878452.9540639     
   4504274465.9357853     
   4396145826.7674751     
   4290594186.1585293     
   4187804350.8975396     
   4088046362.8119082     
   4844916009.2745867     
   4720993944.0840435     
   4598885308.9049587     
   4478724086.6147451     
   4360762525.3763237     
   5209451064.9640064     
   5068032092.1527557     
   4927562875.8141975     
   4788091488.9406328     
   4649817134.5412598     
   3609389549.4056573     
   3522426908.0645990     
   3440626670.6374068     
   3364335827.6792793     
   3293996441.5027170     
   3835878452.9540639     
   3734220525.1423354     
   3636685994.1413293     
   3543587330.2209339     
   3455318981.9553642     
   4088046362.8119082     
   3973007003.7097921     
   3861270860.3117423     
   3753100029.0533705     
   3648824350.4445934     
   4360762525.3763237     
   4233752332.9666648     
   4109444171.5644660     
   3988045022.7389140     
   3869816521.7728472     
   4649817134.5412598     
   4512236876.4064407     
   4376962749.2036572     
   4244148155.7308693     
   4113990892.6574478     
   3293996441.5027170     
   3204958411.2128901     
   3121427523.8163776     
   3043806288.7882895     
   2972560626.3393650     
   3455318981.9553642     
   3352362493.3126378     
   3254155534.2761083     
   3161102764.4567137     
   3073688467.6783104     
   3648824350.4445934     
   3531920295.5052724     
   3418966501.0939302     
   3310341138.4807801     
   3206512203.7428975     
   3869816521.7728472     
   3739124943.5215874     
   3611590059.4417801     
   3487542417.0097356     
   3367405912.2726803     
   4113990892.6574478     
   3969767167.1642008     
   3827945438.5958509     
   3688795907.4109793     
   3552679872.9970636     
   2972560626.3393650     
   2899394950.7606797     
   2831087050.0864096     
   2767991527.2909360     
   2710508179.7226372     
   3073688467.6783104     
   2988058213.6622849     
   2906868088.8848252     
   2830491191.1050782     
   2759361189.2503977     
   3206512203.7428975     
   3108296083.9129500     
   3014027035.5640669     
   2924074468.3266463     
   2838881269.2265716     
   3367405912.2726803     
   3256614238.5686951     
   3149240322.8418422     
   3045630785.4806652     
   2946214563.1549516     
   3552679872.9970636     
   3429378338.6838751     
   3308961134.9050503     
   3191738317.3127861     
   3078106673.7852187     
   2710508179.7226372     
   2615062110.9652753     
   2528198345.2134299     
   2450688295.8721604     
   2383396524.6817412     
   2759361189.2503977     
   2648147457.3921733     
   2544125607.0291944     
   2448100863.8609300     
   2361015765.2019210     
   2838881269.2265716     
   2712314184.5342460     
   2591444310.1653309     
   2477023130.9332814     
   2369966641.1231756     
   2946214563.1549516     
   2805374659.4856410     
   2668752539.0128517     
   2536975120.5812578     
   2410834530.5531030     
   3078106673.7852187     
   2924524305.1025720     
   2773805362.2175455     
   2626415104.3241043     
   2482960342.7436094     
   5657817888.0512991     
   5890920621.4228868     
   6116383655.5966997     
   6331747687.8526211     
   6536789548.3776293     
   6491655852.8236160     
   6586869823.2783909     
   6757417281.1583242     
   6961216740.5314045     
   7171607891.6744041     
   7982345719.8841095     
   7734951294.1117973     
   7669129034.6512051     
   7669571373.2250080     
   7666346903.4151621     
   10130333653.378489     
   9322005582.8215694     
   8826329419.3938179     
   8443468819.7375526     
   8035614401.2621536     
   12935705725.149109     
   11340745914.093452     
   10210184853.473846     
   9272676515.4162331     
   8303777791.2193308     
   6536789548.3776293     
   6328742615.1590528     
   6142890540.7829494     
   5965323958.8448935     
   5787034783.5334978     
   7171607891.6744041     
   6910971939.2593241     
   6658238223.6421318     
   6409547837.7244596     
   6161755475.4735031     
   7666346903.4151621     
   7381098430.0811520     
   7101241821.1158304     
   6826855262.9933329     
   6558142298.1250772     
   8035614401.2621536     
   7746773008.9801283     
   7473599022.6230402     
   7214134354.2309780     
   6968385966.4100628     
   8303777791.2193308     
   8020559293.6497307     
   7779444840.4105854     
   7569749162.4066000     
   7386499618.8812685     
   5787034783.5334978     
   5636370122.1899061     
   5489918854.8882380     
   5347596170.1071825     
   5209451064.9640064     
   6161755475.4735031     
   6012602945.6378078     
   5864803111.7286835     
   5718395541.4158001     
   5573437925.6907082     
   6558142298.1250772     
   6407356548.9374552     
   6254956571.7790556     
   6100911354.4997215     
   5945251194.7971601     
   6968385966.4100628     
   6814172811.3779984     
   6655355376.9764986     
   6491650840.7887897     
   6323008438.4647379     
   7386499618.8812685     
   7228053512.4788399     
   7062100853.8164272     
   6887946445.4738350     
   6705401836.6171122     
   5209451064.9640064     
   5068032092.1527557     
   4927562875.8141975     
   4788091488.9406328     
   4649817134.5412598     
   5573437925.6907082     
   5413969561.4435663     
   5255427651.9275990     
   5097856041.3464708     
   4941363295.8658314     
   5945251194.7971601     
   5771583794.4482498     
   5599298658.5486774     
   5428419768.2759285     
   5259004688.8819675     
   6323008438.4647379     
   6138481592.0960941     
   5956209499.9527159     
   5776166255.6547251     
   5598372150.7196379     
   6705401836.6171122     
   6512850405.7774162     
   6323801604.9855480     
   6138135402.8214798     
   5955823992.9496984     
   4649817134.5412598     
   4512236876.4064407     
   4376962749.2036572     
   4244148155.7308693     
   4113990892.6574478     
   4941363295.8658314     
   4794309585.6640358     
   4648578008.5140533     
   4504287197.9986258     
   4361594356.2955589     
   5259004688.8819675     
   5102696513.7890244     
   4946765594.7329855     
   4791283142.3452444     
   4636356163.2641973     
   5598372150.7196379     
   5433143802.1171417     
   5267410427.9166050     
   5101188736.9251747     
   4934531640.9283228     
   5955823992.9496984     
   5782083692.7694635     
   5607034330.4648304     
   5430635347.5769358     
   5252886128.9726086     
   4113990892.6574478     
   3969767167.1642008     
   3827945438.5958509     
   3688795907.4109793     
   3552679872.9970636     
   4361594356.2955589     
   4203068582.2665286     
   4046363277.5324125     
   3891663618.9116478     
   3739234759.0541739     
   4636356163.2641973     
   4464346504.1530399     
   4293690692.9132490     
   4124496447.4907999     
   3956940157.6424828     
   4934531640.9283228     
   4749640804.3440943     
   4565742693.1186867     
   4382878906.6633110     
   4201150063.4287481     
   5252886128.9726086     
   5055508427.5227156     
   4858851790.5089808     
   4662903683.6623907     
   4467703412.2399073     
   3552679872.9970636     
   3429378338.6838751     
   3308961134.9050503     
   3191738317.3127861     
   3078106673.7852187     
   3739234759.0541739     
   3603480498.9807234     
   3469420768.5091877     
   3337258571.9273577     
   3207265764.8411651     
   3956940157.6424828     
   3810622012.0397592     
   3665037951.0699191     
   3520292616.8657050     
   3376538161.0503054     
   4201150063.4287481     
   4046209609.1389270     
   3891286653.7606068     
   3736411714.3447113     
   3581644292.4208217     
   4467703412.2399073     
   4306027944.8539381     
   4143883223.1121354     
   3981255432.0364413     
   3818147337.4098520     
   3078106673.7852187     
   2924524305.1025720     
   2773805362.2175455     
   2626415104.3241043     
   2482960342.7436094     
   3207265764.8411651     
   3039316997.7658467     
   2873837477.6425633     
   2711169513.5158772     
   2551797040.0579300     
   3376538161.0503054     
   3194518078.9810677     
   3014534069.3738241     
   2836793766.2126956     
   2661645608.3222389     
   3581644292.4208217     
   3385323738.4871960     
   3190579238.1062980     
   2997486372.4435854     
   2806263382.0202866     
   3818147337.4098520     
   3606795533.7547908     
   3396537206.8860927     
   3187327390.9283953     
   2979270539.1462393     
 </DataArray>
 <DataArray  type="Float64" Name="strain" NumberOfComponents="3" format="ascii">
  0.20348691212833583        0.0000000000000000       0.12540708821901622     
  0.18665614853058249       -2.7324631196774814E-002   7.4352255175693896E-002
  0.16982538493282914       -4.4675708723314833E-002   3.5131866344347805E-002
  0.15299462133507580       -5.2053232579620079E-002   7.7459217249779451E-003
  0.13616385773732242       -4.9457202765690503E-002  -7.8055786824156592E-003
  0.15985577531104331        0.0000000000000000        9.6450417417588766E-002
  0.15317777666243648       -2.1844628354773403E-002   6.2691304371357517E-002
  0.14649977801382960       -3.6174646277168224E-002   3.7403277011443054E-002
  0.13982177936522278       -4.2990053767184476E-002   2.0586335337845402E-002
  0.13314378071661592       -4.2290850824822132E-002   1.2240479350564486E-002
  0.12645795570236490        0.0000000000000000        7.4203221077090847E-002
  0.12656936347724512       -1.6364625512771985E-002   5.5280884790094464E-002
  0.12668077125212532       -2.7673583831021611E-002   4.1466275663755416E-002
  0.12679217902700554       -3.3926874954748880E-002   3.2759393698073666E-002
  0.12690358680188574       -3.5124498883953768E-002   2.9160238893049303E-002
  0.10329345330230059        0.0000000000000000        5.8665499197522446E-002
  0.10683090897500842       -1.0884622670770571E-002   5.2120996431904709E-002
  0.11036836464771625       -1.9172521384874998E-002   4.7320862301284843E-002
  0.11390582032042408       -2.4863696142313287E-002   4.4265096805662874E-002
  0.11744327599313188       -2.7958146943085418E-002   4.2953699945038754E-002
   9.0362268110850436E-002   0.0000000000000000        4.9837251778883568E-002
   9.3962413155726399E-002  -5.4046198287691569E-003   5.3211639296788266E-002
   9.7562558200602376E-002  -1.0671458938728388E-002   5.4967036924031376E-002
  0.10116270324547835       -1.5800517329877681E-002   5.5103444660612920E-002
  0.10476284829035432       -2.0791795002217062E-002   5.3620862506532863E-002
  0.13616385773732242       -4.9457202765690503E-002  -7.8055786824156592E-003
  0.13295863074780556       -4.2922748845278323E-002  -3.3896794111959935E-003
  0.12975340375828873       -3.8485000382135912E-002  -3.8870361221690283E-004
  0.12654817676877189       -3.6143957376262970E-002   1.1973487145213492E-003
  0.12334294977925500       -3.5899619827659768E-002   1.3684775690189499E-003
  0.13314378071661592       -4.2290850824822132E-002   1.2240479350564486E-002
  0.12891180750236531       -3.8425255654009421E-002   1.2185173258893820E-002
  0.12467983428811465       -3.5741486458674400E-002   1.1491298189996293E-002
  0.12044786107386403       -3.4239543238817095E-002   1.0158854143871970E-002
  0.11621588785961340       -3.3919425994437591E-002   8.1878411205207335E-003
  0.12690358680188574       -3.5124498883953768E-002   2.9160238893049303E-002
  0.12242122185791522       -3.3927762462740416E-002   2.5548606920280041E-002
  0.11793885691394471       -3.2997972535212909E-002   2.2074760465297903E-002
  0.11345649196997415       -3.2335129101371207E-002   1.8738699528102840E-002
  0.10897412702600365       -3.1939232161215386E-002   1.5540424108694786E-002
  0.11744327599313188       -2.7958146943085418E-002   4.2953699945038754E-002
  0.11348687381445537       -2.9430269271471465E-002   3.6700621572962888E-002
  0.10953047163577879       -3.0254458611751443E-002   3.1361683213687985E-002
  0.10557406945710229       -3.0430714963925354E-002   2.6936884867214010E-002
  0.10161766727842572       -2.9959038327993209E-002   2.3426226533540956E-002
  0.10476284829035432       -2.0791795002217062E-002   5.3620862506532863E-002
  0.10210876337198566       -2.4932776080202498E-002   4.5641217216942274E-002
   9.9454678453617024E-002  -2.7510944688289959E-002   3.9352066435166567E-002
   9.6800593535248364E-002  -2.8526300826479476E-002   3.4753410161205631E-002
   9.4146508616879718E-002  -2.7978844494771005E-002   3.1845248395059519E-002
  0.12334294977925500       -3.5899619827659768E-002   1.3684775690189499E-003
  0.12040620899764337       -3.6396343173149770E-002   6.3424941698578263E-004
  0.11746946821603170       -3.6278482849556398E-002   9.4548076136041770E-005
  0.11453272743442006       -3.5546038856879895E-002  -2.5062645353054330E-004
  0.11159598665280840       -3.4199011195120033E-002  -4.0127417201368809E-004
  0.11621588785961340       -3.3919425994437591E-002   8.1878411205207335E-003
  0.11345940758424411       -3.3993840663018485E-002   7.8283206588985327E-003
  0.11070292730887488       -3.3675493182042805E-002   7.6347943985777128E-003
  0.10794644703350559       -3.2964383551510150E-002   7.6072623395585411E-003
  0.10518996675813636       -3.1860511771420824E-002   7.7457244818405491E-003
  0.10897412702600365       -3.1939232161215386E-002   1.5540424108694786E-002
  0.10636937464699490       -3.1591338152887338E-002   1.5333789817956973E-002
  0.10376462226798612       -3.1072503514529018E-002   1.5264617118638774E-002
  0.10115986988897738       -3.0382728246140463E-002   1.5332906010740163E-002
   9.8555117509968634E-002  -2.9522012347721560E-002   1.5538656494261116E-002
  0.10161766727842572       -2.9959038327993209E-002   2.3426226533540956E-002
   9.9136110185895618E-002  -2.9188835642756164E-002   2.3150656894161147E-002
   9.6654553093365514E-002  -2.8469513847015300E-002   2.2984016236319082E-002
   9.4172996000835410E-002  -2.7801072940770694E-002   2.2926304560014578E-002
   9.1691438908305292E-002  -2.7183512924022324E-002   2.2977521865247839E-002
   9.4146508616879718E-002  -2.7978844494771005E-002   3.1845248395059519E-002
   9.1759614200946374E-002  -2.6786333132624920E-002   3.1278921887511163E-002
   8.9372719785013044E-002  -2.5866524179501596E-002   3.0792991751618565E-002
   8.6985825369079700E-002  -2.5219417635400993E-002   3.0387457987381912E-002
   8.4598930953146328E-002  -2.4845013500323060E-002   3.0062320594800962E-002
  0.11159598665280840       -3.4199011195120033E-002  -4.0127417201368809E-004
  0.10852207069312220       -3.2671867232400870E-002  -1.5929541212947318E-004
  0.10544815473343597       -3.1399074336846605E-002   1.2093745995273020E-004
  0.10237423877374972       -3.0380632508456816E-002   4.3942444423278326E-004
   9.9300322814063535E-002  -2.9616541747232050E-002   7.9616554071082479E-004
  0.10518996675813636       -3.1860511771420824E-002   7.7457244818405491E-003
  0.10218736851417790       -3.0636584628473879E-002   7.5884362462558808E-003
   9.9184770270219519E-002  -2.9565308909368100E-002   7.5355293299293191E-003
   9.6182172026261128E-002  -2.8646684614104037E-002   7.5870037328600384E-003
   9.3179573782302683E-002  -2.7880711742681141E-002   7.7428594550487673E-003
   9.8555117509968634E-002  -2.9522012347721560E-002   1.5538656494261116E-002
   9.5689964188797841E-002  -2.8601302024546624E-002   1.5083800906531129E-002
   9.2824810867627006E-002  -2.7731543481889762E-002   1.4799453845118667E-002
   8.9959657546456184E-002  -2.6912736719750929E-002   1.4685615310023388E-002
   8.7094504225285446E-002  -2.6144881738130343E-002   1.4742285301245966E-002
   9.1691438908305292E-002  -2.7183512924022324E-002   2.2977521865247839E-002
   8.9029857716981881E-002  -2.6566019420619445E-002   2.2326798568695599E-002
   8.6368276525658483E-002  -2.5897778054411284E-002   2.1912711005520821E-002
   8.3706695334335043E-002  -2.5178788825398028E-002   2.1735259175723234E-002
   8.1045114143011673E-002  -2.4409051733579490E-002   2.1794443079302804E-002
   8.4598930953146328E-002  -2.4845013500323060E-002   3.0062320594800962E-002
   8.2207049098730126E-002  -2.4530736816692322E-002   2.9317429232749909E-002
   7.9815167244313895E-002  -2.4064012626932904E-002   2.8875300811135915E-002
   7.7423285389897692E-002  -2.3444840931045121E-002   2.8735935329959064E-002
   7.5031403535481489E-002  -2.2673221729028664E-002   2.8899332789219329E-002
   9.9300322814063535E-002  -2.9616541747232050E-002   7.9616554071082479E-004
   9.6363464822561362E-002  -2.8927990919801472E-002   4.3208974990738280E-004
   9.3426606831059134E-002  -2.8136168892794938E-002   2.3516398027390029E-004
   9.0489748839556960E-002  -2.7241075666211985E-002   2.0538823180939192E-004
   8.7552890848054732E-002  -2.6242711240053618E-002   3.4276250451470425E-004
   9.3179573782302683E-002  -2.7880711742681141E-002   7.7428594550487673E-003
   9.0406644679123738E-002  -2.7158211921046976E-002   7.4957302680627447E-003
   8.7633715575944737E-002  -2.6370006775148308E-002   7.4093088365537879E-003
   8.4860786472765737E-002  -2.5516096304985518E-002   7.4835951605220635E-003
   8.2087857369586792E-002  -2.4596480510558183E-002   7.7185892399668776E-003
   8.7094504225285446E-002  -2.6144881738130343E-002   1.4742285301245966E-002
   8.4479061744737141E-002  -2.5388432922292370E-002   1.4574536842765912E-002
   8.1863619264188808E-002  -2.4603844657501941E-002   1.4561053874070209E-002
   7.9248176783640489E-002  -2.3791116943758659E-002   1.4701836395158846E-002
   7.6632734303092254E-002  -2.2950249781062970E-002   1.4996884406032002E-002
   8.1045114143011673E-002  -2.4409051733579490E-002   2.1794443079302804E-002
   7.8580716019401517E-002  -2.3618653923537875E-002   2.1668509474016891E-002
   7.6116317895791374E-002  -2.2837682539855499E-002   2.1690399092822565E-002
   7.3651919772181246E-002  -2.2066137582531939E-002   2.1860111935720357E-002
   7.1187521648571117E-002  -2.1304019051567646E-002   2.2177648002709736E-002
   7.5031403535481489E-002  -2.2673221729028664E-002   2.8899332789219329E-002
   7.2711607503116893E-002  -2.1848874924783421E-002   2.8777648161815550E-002
   7.0391811470752380E-002  -2.1071520422208952E-002   2.8797344492811169E-002
   6.8072015438387812E-002  -2.0341158221305139E-002   2.8958421782206194E-002
   6.5752219406023243E-002  -1.9657788322072323E-002   2.9260880030000491E-002
   8.7552890848054732E-002  -2.6242711240053618E-002   3.4276250451470425E-004
   8.4272105946651465E-002  -2.5219471325222009E-002   5.7508637021586040E-005
   8.0991321045248255E-002  -2.4249751632620803E-002  -1.6718777453406108E-005
   7.7710536143845016E-002  -2.3333552162249645E-002   1.2008026108875636E-004
   7.4429751242441777E-002  -2.2470872914108653E-002   4.6790575264843426E-004
   8.2087857369586792E-002  -2.4596480510558183E-002   7.7185892399668776E-003
   7.9016615813685881E-002  -2.3661883687483259E-002   7.3971309323331569E-003
   7.5945374257785053E-002  -2.2763030131376288E-002   7.2837328626869091E-003
   7.2874132701884142E-002  -2.1899919842237915E-002   7.3783950310278706E-003
   6.9802891145983315E-002  -2.1072552820067814E-002   7.6811174373559443E-003
   7.6632734303092254E-002  -2.2950249781062970E-002   1.4996884406032002E-002
   7.3768069877663628E-002  -2.2104296049744149E-002   1.4656998613519129E-002
   7.0903405452234905E-002  -2.1276308630131982E-002   1.4522206843963215E-002
   6.8038741026806265E-002  -2.0466287522226071E-002   1.4592509097364793E-002
   6.5174076601377556E-002  -1.9674232726027030E-002   1.4867905373723483E-002
   7.1187521648571117E-002  -2.1304019051567646E-002   2.2177648002709736E-002
   6.8526468138584429E-002  -2.0546708412005274E-002   2.1837111680579689E-002
   6.5865414628597824E-002  -1.9789587128887572E-002   2.1698703166376513E-002
   6.3204361118611177E-002  -1.9032655202214449E-002   2.1762422460100239E-002
   6.0543307608624523E-002  -1.8275912631985997E-002   2.2028269561750781E-002
   6.5752219406023243E-002  -1.9657788322072323E-002   2.9260880030000491E-002
   6.3291810596448478E-002  -1.8989120774266149E-002   2.8937470133514831E-002
   6.0831401786873726E-002  -1.8302865627643050E-002   2.8813221829925684E-002
   5.8370992977298967E-002  -1.7599022882202692E-002   2.8888135119233674E-002
   5.5910584167724209E-002  -1.6877592537945185E-002   2.9162210001438371E-002
   7.4429751242441777E-002  -2.2470872914108653E-002   4.6790575264843426E-004
   7.1746780589104886E-002  -2.1616013130771716E-002   1.6407303802501438E-004
   6.9063809935768106E-002  -2.0723272054813030E-002  -2.9567909138605852E-005
   6.6380839282431298E-002  -1.9792649686232532E-002  -1.1301708884323136E-004
   6.3697868629094434E-002  -1.8824146025030020E-002  -8.6274501088112743E-005
   6.9802891145983315E-002  -2.1072552820067814E-002   7.6811174373559443E-003
   6.7238462463404258E-002  -2.0249355086077836E-002   7.4163234694982760E-003
   6.4674033780825174E-002  -1.9398752661480445E-002   7.2784216756963116E-003
   6.2109605098246021E-002  -1.8520745546274905E-002   7.2674120559502314E-003
   5.9545176415666978E-002  -1.7615333740461980E-002   7.3832946102596608E-003
   6.5174076601377556E-002  -1.9674232726027030E-002   1.4867905373723483E-002
   6.2744890296152461E-002  -1.8882697041384039E-002   1.4631673550617036E-002
   6.0315703990927380E-002  -1.8074233268147652E-002   1.4539034308162779E-002
   5.7886517685702292E-002  -1.7248841406317616E-002   1.4589987646360748E-002
   5.5457331380477176E-002  -1.6406521455894052E-002   1.4784533565210811E-002
   6.0543307608624523E-002  -1.8275912631985997E-002   2.2028269561750781E-002
   5.8266064087349655E-002  -1.7516038996690200E-002   2.1810123281381849E-002
   5.5988820566074821E-002  -1.6749713874815018E-002   2.1752269988261391E-002
   5.3711577044799952E-002  -1.5976937266360160E-002   2.1854709682389235E-002
   5.1434333523525166E-002  -1.5197709171326068E-002   2.2117442363765311E-002
   5.5910584167724209E-002  -1.6877592537945185E-002   2.9162210001438371E-002
   5.3801983836995859E-002  -1.6149380951996389E-002   2.8951672661792605E-002
   5.1693383506267454E-002  -1.5425194481482413E-002   2.8918128715991531E-002
   4.9584783175539104E-002  -1.4705033126403123E-002   2.9061578164035137E-002
   4.7476182844810699E-002  -1.3988896886758195E-002   2.9382021005923131E-002
   6.3697868629094434E-002  -1.8824146025030020E-002  -8.6274501088112743E-005
   6.0148360569502901E-002  -1.7877775795124506E-002  -6.0101744066332063E-004
   5.6598852509911313E-002  -1.7013553720435781E-002  -8.2092247532716822E-004
   5.3049344450319835E-002  -1.6231479800963483E-002  -7.4598960508059919E-004
   4.9499836390728191E-002  -1.5531554036707806E-002  -3.7621882992189271E-004
   5.9545176415666978E-002  -1.7615333740461980E-002   7.3832946102596608E-003
   5.6271864355464496E-002  -1.6724067207702698E-002   6.8458352474337625E-003
   5.2998552295261986E-002  -1.5888495911658890E-002   6.5659299784749381E-003
   4.9725240235059601E-002  -1.5108619852331175E-002   6.5435788033826325E-003
   4.6451928174857104E-002  -1.4384439029718976E-002   6.7787817221578450E-003
   5.5457331380477176E-002  -1.6406521455894052E-002   1.4784533565210811E-002
   5.2422931508619430E-002  -1.5570358620280667E-002   1.4250810697635119E-002
   4.9388531636761879E-002  -1.4763438102882331E-002   1.3937358112882464E-002
   4.6354131764904188E-002  -1.3985759903698644E-002   1.3844175810952097E-002
   4.3319731893046498E-002  -1.3237324022729702E-002   1.3971263791844768E-002
   5.1434333523525166E-002  -1.5197709171326068E-002   2.2117442363765311E-002
   4.8601562028967912E-002  -1.4416650032859080E-002   2.1613908909941006E-002
   4.5768790534410797E-002  -1.3638380294105718E-002   2.1293361927895035E-002
   4.2936019039853716E-002  -1.2862899955066336E-002   2.1155801417627774E-002
   4.0103247545296469E-002  -1.2090209015740871E-002   2.1201227379138626E-002
   4.7476182844810699E-002  -1.3988896886758195E-002   2.9382021005923131E-002
   4.4807755916509817E-002  -1.3262941445437104E-002   2.8935129884351263E-002
   4.2139328988208907E-002  -1.2513322485329131E-002   2.8633941423513276E-002
   3.9470902059908053E-002  -1.1740040006433784E-002   2.8478455623409032E-002
   3.6802475131607171E-002  -1.0943094008751819E-002   2.8468672484039725E-002
   9.0362268110850436E-002   0.0000000000000000        4.9837251778883568E-002
   9.3962413155726399E-002  -5.4046198287691569E-003   5.3211639296788266E-002
   9.7562558200602376E-002  -1.0671458938728388E-002   5.4967036924031376E-002
  0.10116270324547835       -1.5800517329877681E-002   5.5103444660612920E-002
  0.10476284829035432       -2.0791795002217062E-002   5.3620862506532863E-002
   8.2425761608586098E-002   0.0000000000000000        4.4785497803046595E-002
   8.4636018894195530E-002  -4.5744878310648952E-003   4.8269427913943758E-002
   8.6846276179804976E-002  -9.0379557972599129E-003   5.0592572396969446E-002
   8.9056533465414436E-002  -1.3390403898585061E-002   5.1754931252123666E-002
   9.1266790751023855E-002  -1.7631832135040333E-002   5.1756504479406384E-002
   7.4245295276079287E-002   0.0000000000000000        4.0577256251883902E-002
   7.5523869065212301E-002  -3.7443558333606344E-003   4.4143968101833492E-002
   7.6802442854345315E-002  -7.4044526557914461E-003   4.7008098586701720E-002
   7.8081016643478329E-002  -1.0980290467292427E-002   4.9169647706488545E-002
   7.9359590432611329E-002  -1.4471869267863594E-002   5.0628615461194001E-002
   6.5820869113329988E-002   0.0000000000000000        3.7212527125395502E-002
   6.6625963668776669E-002  -2.9142238356563736E-003   4.0835259860457468E-002
   6.7431058224223350E-002  -5.7709495143229749E-003   4.4213615493228157E-002
   6.8236152779670045E-002  -8.5701770359998004E-003   4.7347594023707570E-002
   6.9041247335116726E-002  -1.1311906400686859E-002   5.0237195451895686E-002
   5.7152483120338236E-002   0.0000000000000000        3.4691310423581381E-002
   5.7942302704888683E-002  -2.0840918379521128E-003   3.8343303189815679E-002
   5.8732122289439130E-002  -4.1374463728545054E-003   4.2209123116548800E-002
   5.9521941873989584E-002  -6.1600636047071701E-003   4.6288770203780735E-002
   6.0311761458540045E-002  -8.1519435335101250E-003   5.0582244451511452E-002
  0.10476284829035432       -2.0791795002217062E-002   5.3620862506532863E-002
  0.10210876337198566       -2.4932776080202498E-002   4.5641217216942274E-002
   9.9454678453617024E-002  -2.7510944688289959E-002   3.9352066435166567E-002
   9.6800593535248364E-002  -2.8526300826479476E-002   3.4753410161205631E-002
   9.4146508616879718E-002  -2.7978844494771005E-002   3.1845248395059519E-002
   9.1266790751023855E-002  -1.7631832135040333E-002   5.1756504479406384E-002
   9.0065239855670193E-002  -2.1207372584829753E-002   4.6519540015113769E-002
   8.8863688960316503E-002  -2.3562157326157317E-002   4.2497149089036276E-002
   8.7662138064962855E-002  -2.4696186359023101E-002   3.9689331701173884E-002
   8.6460587169609179E-002  -2.4609459683427010E-002   3.8096087851526572E-002
   7.9359590432611329E-002  -1.4471869267863594E-002   5.0628615461194001E-002
   7.9134652590672913E-002  -1.7481969089457004E-002   4.7792275060763209E-002
   7.8909714748734483E-002  -1.9613369964024699E-002   4.5694587228947821E-002
   7.8684776906796067E-002  -2.0866071891566695E-002   4.4335551965747809E-002
   7.8459839064857623E-002  -2.1240074872083001E-002   4.3715169271163166E-002
   6.9041247335116726E-002  -1.1311906400686859E-002   5.0237195451895686E-002
   6.9317001576993845E-002  -1.3756565594084249E-002   4.9459422353890586E-002
   6.9592755818870949E-002  -1.5664582601892071E-002   4.8944380854901166E-002
   6.9868510060748068E-002  -1.7035957424110317E-002   4.8692070954927419E-002
   7.0144264302625187E-002  -1.7870690060738985E-002   4.8702492653969351E-002
   6.0311761458540045E-002  -8.1519435335101250E-003   5.0582244451511452E-002
   6.0612286814632967E-002  -1.0031162098711500E-002   5.1520981894495908E-002
   6.0912812170725895E-002  -1.1715795239759443E-002   5.2246529966896327E-002
   6.1213337526818803E-002  -1.3205842956653913E-002   5.2758888668712693E-002
   6.1513862882911746E-002  -1.4501305249394983E-002   5.3058057999945049E-002
   9.4146508616879718E-002  -2.7978844494771005E-002   3.1845248395059519E-002
   9.1759614200946374E-002  -2.6786333132624920E-002   3.1278921887511163E-002
   8.9372719785013044E-002  -2.5866524179501596E-002   3.0792991751618565E-002
   8.6985825369079700E-002  -2.5219417635400993E-002   3.0387457987381912E-002
   8.4598930953146328E-002  -2.4845013500323060E-002   3.0062320594800962E-002
   8.6460587169609179E-002  -2.4609459683427010E-002   3.8096087851526572E-002
   8.4200439661586246E-002  -2.3966139422792770E-002   3.7071149749047683E-002
   8.1940292153563327E-002  -2.3430387700544172E-002   3.6219309090733919E-002
   7.9680144645540449E-002  -2.3002204516681078E-002   3.5540565876585190E-002
   7.7419997137517502E-002  -2.2681589871203597E-002   3.5034920106601461E-002
   7.8459839064857623E-002  -2.1240074872083001E-002   4.3715169271163166E-002
   7.6419139537254377E-002  -2.1145945712960655E-002   4.2396753444391005E-002
   7.4378440009651173E-002  -2.0994251221586734E-002   4.1344136134293101E-002
   7.2337740482047955E-002  -2.0784991397961229E-002   4.0557317340869495E-002
   7.0297040954444723E-002  -2.0518166242084121E-002   4.0036297064120221E-002
   7.0144264302625187E-002  -1.7870690060738985E-002   4.8702492653969351E-002
   6.8415713827950836E-002  -1.8325752003128522E-002   4.7255732973540999E-002
   6.6687163353276513E-002  -1.8558114742629282E-002   4.6167472882296147E-002
   6.4958612878602162E-002  -1.8567778279241359E-002   4.5437712380234807E-002
   6.3230062403927825E-002  -1.8354742612964652E-002   4.5066451467356994E-002
   6.1513862882911746E-002  -1.4501305249394983E-002   5.3058057999945049E-002
   6.0190162533675561E-002  -1.5505558293296400E-002   5.1648088336497672E-002
   5.8866462184439375E-002  -1.6121978263671861E-002   5.0689319334743070E-002
   5.7542761835203175E-002  -1.6350565160521500E-002   5.0181750994681196E-002
   5.6219061485966976E-002  -1.6191318983845182E-002   5.0125383316312055E-002
   8.4598930953146328E-002  -2.4845013500323060E-002   3.0062320594800962E-002
   8.2207049098730126E-002  -2.4530736816692322E-002   2.9317429232749909E-002
   7.9815167244313895E-002  -2.4064012626932904E-002   2.8875300811135915E-002
   7.7423285389897692E-002  -2.3444840931045121E-002   2.8735935329959064E-002
   7.5031403535481489E-002  -2.2673221729028664E-002   2.8899332789219329E-002
   7.7419997137517502E-002  -2.2681589871203597E-002   3.5034920106601461E-002
   7.5311424934633803E-002  -2.2358917794593577E-002   3.4458618541591393E-002
   7.3202852731750090E-002  -2.1924562317332769E-002   3.4146173339209135E-002
   7.1094280528866391E-002  -2.1378523439421263E-002   3.4097584499454985E-002
   6.8985708325982692E-002  -2.0720801160859087E-002   3.4312852022328658E-002
   7.0297040954444723E-002  -2.0518166242084121E-002   4.0036297064120221E-002
   6.8432871825284292E-002  -2.0187098772494833E-002   3.9587821190673264E-002
   6.6568702696123888E-002  -1.9785112007732579E-002   3.9364295102045130E-002
   6.4704533566963471E-002  -1.9312205947797478E-002   3.9365718798235708E-002
   6.2840364437803095E-002  -1.8768380592689440E-002   3.9592092279244893E-002
   6.3230062403927825E-002  -1.8354742612964652E-002   4.5066451467356994E-002
   6.1571389770681592E-002  -1.8015279750396060E-002   4.4705037179995515E-002
   5.9912717137435297E-002  -1.7645661698132458E-002   4.4529666099643456E-002
   5.8254044504189036E-002  -1.7245888456173628E-002   4.4540338226301102E-002
   5.6595371870942782E-002  -1.6815960024519787E-002   4.4737053559968140E-002
   5.6219061485966976E-002  -1.6191318983845182E-002   5.0125383316312055E-002
   5.4726978770825663E-002  -1.5843460728297343E-002   4.9810266509558110E-002
   5.3234896055684308E-002  -1.5506211388532247E-002   4.9642286332004418E-002
   5.1742813340542960E-002  -1.5179570964549817E-002   4.9621442783651222E-002
   5.0250730625401641E-002  -1.4863539456350189E-002   4.9747735864498294E-002
   7.5031403535481489E-002  -2.2673221729028664E-002   2.8899332789219329E-002
   7.2711607503116893E-002  -2.1848874924783421E-002   2.8777648161815550E-002
   7.0391811470752380E-002  -2.1071520422208952E-002   2.8797344492811169E-002
   6.8072015438387812E-002  -2.0341158221305139E-002   2.8958421782206194E-002
   6.5752219406023243E-002  -1.9657788322072323E-002   2.9260880030000491E-002
   6.8985708325982692E-002  -2.0720801160859087E-002   3.4312852022328658E-002
   6.6819032619311339E-002  -2.0018196210559433E-002   3.4068802904114792E-002
   6.4652356912639999E-002  -1.9337509317435699E-002   3.3989613478888007E-002
   6.2485681205968653E-002  -1.8678740481487800E-002   3.4075283746648311E-002
   6.0319005499297335E-002  -1.8041889702715697E-002   3.4325813707395680E-002
   6.2840364437803095E-002  -1.8768380592689440E-002   3.9592092279244893E-002
   6.0850287791412716E-002  -1.8187517496335480E-002   3.9250752914715810E-002
   5.8860211145022372E-002  -1.7603498212662386E-002   3.9097751977761525E-002
   5.6870134498632055E-002  -1.7016322741670267E-002   3.9133089468382093E-002
   5.4880057852241669E-002  -1.6425991083359126E-002   3.9356765386577411E-002
   5.6595371870942782E-002  -1.6815960024519787E-002   4.4737053559968140E-002
   5.4805373019421191E-002  -1.6356838782111496E-002   4.4323498193618721E-002
   5.3015374167899552E-002  -1.5869487107889074E-002   4.4121759989431769E-002
   5.1225375316377962E-002  -1.5353905001852859E-002   4.4131838947407596E-002
   4.9435376464856379E-002  -1.4810092464002556E-002   4.4353735067545912E-002
   5.0250730625401641E-002  -1.4863539456350189E-002   4.9747735864498294E-002
   4.8684288303336570E-002  -1.4526160067887511E-002   4.9287038740823297E-002
   4.7117845981271514E-002  -1.4135476003115828E-002   4.9061637513898845E-002
   4.5551403659206430E-002  -1.3691487262035300E-002   4.9071532183724530E-002
   4.3984961337141387E-002  -1.3194193844645929E-002   4.9316722750300857E-002
   6.5752219406023243E-002  -1.9657788322072323E-002   2.9260880030000491E-002
   6.3291810596448478E-002  -1.8989120774266149E-002   2.8937470133514831E-002
   6.0831401786873726E-002  -1.8302865627643050E-002   2.8813221829925684E-002
   5.8370992977298967E-002  -1.7599022882202692E-002   2.8888135119233674E-002
   5.5910584167724209E-002  -1.6877592537945185E-002   2.9162210001438371E-002
   6.0319005499297335E-002  -1.8041889702715697E-002   3.4325813707395680E-002
   5.8055935577853907E-002  -1.7410182224495946E-002   3.4009456893259016E-002
   5.5792865656410520E-002  -1.6766843290204975E-002   3.3888616262488444E-002
   5.3529795734967134E-002  -1.6111872899842540E-002   3.3963291815083792E-002
   5.1266725813523706E-002  -1.5445271053408982E-002   3.4233483551044969E-002
   5.4880057852241669E-002  -1.6425991083359126E-002   3.9356765386577411E-002
   5.2810681409398812E-002  -1.5831243674725701E-002   3.9041505512044244E-002
   5.0741304966555947E-002  -1.5230820952766844E-002   3.8918116411345988E-002
   4.8671928523713090E-002  -1.4624722917482499E-002   3.8986598084482925E-002
   4.6602552080870219E-002  -1.4012949568872668E-002   3.9246950531454966E-002
   4.9435376464856379E-002  -1.4810092464002556E-002   4.4353735067545912E-002
   4.7556048091083172E-002  -1.4252305124955504E-002   4.4033615989870080E-002
   4.5676719717310049E-002  -1.3694798615328768E-002   4.3901722276498467E-002
   4.3797391343536850E-002  -1.3137572935122362E-002   4.3958053927431233E-002
   4.1918062969763720E-002  -1.2580628084336437E-002   4.4202610942668079E-002
   4.3984961337141387E-002  -1.3194193844645929E-002   4.9316722750300857E-002
   4.2292035622907079E-002  -1.2673366575185224E-002   4.8985788326736723E-002
   4.0599109908672756E-002  -1.2158776277890679E-002   4.8839433857945841E-002
   3.8906184194438448E-002  -1.1650422952762318E-002   4.8877659343928473E-002
   3.7213258480204126E-002  -1.1148306599800206E-002   4.9100464784684605E-002
   5.5910584167724209E-002  -1.6877592537945185E-002   2.9162210001438371E-002
   5.3801983836995859E-002  -1.6149380951996389E-002   2.8951672661792605E-002
   5.1693383506267454E-002  -1.5425194481482413E-002   2.8918128715991531E-002
   4.9584783175539104E-002  -1.4705033126403123E-002   2.9061578164035137E-002
   4.7476182844810699E-002  -1.3988896886758195E-002   2.9382021005923131E-002
   5.1266725813523706E-002  -1.5445271053408982E-002   3.4233483551044969E-002
   4.9331729964736823E-002  -1.4772136608604769E-002   3.3997946233660814E-002
   4.7396734115949857E-002  -1.4097568423130979E-002   3.3932624486314608E-002
   4.5461738267162932E-002  -1.3421566496987461E-002   3.4037518309006594E-002
   4.3526742418376008E-002  -1.2744130830174227E-002   3.4312627701737375E-002
   4.6602552080870219E-002  -1.4012949568872668E-002   3.9246950531454966E-002
   4.4834382890218349E-002  -1.3394892265213135E-002   3.8991872092436208E-002
   4.3066213699566536E-002  -1.2769942364779643E-002   3.8900231399649501E-002
   4.1298044508914722E-002  -1.2138099867572073E-002   3.8972028453094741E-002
   3.9529875318262866E-002  -1.1499364773590537E-002   3.9207263252771768E-002
   4.1918062969763720E-002  -1.2580628084336437E-002   4.4202610942668079E-002
   4.0309942613440619E-002  -1.2017647921821507E-002   4.3933450238119398E-002
   3.8701822257117532E-002  -1.1442316306428259E-002   4.3820949455996183E-002
   3.7093701900794446E-002  -1.0854633238156825E-002   4.3865108596298601E-002
   3.5485581544471345E-002  -1.0254598717006708E-002   4.4065927659026803E-002
   3.7213258480204126E-002  -1.1148306599800206E-002   4.9100464784684605E-002
   3.5758409134403452E-002  -1.0640403578429825E-002   4.8822680670710106E-002
   3.4303559788602792E-002  -1.0114690248076805E-002   4.8694778655354903E-002
   3.2848710442802152E-002  -9.5711666087412266E-003   4.8716758738618929E-002
   3.1393861097001485E-002  -9.0098326604229895E-003   4.8888620920502279E-002
   4.7476182844810699E-002  -1.3988896886758195E-002   2.9382021005923131E-002
   4.4807755916509817E-002  -1.3262941445437104E-002   2.8935129884351263E-002
   4.2139328988208907E-002  -1.2513322485329131E-002   2.8633941423513276E-002
   3.9470902059908053E-002  -1.1740040006433784E-002   2.8478455623409032E-002
   3.6802475131607171E-002  -1.0943094008751819E-002   2.8468672484039725E-002
   4.3526742418376008E-002  -1.2744130830174227E-002   3.4312627701737375E-002
   4.1013275422213918E-002  -1.2057030208197123E-002   3.3848347022114256E-002
   3.8499808426051912E-002  -1.1352033416561491E-002   3.3548283546034646E-002
   3.5986341429889893E-002  -1.0629140455267402E-002   3.3412437273498949E-002
   3.3472874433727817E-002  -9.8883513243148702E-003   3.3440808204506567E-002
   3.9529875318262866E-002  -1.1499364773590537E-002   3.9207263252771768E-002
   3.7189882797049129E-002  -1.0851118970957169E-002   3.8719825665969293E-002
   3.4849890275835432E-002  -1.0190744347794004E-002   3.8415119825519942E-002
   3.2509897754621778E-002  -9.5182409041010170E-003   3.8293145731423471E-002
   3.0169905233407984E-002  -8.8336086398781433E-003   3.8353903383679888E-002
   3.5485581544471345E-002  -1.0254598717006708E-002   4.4065927659026803E-002
   3.3337578041015489E-002  -9.6452077337172565E-003   4.3549565815915958E-002
   3.1189574537559536E-002  -9.0294552790263841E-003   4.3234450261967663E-002
   2.9041571034103656E-002  -8.4073413529345224E-003   4.3120580997182183E-002
   2.6893567530647720E-002  -7.7788659554413608E-003   4.3207958021559176E-002
   3.1393861097001485E-002  -9.0098326604229895E-003   4.8888620920502279E-002
   2.9456361154112876E-002  -8.4392964964771222E-003   4.8337567471954834E-002
   2.7518861211224280E-002  -7.8681662102589589E-003   4.8006274855379116E-002
   2.5581361268335635E-002  -7.2964418017681595E-003   4.7894743070775875E-002
   2.3643861325447046E-002  -6.7241232710044674E-003   4.8002972118144305E-002
   5.7152483120338236E-002   0.0000000000000000        3.4691310423581381E-002
   5.7942302704888683E-002  -2.0840918379521128E-003   3.8343303189815679E-002
   5.8732122289439130E-002  -4.1374463728545054E-003   4.2209123116548800E-002
   5.9521941873989584E-002  -6.1600636047071701E-003   4.6288770203780735E-002
   6.0311761458540045E-002  -8.1519435335101250E-003   5.0582244451511452E-002
   4.8652267336635635E-002   0.0000000000000000        3.2790294060973960E-002
   4.9590660870276658E-002  -1.7095466226652294E-003   3.6965728129218292E-002
   5.0529054403917674E-002  -3.4330420191851681E-003   4.1224482935144968E-002
   5.1467447937558697E-002  -5.1704861895598038E-003   4.5566558478753939E-002
   5.2405841471199713E-002  -6.9218791337891574E-003   4.9991954760045282E-002
   4.0732351801753816E-002   0.0000000000000000        3.1286165952105628E-002
   4.1688812861668922E-002  -1.3350014073783456E-003   3.5940355245455587E-002
   4.2645273921584015E-002  -2.7286376655158264E-003   4.0547358853671375E-002
   4.3601734981499121E-002  -4.1809087744124427E-003   4.5107176776753029E-002
   4.4558196041414221E-002  -5.6918147340681942E-003   4.9619809014700478E-002
   3.3392736515692772E-002   0.0000000000000000        3.0178926096976404E-002
   3.4236758679065477E-002  -9.6045619209146117E-004   3.5267184538527549E-002
   3.5080780842438160E-002  -2.0242333118464868E-003   4.0177750872128042E-002
   3.5924803005810871E-002  -3.1913313592650764E-003   4.4910625097777886E-002
   3.6768825169183561E-002  -4.4617503343472309E-003   4.9465807215477046E-002
   2.6633421478452518E-002   0.0000000000000000        2.9468574495586271E-002
   2.7234498322466320E-002  -5.8591097680457845E-004   3.4946216008434172E-002
   2.7835575166480119E-002  -1.3198289581771473E-003   4.0115658990514946E-002
   2.8436652010493918E-002  -2.2017539441177136E-003   4.4976903441828558E-002
   2.9037728854507720E-002  -3.2316859346262650E-003   4.9529949362375036E-002
   6.0311761458540045E-002  -8.1519435335101250E-003   5.0582244451511452E-002
   6.0612286814632967E-002  -1.0031162098711500E-002   5.1520981894495908E-002
   6.0912812170725895E-002  -1.1715795239759443E-002   5.2246529966896327E-002
   6.1213337526818803E-002  -1.3205842956653913E-002   5.2758888668712693E-002
   6.1513862882911746E-002  -1.4501305249394983E-002   5.3058057999945049E-002
   5.2405841471199713E-002  -6.9218791337891574E-003   4.9991954760045282E-002
   5.2532261407504083E-002  -8.5858983982738495E-003   5.1219691490128776E-002
   5.2658681343808453E-002  -1.0061221529414520E-002   5.2312406751219155E-002
   5.2785101280112809E-002  -1.1347848527211171E-002   5.3270100543316476E-002
   5.2911521216417186E-002  -1.2445779391663817E-002   5.4092772866420710E-002
   4.4558196041414221E-002  -5.6918147340681942E-003   4.9619809014700478E-002
   4.4588678459520976E-002  -7.1406346978362088E-003   5.1130655741073588E-002
   4.4619160877627725E-002  -8.4066478190696382E-003   5.2584648900044544E-002
   4.4649643295734474E-002  -9.4898540977684485E-003   5.3981788491613385E-002
   4.4680125713841216E-002  -1.0390253533932671E-002   5.5322074515780056E-002
   3.6768825169183561E-002  -4.4617503343472309E-003   4.9465807215477046E-002
   3.6781537970683648E-002  -5.6953709973985734E-003   5.1253874647330347E-002
   3.6794250772183741E-002  -6.7520741087247413E-003   5.3063256413372478E-002
   3.6806963573683814E-002  -7.6318596683257172E-003   5.4893952513603413E-002
   3.6819676375183914E-002  -8.3347276762015220E-003   5.6745962948023101E-002
   2.9037728854507720E-002  -3.2316859346262650E-003   4.9529949362375036E-002
   2.9110839940992096E-002  -4.2501072969609224E-003   5.1589348208899106E-002
   2.9183951027476469E-002  -5.0975003983798357E-003   5.3748229291202917E-002
   2.9257062113960841E-002  -5.7738652388829729E-003   5.6006592609286539E-002
   2.9330173200445217E-002  -6.2792018184703591E-003   5.8364438163149887E-002
   6.1513862882911746E-002  -1.4501305249394983E-002   5.3058057999945049E-002
   6.0190162533675561E-002  -1.5505558293296400E-002   5.1648088336497672E-002
   5.8866462184439375E-002  -1.6121978263671861E-002   5.0689319334743070E-002
   5.7542761835203175E-002  -1.6350565160521500E-002   5.0181750994681196E-002
   5.6219061485966976E-002  -1.6191318983845182E-002   5.0125383316312055E-002
   5.2911521216417186E-002  -1.2445779391663817E-002   5.4092772866420710E-002
   5.1987177817147380E-002  -1.3295954352053982E-002   5.3349230029319031E-002
   5.1062834417877595E-002  -1.3839313637663178E-002   5.2953200430457419E-002
   5.0138491018607803E-002  -1.4075857248491395E-002   5.2904684069835783E-002
   4.9214147619338025E-002  -1.4005585184538677E-002   5.3203680947454313E-002
   4.4680125713841216E-002  -1.0390253533932671E-002   5.5322074515780056E-002
   4.4051451841085137E-002  -1.1086350410811579E-002   5.5163941106279105E-002
   4.3422777968329052E-002  -1.1556649011654452E-002   5.5249633511565623E-002
   4.2794104095572973E-002  -1.1801149336461316E-002   5.5579151731639430E-002
   4.2165430222816901E-002  -1.1819851385232116E-002   5.6152495766500603E-002
   3.6819676375183914E-002  -8.3347276762015220E-003   5.6745962948023101E-002
   3.6382984605488826E-002  -8.8767464695692112E-003   5.7092221567378018E-002
   3.5946292835793758E-002  -9.2739843856457262E-003   5.7578618578067668E-002
   3.5509601066098677E-002  -9.5264414244312038E-003   5.8205153980091955E-002
   3.5072909296403589E-002  -9.6341175859255695E-003   5.8971827773450794E-002
   2.9330173200445217E-002  -6.2792018184703591E-003   5.8364438163149887E-002
   2.8981776110358442E-002  -6.6671425283267513E-003   5.9134071412615709E-002
   2.8633379020271674E-002  -6.9913197596370366E-003   5.9940155629963549E-002
   2.8284981930184906E-002  -7.2517335124011092E-003   6.0782690815193309E-002
   2.7936584840098123E-002  -7.4483837866190228E-003   6.1661676968305018E-002
   5.6219061485966976E-002  -1.6191318983845182E-002   5.0125383316312055E-002
   5.4726978770825663E-002  -1.5843460728297343E-002   4.9810266509558110E-002
   5.3234896055684308E-002  -1.5506211388532247E-002   4.9642286332004418E-002
   5.1742813340542960E-002  -1.5179570964549817E-002   4.9621442783651222E-002
   5.0250730625401641E-002  -1.4863539456350189E-002   4.9747735864498294E-002
   4.9214147619338025E-002  -1.4005585184538677E-002   5.3203680947454313E-002
   4.7881061330531376E-002  -1.3774407378247561E-002   5.2858813854999021E-002
   4.6547975041724685E-002  -1.3528233762060644E-002   5.2684802986012691E-002
   4.5214888752917994E-002  -1.3267064335978055E-002   5.2681648340495518E-002
   4.3881802464111330E-002  -1.2990899099999648E-002   5.2849349918447086E-002
   4.2165430222816901E-002  -1.1819851385232116E-002   5.6152495766500603E-002
   4.1015059954613527E-002  -1.1705354028197779E-002   5.5803483114022452E-002
   3.9864689686410174E-002  -1.1550256135589184E-002   5.5649046279282022E-002
   3.8714319418206813E-002  -1.1354557707406281E-002   5.5689185262279173E-002
   3.7563949150003439E-002  -1.1118258743649120E-002   5.5923900063013947E-002
   3.5072909296403589E-002  -9.6341175859255695E-003   5.8971827773450794E-002
   3.4128974643072185E-002  -9.6363006781480381E-003   5.8644274286628377E-002
   3.3185039989740768E-002  -9.5722785091176665E-003   5.8535016211812264E-002
   3.2241105336409358E-002  -9.4420510788345534E-003   5.8644053549002401E-002
   3.1297170683077948E-002  -9.2456183872985723E-003   5.8971386298198800E-002
   2.7936584840098123E-002  -7.4483837866190228E-003   6.1661676968305018E-002
   2.7222805395907310E-002  -7.5672473280982422E-003   6.1381187372816767E-002
   2.6509025951716485E-002  -7.5943008826461073E-003   6.1342712783603551E-002
   2.5795246507525647E-002  -7.5295444502627117E-003   6.1546253200665146E-002
   2.5081467063334834E-002  -7.3729780309480242E-003   6.1991808624001665E-002
   5.0250730625401641E-002  -1.4863539456350189E-002   4.9747735864498294E-002
   4.8684288303336570E-002  -1.4526160067887511E-002   4.9287038740823297E-002
   4.7117845981271514E-002  -1.4135476003115828E-002   4.9061637513898845E-002
   4.5551403659206430E-002  -1.3691487262035300E-002   4.9071532183724530E-002
   4.3984961337141387E-002  -1.3194193844645929E-002   4.9316722750300857E-002
   4.3881802464111330E-002  -1.2990899099999648E-002   5.2849349918447086E-002
   4.2542017919673408E-002  -1.2686791308705300E-002   5.2478186511353650E-002
   4.1202233375235445E-002  -1.2341794216674855E-002   5.2325042762764021E-002
   3.9862448830797474E-002  -1.1955907823908428E-002   5.2389918672678400E-002
   3.8522664286359531E-002  -1.1529132130405850E-002   5.2672814241096350E-002
   3.7563949150003439E-002  -1.1118258743649120E-002   5.5923900063013947E-002
   3.6433546144945997E-002  -1.0847422549523186E-002   5.5629854996929233E-002
   3.5303143139888540E-002  -1.0548112430233961E-002   5.5536553351101803E-002
   3.4172740134831125E-002  -1.0220328385781526E-002   5.5643995125531559E-002
   3.3042337129773655E-002  -9.8640704161658266E-003   5.5952180320218411E-002
   3.1297170683077948E-002  -9.2456183872985723E-003   5.8971386298198800E-002
   3.0358872979154405E-002  -9.0080537903410515E-003   5.8742044197550053E-002
   2.9420575275230846E-002  -8.7544306437930004E-003   5.8696169278911824E-002
   2.8482277571307286E-002  -8.4847489476547223E-003   5.8833761542284368E-002
   2.7543979867383741E-002  -8.1990087019258029E-003   5.9154820987667403E-002
   2.5081467063334834E-002  -7.3729780309480242E-003   6.1991808624001665E-002
   2.4317998422298572E-002  -7.1686850311588474E-003   6.1814754113216047E-002
   2.3554529781262309E-002  -6.9607488573521017E-003   6.1803890546194354E-002
   2.2791061140226034E-002  -6.7491695095277266E-003   6.1959217922936675E-002
   2.2027592499189785E-002  -6.5339469876857237E-003   6.2280736243443047E-002
   4.3984961337141387E-002  -1.3194193844645929E-002   4.9316722750300857E-002
   4.2292035622907079E-002  -1.2673366575185224E-002   4.8985788326736723E-002
   4.0599109908672756E-002  -1.2158776277890679E-002   4.8839433857945841E-002
   3.8906184194438448E-002  -1.1650422952762318E-002   4.8877659343928473E-002
   3.7213258480204126E-002  -1.1148306599800206E-002   4.9100464784684605E-002
   3.8522664286359531E-002  -1.1529132130405850E-002   5.2672814241096350E-002
   3.7019614913912341E-002  -1.1082034734616261E-002   5.2325904664577691E-002
   3.5516565541465109E-002  -1.0635183234988493E-002   5.2174167816859698E-002
   3.4013516169017897E-002  -1.0188577631522845E-002   5.2217603697942531E-002
   3.2510466796570672E-002  -9.7422179242188101E-003   5.2456212307826211E-002
   3.3042337129773655E-002  -9.8640704161658266E-003   5.5952180320218411E-002
   3.1739756873140845E-002  -9.4907028940473398E-003   5.5595286666749705E-002
   3.0437176616508098E-002  -9.1115901920864814E-003   5.5444158516108961E-002
   2.9134596359875291E-002  -8.7267323102831525E-003   5.5498795868296313E-002
   2.7832016103242520E-002  -8.3361292486374416E-003   5.5759198723311823E-002
   2.7543979867383741E-002  -8.1990087019258029E-003   5.9154820987667403E-002
   2.6452461500592699E-002  -7.8993710534785086E-003   5.8793934333252799E-002
   2.5360943133801640E-002  -7.5879971491843272E-003   5.8649405955693575E-002
   2.4269424767010592E-002  -7.2648869890436256E-003   5.8721235854989701E-002
   2.3177906400219543E-002  -6.9300405730561149E-003   5.9009424031141303E-002
   2.2027592499189785E-002  -6.5339469876857237E-003   6.2280736243443047E-002
   2.1157728796267802E-002  -6.3080392129094554E-003   6.1921847664086760E-002
   2.0287865093345805E-002  -6.0644041062822979E-003   6.1789910135613441E-002
   1.9418001390423829E-002  -5.8030416678039633E-003   6.1884923658022659E-002
   1.8548137687501826E-002  -5.5239518974746771E-003   6.2206888231314761E-002
   3.7213258480204126E-002  -1.1148306599800206E-002   4.9100464784684605E-002
   3.5758409134403452E-002  -1.0640403578429825E-002   4.8822680670710106E-002
   3.4303559788602792E-002  -1.0114690248076805E-002   4.8694778655354903E-002
   3.2848710442802152E-002  -9.5711666087412266E-003   4.8716758738618929E-002
   3.1393861097001485E-002  -9.0098326604229895E-003   4.8888620920502279E-002
   3.2510466796570672E-002  -9.7422179242188101E-003   5.2456212307826211E-002
   3.1211667965619042E-002  -9.2893303437053543E-003   5.2224493576168651E-002
   2.9912869134667362E-002  -8.8231411206107224E-003   5.2154993775589770E-002
   2.8614070303715700E-002  -8.3436502549349562E-003   5.2247712906089844E-002
   2.7315271472764052E-002  -7.8508577466779861E-003   5.2502650967668485E-002
   2.7832016103242520E-002  -8.3361292486374416E-003   5.5759198723311823E-002
   2.6701604619599327E-002  -7.9382571089807452E-003   5.5569036707569547E-002
   2.5571193135956159E-002  -7.5315919931444250E-003   5.5553430455365684E-002
   2.4440781652312990E-002  -7.1161339011285209E-003   5.5712379966699893E-002
   2.3310370168669804E-002  -6.6918828329329272E-003   5.6045885241572418E-002
   2.3177906400219543E-002  -6.9300405730561149E-003   5.9009424031141303E-002
   2.2228219096344377E-002  -6.5871838742562056E-003   5.8856310064912931E-002
   2.1278531792469191E-002  -6.2400428656781796E-003   5.8890088694682353E-002
   2.0328844488594008E-002  -5.8886175473221126E-003   5.9110759920449389E-002
   1.9379157184718838E-002  -5.5329079191879516E-003   5.9518323742214281E-002
   1.8548137687501826E-002  -5.5239518974746771E-003   6.2206888231314761E-002
   1.7791511395854151E-002  -5.2361106395316381E-003   6.2086313648198665E-002
   1.7034885104206463E-002  -4.9484937382120314E-003   6.2164968493539779E-002
   1.6278258812558781E-002  -4.6611011935158118E-003   6.2442852767338394E-002
   1.5521632520911099E-002  -4.3739330054428094E-003   6.2919966469594135E-002
   3.1393861097001485E-002  -9.0098326604229895E-003   4.8888620920502279E-002
   2.9456361154112876E-002  -8.4392964964771222E-003   4.8337567471954834E-002
   2.7518861211224280E-002  -7.8681662102589589E-003   4.8006274855379116E-002
   2.5581361268335635E-002  -7.2964418017681595E-003   4.7894743070775875E-002
   2.3643861325447046E-002  -6.7241232710044674E-003   4.8002972118144305E-002
   2.7315271472764052E-002  -7.8508577466779861E-003   5.2502650967668485E-002
   2.5599397062500404E-002  -7.3487512880142103E-003   5.2030110730169721E-002
   2.3883522652236769E-002  -6.8413185711175828E-003   5.1781060725949207E-002
   2.2167648241973155E-002  -6.3285595959880758E-003   5.1755500955006306E-002
   2.0451773831709485E-002  -5.8104743626259392E-003   5.1953431417341434E-002
   2.3310370168669804E-002  -6.6918828329329272E-003   5.6045885241572418E-002
   2.1819850692337092E-002  -6.2582060795510208E-003   5.5656590351082891E-002
   2.0329331216004404E-002  -5.8144709319762206E-003   5.5494515095177027E-002
   1.8838811739671606E-002  -5.3606773902083564E-003   5.5559659473855279E-002
   1.7348292263338991E-002  -4.8968254542474110E-003   5.5852023487117153E-002
   1.9379157184718838E-002  -5.5329079191879516E-003   5.9518323742214281E-002
   1.8117722043622931E-002  -5.1676608710880256E-003   5.9217006334694039E-002
   1.6856286902527006E-002  -4.7876232928349069E-003   5.9146637963063714E-002
   1.5594851761431125E-002  -4.3927951844286214E-003   5.9307218627323195E-002
   1.4333416620335170E-002  -3.9831765458688828E-003   5.9698748327472156E-002
   1.5521632520911099E-002  -4.3739330054428094E-003   6.2919966469594135E-002
   1.4493011116357923E-002  -4.0771156626248084E-003   6.2711358681003471E-002
   1.3464389711804775E-002  -3.7607756536936071E-003   6.2737429329608546E-002
   1.2435768307251620E-002  -3.4249129786487233E-003   6.2998178415409070E-002
   1.1407146902698451E-002  -3.0695276374903546E-003   6.3493605938405695E-002
   2.6633421478452518E-002   0.0000000000000000        2.9468574495586271E-002
   2.7234498322466320E-002  -5.8591097680457845E-004   3.4946216008434172E-002
   2.7835575166480119E-002  -1.3198289581771473E-003   4.0115658990514946E-002
   2.8436652010493918E-002  -2.2017539441177136E-003   4.4976903441828558E-002
   2.9037728854507720E-002  -3.2316859346262650E-003   4.9529949362375036E-002
   2.0116958951376780E-002   0.0000000000000000        2.9020655455417967E-002
   2.0449319594561866E-002  -4.3943323254180995E-004   3.4313677940702773E-002
   2.0781680237746958E-002  -9.8987171853518515E-004   3.9377466555097294E-002
   2.1114040880932047E-002  -1.6513154579801213E-003   4.4212021298601537E-002
   2.1446401524117132E-002  -2.4237644508766226E-003   4.8817342171215493E-002
   1.3505901195809290E-002   0.0000000000000000        2.8700713283954214E-002
   1.3648510298042526E-002  -2.9295548827904319E-004   3.3846118492792343E-002
   1.3791119400275758E-002  -6.5991447889322125E-004   3.8841254490617060E-002
   1.3933728502508996E-002  -1.1008769718425333E-003   4.3686121277428346E-002
   1.4076337604742228E-002  -1.6158429671269828E-003   4.8380718853226215E-002
   6.8002482117500533E-003   0.0000000000000000        2.8508747981195015E-002
   6.8320704329082908E-003  -1.4647774401627643E-004   3.3543537664702909E-002
   6.8638926540665300E-003  -3.2995723925125734E-004   3.8507022797074249E-002
   6.8957148752247684E-003  -5.5043848570494663E-004   4.3399203378309006E-002
   6.9275370963830067E-003  -8.0792148337733996E-004   4.8220079408407203E-002
  -8.0093223719934770E-013   0.0000000000000000        2.8444759547140368E-002
  -8.4083174450855225E-013   2.4649119551023446E-013   3.3405935456434457E-002
  -8.8073190233906029E-013   3.9070482960035235E-013   3.8374771474468827E-002
  -9.2063173490891659E-013   4.3264697380251960E-013   4.3351267601243498E-002
  -9.6053243484051087E-013   3.7229767879676245E-013   4.8335423836758463E-002
   2.9037728854507720E-002  -3.2316859346262650E-003   4.9529949362375036E-002
   2.9110839940992096E-002  -4.2501072969609224E-003   5.1589348208899106E-002
   2.9183951027476469E-002  -5.0975003983798357E-003   5.3748229291202917E-002
   2.9257062113960841E-002  -5.7738652388829729E-003   5.6006592609286539E-002
   2.9330173200445217E-002  -6.2792018184703591E-003   5.8364438163149887E-002
   2.1446401524117132E-002  -2.4237644508766226E-003   4.8817342171215493E-002
   2.1589554844519666E-002  -3.1875804726401724E-003   5.1218214155210259E-002
   2.1732708164922197E-002  -3.8231252986862686E-003   5.3659688371261539E-002
   2.1875861485324732E-002  -4.3303989290149093E-003   5.6141764819369396E-002
   2.2019014805727263E-002  -4.7094013636260826E-003   5.8664443499533807E-002
   1.4076337604742228E-002  -1.6158429671269828E-003   4.8380718853226215E-002
   1.4230653155339711E-002  -2.1250536483194233E-003   5.1080306909493355E-002
   1.4384968705937192E-002  -2.5487501989926937E-003   5.3761617194093822E-002
   1.4539284256534673E-002  -2.8869326191468332E-003   5.6424649707027659E-002
   1.4693599807132158E-002  -3.1396009087817922E-003   5.9069404448294817E-002
   6.9275370963830067E-003  -8.0792148337733996E-004   4.8220079408407203E-002
   7.0341348734522264E-003  -1.0625268239986738E-003   5.1175626471748427E-002
   7.1407326505214478E-003  -1.2743750992991331E-003   5.4054015759699772E-002
   7.2473304275906709E-003  -1.4434663092787565E-003   5.6855247272261253E-002
   7.3539282046598915E-003  -1.5698004539375157E-003   5.9579321009432869E-002
  -9.6053243484051087E-013   3.7229767879676245E-013   4.8335423836758463E-002
  -1.1427842179501102E-012   3.2207830152897188E-013   5.1504172841975449E-002
  -1.3250349168575370E-012   3.9444966390411729E-013   5.4536884068079376E-002
  -1.5072865915469191E-012   5.8930670673168484E-013   5.7433557515070212E-002
  -1.6895373988745632E-012   9.0677465536259660E-013   6.0194193182947969E-002
   2.9330173200445217E-002  -6.2792018184703591E-003   5.8364438163149887E-002
   2.8981776110358442E-002  -6.6671425283267513E-003   5.9134071412615709E-002
   2.8633379020271674E-002  -6.9913197596370366E-003   5.9940155629963549E-002
   2.8284981930184906E-002  -7.2517335124011092E-003   6.0782690815193309E-002
   2.7936584840098123E-002  -7.4483837866190228E-003   6.1661676968305018E-002
   2.2019014805727263E-002  -4.7094013636260826E-003   5.8664443499533807E-002
   2.1719730759705590E-002  -5.0003568959988559E-003   5.9488275264958451E-002
   2.1420446713683920E-002  -5.2434898196122726E-003   6.0373882150631247E-002
   2.1121162667662254E-002  -5.4388001344663310E-003   6.1321264156552320E-002
   2.0821878621640574E-002  -5.5862878405610467E-003   6.2330421282721649E-002
   1.4693599807132158E-002  -3.1396009087817922E-003   5.9069404448294817E-002
   1.4468752957541870E-002  -3.3335712636709085E-003   5.9931493859891341E-002
   1.4243906107951581E-002  -3.4956598795874948E-003   6.0880682544102407E-002
   1.4019059258361291E-002  -3.6258667565315398E-003   6.1916970500927988E-002
   1.3794212408771012E-002  -3.7241918945030289E-003   6.3040357730368146E-002
   7.3539282046598915E-003  -1.5698004539375157E-003   5.9579321009432869E-002
   7.2288427038672710E-003  -1.6667856313429801E-003   6.0463727197414538E-002
   7.1037572030746548E-003  -1.7478299395627100E-003   6.1460556810376960E-002
   6.9786717022820421E-003  -1.8129333785967413E-003   6.2569809848320251E-002
   6.8535862014894172E-003  -1.8620959484450042E-003   6.3791486311244386E-002
  -1.6895373988745632E-012   9.0677465536259660E-013   6.0194193182947969E-002
  -1.3181964200748020E-012   9.8494823408401544E-013   6.1084975277527938E-002
  -9.4685544127504073E-013   4.6204012837947062E-013   6.2113504949455001E-002
  -5.7551359511354150E-013  -6.6194445758060994E-013   6.3279782198729179E-002
  -2.0417348367551824E-013  -2.3870072585197022E-012   6.4583807025350437E-002
   2.7936584840098123E-002  -7.4483837866190228E-003   6.1661676968305018E-002
   2.7222805395907310E-002  -7.5672473280982422E-003   6.1381187372816767E-002
   2.6509025951716485E-002  -7.5943008826461073E-003   6.1342712783603551E-002
   2.5795246507525647E-002  -7.5295444502627117E-003   6.1546253200665146E-002
   2.5081467063334834E-002  -7.3729780309480242E-003   6.1991808624001665E-002
   2.0821878621640574E-002  -5.5862878405610467E-003   6.2330421282721649E-002
   2.0334221647432028E-002  -5.6754354970357662E-003   6.2201412895234773E-002
   1.9846564673223488E-002  -5.6957256630299387E-003   6.2282634441437501E-002
   1.9358907699014952E-002  -5.6471583385434331E-003   6.2574085921329917E-002
   1.8871250724806408E-002  -5.5297335235764133E-003   6.3075767334911922E-002
   1.3794212408771012E-002  -3.7241918945030289E-003   6.3040357730368146E-002
   1.3500892831959481E-002  -3.7836236659733041E-003   6.3039878054431800E-002
   1.3207573255147948E-002  -3.7971504434136868E-003   6.3217843239599891E-002
   1.2914253678336417E-002  -3.7647722268241684E-003   6.3574253285872379E-002
   1.2620934101524893E-002  -3.6864890162047609E-003   6.4109108193249220E-002
   6.8535862014894172E-003  -1.8620959484450042E-003   6.3791486311244386E-002
   6.7228189494896486E-003  -1.8918118349108351E-003   6.3896582850407932E-002
   6.5920516974898773E-003  -1.8985752237974766E-003   6.4148339178090638E-002
   6.4612844454901095E-003  -1.8823861151048690E-003   6.4546755294292490E-002
   6.3305171934903391E-003  -1.8432445088331431E-003   6.5091831199013434E-002
  -2.0417348367551824E-013  -2.3870072585197022E-012   6.4583807025350437E-002
   2.2547935740746539E-014  -3.8483521924703723E-012   6.4771527283163224E-002
   2.4926762043353534E-013  -4.1812525664042255E-012   6.5074122256909839E-002
   4.7598730512632415E-013  -3.3856355219352707E-012   6.5491591946590363E-002
   7.0270872454258893E-013  -1.4615253451921717E-012   6.6023936352204743E-002
   2.5081467063334834E-002  -7.3729780309480242E-003   6.1991808624001665E-002
   2.4317998422298572E-002  -7.1686850311588474E-003   6.1814754113216047E-002
   2.3554529781262309E-002  -6.9607488573521017E-003   6.1803890546194354E-002
   2.2791061140226034E-002  -6.7491695095277266E-003   6.1959217922936675E-002
   2.2027592499189785E-002  -6.5339469876857237E-003   6.2280736243443047E-002
   1.8871250724806408E-002  -5.5297335235764133E-003   6.3075767334911922E-002
   1.8280142081497405E-002  -5.3765137731177221E-003   6.2867969370596702E-002
   1.7689033438188419E-002  -5.2205616421562087E-003   6.2838700457971963E-002
   1.7097924794879427E-002  -5.0618771306921804E-003   6.2987960597037901E-002
   1.6506816151570430E-002  -4.9004602387253682E-003   6.3315749787794334E-002
   1.2620934101524893E-002  -3.6864890162047609E-003   6.4109108193249220E-002
   1.2214523563869770E-002  -3.5843425150765482E-003   6.3869655981889428E-002
   1.1808113026214637E-002  -3.4803744269604787E-003   6.3821070930146814E-002
   1.1401702488559510E-002  -3.3745847518566888E-003   6.3963353038021295E-002
   1.0995291950904380E-002  -3.2669734897650127E-003   6.4296502305512968E-002
   6.3305171934903391E-003  -1.8432445088331431E-003   6.5091831199013434E-002
   6.1211428694156467E-003  -1.7921712570353847E-003   6.4819813947094254E-002
   5.9117685453409638E-003  -1.7401872117646950E-003   6.4751001962718810E-002
   5.7023942212662722E-003  -1.6872923730210866E-003   6.4885395245887045E-002
   5.4930198971915867E-003  -1.6334867408046572E-003   6.5222993796599155E-002
   7.0270872454258893E-013  -1.4615253451921717E-012   6.6023936352204743E-002
  -1.8649491673183860E-012   1.0057232824323137E-012   6.5718443266211179E-002
  -4.4326070591793609E-012   3.4311373187101424E-012   6.5628493555687992E-002
  -7.0002614815933839E-012   5.8143889009043548E-012   6.5754087220635055E-002
  -9.5679228429013108E-012   8.1557538500476312E-012   6.6095224261052521E-002
   2.2027592499189785E-002  -6.5339469876857237E-003   6.2280736243443047E-002
   2.1157728796267802E-002  -6.3080392129094554E-003   6.1921847664086760E-002
   2.0287865093345805E-002  -6.0644041062822979E-003   6.1789910135613441E-002
   1.9418001390423829E-002  -5.8030416678039633E-003   6.1884923658022659E-002
   1.8548137687501826E-002  -5.5239518974746771E-003   6.2206888231314761E-002
   1.6506816151570430E-002  -4.9004602387253682E-003   6.3315749787794334E-002
   1.5861532218345520E-002  -4.7310294073707182E-003   6.2979253489267945E-002
   1.5216248285120609E-002  -4.5483030777428296E-003   6.2864965679252871E-002
   1.4570964351895685E-002  -4.3522812498418377E-003   6.2972886357749086E-002
   1.3925680418670774E-002  -4.1429639236677529E-003   6.3303015524756950E-002
   1.0995291950904380E-002  -3.2669734897650127E-003   6.4296502305512968E-002
   1.0569845225005238E-002  -3.1540196018318700E-003   6.3977966454238283E-002
   1.0144398499106085E-002  -3.0322020492034654E-003   6.3876896529103805E-002
   9.7189517732069377E-003  -2.9015208318797659E-003   6.3993292530109505E-002
   9.2935050473077901E-003  -2.7619759498608287E-003   6.4327154457255079E-002
   5.4930198971915867E-003  -1.6334867408046572E-003   6.5222993796599155E-002
   5.2826678162469134E-003  -1.5770097962929941E-003   6.4917986558998428E-002
   5.0723157353022340E-003  -1.5161010206640492E-003   6.4825702685166464E-002
   4.8619636543575633E-003  -1.4507604139177227E-003   6.4946142175103333E-002
   4.6516115734128831E-003  -1.3809879760539878E-003   6.5279305028809159E-002
  -9.5679228429013108E-012   8.1557538500476312E-012   6.6095224261052521E-002
  -7.9294279475838891E-012   9.2457708156246099E-012   6.5799313803547865E-002
  -6.2909365217134194E-012   7.8753115140273167E-012   6.5711384147440738E-002
  -4.6524407590342598E-012   4.0443898230435593E-012   6.5831435292731139E-002
  -3.0139502005255281E-012  -2.2469803795388543E-012   6.6159467239419012E-002
   1.8548137687501826E-002  -5.5239518974746771E-003   6.2206888231314761E-002
   1.7791511395854151E-002  -5.2361106395316381E-003   6.2086313648198665E-002
   1.7034885104206463E-002  -4.9484937382120314E-003   6.2164968493539779E-002
   1.6278258812558781E-002  -4.6611011935158118E-003   6.2442852767338394E-002
   1.5521632520911099E-002  -4.3739330054428094E-003   6.2919966469594135E-002
   1.3925680418670774E-002  -4.1429639236677529E-003   6.3303015524756950E-002
   1.3365765342620767E-002  -3.9270829832318832E-003   6.3170008313062992E-002
   1.2805850266570752E-002  -3.7113703125459668E-003   6.3231194104106866E-002
   1.2245935190520751E-002  -3.4958259116095146E-003   6.3486572897888977E-002
   1.1686020114470730E-002  -3.2804497804230226E-003   6.3936144694409114E-002
   9.2935050473077901E-003  -2.7619759498608287E-003   6.4327154457255079E-002
   8.9252647611363228E-003  -2.6180553269323642E-003   6.4181770703856625E-002
   8.5570244749648486E-003  -2.4742468868798537E-003   6.4225543527477141E-002
   8.1887841887933726E-003  -2.3305506297034411E-003   6.4458472928116683E-002
   7.8205439026219070E-003  -2.1869665554030415E-003   6.4880558905775029E-002
   4.6516115734128831E-003  -1.3809879760539878E-003   6.5279305028809159E-002
   4.4700096514008174E-003  -1.3090276706328105E-003   6.5121600820580022E-002
   4.2884077293887449E-003  -1.2371234612137925E-003   6.5148016763650549E-002
   4.1068058073766792E-003  -1.1652753477974223E-003   6.5358552858021002E-002
   3.9252038853646136E-003  -1.0934833303832131E-003   6.5753209103691396E-002
  -3.0139502005255281E-012  -2.2469803795388543E-012   6.6159467239419012E-002
   1.3414248878351742E-011  -1.4333090270213233E-011   6.5989498663232893E-002
   2.9842447957229012E-011  -3.5547828569626461E-011   6.5998613812627394E-002
   4.6270652240276711E-011  -6.5891219563907200E-011   6.6186812687602639E-002
   6.2698846114983553E-011  -1.0536321815024507E-010   6.6554095288158532E-002
   1.5521632520911099E-002  -4.3739330054428094E-003   6.2919966469594135E-002
   1.4493011116357923E-002  -4.0771156626248084E-003   6.2711358681003471E-002
   1.3464389711804775E-002  -3.7607756536936071E-003   6.2737429329608546E-002
   1.2435768307251620E-002  -3.4249129786487233E-003   6.2998178415409070E-002
   1.1407146902698451E-002  -3.0695276374903546E-003   6.3493605938405695E-002
   1.1686020114470730E-002  -3.2804497804230226E-003   6.3936144694409114E-002
   1.0897696375153566E-002  -3.0578367696870168E-003   6.3720374675931335E-002
   1.0109372635836375E-002  -2.8205817301028696E-003   6.3750521550729550E-002
   9.3210488965192184E-003  -2.5686846616700849E-003   6.4026585318804258E-002
   8.5327251572020202E-003  -2.3021455643892352E-003   6.4548565980155126E-002
   7.8205439026219070E-003  -2.1869665554030415E-003   6.4880558905775029E-002
   7.2837562846212942E-003  -2.0385578767490586E-003   6.4652746020144744E-002
   6.7469686666206743E-003  -1.8803878065119586E-003   6.4682088483871164E-002
   6.2101810486200597E-003  -1.7124563446916114E-003   6.4968586296954581E-002
   5.6733934306194278E-003  -1.5347634912881158E-003   6.5512239459394828E-002
   3.9252038853646136E-003  -1.0934833303832131E-003   6.5753209103691396E-002
   3.6511908447611034E-003  -1.0192789838110727E-003   6.5508472713643531E-002
   3.3771778041576123E-003  -9.4019388292107889E-004   6.5532130129033098E-002
   3.1031647635541173E-003  -8.5622802771316651E-004   6.5824181349859900E-002
   2.8291517229505972E-003  -7.6738141818694094E-004   6.6384626376124314E-002
   6.2698846114983553E-011  -1.0536321815024507E-010   6.6554095288158532E-002
   5.5573032287092872E-011  -9.0873197855501076E-011   6.6287554756428002E-002
   4.8447225398096094E-011   4.0669703715856542E-011   6.6300646486215170E-002
   4.1321423713269745E-011   2.8926547615548692E-010   6.6593370477520605E-002
   3.4195604681208636E-011   6.5491412293283702E-010   6.7165726730343822E-002
  -8.0093223719934770E-013   0.0000000000000000        2.8444759547140368E-002
  -8.4083174450855225E-013   2.4649119551023446E-013   3.3405935456434457E-002
  -8.8073190233906029E-013   3.9070482960035235E-013   3.8374771474468827E-002
  -9.2063173490891659E-013   4.3264697380251960E-013   4.3351267601243498E-002
  -9.6053243484051087E-013   3.7229767879676245E-013   4.8335423836758463E-002
  -6.8002482133230398E-003   0.0000000000000000        2.8508747981746213E-002
  -6.8320704345630522E-003   1.4647774444662837E-004   3.3543537665130824E-002
  -6.8638926558030619E-003   3.2995723995838180E-004   3.8507022797374925E-002
  -6.8957148770430743E-003   5.5043848653526552E-004   4.3399203378478496E-002
  -6.9275370982830875E-003   8.0792148417726736E-004   4.8220079408441578E-002
  -1.3505901197295649E-002   0.0000000000000000        2.8700713284968496E-002
  -1.3648510299616575E-002   2.9295548864676597E-004   3.3846118493611035E-002
  -1.3791119401937502E-002   6.5991447952606225E-004   3.8841254491232255E-002
  -1.3933728504258431E-002   1.1008769726378910E-003   4.3686121277832154E-002
  -1.4076337606579354E-002   1.6158429679822449E-003   4.8380718853410741E-002
  -2.0116958952718752E-002   0.0000000000000000        2.9020655456807216E-002
  -2.0449319596001398E-002   4.3943323284690292E-004   3.4313677941875093E-002
  -2.0781680239284044E-002   9.8987171909374182E-004   3.9377466556040831E-002
  -2.1114040882566690E-002   1.6513154587405113E-003   4.4212021299304460E-002
  -2.1446401525849337E-002   2.4237644517872184E-003   4.8817342171665966E-002
  -2.6633421479592356E-002   0.0000000000000000        2.9468574497262368E-002
  -2.7234498323717528E-002   5.8591097704704161E-004   3.4946216009922974E-002
  -2.7835575167842692E-002   1.3198289586614197E-003   4.0115658991800647E-002
  -2.8436652011967860E-002   2.2017539448431385E-003   4.4976903442895420E-002
  -2.9037728856093025E-002   3.2316859355921912E-003   4.9529949363207246E-002
  -9.6053243484051087E-013   3.7229767879676245E-013   4.8335423836758463E-002
  -1.1427842179501102E-012   3.2207830152897188E-013   5.1504172841975449E-002
  -1.3250349168575370E-012   3.9444966390411729E-013   5.4536884068079376E-002
  -1.5072865915469191E-012   5.8930670673168484E-013   5.7433557515070212E-002
  -1.6895373988745632E-012   9.0677465536259660E-013   6.0194193182947969E-002
  -6.9275370982830875E-003   8.0792148417726736E-004   4.8220079408441578E-002
  -7.0341348757119804E-003   1.0625268247689509E-003   5.1175626472029674E-002
  -7.1407326531408768E-003   1.2743751001948614E-003   5.4054015760237564E-002
  -7.2473304305697758E-003   1.4434663104549719E-003   5.6855247273065249E-002
  -7.3539282079986678E-003   1.5698004555493236E-003   5.9579321010512734E-002
  -1.4076337606579354E-002   1.6158429679822449E-003   4.8380718853410741E-002
  -1.4230653157522030E-002   2.1250536492158092E-003   5.1080306910081634E-002
  -1.4384968708464702E-002   2.5487501999952736E-003   5.3761617195105180E-002
  -1.4539284259407379E-002   2.8869326203206230E-003   5.6424649708481357E-002
  -1.4693599810350058E-002   3.1396009101918865E-003   5.9069404450210174E-002
  -2.1446401525849337E-002   2.4237644517872184E-003   4.8817342171665966E-002
  -2.1589554846572920E-002   3.1875804736626713E-003   5.1218214156131286E-002
  -2.1732708167296506E-002   3.8231252997957027E-003   5.3659688372682160E-002
  -2.1875861488020103E-002   4.3303989301862883E-003   5.6141764821318524E-002
  -2.2019014808743683E-002   4.7094013648344354E-003   5.8664443502040399E-002
  -2.9037728856093025E-002   3.2316859355921912E-003   4.9529949363207246E-002
  -2.9110839942864668E-002   4.2501072981095340E-003   5.1589348210178694E-002
  -2.9183951029636300E-002   5.0975003995961041E-003   5.3748229292968540E-002
  -2.9257062116407932E-002   5.7738652400519206E-003   5.6006592611576762E-002
  -2.9330173203179561E-002   6.2792018194770052E-003   5.8364438166003375E-002
  -1.6895373988745632E-012   9.0677465536259660E-013   6.0194193182947969E-002
  -1.3181964200748020E-012   9.8494823408401544E-013   6.1084975277527938E-002
  -9.4685544127504073E-013   4.6204012837947062E-013   6.2113504949455001E-002
  -5.7551359511354150E-013  -6.6194445758060994E-013   6.3279782198729179E-002
  -2.0417348367551824E-013  -2.3870072585197022E-012   6.4583807025350437E-002
  -7.3539282079986678E-003   1.5698004555493236E-003   5.9579321010512734E-002
  -7.2288427064948896E-003   1.6667856330170490E-003   6.0463727197491476E-002
  -7.1037572049911174E-003   1.7478299403972612E-003   6.1460556809388021E-002
  -6.9786717034873384E-003   1.8129333776900195E-003   6.2569809846202321E-002
  -6.8535862019835584E-003   1.8620959448952673E-003   6.3791486307934395E-002
  -1.4693599810350058E-002   3.1396009101918865E-003   5.9069404450210174E-002
  -1.4468752960143171E-002   3.3335712650491359E-003   5.9931493860101347E-002
  -1.4243906109936286E-002   3.4956598803325099E-003   6.0880682542480968E-002
  -1.4019059259729405E-002   3.6258667560419696E-003   6.1916970497349039E-002
  -1.3794212409522518E-002   3.7241918921775558E-003   6.3040357724705509E-002
  -2.2019014808743683E-002   4.7094013648344354E-003   5.8664443502040399E-002
  -2.1719730762263023E-002   5.0003568970812297E-003   5.9488275265357562E-002
  -2.1420446715782363E-002   5.2434898202677240E-003   6.0373882148733821E-002
  -2.1121162669301710E-002   5.4388001343939410E-003   6.1321264152169215E-002
  -2.0821878622821047E-002   5.5862878394598373E-003   6.2330421275663669E-002
  -2.9330173203179561E-002   6.2792018194770052E-003   5.8364438166003375E-002
  -2.8981776112854466E-002   6.6671425291133270E-003   5.9134071413260117E-002
  -2.8633379022529354E-002   6.9913197602029849E-003   5.9940155628146613E-002
  -2.8284981932204245E-002   7.2517335127458785E-003   6.0782690810662961E-002
  -2.7936584841879140E-002   7.4483837867421049E-003   6.1661676960809000E-002
  -2.0417348367551824E-013  -2.3870072585197022E-012   6.4583807025350437E-002
   2.2547935740746539E-014  -3.8483521924703723E-012   6.4771527283163224E-002
   2.4926762043353534E-013  -4.1812525664042255E-012   6.5074122256909839E-002
   4.7598730512632415E-013  -3.3856355219352707E-012   6.5491591946590363E-002
   7.0270872454258893E-013  -1.4615253451921717E-012   6.6023936352204743E-002
  -6.8535862019835584E-003   1.8620959448952673E-003   6.3791486307934395E-002
  -6.7228189495990662E-003   1.8918118291546271E-003   6.3896582848873590E-002
  -6.5920516972145767E-003   1.8985752176096903E-003   6.4148339178194458E-002
  -6.4612844448300837E-003   1.8823861102603761E-003   6.4546755295897013E-002
  -6.3305171924455950E-003   1.8432445071066839E-003   6.5091831201981254E-002
  -1.3794212409522518E-002   3.7241918921775558E-003   6.3040357724705509E-002
  -1.3500892832532434E-002   3.7836236621576272E-003   6.3039878051838305E-002
  -1.3207573255542350E-002   3.7971504394005498E-003   6.3217843239800592E-002
  -1.2914253678552265E-002   3.7647722239063600E-003   6.3574253288592369E-002
  -1.2620934101562183E-002   3.6864890156749902E-003   6.4109108198213693E-002
  -2.0821878622821047E-002   5.5862878394598373E-003   6.2330421275663669E-002
  -2.0334221648777549E-002   5.6754354951605752E-003   6.2201412892057280E-002
  -1.9846564674734054E-002   5.6957256611913816E-003   6.2282634441728192E-002
  -1.9358907700690570E-002   5.6471583375523578E-003   6.2574085924676448E-002
  -1.8871250726647068E-002   5.5297335242432480E-003   6.3075767340901978E-002
  -2.7936584841879140E-002   7.4483837867421049E-003   6.1661676960809000E-002
  -2.7222805398334413E-002   7.5672473281635858E-003   6.1381187369530604E-002
  -2.6509025954789690E-002   7.5943008829823418E-003   6.1342712783977314E-002
  -2.5795246511244964E-002   7.5295444511983530E-003   6.1546253204149193E-002
  -2.5081467067700244E-002   7.3729780328115335E-003   6.1991808630046191E-002
   7.0270872454258893E-013  -1.4615253451921717E-012   6.6023936352204743E-002
  -1.8649491673183860E-012   1.0057232824323137E-012   6.5718443266211179E-002
  -4.4326070591793609E-012   3.4311373187101424E-012   6.5628493555687992E-002
  -7.0002614815933839E-012   5.8143889009043548E-012   6.5754087220635055E-002
  -9.5679228429013108E-012   8.1557538500476312E-012   6.6095224261052521E-002
  -6.3305171924455950E-003   1.8432445071066839E-003   6.5091831201981254E-002
  -6.1211428733667214E-003   1.7921712593461508E-003   6.4819813949469882E-002
  -5.9117685542878513E-003   1.7401872181760439E-003   6.4751001964781271E-002
  -5.7023942352089820E-003   1.6872923835964133E-003   6.4885395247915312E-002
  -5.4930199161301076E-003   1.6334867556072052E-003   6.5222993798872225E-002
  -1.2620934101562183E-002   3.6864890156749902E-003   6.4109108198213693E-002
  -1.2214523568484370E-002   3.5843425176865090E-003   6.3869655985816898E-002
  -1.1808113035406562E-002   3.4803744329209817E-003   6.3821070933595278E-002
  -1.1401702502328755E-002   3.3745847613783830E-003   6.3963353041548821E-002
  -1.0995291969250941E-002   3.2669735030586289E-003   6.4296502309677456E-002
  -1.8871250726647068E-002   5.5297335242432480E-003   6.3075767340901978E-002
  -1.8280142087217906E-002   5.3765137760269574E-003   6.2867969375252256E-002
  -1.7689033447788736E-002   5.2205616476659038E-003   6.2838700462130165E-002
  -1.7097924808359567E-002   5.0618771391603527E-003   6.2987960601535567E-002
  -1.6506816168930395E-002   4.9004602505100386E-003   6.3315749793468670E-002
  -2.5081467067700244E-002   7.3729780328115335E-003   6.1991808630046191E-002
  -2.4317998429567302E-002   7.1686850343672809E-003   6.1814754117776011E-002
  -2.3554529791434367E-002   6.9607488624108468E-003   6.1803890550385807E-002
  -2.2791061153301432E-002   6.7491695169423268E-003   6.1959217927875530E-002
  -2.2027592515168493E-002   6.5339469979615039E-003   6.2280736250245272E-002
  -9.5679228429013108E-012   8.1557538500476312E-012   6.6095224261052521E-002
  -7.9294279475838891E-012   9.2457708156246099E-012   6.5799313803547865E-002
  -6.2909365217134194E-012   7.8753115140273167E-012   6.5711384147440738E-002
  -4.6524407590342598E-012   4.0443898230435593E-012   6.5831435292731139E-002
  -3.0139502005255281E-012  -2.2469803795388543E-012   6.6159467239419012E-002
  -5.4930199161301076E-003   1.6334867556072052E-003   6.5222993798872225E-002
  -5.2826678319997803E-003   1.5770098129574694E-003   6.4917986556717211E-002
  -5.0723157478694495E-003   1.5161010343964082E-003   6.4825702678148384E-002
  -4.8619636637391196E-003   1.4507604199235878E-003   6.4946142163165757E-002
  -4.6516115796087915E-003   1.3809879695396154E-003   6.5279305011769206E-002
  -1.0995291969250941E-002   3.2669735030586289E-003   6.4296502309677456E-002
  -1.0569845240440131E-002   3.1540196166691403E-003   6.3977966449421317E-002
  -1.0144398511629328E-002   3.0322020609172273E-003   6.3876896514939815E-002
  -9.7189517828185218E-003   2.9015208358029523E-003   6.3993292506233188E-002
  -9.2935050540077085E-003   2.7619759413262113E-003   6.4327154423301350E-002
  -1.6506816168930395E-002   4.9004602505100386E-003   6.3315749793468670E-002
  -1.5861532233250476E-002   4.7310294203808528E-003   6.2979253481660072E-002
  -1.5216248297570558E-002   4.5483030874382963E-003   6.2864965657815047E-002
  -1.4570964361890639E-002   4.3522812516821226E-003   6.2972886321933458E-002
  -1.3925680426210714E-002   4.1429639131128626E-003   6.3303015474015331E-002
  -2.2027592515168493E-002   6.5339469979615039E-003   6.2280736250245272E-002
  -2.1157728810430831E-002   6.3080392240925098E-003   6.1921847653433670E-002
  -2.0287865105693151E-002   6.0644041139590182E-003   6.1789910106774093E-002
  -1.9418001400955481E-002   5.8030416675614281E-003   6.1884923610266665E-002
  -1.8548137696217812E-002   5.5239518848994584E-003   6.2206888163911178E-002
  -3.0139502005255281E-012  -2.2469803795388543E-012   6.6159467239419012E-002
   1.3414248878351742E-011  -1.4333090270213233E-011   6.5989498663232893E-002
   2.9842447957229012E-011  -3.5547828569626461E-011   6.5998613812627394E-002
   4.6270652240276711E-011  -6.5891219563907200E-011   6.6186812687602639E-002
   6.2698846114983553E-011  -1.0536321815024507E-010   6.6554095288158532E-002
  -4.6516115796087915E-003   1.3809879695396154E-003   6.5279305011769206E-002
  -4.4700096266630032E-003   1.3090276440439752E-003   6.5121600786995831E-002
  -4.2884076737172306E-003   1.2371234042367618E-003   6.5148016709676793E-002
  -4.1068057207714554E-003   1.1652752501182528E-003   6.5358552779812285E-002
  -3.9252037678256767E-003   1.0934831816880042E-003   6.5753208997402168E-002
  -9.2935050540077085E-003   2.7619759413262113E-003   6.4327154423301350E-002
  -8.9252647426705939E-003   2.6180553024210962E-003   6.4181770644757719E-002
  -8.5570244313334792E-003   2.4742468440215118E-003   6.4225543435542293E-002
  -8.1887841199963611E-003   2.3305505661275570E-003   6.4458472795655114E-002
  -7.8205438086592430E-003   2.1869664687391988E-003   6.4880558725096224E-002
  -1.3925680426210714E-002   4.1429639131128626E-003   6.3303015474015331E-002
  -1.3365765334608499E-002   3.9270829607981894E-003   6.3170008236518652E-002
  -1.2805850243006291E-002   3.7113702838061820E-003   6.3231193990223963E-002
  -1.2245935151404088E-002   3.4958258821369452E-003   6.3486572735131294E-002
  -1.1686020059801860E-002   3.2804497557904072E-003   6.3936144471240658E-002
  -1.8548137696217812E-002   5.5239518848994584E-003   6.2206888163911178E-002
  -1.7791511402476739E-002   5.2361106191752826E-003   6.2086313562278672E-002
  -1.7034885108735673E-002   4.9484937235908660E-003   6.2164968373721846E-002
  -1.6278258814994593E-002   4.6611011981464202E-003   6.2442852598240742E-002
  -1.5521632521253534E-002   4.3739330428416157E-003   6.2919966235835401E-002
   6.2698846114983553E-011  -1.0536321815024507E-010   6.6554095288158532E-002
   5.5573032287092872E-011  -9.0873197855501076E-011   6.6287554756428002E-002
   4.8447225398096094E-011   4.0669703715856542E-011   6.6300646486215170E-002
   4.1321423713269745E-011   2.8926547615548692E-010   6.6593370477520605E-002
   3.4195604681208636E-011   6.5491412293283702E-010   6.7165726730343822E-002
  -3.9252037678256767E-003   1.0934831816880042E-003   6.5753208997402168E-002
  -3.6511907407349737E-003   1.0192788549027443E-003   6.5508472785388044E-002
  -3.3771777136442759E-003   9.4019392571846605E-004   6.5532130380288905E-002
  -3.1031646865535755E-003   8.5622839413552684E-004   6.5824181782104835E-002
  -2.8291516594628890E-003   7.6738226015338196E-004   6.6384626990835693E-002
  -7.8205438086592430E-003   2.1869664687391988E-003   6.4880558725096224E-002
  -7.2837562019549690E-003   2.0385578006784644E-003   6.4652746113346857E-002
  -6.7469685952506846E-003   1.8803878107670549E-003   6.4682088853909497E-002
  -6.2101809885463967E-003   1.7124564990052982E-003   6.4968586946784465E-002
  -5.6733933818421539E-003   1.5347638653927520E-003   6.5512240391971510E-002
  -1.1686020059801860E-002   3.2804497557904072E-003   6.3936144471240658E-002
  -1.0897696328086919E-002   3.0578367464542400E-003   6.3720374740304231E-002
  -1.0109372596371985E-002   2.8205816958157860E-003   6.3750521907077182E-002
  -9.3210488646570510E-003   2.5686846038749872E-003   6.4026585971559372E-002
  -8.5327251329421101E-003   2.3021454706320110E-003   6.4548566933750579E-002
  -1.5521632521253534E-002   4.3739330428416157E-003   6.2919966235835401E-002
  -1.4493011119130868E-002   4.0771156922300711E-003   6.2711358666260486E-002
  -1.3464389717008182E-002   3.7607755808644616E-003   6.2737429539791889E-002
  -1.2435768314885496E-002   3.4249127087450787E-003   6.2998178856429526E-002
  -1.1407146912762831E-002   3.0695270758713811E-003   6.3493606616173315E-002
  -2.6633421479592356E-002   0.0000000000000000        2.9468574497262368E-002
  -2.7234498323717528E-002   5.8591097704704161E-004   3.4946216009922974E-002
  -2.7835575167842692E-002   1.3198289586614197E-003   4.0115658991800647E-002
  -2.8436652011967860E-002   2.2017539448431385E-003   4.4976903442895420E-002
  -2.9037728856093025E-002   3.2316859355921912E-003   4.9529949363207246E-002
  -3.3392736516589583E-002   0.0000000000000000        3.0178926098893402E-002
  -3.4236758680083558E-002   9.6045619232111926E-004   3.5267184540277483E-002
  -3.5080780843577526E-002   2.0242333122870862E-003   4.0177750873706862E-002
  -3.5924803007071501E-002   3.1913313598978992E-003   4.4910625099181568E-002
  -3.6768825170565476E-002   4.4617503351535642E-003   4.9465807216701595E-002
  -4.0732351802383548E-002   0.0000000000000000        3.1286165954259759E-002
  -4.1688812862418080E-002   1.3350014075951982E-003   3.5940355247444815E-002
  -4.2645273922452633E-002   2.7286376659127528E-003   4.0547358855503431E-002
  -4.3601734982487164E-002   4.1809087749526633E-003   4.5107176778435593E-002
  -4.4558196042521696E-002   5.6918147347149416E-003   4.9619809016241315E-002
  -4.8652267336974274E-002   0.0000000000000000        3.2790294063361439E-002
  -4.9590660870721122E-002   1.7095466228692774E-003   3.6965728131424978E-002
  -5.0529054404467984E-002   3.4330420195384198E-003   4.1224482937190311E-002
  -5.1467447938214846E-002   5.1704861900074310E-003   4.5566558480657458E-002
  -5.2405841471961707E-002   6.9218791342763094E-003   4.9991954761826392E-002
  -5.7152483120361725E-002   0.0000000000000000        3.4691310426198441E-002
  -5.7942302704992669E-002   2.0840918381433557E-003   3.8343303192217987E-002
  -5.8732122289623614E-002   4.1374463731640877E-003   4.2209123118767566E-002
  -5.9521941874254546E-002   6.1600636050621917E-003   4.6288770205847186E-002
  -6.0311761458885504E-002   8.1519435338376911E-003   5.0582244453456840E-002
  -2.9037728856093025E-002   3.2316859355921912E-003   4.9529949363207246E-002
  -2.9110839942864668E-002   4.2501072981095340E-003   5.1589348210178694E-002
  -2.9183951029636300E-002   5.0975003995961041E-003   5.3748229292968540E-002
  -2.9257062116407932E-002   5.7738652400519206E-003   5.6006592611576762E-002
  -2.9330173203179561E-002   6.2792018194770052E-003   5.8364438166003375E-002
  -3.6768825170565476E-002   4.4617503351535642E-003   4.9465807216701595E-002
  -3.6781537972311873E-002   5.6953709983387215E-003   5.1253874648987806E-002
  -3.6794250774058269E-002   6.7520741097379915E-003   5.3063256415506091E-002
  -3.6806963575804673E-002   7.6318596693513664E-003   5.4893952516256450E-002
  -3.6819676377551069E-002   8.3347276771789103E-003   5.6745962951238904E-002
  -4.4558196042521696E-002   5.6918147347149416E-003   4.9619809016241315E-002
  -4.4588678460829173E-002   7.1406346985678944E-003   5.1130655743087158E-002
  -4.4619160879136630E-002   8.4066478198798582E-003   5.2584648902578766E-002
  -4.4649643297444121E-002   9.4898540986508191E-003   5.3981788494716153E-002
  -4.4680125715751570E-002   1.0390253534880812E-002   5.5322074519499338E-002
  -5.2405841471961707E-002   6.9218791342763094E-003   4.9991954761826392E-002
  -5.2532261408416547E-002   8.5858983987970715E-003   5.1219691492476752E-002
  -5.2658681344871380E-002   1.0061221530021728E-002   5.2312406754186580E-002
  -5.2785101281326220E-002   1.1347848527950255E-002   5.3270100546955884E-002
  -5.2911521217781074E-002   1.2445779392582715E-002   5.4092772870784657E-002
  -6.0311761458885504E-002   8.1519435338376911E-003   5.0582244453456840E-002
  -6.0612286815074003E-002   1.0031162099026259E-002   5.1520981897156586E-002
  -6.0912812171262529E-002   1.1715795240163605E-002   5.2246529970329511E-002
  -6.1213337527451041E-002   1.3205842957249707E-002   5.2758888672975596E-002
  -6.1513862883639560E-002   1.4501305250284618E-002   5.3058058005094888E-002
  -2.9330173203179561E-002   6.2792018194770052E-003   5.8364438166003375E-002
  -2.8981776112854466E-002   6.6671425291133270E-003   5.9134071413260117E-002
  -2.8633379022529354E-002   6.9913197602029849E-003   5.9940155628146613E-002
  -2.8284981932204245E-002   7.2517335127458785E-003   6.0782690810662961E-002
  -2.7936584841879140E-002   7.4483837867421049E-003   6.1661676960809000E-002
  -3.6819676377551069E-002   8.3347276771789103E-003   5.6745962951238904E-002
  -3.6382984607829960E-002   8.8767464704444000E-003   5.7092221568490392E-002
  -3.5946292838108865E-002   9.2739843863715553E-003   5.7578618576904092E-002
  -3.5509601068387769E-002   9.5264414249605738E-003   5.8205153976479962E-002
  -3.5072909298666660E-002   9.6341175862112716E-003   5.8971827767218078E-002
  -4.4680125715751570E-002   1.0390253534880812E-002   5.5322074519499338E-002
  -4.4051451843102045E-002   1.1086350411775402E-002   5.5163941107954029E-002
  -4.3422777970452520E-002   1.1556649012540211E-002   5.5249633511103340E-002
  -4.2794104097802980E-002   1.1801149337175239E-002   5.5579151728947299E-002
  -4.2165430225153455E-002   1.1819851385680473E-002   5.6152495761485913E-002
  -5.2911521217781074E-002   1.2445779392582715E-002   5.4092772870784657E-002
  -5.1987177818670668E-002   1.3295954353106459E-002   5.3349230031650999E-002
  -5.1062834419560298E-002   1.3839313638708857E-002   5.2953200430744439E-002
  -5.0138491020449913E-002   1.4075857249389935E-002   5.2904684068064908E-002
  -4.9214147621339521E-002   1.4005585185149643E-002   5.3203680943612518E-002
  -6.1513862883639560E-002   1.4501305250284618E-002   5.3058058005094888E-002
  -6.0190162534535893E-002   1.5505558294437470E-002   5.1648088339581351E-002
  -5.8866462185432220E-002   1.6121978264877442E-002   5.0689319335827335E-002
  -5.7542761836328539E-002   1.6350565161604581E-002   5.0181750993832805E-002
  -5.6219061487224879E-002   1.6191318984618841E-002   5.0125383313597782E-002
  -2.7936584841879140E-002   7.4483837867421049E-003   6.1661676960809000E-002
  -2.7222805398334413E-002   7.5672473281635858E-003   6.1381187369530604E-002
  -2.6509025954789690E-002   7.5943008829823418E-003   6.1342712783977314E-002
  -2.5795246511244964E-002   7.5295444511983530E-003   6.1546253204149193E-002
  -2.5081467067700244E-002   7.3729780328115335E-003   6.1991808630046191E-002
  -3.5072909298666660E-002   9.6341175862112716E-003   5.8971827767218078E-002
  -3.4128974646432081E-002   9.6363006783138153E-003   5.8644274285424659E-002
  -3.3185039994197509E-002   9.5722785094582638E-003   5.8535016215285812E-002
  -3.2241105341962936E-002   9.4420510796445461E-003   5.8644053556801530E-002
  -3.1297170689728357E-002   9.2456183888727228E-003   5.8971386309971743E-002
  -4.2165430225153455E-002   1.1819851385680473E-002   5.6152495761485913E-002
  -4.1015059958299606E-002   1.1705354028464055E-002   5.5803483114822132E-002
  -3.9864689691445757E-002   1.1550256135934184E-002   5.5649046285742292E-002
  -3.8714319424591928E-002   1.1354557708090794E-002   5.5689185274246433E-002
  -3.7563949157738086E-002   1.1118258744933954E-002   5.5923900080334592E-002
  -4.9214147621339521E-002   1.4005585185149643E-002   5.3203680943612518E-002
  -4.7881061333936985E-002   1.3774407378614276E-002   5.2858813857722960E-002
  -4.6547975046534462E-002   1.3528233762410077E-002   5.2684802995346773E-002
  -4.5214888759131967E-002   1.3267064336537085E-002   5.2681648356484069E-002
  -4.3881802471729410E-002   1.2990899100995136E-002   5.2849349941134736E-002
  -5.6219061487224879E-002   1.6191318984618841E-002   5.0125383313597782E-002
  -5.4726978773344231E-002   1.5843460728764552E-002   4.9810266514127122E-002
  -5.3234896059463618E-002   1.5506211388886026E-002   4.9642286344099340E-002
  -5.1742813345582984E-002   1.5179570964983319E-002   4.9621442803514257E-002
  -5.0250730631702351E-002   1.4863539457056374E-002   4.9747735892372080E-002
  -2.5081467067700244E-002   7.3729780328115335E-003   6.1991808630046191E-002
  -2.4317998429567302E-002   7.1686850343672809E-003   6.1814754117776011E-002
  -2.3554529791434367E-002   6.9607488624108468E-003   6.1803890550385807E-002
  -2.2791061153301432E-002   6.7491695169423268E-003   6.1959217927875530E-002
  -2.2027592515168493E-002   6.5339469979615039E-003   6.2280736250245272E-002
  -3.1297170689728357E-002   9.2456183888727228E-003   5.8971386309971743E-002
  -3.0358872987464067E-002   9.0080537927524629E-003   5.8742044209345923E-002
  -2.9420575285199785E-002   8.7544306468934768E-003   5.8696169292102730E-002
  -2.8482277582935499E-002   8.4847489512956849E-003   5.8833761558242298E-002
  -2.7543979880671209E-002   8.1990087059592431E-003   5.9154821007764591E-002
  -3.7563949157738086E-002   1.1118258744933954E-002   5.5923900080334592E-002
  -3.6433546152839690E-002   1.0847422551137680E-002   5.5629855015126448E-002
  -3.5303143147941328E-002   1.0548112431375999E-002   5.5536553371803743E-002
  -3.4172740143042966E-002   1.0220328385649156E-002   5.5643995150366603E-002
  -3.3042337138144577E-002   9.8640704139568713E-003   5.5952180350814812E-002
  -4.3881802471729410E-002   1.2990899100995136E-002   5.2849349941134736E-002
  -4.2542017925694182E-002   1.2686791309522823E-002   5.2478186535117669E-002
  -4.1202233379658983E-002   1.2341794215858631E-002   5.2325042789488900E-002
  -3.9862448833623755E-002   1.1955907820002542E-002   5.2389918704248396E-002
  -3.8522664287588521E-002   1.1529132121954527E-002   5.2672814279396019E-002
  -5.0250730631702351E-002   1.4863539457056374E-002   4.9747735892372080E-002
  -4.8684288306027550E-002   1.4526160067908050E-002   4.9287038769319641E-002
  -4.7117845980352735E-002   1.4135476000341152E-002   4.9061637545158160E-002
  -4.5551403654677934E-002   1.3691487254355955E-002   4.9071532219887651E-002
  -4.3984961329003119E-002   1.3194193829952183E-002   4.9316722793508128E-002
  -2.2027592515168493E-002   6.5339469979615039E-003   6.2280736250245272E-002
  -2.1157728810430831E-002   6.3080392240925098E-003   6.1921847653433670E-002
  -2.0287865105693151E-002   6.0644041139590182E-003   6.1789910106774093E-002
  -1.9418001400955481E-002   5.8030416675614281E-003   6.1884923610266665E-002
  -1.8548137696217812E-002   5.5239518848994584E-003   6.2206888163911178E-002
  -2.7543979880671209E-002   8.1990087059592431E-003   5.9154821007764591E-002
  -2.6452461512742997E-002   7.8993710570401110E-003   5.8793934335175407E-002
  -2.5360943144814775E-002   7.5879971506946503E-003   5.8649405938815374E-002
  -2.4269424776886556E-002   7.2648869869229478E-003   5.8721235818684298E-002
  -2.3177906408958334E-002   6.9300405657247710E-003   5.9009423974782316E-002
  -3.3042337138144577E-002   9.8640704139568713E-003   5.5952180350814812E-002
  -3.1739756880948822E-002   9.4907028899877677E-003   5.5595286681286146E-002
  -3.0437176623753091E-002   9.1115901874302338E-003   5.5444158514063500E-002
  -2.9134596366557349E-002   8.7267323062843027E-003   5.5498795849146826E-002
  -2.7832016109361608E-002   8.3361292465500558E-003   5.5759198686536213E-002
  -3.8522664287588521E-002   1.1529132121954527E-002   5.2672814279396019E-002
  -3.7019614915048300E-002   1.1082034722935397E-002   5.2325904691765762E-002
  -3.5516565542508108E-002   1.0635183224165842E-002   5.2174167832518541E-002
  -3.4013516169967867E-002   1.0188577625645796E-002   5.2217603701654285E-002
  -3.2510466797427695E-002   9.7422179273752990E-003   5.2456212299172938E-002
  -4.3984961329003119E-002   1.3194193829952183E-002   4.9316722793508128E-002
  -4.2292035615041468E-002   1.2673366555882998E-002   4.8985788366614436E-002
  -4.0599109901079802E-002   1.2158776260901408E-002   4.8839433894180523E-002
  -3.8906184187118144E-002   1.1650422945007222E-002   4.8877659376206528E-002
  -3.7213258473156485E-002   1.1148306608200653E-002   4.9100464812692590E-002
  -1.8548137696217812E-002   5.5239518848994584E-003   6.2206888163911178E-002
  -1.7791511402476739E-002   5.2361106191752826E-003   6.2086313562278672E-002
  -1.7034885108735673E-002   4.9484937235908660E-003   6.2164968373721846E-002
  -1.6278258814994593E-002   4.6611011981464202E-003   6.2442852598240742E-002
  -1.5521632521253534E-002   4.3739330428416157E-003   6.2919966235835401E-002
  -2.3177906408958334E-002   6.9300405657247710E-003   5.9009423974782316E-002
  -2.2228219115910143E-002   6.5871838653495662E-003   5.8856310006324519E-002
  -2.1278531822861962E-002   6.2400428640468214E-003   5.8890088623405279E-002
  -2.0328844529813782E-002   5.8886175618166718E-003   5.9110759826024400E-002
  -1.9379157236765587E-002   5.5329079586588503E-003   5.9518323614182189E-002
  -2.7832016109361608E-002   8.3361292465500558E-003   5.5759198686536213E-002
  -2.6701604644543568E-002   7.9382571115240164E-003   5.5569036680185646E-002
  -2.5571193179725504E-002   7.5315920045029364E-003   5.5553430431836574E-002
  -2.4440781714907423E-002   7.1161339254869772E-003   5.5712379941488616E-002
  -2.3310370250089380E-002   6.6918828744759740E-003   5.6045885209141971E-002
  -3.2510466797427695E-002   9.7422179273752990E-003   5.2456212299172938E-002
  -3.1211667988377004E-002   9.2893303576983832E-003   5.2224493583862400E-002
  -2.9912869179326285E-002   8.8231411449591381E-003   5.2154993799015850E-002
  -2.8614070370275579E-002   8.3436502891573103E-003   5.2247712944633332E-002
  -2.7315271561224905E-002   7.8508577902930976E-003   5.2502651020714747E-002
  -3.7213258473156485E-002   1.1148306608200653E-002   4.9100464812692590E-002
  -3.5758409147410422E-002   1.0640403603872778E-002   4.8822680717354405E-002
  -3.4303559821664345E-002   1.0114690285415034E-002   4.8694778724943072E-002
  -3.2848710495918261E-002   9.5711666528275133E-003   4.8716758835458368E-002
  -3.1393861170172191E-002   9.0098327061102212E-003   4.8888621048900682E-002
  -1.5521632521253534E-002   4.3739330428416157E-003   6.2919966235835401E-002
  -1.4493011119130868E-002   4.0771156922300711E-003   6.2711358666260486E-002
  -1.3464389717008182E-002   3.7607755808644616E-003   6.2737429539791889E-002
  -1.2435768314885496E-002   3.4249127087450787E-003   6.2998178856429526E-002
  -1.1407146912762831E-002   3.0695270758713811E-003   6.3493606616173315E-002
  -1.9379157236765587E-002   5.5329079586588503E-003   5.9518323614182189E-002
  -1.8117722093211101E-002   5.1676609033526888E-003   5.9217006363059599E-002
  -1.6856286949656615E-002   4.7876232446771722E-003   5.9146638151694214E-002
  -1.5594851806102102E-002   4.3927949826328659E-003   5.9307218980086160E-002
  -1.4333416662547609E-002   3.9831761172189895E-003   5.9698748848235672E-002
  -2.3310370250089380E-002   6.6918828744759740E-003   5.6045885209141971E-002
  -2.1819850768451974E-002   6.2582061144752232E-003   5.5656590433856276E-002
  -2.0329331286814578E-002   5.8144709084901047E-003   5.5494515294979105E-002
  -1.8838811805177158E-002   5.3606772565205421E-003   5.5559659792510346E-002
  -1.7348292323539759E-002   4.8968251585667089E-003   5.5852023926450112E-002
  -2.7315271561224905E-002   7.8508577902930976E-003   5.2502651020714747E-002
  -2.5599397144853504E-002   7.3487513255977438E-003   5.2030110878650920E-002
  -2.3883522728482098E-002   6.8413185723028708E-003   5.1781060969646693E-002
  -2.2167648312110586E-002   6.3285595304084404E-003   5.1755501293702058E-002
  -2.0451773895739260E-002   5.8104741999143728E-003   5.1953431850816800E-002
  -3.1393861170172191E-002   9.0098327061102212E-003   4.8888621048900682E-002
  -2.9456361222415670E-002   8.4392965367204864E-003   4.8337567697443518E-002
  -2.7518861274659100E-002   7.8681662361155813E-003   4.8006275175696944E-002
  -2.5581361326902561E-002   7.2964418042962137E-003   4.7894743483660823E-002
  -2.3643861379146036E-002   6.7241232412620366E-003   4.8002972621335571E-002
  -5.7152483120361725E-002   0.0000000000000000        3.4691310426198441E-002
  -5.7942302704992669E-002   2.0840918381433557E-003   3.8343303192217987E-002
  -5.8732122289623614E-002   4.1374463731640877E-003   4.2209123118767566E-002
  -5.9521941874254546E-002   6.1600636050621917E-003   4.6288770205847186E-002
  -6.0311761458885504E-002   8.1519435338376911E-003   5.0582244453456840E-002
  -6.5820869113023803E-002   0.0000000000000000        3.7212527128154121E-002
  -6.6625963668522220E-002   2.9142238357100052E-003   4.0835259862965649E-002
  -6.7431058224020651E-002   5.7709495144266315E-003   4.4213615495512185E-002
  -6.8236152779519069E-002   8.5701770361498730E-003   4.7347594025793707E-002
  -6.9041247335017486E-002   1.1311906400879736E-002   5.0237195453810259E-002
  -7.4245295275438383E-002   0.0000000000000000        4.0577256254611838E-002
  -7.5523869064599319E-002   3.7443558332766560E-003   4.4143968104344587E-002
  -7.6802442853760242E-002   7.4044526556891763E-003   4.7008098589017298E-002
  -7.8081016642921178E-002   1.0980290467237549E-002   4.9169647708629999E-002
  -7.9359590432082100E-002   1.4471869267921787E-002   5.0628615463182682E-002
  -8.2425761607605452E-002   0.0000000000000000        4.4785497805571568E-002
  -8.4636018893223933E-002   4.5744878308433086E-003   4.8269427916354794E-002
  -8.6846276178842399E-002   9.0379557969517167E-003   5.0592572399282949E-002
  -8.9056533464460880E-002   1.3390403898325229E-002   5.1754931254356054E-002
  -9.1266790750079360E-002   1.7631832134963832E-002   5.1756504481574095E-002
  -9.0362268109525024E-002   0.0000000000000000        4.9837251781033348E-002
  -9.3962413154396088E-002   5.4046198284099563E-003   5.3211639298996270E-002
  -9.7562558199267124E-002   1.0671458938214263E-002   5.4967036926309110E-002
 -0.10116270324413817        1.5800517329412903E-002   5.5103444662971846E-002
 -0.10476284828900924        2.0791795002005890E-002   5.3620862508984513E-002
  -6.0311761458885504E-002   8.1519435338376911E-003   5.0582244453456840E-002
  -6.0612286815074003E-002   1.0031162099026259E-002   5.1520981897156586E-002
  -6.0912812171262529E-002   1.1715795240163605E-002   5.2246529970329511E-002
  -6.1213337527451041E-002   1.3205842957249707E-002   5.2758888672975596E-002
  -6.1513862883639560E-002   1.4501305250284618E-002   5.3058058005094888E-002
  -6.9041247335017486E-002   1.1311906400879736E-002   5.0237195453810259E-002
  -6.9317001576925871E-002   1.3756565594317727E-002   4.9459422356563539E-002
  -6.9592755818834243E-002   1.5664582602165307E-002   4.8944380858403941E-002
  -6.9868510060742614E-002   1.7035957424422526E-002   4.8692070959331438E-002
  -7.0144264302651013E-002   1.7870690061089316E-002   4.8702492659346029E-002
  -7.9359590432082100E-002   1.4471869267921787E-002   5.0628615463182682E-002
  -7.9134652590096416E-002   1.7481969089609181E-002   4.7792275063450330E-002
  -7.8909714748110732E-002   1.9613369964167026E-002   4.5694587232419016E-002
  -7.8684776906125034E-002   2.0866071891595318E-002   4.4335551970088739E-002
  -7.8459839064139350E-002   2.1240074871894041E-002   4.3715169276459499E-002
  -9.1266790750079360E-002   1.7631832134963832E-002   5.1756504481574095E-002
  -9.0065239854585658E-002   2.1207372584900637E-002   4.6519540017816968E-002
  -8.8863688959091983E-002   2.3562157326168717E-002   4.2497149092374772E-002
  -8.7662138063598308E-002   2.4696186358768104E-002   3.9689331705247563E-002
  -8.6460587168104591E-002   2.4609459682698766E-002   3.8096087856435333E-002
 -0.10476284828900924        2.0791795002005890E-002   5.3620862508984513E-002
 -0.10210876337039362        2.4932776080192107E-002   4.5641217219663389E-002
  -9.9454678451777995E-002   2.7510944688170454E-002   3.9352066438271174E-002
  -9.6800593533162352E-002   2.8526300825940917E-002   3.4753410164807839E-002
  -9.4146508614546751E-002   2.7978844493503470E-002   3.1845248399273461E-002
  -6.1513862883639560E-002   1.4501305250284618E-002   5.3058058005094888E-002
  -6.0190162534535893E-002   1.5505558294437470E-002   5.1648088339581351E-002
  -5.8866462185432220E-002   1.6121978264877442E-002   5.0689319335827335E-002
  -5.7542761836328539E-002   1.6350565161604581E-002   5.0181750993832805E-002
  -5.6219061487224879E-002   1.6191318984618841E-002   5.0125383313597782E-002
  -7.0144264302651013E-002   1.7870690061089316E-002   4.8702492659346029E-002
  -6.8415713828055724E-002   1.8325752003541935E-002   4.7255732976812251E-002
  -6.6687163353460449E-002   1.8558114743156523E-002   4.6167472883502203E-002
  -6.4958612878865174E-002   1.8567778279933132E-002   4.5437712379415830E-002
  -6.3230062404269927E-002   1.8354742613871711E-002   4.5066451464553126E-002
  -7.8459839064139350E-002   2.1240074871894041E-002   4.3715169276459499E-002
  -7.6419139536588257E-002   2.1145945712646424E-002   4.2396753447780315E-002
  -7.4378440009037206E-002   2.0994251221435629E-002   4.1344136135789050E-002
  -7.2337740481486126E-002   2.0784991398261638E-002   4.0557317340485691E-002
  -7.0297040953935061E-002   2.0518166243124525E-002   4.0036297061870257E-002
  -8.6460587168104591E-002   2.4609459682698766E-002   3.8096087856435333E-002
  -8.4200439660133505E-002   2.3966139421750889E-002   3.7071149752485572E-002
  -8.1940292152162447E-002   2.3430387699714735E-002   3.6219309092687973E-002
  -7.9680144644191347E-002   2.3002204516590182E-002   3.5540565877042497E-002
  -7.7419997136220275E-002   2.2681589872377353E-002   3.5034920105549039E-002
  -9.4146508614546751E-002   2.7978844493503470E-002   3.1845248399273461E-002
  -9.1759614198691469E-002   2.6786333130855381E-002   3.1278921890928027E-002
  -8.9372719782836174E-002   2.5866524177993809E-002   3.0792991754198907E-002
  -8.6985825366980893E-002   2.5219417634918681E-002   3.0387457989086132E-002
  -8.4598930951125612E-002   2.4845013501630209E-002   3.0062320595589609E-002
  -5.6219061487224879E-002   1.6191318984618841E-002   5.0125383313597782E-002
  -5.4726978773344231E-002   1.5843460728764552E-002   4.9810266514127122E-002
  -5.3234896059463618E-002   1.5506211388886026E-002   4.9642286344099340E-002
  -5.1742813345582984E-002   1.5179570964983319E-002   4.9621442803514257E-002
  -5.0250730631702351E-002   1.4863539457056374E-002   4.9747735892372080E-002
  -6.3230062404269927E-002   1.8354742613871711E-002   4.5066451464553126E-002
  -6.1571389772001731E-002   1.8015279751407480E-002   4.4705037184411260E-002
  -5.9912717139733548E-002   1.7645661698975745E-002   4.4529666111601668E-002
  -5.8254044507465380E-002   1.7245888456576534E-002   4.4540338246124335E-002
  -5.6595371875197163E-002   1.6815960024209764E-002   4.4737053587979275E-002
  -7.0297040953935061E-002   2.0518166243124525E-002   4.0036297061870257E-002
  -6.8432871825389874E-002   2.0187098774050380E-002   3.9587821195113823E-002
  -6.6568702696844673E-002   1.9785112009065464E-002   3.9364295113579174E-002
  -6.4704533568299458E-002   1.9312205948169722E-002   3.9365718817266311E-002
  -6.2840364439754298E-002   1.8768380591363182E-002   3.9592092306175122E-002
  -7.7419997136220275E-002   2.2681589872377353E-002   3.5034920105549039E-002
  -7.5311424933508633E-002   2.2358917796693363E-002   3.4458618546234804E-002
  -7.3202852730796936E-002   2.1924562319155197E-002   3.4146173350031832E-002
  -7.1094280528085252E-002   2.1378523439762841E-002   3.4097584516940040E-002
  -6.8985708325373568E-002   2.0720801158516614E-002   3.4312852046959497E-002
  -8.4598930951125612E-002   2.4845013501630209E-002   3.0062320595589609E-002
  -8.2207049096357981E-002   2.4530736819336194E-002   2.9317429237774306E-002
  -7.9815167241590379E-002   2.4064012629244909E-002   2.8875300820959668E-002
  -7.7423285386822777E-002   2.3444840931356153E-002   2.8735935345145770E-002
  -7.5031403532055146E-002   2.2673221725670017E-002   2.8899332810332412E-002
  -5.0250730631702351E-002   1.4863539457056374E-002   4.9747735892372080E-002
  -4.8684288306027550E-002   1.4526160067908050E-002   4.9287038769319641E-002
  -4.7117845980352735E-002   1.4135476000341152E-002   4.9061637545158160E-002
  -4.5551403654677934E-002   1.3691487254355955E-002   4.9071532219887651E-002
  -4.3984961329003119E-002   1.3194193829952183E-002   4.9316722793508128E-002
  -5.6595371875197163E-002   1.6815960024209764E-002   4.4737053587979275E-002
  -5.4805373018386512E-002   1.6356838780022392E-002   4.4323498220063512E-002
  -5.3015374161575812E-002   1.5869487102161434E-002   4.4121760015528574E-002
  -5.1225375304765133E-002   1.5353904990626645E-002   4.4131838974374400E-002
  -4.9435376447954406E-002   1.4810092445418421E-002   4.4353735096601121E-002
  -6.2840364439754298E-002   1.8768380591363182E-002   3.9592092306175122E-002
  -6.0850287787317853E-002   1.8187517492136859E-002   3.9250752938140732E-002
  -5.8860211134881379E-002   1.7603498203981605E-002   3.9097751997977076E-002
  -5.6870134482444955E-002   1.7016322726897445E-002   3.9133089485684044E-002
  -5.4880057830008523E-002   1.6425991060884576E-002   3.9356765401261790E-002
  -6.8985708325373568E-002   2.0720801158516614E-002   3.4312852046959497E-002
  -6.6819032612821544E-002   2.0018196204251180E-002   3.4068802923551383E-002
  -6.4652356900269478E-002   1.9337509305801803E-002   3.3989613492503824E-002
  -6.2485681187717419E-002   1.8678740463168357E-002   3.4075283753816805E-002
  -6.0319005475165353E-002   1.8041889676350772E-002   3.4325813707490244E-002
  -7.5031403532055146E-002   2.2673221725670017E-002   2.8899332810332412E-002
  -7.2711607494897593E-002   2.1848874916365627E-002   2.8777648176295412E-002
  -7.0391811457740067E-002   2.1071520407621981E-002   2.8797344499108729E-002
  -6.8072015420582555E-002   2.0341158199438984E-002   2.8958421778772440E-002
  -6.5752219383425015E-002   1.9657788291816969E-002   2.9260880015286650E-002
  -4.3984961329003119E-002   1.3194193829952183E-002   4.9316722793508128E-002
  -4.2292035615041468E-002   1.2673366555882998E-002   4.8985788366614436E-002
  -4.0599109901079802E-002   1.2158776260901408E-002   4.8839433894180523E-002
  -3.8906184187118144E-002   1.1650422945007222E-002   4.8877659376206528E-002
  -3.7213258473156485E-002   1.1148306608200653E-002   4.9100464812692590E-002
  -4.9435376447954406E-002   1.4810092445418421E-002   4.4353735096601121E-002
  -4.7556048074510693E-002   1.4252305101280477E-002   4.4033616019077709E-002
  -4.5676719701066987E-002   1.3694798592957108E-002   4.3901722306058585E-002
  -4.3797391327623211E-002   1.3137572920448461E-002   4.3958053957543645E-002
  -4.1918062954179505E-002   1.2580628083754430E-002   4.4202610973532980E-002
  -5.4880057830008523E-002   1.6425991060884576E-002   3.9356765401261790E-002
  -5.2810681387038400E-002   1.5831243646678025E-002   3.9041505529835888E-002
  -5.0741304944068255E-002   1.5230820925013135E-002   3.8918116432958512E-002
  -4.8671928501098173E-002   1.4624722895889808E-002   3.8986598110629725E-002
  -4.6602552058127994E-002   1.4012949559308097E-002   3.9246950562849409E-002
  -6.0319005475165353E-002   1.8041889676350772E-002   3.4325813707490244E-002
  -5.8055935552624581E-002   1.7410182192075511E-002   3.4009456898888929E-002
  -5.5792865630083809E-002   1.6766843257068998E-002   3.3888616274880379E-002
  -5.3529795707542981E-002   1.6111872871331017E-002   3.3963291835464635E-002
  -5.1266725785002208E-002   1.5445271034861791E-002   3.4233483580641842E-002
  -6.5752219383425015E-002   1.9657788291816969E-002   2.9260880015286650E-002
  -6.3291810571269230E-002   1.8989120737472998E-002   2.8937470126236847E-002
  -6.0831401759113460E-002   1.8302865589124862E-002   2.8813221831824137E-002
  -5.8370992946957669E-002   1.7599022846772339E-002   2.8888135132048590E-002
  -5.5910584134801905E-002   1.6877592510415595E-002   2.9162210026910107E-002
  -3.7213258473156485E-002   1.1148306608200653E-002   4.9100464812692590E-002
  -3.5758409147410422E-002   1.0640403603872778E-002   4.8822680717354405E-002
  -3.4303559821664345E-002   1.0114690285415034E-002   4.8694778724943072E-002
  -3.2848710495918261E-002   9.5711666528275133E-003   4.8716758835458368E-002
  -3.1393861170172191E-002   9.0098327061102212E-003   4.8888621048900682E-002
  -4.1918062954179505E-002   1.2580628083754430E-002   4.4202610973532980E-002
  -4.0309942614287900E-002   1.2017647938183107E-002   4.3933450282638731E-002
  -3.8701822274396273E-002   1.1442316339043079E-002   4.3820949517108701E-002
  -3.7093701934504661E-002   1.0854633286334250E-002   4.3865108676942953E-002
  -3.5485581594613042E-002   1.0254598780056579E-002   4.4065927762141466E-002
  -4.6602552058127994E-002   1.4012949559308097E-002   3.9246950562849409E-002
  -4.4834382881653326E-002   1.3394892272493367E-002   3.8991872136960065E-002
  -4.3066213705178727E-002   1.2769942392670833E-002   3.8900231458872531E-002
  -4.1298044528704059E-002   1.2138099919840706E-002   3.8972028528586805E-002
  -3.9529875352229404E-002   1.1499364854002769E-002   3.9207263346102916E-002
  -5.1266725785002208E-002   1.5445271034861791E-002   3.4233483580641842E-002
  -4.9331729949506950E-002   1.4772136606803578E-002   3.3997946280318520E-002
  -4.7396734114011713E-002   1.4097568446298621E-002   3.3932624550234436E-002
  -4.5461738278516461E-002   1.3421566553347026E-002   3.4037518390389841E-002
  -4.3526742443021224E-002   1.2744130927949099E-002   3.4312627800784451E-002
  -5.5910584134801905E-002   1.6877592510415595E-002   2.9162210026910107E-002
  -5.3801983817848537E-002   1.6149380941113900E-002   2.8951672712713872E-002
  -5.1693383500895182E-002   1.5425194499926465E-002   2.8918128791194403E-002
  -4.9584783183941848E-002   1.4705033186853830E-002   2.9061578262352034E-002
  -4.7476182866988459E-002   1.3988897001895373E-002   2.9382021126186431E-002
  -3.1393861170172191E-002   9.0098327061102212E-003   4.8888621048900682E-002
  -2.9456361222415670E-002   8.4392965367204864E-003   4.8337567697443518E-002
  -2.7518861274659100E-002   7.8681662361155813E-003   4.8006275175696944E-002
  -2.5581361326902561E-002   7.2964418042962137E-003   4.7894743483660823E-002
  -2.3643861379146036E-002   6.7241232412620366E-003   4.8002972621335571E-002
  -3.5485581594613042E-002   1.0254598780056579E-002   4.4065927762141466E-002
  -3.3337578088759652E-002   9.6452078004371500E-003   4.3549565993730555E-002
  -3.1189574582906221E-002   9.0294553277036754E-003   4.3234450511802552E-002
  -2.9041571077052873E-002   8.4073413618556310E-003   4.3120581316357848E-002
  -2.6893567571199400E-002   7.7788659028934504E-003   4.3207958407395997E-002
  -3.9529875352229404E-002   1.1499364854002769E-002   3.9207263346102916E-002
  -3.7189882831506663E-002   1.0851119064154091E-002   3.8719825798838384E-002
  -3.4849890310783962E-002   1.0190744419291492E-002   3.8415119994829661E-002
  -3.2509897790061311E-002   9.5182409194151038E-003   3.8293145934075984E-002
  -3.0169905269338479E-002   8.8336085645247531E-003   3.8353903616578366E-002
  -4.3526742443021224E-002   1.2744130927949099E-002   3.4312627800784451E-002
  -4.1013275450656791E-002   1.2057030327871060E-002   3.3848347112767158E-002
  -3.8499808458292283E-002   1.1352033510879281E-002   3.3548283624777894E-002
  -3.5986341465927947E-002   1.0629140476974493E-002   3.3412437336816675E-002
  -3.3472874473563397E-002   9.8883512261561113E-003   3.3440808248883097E-002
  -4.7476182866988459E-002   1.3988897001895373E-002   2.9382021126186431E-002
  -4.4807755946209921E-002   1.3262941591587862E-002   2.8935129935516668E-002
  -4.2139329025431244E-002   1.2513322602467306E-002   2.8633941401647350E-002
  -3.9470902104652608E-002   1.1740040034533970E-002   2.8478455524578242E-002
  -3.6802475183874084E-002   1.0943093887787469E-002   2.8468672304309717E-002
  -9.0362268109525024E-002   0.0000000000000000        4.9837251781033348E-002
  -9.3962413154396088E-002   5.4046198284099563E-003   5.3211639298996270E-002
  -9.7562558199267124E-002   1.0671458938214263E-002   5.4967036926309110E-002
 -0.10116270324413817        1.5800517329412903E-002   5.5103444662971846E-002
 -0.10476284828900924        2.0791795002005890E-002   5.3620862508984513E-002
 -0.10329345330074341        0.0000000000000000        5.8665499199252097E-002
 -0.10683090897340762        1.0884622670458253E-002   5.2120996433657557E-002
 -0.11036836464607189        1.9172521384383592E-002   4.7320862303126730E-002
 -0.11390582031873613        2.4863696141776019E-002   4.4265096807659582E-002
 -0.11744327599140038        2.7958146942635535E-002   4.2953699947256119E-002
 -0.12645795570080681        0.0000000000000000        7.4203221078482762E-002
 -0.12656936347555048        1.6364625512506545E-002   5.5280884791403521E-002
 -0.12668077125029414        2.7673583830552923E-002   4.1466275665101755E-002
 -0.12679217902503778        3.3926874954139125E-002   3.2759393699577456E-002
 -0.12690358679978145        3.5124498883265187E-002   2.9160238894830680E-002
 -0.15985577530971531        0.0000000000000000        9.6450417418725343E-002
 -0.15317777666082460        2.1844628354554828E-002   6.2691304372234136E-002
 -0.14649977801193387        3.6174646276722254E-002   3.7403277012234191E-002
 -0.13982177936304319        4.2990053766502258E-002   2.0586335338725524E-002
 -0.13314378071415242        4.2290850823894888E-002   1.2240479351708123E-002
 -0.20348691212746886        0.0000000000000000       0.12540708821997984     
 -0.18665614852922999        2.7324631196603125E-002   7.4352255176149420E-002
 -0.16982538493099111        4.4675708722891581E-002   3.5131866344524060E-002
 -0.15299462133275224        5.2053232578865363E-002   7.7459217251037576E-003
 -0.13616385773451339        4.9457202764524505E-002  -7.8055786821114789E-003
 -0.10476284828900924        2.0791795002005890E-002   5.3620862508984513E-002
 -0.10210876337039362        2.4932776080192107E-002   4.5641217219663389E-002
  -9.9454678451777995E-002   2.7510944688170454E-002   3.9352066438271174E-002
  -9.6800593533162352E-002   2.8526300825940917E-002   3.4753410164807839E-002
  -9.4146508614546751E-002   2.7978844493503470E-002   3.1845248399273461E-002
 -0.11744327599140038        2.7958146942635535E-002   4.2953699947256119E-002
 -0.11348687381237166        2.9430269271091550E-002   3.6700621575188282E-002
 -0.10953047163334294        3.0254458611273360E-002   3.1361683216017740E-002
 -0.10557406945431419        3.0430714963180984E-002   2.6936884869744524E-002
 -0.10161766727528551        2.9959038326814444E-002   2.3426226536368656E-002
 -0.12690358679978145        3.5124498883265187E-002   2.9160238894830680E-002
 -0.12242122185537119        3.3927762461990967E-002   2.5548606921949751E-002
 -0.11793885691096097        3.2997972534376210E-002   2.2074760466934653E-002
 -0.11345649196655069        3.2335129100421064E-002   1.8738699529785244E-002
 -0.10897412702214045        3.1939232160125383E-002   1.5540424110501614E-002
 -0.13314378071415242        4.2290850823894888E-002   1.2240479351708123E-002
 -0.12891180749939224        3.8425255652890372E-002   1.2185173259947920E-002
 -0.12467983428463207        3.5741486457479106E-002   1.1491298191021904E-002
 -0.12044786106987188        3.4239543237661159E-002   1.0158854144930020E-002
 -0.11621588785511171        3.3919425993436336E-002   8.1878411216722638E-003
 -0.13616385773451339        4.9457202764524505E-002  -7.8055786821114789E-003
 -0.13295863074443481        4.2922748843789819E-002  -3.3896794108173207E-003
 -0.12975340375435626        3.8485000380582050E-002  -3.8870361172058630E-004
 -0.12654817676427765        3.6143957374901205E-002   1.1973487151788393E-003
 -0.12334294977419913        3.5899619826747331E-002   1.3684775698806773E-003
  -9.4146508614546751E-002   2.7978844493503470E-002   3.1845248399273461E-002
  -9.1759614198691469E-002   2.6786333130855381E-002   3.1278921890928027E-002
  -8.9372719782836174E-002   2.5866524177993809E-002   3.0792991754198907E-002
  -8.6985825366980893E-002   2.5219417634918681E-002   3.0387457989086132E-002
  -8.4598930951125612E-002   2.4845013501630209E-002   3.0062320595589609E-002
 -0.10161766727528551        2.9959038326814444E-002   2.3426226536368656E-002
  -9.9136110182879877E-002   2.9188835641281316E-002   2.3150656896704758E-002
  -9.6654553090474313E-002   2.8469513845689198E-002   2.2984016238525230E-002
  -9.4172995998068706E-002   2.7801072940038165E-002   2.2926304561829945E-002
  -9.1691438905663072E-002   2.7183512924328107E-002   2.2977521866618930E-002
 -0.10897412702214045        3.1939232160125383E-002   1.5540424110501614E-002
 -0.10636937464331653        3.1591338151707268E-002   1.5333789819673722E-002
 -0.10376462226449265        3.1072503513384597E-002   1.5264617120198182E-002
 -0.10115986988566872        3.0382728245157524E-002   1.5332906012074892E-002
  -9.8555117506844828E-002   2.9522012347025922E-002   1.5538656495303962E-002
 -0.11621588785511171        3.3919425993436336E-002   8.1878411216722638E-003
 -0.11345940758000146        3.3993840662133200E-002   7.8283206598349087E-003
 -0.11070292730489124        3.3675493181080082E-002   7.6347943992179220E-003
 -0.10794644702978097        3.2964383550276928E-002   7.6072623398210273E-003
 -0.10518996675467078        3.1860511769723807E-002   7.7457244816447682E-003
 -0.12334294977419913        3.5899619826747331E-002   1.3684775698806773E-003
 -0.12040620899293455        3.6396343172559145E-002   6.3424941718843997E-004
 -0.11746946821167004        3.6278482848775481E-002   9.4548075584455216E-005
 -0.11453272743040546        3.5546038855396409E-002  -2.5062645493138802E-004
 -0.11159598664914094        3.4199011192421691E-002  -4.0127417435881219E-004
  -8.4598930951125612E-002   2.4845013501630209E-002   3.0062320595589609E-002
  -8.2207049096357981E-002   2.4530736819336194E-002   2.9317429237774306E-002
  -7.9815167241590379E-002   2.4064012629244909E-002   2.8875300820959668E-002
  -7.7423285386822777E-002   2.3444840931356153E-002   2.8735935345145770E-002
  -7.5031403532055146E-002   2.2673221725670017E-002   2.8899332810332412E-002
  -9.1691438905663072E-002   2.7183512924328107E-002   2.2977521866618930E-002
  -8.9029857713364441E-002   2.6566019421621630E-002   2.2326798572824193E-002
  -8.6368276521065768E-002   2.5897778054981564E-002   2.1912711013090981E-002
  -8.3706695328767081E-002   2.5178788824407709E-002   2.1735259187419125E-002
  -8.1045114136468407E-002   2.4409051729900155E-002   2.1794443095808705E-002
  -9.8555117506844828E-002   2.9522012347025922E-002   1.5538656495303962E-002
  -9.5689964183954354E-002   2.8601302023907114E-002   1.5083800909393590E-002
  -9.2824810861063867E-002   2.7731543480718161E-002   1.4799453850605316E-002
  -8.9959657538173379E-002   2.6912736717459237E-002   1.4685615318939247E-002
  -8.7094504215282906E-002   2.6144881734130390E-002   1.4742285314395386E-002
 -0.10518996675467078        3.1860511769723807E-002   7.7457244816447682E-003
 -0.10218736850812773        3.0636584626192506E-002   7.5884362474823042E-003
  -9.9184770261584732E-002   2.9565308906454896E-002   7.5355293335026630E-003
  -9.6182172015041659E-002   2.8646684610510835E-002   7.5870037397062287E-003
  -9.3179573768498614E-002   2.7880711738360466E-002   7.7428594660925321E-003
 -0.11159598664914094        3.4199011192421691E-002  -4.0127417435881219E-004
 -0.10852207068588460        3.2671867228478008E-002  -1.5929541290973792E-004
 -0.10544815472262825        3.1399074332191509E-002   1.2093746178327980E-004
 -0.10237423875937188        3.0380632503562387E-002   4.3942444971960606E-004
  -9.9300322796115559E-002   2.9616541742590652E-002   7.9616555090011865E-004
  -7.5031403532055146E-002   2.2673221725670017E-002   2.8899332810332412E-002
  -7.2711607494897593E-002   2.1848874916365627E-002   2.8777648176295412E-002
  -7.0391811457740067E-002   2.1071520407621981E-002   2.8797344499108729E-002
  -6.8072015420582555E-002   2.0341158199438984E-002   2.8958421778772440E-002
  -6.5752219383425015E-002   1.9657788291816969E-002   2.9260880015286650E-002
  -8.1045114136468407E-002   2.4409051729900155E-002   2.1794443095808705E-002
  -7.8580716009639340E-002   2.3618653916164231E-002   2.1668509483210266E-002
  -7.6116317882810230E-002   2.2837682527904787E-002   2.1690399093104613E-002
  -7.3651919755981204E-002   2.2066137565122237E-002   2.1860111925491647E-002
  -7.1187521629152067E-002   2.1304019027816257E-002   2.2177647980371334E-002
  -8.7094504215282906E-002   2.6144881734130390E-002   1.4742285314395386E-002
  -8.4479061733139987E-002   2.5388432915962690E-002   1.4574536848151472E-002
  -8.1863619250997027E-002   2.4603844648187535E-002   1.4561053870042803E-002
  -7.9248176768854109E-002   2.3791116930805236E-002   1.4701836380068932E-002
  -7.6632734286711163E-002   2.2950249763815433E-002   1.4996884378230074E-002
  -9.3179573768498614E-002   2.7880711738360466E-002   7.7428594660925321E-003
  -9.0406644665399591E-002   2.7158211915761222E-002   7.4957302711191817E-003
  -8.7633715562300443E-002   2.6370006768470504E-002   7.4093088299230303E-003
  -8.4860786459201379E-002   2.5516096296488253E-002   7.4835951425043668E-003
  -8.2087857356102287E-002   2.4596480499814610E-002   7.7185892088630359E-003
  -9.9300322796115559E-002   2.9616541742590652E-002   7.9616555090011865E-004
  -9.6363464806418053E-002   2.8927990915559948E-002   4.3208975211303513E-004
  -9.3426606816720492E-002   2.8136168888753116E-002   2.3516397274592205E-004
  -9.0489748827022959E-002   2.7241075662171509E-002   2.0538821279800223E-004
  -8.7552890837325426E-002   2.6242711235813898E-002   3.4276247226983081E-004
  -6.5752219383425015E-002   1.9657788291816969E-002   2.9260880015286650E-002
  -6.3291810571269230E-002   1.8989120737472998E-002   2.8937470126236847E-002
  -6.0831401759113460E-002   1.8302865589124862E-002   2.8813221831824137E-002
  -5.8370992946957669E-002   1.7599022846772339E-002   2.8888135132048590E-002
  -5.5910584134801905E-002   1.6877592510415595E-002   2.9162210026910107E-002
  -7.1187521629152067E-002   2.1304019027816257E-002   2.2177647980371334E-002
  -6.8526468116740194E-002   2.0546708383499104E-002   2.1837111668356682E-002
  -6.5865414604328376E-002   1.9789587099682759E-002   2.1698703162217031E-002
  -6.3204361091916517E-002   1.9032655176367555E-002   2.1762422461952327E-002
  -6.0543307579504671E-002   1.8275912613552991E-002   2.2028269567562764E-002
  -7.6632734286711163E-002   2.2950249763815433E-002   1.4996884378230074E-002
  -7.3768069862805430E-002   2.2104296029524878E-002   1.4656998597755946E-002
  -7.0903405438899669E-002   2.1276308610240602E-002   1.4522206834394702E-002
  -6.8038741014993950E-002   2.0466287505962549E-002   1.4592509088146043E-002
  -6.5174076591088093E-002   1.9674232716690471E-002   1.4867905359010308E-002
  -8.2087857356102287E-002   2.4596480499814610E-002   7.7185892088630359E-003
  -7.9016615809464744E-002   2.3661883675550902E-002   7.3971309144344605E-003
  -7.5945374262827228E-002   2.2763030120798528E-002   7.2837328483566499E-003
  -7.2874132716189755E-002   2.1899919835557655E-002   7.3783950106295591E-003
  -6.9802891169552184E-002   2.1072552819827964E-002   7.6811174012529661E-003
  -8.7552890837325426E-002   2.6242711235813898E-002   3.4276247226983081E-004
  -8.4272105956718302E-002   2.5219471321576870E-002   5.7508618392265731E-005
  -8.0991321076111178E-002   2.4249751631356536E-002  -1.6718795896708549E-005
  -7.7710536195504082E-002   2.3333552165152725E-002   1.2008022940257490E-004
  -7.4429751314896930E-002   2.2470872922965457E-002   4.6790569429067119E-004
  -5.5910584134801905E-002   1.6877592510415595E-002   2.9162210026910107E-002
  -5.3801983817848537E-002   1.6149380941113900E-002   2.8951672712713872E-002
  -5.1693383500895182E-002   1.5425194499926465E-002   2.8918128791194403E-002
  -4.9584783183941848E-002   1.4705033186853830E-002   2.9061578262352034E-002
  -4.7476182866988459E-002   1.3988897001895373E-002   2.9382021126186431E-002
  -6.0543307579504671E-002   1.8275912613552991E-002   2.2028269567562764E-002
  -5.8266064070971443E-002   1.7516038992075600E-002   2.1810123310532448E-002
  -5.5988820562438195E-002   1.6749713892770815E-002   2.1752270043985306E-002
  -5.3711577053904946E-002   1.5976937315639237E-002   2.1854709767920963E-002
  -5.1434333545371719E-002   1.5197709260680092E-002   2.2117442482339544E-002
  -6.5174076591088093E-002   1.9674232716690471E-002   1.4867905359010308E-002
  -6.2744890293168890E-002   1.8882697043037272E-002   1.4631673553204619E-002
  -6.0315703995249714E-002   1.8074233285615110E-002   1.4539034335687831E-002
  -5.7886517697330449E-002   1.7248841444424477E-002   1.4589987706459868E-002
  -5.5457331399411267E-002   1.6406521519464895E-002   1.4784533665521196E-002
  -6.9802891169552184E-002   2.1072552819827964E-002   7.6811174012529661E-003
  -6.7238462484440931E-002   2.0249355093999041E-002   7.4163234407300001E-003
  -6.4674033799329747E-002   1.9398752678459599E-002   7.2784216663022289E-003
  -6.2109605114218494E-002   1.8520745573209801E-002   7.2674120779693922E-003
  -5.9545176429107297E-002   1.7615333778249490E-002   7.3832946757315908E-003
  -7.4429751314896930E-002   2.2470872922965457E-002   4.6790569429067119E-004
  -7.1746780644787567E-002   2.1616013144960533E-002   1.6407297310888636E-004
  -6.9063809974678259E-002   2.0723272071303894E-002  -2.9567964171584027E-005
  -6.6380839304568895E-002   1.9792649701995048E-002  -1.1301711755092037E-004
  -6.3697868634459587E-002   1.8824146037034306E-002  -8.6274487029469604E-005
  -4.7476182866988459E-002   1.3988897001895373E-002   2.9382021126186431E-002
  -4.4807755946209921E-002   1.3262941591587862E-002   2.8935129935516668E-002
  -4.2139329025431244E-002   1.2513322602467306E-002   2.8633941401647350E-002
  -3.9470902104652608E-002   1.1740040034533970E-002   2.8478455524578242E-002
  -3.6802475183874084E-002   1.0943093887787469E-002   2.8468672304309717E-002
  -5.1434333545371719E-002   1.5197709260680092E-002   2.2117442482339544E-002
  -4.8601562060291190E-002   1.4416650147154375E-002   2.1613908914455360E-002
  -4.5768790575210674E-002   1.3638380394322178E-002   2.1293361818374573E-002
  -4.2936019090130194E-002   1.2862900002183788E-002   2.1155801194097212E-002
  -4.0103247605049630E-002   1.2090208970738869E-002   2.1201227041622972E-002
  -5.5457331399411267E-002   1.6406521519464895E-002   1.4784533665521196E-002
  -5.2422931535025794E-002   1.5570358702721249E-002   1.4250810659929100E-002
  -4.9388531670640327E-002   1.4763438186177154E-002   1.3937357941143237E-002
  -4.6354131806254931E-002   1.3985759969833632E-002   1.3844175509164173E-002
  -4.3319731941869458E-002   1.3237324053690047E-002   1.3971263363991238E-002
  -5.9545176429107297E-002   1.7615333778249490E-002   7.3832946757315908E-003
  -5.6271864370413788E-002   1.6724067258287387E-002   6.8458351719378890E-003
  -5.2998552311720314E-002   1.5888495978032022E-002   6.5659297699538124E-003
  -4.9725240253026867E-002   1.5108619937483352E-002   6.5435784697791136E-003
  -4.6451928194333331E-002   1.4384439136641447E-002   6.7787812714143053E-003
  -6.3697868634459587E-002   1.8824146037034306E-002  -8.6274487029469604E-005
  -6.0148360566455006E-002   1.7877775813854191E-002  -6.0101754951796815E-004
  -5.6598852498450536E-002   1.7013553769886919E-002  -8.2092269519429273E-004
  -5.3049344430445927E-002   1.6231479905133329E-002  -7.4598992405744413E-004
  -4.9499836362441485E-002   1.5531554219592625E-002  -3.7621923610853258E-004
 </DataArray>
 </PointData>
 </Piece>
 <Piece  NumberOfPoints="          1600 "  NumberOfCells="         1024 ">
 <Points>
 <DataArray  type="Float64" NumberOfComponents="3"  format="ascii" >
  0.50000000000000000        0.0000000000000000        0.0000000000000000     
  0.53125000000000000        0.0000000000000000        0.0000000000000000     
  0.56250000000000000        0.0000000000000000        0.0000000000000000     
  0.59375000000000000        0.0000000000000000        0.0000000000000000     
  0.62500000000000000        0.0000000000000000        0.0000000000000000     
  0.50000000000000000        3.1250000000000000E-002   0.0000000000000000     
  0.53125000000000000        3.1250000000000000E-002   0.0000000000000000     
  0.56250000000000000        3.1250000000000000E-002   0.0000000000000000     
  0.59375000000000000        3.1250000000000000E-002   0.0000000000000000     
  0.62500000000000000        3.1250000000000000E-002   0.0000000000000000     
  0.50000000000000000        6.2500000000000000E-002   0.0000000000000000     
  0.53125000000000000        6.2500000000000000E-002   0.0000000000000000     
  0.56250000000000000        6.2500000000000000E-002   0.0000000000000000     
  0.59375000000000000        6.2500000000000000E-002   0.0000000000000000     
  0.62500000000000000        6.2500000000000000E-002   0.0000000000000000     
  0.50000000000000000        9.3750000000000000E-002   0.0000000000000000     
  0.53125000000000000        9.3750000000000000E-002   0.0000000000000000     
  0.56250000000000000        9.3750000000000000E-002   0.0000000000000000     
  0.59375000000000000        9.3750000000000000E-002   0.0000000000000000     
  0.62500000000000000        9.3750000000000000E-002   0.0000000000000000     
  0.50000000000000000       0.12500000000000000        0.0000000000000000     
  0.53125000000000000       0.12500000000000000        0.0000000000000000     
  0.56250000000000000       0.12500000000000000        0.0000000000000000     
  0.59375000000000000       0.12500000000000000        0.0000000000000000     
  0.62500000000000000       0.12500000000000000        0.0000000000000000     
  0.62500000000000000        0.0000000000000000        0.0000000000000000     
  0.65625000000000000        0.0000000000000000        0.0000000000000000     
  0.68750000000000000        0.0000000000000000        0.0000000000000000     
  0.71875000000000000        0.0000000000000000        0.0000000000000000     
  0.75000000000000000        0.0000000000000000        0.0000000000000000     
  0.62500000000000000        3.1250000000000000E-002   0.0000000000000000     
  0.65625000000000000        3.1250000000000000E-002   0.0000000000000000     
  0.68750000000000000        3.1250000000000000E-002   0.0000000000000000     
  0.71875000000000000        3.1250000000000000E-002   0.0000000000000000     
  0.75000000000000000        3.1250000000000000E-002   0.0000000000000000     
  0.62500000000000000        6.2500000000000000E-002   0.0000000000000000     
  0.65625000000000000        6.2500000000000000E-002   0.0000000000000000     
  0.68750000000000000        6.2500000000000000E-002   0.0000000000000000     
  0.71875000000000000        6.2500000000000000E-002   0.0000000000000000     
  0.75000000000000000        6.2500000000000000E-002   0.0000000000000000     
  0.62500000000000000        9.3750000000000000E-002   0.0000000000000000     
  0.65625000000000000        9.3750000000000000E-002   0.0000000000000000     
  0.68750000000000000        9.3750000000000000E-002   0.0000000000000000     
  0.71875000000000000        9.3750000000000000E-002   0.0000000000000000     
  0.75000000000000000        9.3750000000000000E-002   0.0000000000000000     
  0.62500000000000000       0.12500000000000000        0.0000000000000000     
  0.65625000000000000       0.12500000000000000        0.0000000000000000     
  0.68750000000000000       0.12500000000000000        0.0000000000000000     
  0.71875000000000000       0.12500000000000000        0.0000000000000000     
  0.75000000000000000       0.12500000000000000        0.0000000000000000     
  0.75000000000000000        0.0000000000000000        0.0000000000000000     
  0.78125000000000000        0.0000000000000000        0.0000000000000000     
  0.81250000000000000        0.0000000000000000        0.0000000000000000     
  0.84375000000000000        0.0000000000000000        0.0000000000000000     
  0.87500000000000000        0.0000000000000000        0.0000000000000000     
  0.75000000000000000        3.1250000000000000E-002   0.0000000000000000     
  0.78125000000000000        3.1250000000000000E-002   0.0000000000000000     
  0.81250000000000000        3.1250000000000000E-002   0.0000000000000000     
  0.84375000000000000        3.1250000000000000E-002   0.0000000000000000     
  0.87500000000000000        3.1250000000000000E-002   0.0000000000000000     
  0.75000000000000000        6.2500000000000000E-002   0.0000000000000000     
  0.78125000000000000        6.2500000000000000E-002   0.0000000000000000     
  0.81250000000000000        6.2500000000000000E-002   0.0000000000000000     
  0.84375000000000000        6.2500000000000000E-002   0.0000000000000000     
  0.87500000000000000        6.2500000000000000E-002   0.0000000000000000     
  0.75000000000000000        9.3750000000000000E-002   0.0000000000000000     
  0.78125000000000000        9.3750000000000000E-002   0.0000000000000000     
  0.81250000000000000        9.3750000000000000E-002   0.0000000000000000     
  0.84375000000000000        9.3750000000000000E-002   0.0000000000000000     
  0.87500000000000000        9.3750000000000000E-002   0.0000000000000000     
  0.75000000000000000       0.12500000000000000        0.0000000000000000     
  0.78125000000000000       0.12500000000000000        0.0000000000000000     
  0.81250000000000000       0.12500000000000000        0.0000000000000000     
  0.84375000000000000       0.12500000000000000        0.0000000000000000     
  0.87500000000000000       0.12500000000000000        0.0000000000000000     
  0.87500000000000000        0.0000000000000000        0.0000000000000000     
  0.90625000000000000        0.0000000000000000        0.0000000000000000     
  0.93750000000000000        0.0000000000000000        0.0000000000000000     
  0.96875000000000000        0.0000000000000000        0.0000000000000000     
   1.0000000000000000        0.0000000000000000        0.0000000000000000     
  0.87500000000000000        3.1250000000000000E-002   0.0000000000000000     
  0.90625000000000000        3.1250000000000000E-002   0.0000000000000000     
  0.93750000000000000        3.1250000000000000E-002   0.0000000000000000     
  0.96875000000000000        3.1250000000000000E-002   0.0000000000000000     
   1.0000000000000000        3.1250000000000000E-002   0.0000000000000000     
  0.87500000000000000        6.2500000000000000E-002   0.0000000000000000     
  0.90625000000000000        6.2500000000000000E-002   0.0000000000000000     
  0.93750000000000000        6.2500000000000000E-002   0.0000000000000000     
  0.96875000000000000        6.2500000000000000E-002   0.0000000000000000     
   1.0000000000000000        6.2500000000000000E-002   0.0000000000000000     
  0.87500000000000000        9.3750000000000000E-002   0.0000000000000000     
  0.90625000000000000        9.3750000000000000E-002   0.0000000000000000     
  0.93750000000000000        9.3750000000000000E-002   0.0000000000000000     
  0.96875000000000000        9.3750000000000000E-002   0.0000000000000000     
   1.0000000000000000        9.3750000000000000E-002   0.0000000000000000     
  0.87500000000000000       0.12500000000000000        0.0000000000000000     
  0.90625000000000000       0.12500000000000000        0.0000000000000000     
  0.93750000000000000       0.12500000000000000        0.0000000000000000     
  0.96875000000000000       0.12500000000000000        0.0000000000000000     
   1.0000000000000000       0.12500000000000000        0.0000000000000000     
   1.0000000000000000        0.0000000000000000        0.0000000000000000     
   1.0312500000000000        0.0000000000000000        0.0000000000000000     
   1.0625000000000000        0.0000000000000000        0.0000000000000000     
   1.0937500000000000        0.0000000000000000        0.0000000000000000     
   1.1250000000000000        0.0000000000000000        0.0000000000000000     
   1.0000000000000000        3.1250000000000000E-002   0.0000000000000000     
   1.0312500000000000        3.1250000000000000E-002   0.0000000000000000     
   1.0625000000000000        3.1250000000000000E-002   0.0000000000000000     
   1.0937500000000000        3.1250000000000000E-002   0.0000000000000000     
   1.1250000000000000        3.1250000000000000E-002   0.0000000000000000     
   1.0000000000000000        6.2500000000000000E-002   0.0000000000000000     
   1.0312500000000000        6.2500000000000000E-002   0.0000000000000000     
   1.0625000000000000        6.2500000000000000E-002   0.0000000000000000     
   1.0937500000000000        6.2500000000000000E-002   0.0000000000000000     
   1.1250000000000000        6.2500000000000000E-002   0.0000000000000000     
   1.0000000000000000        9.3750000000000000E-002   0.0000000000000000     
   1.0312500000000000        9.3750000000000000E-002   0.0000000000000000     
   1.0625000000000000        9.3750000000000000E-002   0.0000000000000000     
   1.0937500000000000        9.3750000000000000E-002   0.0000000000000000     
   1.1250000000000000        9.3750000000000000E-002   0.0000000000000000     
   1.0000000000000000       0.12500000000000000        0.0000000000000000     
   1.0312500000000000       0.12500000000000000        0.0000000000000000     
   1.0625000000000000       0.12500000000000000        0.0000000000000000     
   1.0937500000000000       0.12500000000000000        0.0000000000000000     
   1.1250000000000000       0.12500000000000000        0.0000000000000000     
   1.1250000000000000        0.0000000000000000        0.0000000000000000     
   1.1562500000000000        0.0000000000000000        0.0000000000000000     
   1.1875000000000000        0.0000000000000000        0.0000000000000000     
   1.2187500000000000        0.0000000000000000        0.0000000000000000     
   1.2500000000000000        0.0000000000000000        0.0000000000000000     
   1.1250000000000000        3.1250000000000000E-002   0.0000000000000000     
   1.1562500000000000        3.1250000000000000E-002   0.0000000000000000     
   1.1875000000000000        3.1250000000000000E-002   0.0000000000000000     
   1.2187500000000000        3.1250000000000000E-002   0.0000000000000000     
   1.2500000000000000        3.1250000000000000E-002   0.0000000000000000     
   1.1250000000000000        6.2500000000000000E-002   0.0000000000000000     
   1.1562500000000000        6.2500000000000000E-002   0.0000000000000000     
   1.1875000000000000        6.2500000000000000E-002   0.0000000000000000     
   1.2187500000000000        6.2500000000000000E-002   0.0000000000000000     
   1.2500000000000000        6.2500000000000000E-002   0.0000000000000000     
   1.1250000000000000        9.3750000000000000E-002   0.0000000000000000     
   1.1562500000000000        9.3750000000000000E-002   0.0000000000000000     
   1.1875000000000000        9.3750000000000000E-002   0.0000000000000000     
   1.2187500000000000        9.3750000000000000E-002   0.0000000000000000     
   1.2500000000000000        9.3750000000000000E-002   0.0000000000000000     
   1.1250000000000000       0.12500000000000000        0.0000000000000000     
   1.1562500000000000       0.12500000000000000        0.0000000000000000     
   1.1875000000000000       0.12500000000000000        0.0000000000000000     
   1.2187500000000000       0.12500000000000000        0.0000000000000000     
   1.2500000000000000       0.12500000000000000        0.0000000000000000     
   1.2500000000000000        0.0000000000000000        0.0000000000000000     
   1.2812500000000000        0.0000000000000000        0.0000000000000000     
   1.3125000000000000        0.0000000000000000        0.0000000000000000     
   1.3437500000000000        0.0000000000000000        0.0000000000000000     
   1.3750000000000000        0.0000000000000000        0.0000000000000000     
   1.2500000000000000        3.1250000000000000E-002   0.0000000000000000     
   1.2812500000000000        3.1250000000000000E-002   0.0000000000000000     
   1.3125000000000000        3.1250000000000000E-002   0.0000000000000000     
   1.3437500000000000        3.1250000000000000E-002   0.0000000000000000     
   1.3750000000000000        3.1250000000000000E-002   0.0000000000000000     
   1.2500000000000000        6.2500000000000000E-002   0.0000000000000000     
   1.2812500000000000        6.2500000000000000E-002   0.0000000000000000     
   1.3125000000000000        6.2500000000000000E-002   0.0000000000000000     
   1.3437500000000000        6.2500000000000000E-002   0.0000000000000000     
   1.3750000000000000        6.2500000000000000E-002   0.0000000000000000     
   1.2500000000000000        9.3750000000000000E-002   0.0000000000000000     
   1.2812500000000000        9.3750000000000000E-002   0.0000000000000000     
   1.3125000000000000        9.3750000000000000E-002   0.0000000000000000     
   1.3437500000000000        9.3750000000000000E-002   0.0000000000000000     
   1.3750000000000000        9.3750000000000000E-002   0.0000000000000000     
   1.2500000000000000       0.12500000000000000        0.0000000000000000     
   1.2812500000000000       0.12500000000000000        0.0000000000000000     
   1.3125000000000000       0.12500000000000000        0.0000000000000000     
   1.3437500000000000       0.12500000000000000        0.0000000000000000     
   1.3750000000000000       0.12500000000000000        0.0000000000000000     
   1.3750000000000000        0.0000000000000000        0.0000000000000000     
   1.4062500000000000        0.0000000000000000        0.0000000000000000     
   1.4375000000000000        0.0000000000000000        0.0000000000000000     
   1.4687500000000000        0.0000000000000000        0.0000000000000000     
   1.5000000000000000        0.0000000000000000        0.0000000000000000     
   1.3750000000000000        3.1250000000000000E-002   0.0000000000000000     
   1.4062500000000000        3.1250000000000000E-002   0.0000000000000000     
   1.4375000000000000        3.1250000000000000E-002   0.0000000000000000     
   1.4687500000000000        3.1250000000000000E-002   0.0000000000000000     
   1.5000000000000000        3.1250000000000000E-002   0.0000000000000000     
   1.3750000000000000        6.2500000000000000E-002   0.0000000000000000     
   1.4062500000000000        6.2500000000000000E-002   0.0000000000000000     
   1.4375000000000000        6.2500000000000000E-002   0.0000000000000000     
   1.4687500000000000        6.2500000000000000E-002   0.0000000000000000     
   1.5000000000000000        6.2500000000000000E-002   0.0000000000000000     
   1.3750000000000000        9.3750000000000000E-002   0.0000000000000000     
   1.4062500000000000        9.3750000000000000E-002   0.0000000000000000     
   1.4375000000000000        9.3750000000000000E-002   0.0000000000000000     
   1.4687500000000000        9.3750000000000000E-002   0.0000000000000000     
   1.5000000000000000        9.3750000000000000E-002   0.0000000000000000     
   1.3750000000000000       0.12500000000000000        0.0000000000000000     
   1.4062500000000000       0.12500000000000000        0.0000000000000000     
   1.4375000000000000       0.12500000000000000        0.0000000000000000     
   1.4687500000000000       0.12500000000000000        0.0000000000000000     
   1.5000000000000000       0.12500000000000000        0.0000000000000000     
  0.50000000000000000       0.12500000000000000        0.0000000000000000     
  0.53125000000000000       0.12500000000000000        0.0000000000000000     
  0.56250000000000000       0.12500000000000000        0.0000000000000000     
  0.59375000000000000       0.12500000000000000        0.0000000000000000     
  0.62500000000000000       0.12500000000000000        0.0000000000000000     
  0.50000000000000000       0.15625000000000000        0.0000000000000000     
  0.53125000000000000       0.15625000000000000        0.0000000000000000     
  0.56250000000000000       0.15625000000000000        0.0000000000000000     
  0.59375000000000000       0.15625000000000000        0.0000000000000000     
  0.62500000000000000       0.15625000000000000        0.0000000000000000     
  0.50000000000000000       0.18750000000000000        0.0000000000000000     
  0.53125000000000000       0.18750000000000000        0.0000000000000000     
  0.56250000000000000       0.18750000000000000        0.0000000000000000     
  0.59375000000000000       0.18750000000000000        0.0000000000000000     
  0.62500000000000000       0.18750000000000000        0.0000000000000000     
  0.50000000000000000       0.21875000000000000        0.0000000000000000     
  0.53125000000000000       0.21875000000000000        0.0000000000000000     
  0.56250000000000000       0.21875000000000000        0.0000000000000000     
  0.59375000000000000       0.21875000000000000        0.0000000000000000     
  0.62500000000000000       0.21875000000000000        0.0000000000000000     
  0.50000000000000000       0.25000000000000000        0.0000000000000000     
  0.53125000000000000       0.25000000000000000        0.0000000000000000     
  0.56250000000000000       0.25000000000000000        0.0000000000000000     
  0.59375000000000000       0.25000000000000000        0.0000000000000000     
  0.62500000000000000       0.25000000000000000        0.0000000000000000     
  0.62500000000000000       0.12500000000000000        0.0000000000000000     
  0.65625000000000000       0.12500000000000000        0.0000000000000000     
  0.68750000000000000       0.12500000000000000        0.0000000000000000     
  0.71875000000000000       0.12500000000000000        0.0000000000000000     
  0.75000000000000000       0.12500000000000000        0.0000000000000000     
  0.62500000000000000       0.15625000000000000        0.0000000000000000     
  0.65625000000000000       0.15625000000000000        0.0000000000000000     
  0.68750000000000000       0.15625000000000000        0.0000000000000000     
  0.71875000000000000       0.15625000000000000        0.0000000000000000     
  0.75000000000000000       0.15625000000000000        0.0000000000000000     
  0.62500000000000000       0.18750000000000000        0.0000000000000000     
  0.65625000000000000       0.18750000000000000        0.0000000000000000     
  0.68750000000000000       0.18750000000000000        0.0000000000000000     
  0.71875000000000000       0.18750000000000000        0.0000000000000000     
  0.75000000000000000       0.18750000000000000        0.0000000000000000     
  0.62500000000000000       0.21875000000000000        0.0000000000000000     
  0.65625000000000000       0.21875000000000000        0.0000000000000000     
  0.68750000000000000       0.21875000000000000        0.0000000000000000     
  0.71875000000000000       0.21875000000000000        0.0000000000000000     
  0.75000000000000000       0.21875000000000000        0.0000000000000000     
  0.62500000000000000       0.25000000000000000        0.0000000000000000     
  0.65625000000000000       0.25000000000000000        0.0000000000000000     
  0.68750000000000000       0.25000000000000000        0.0000000000000000     
  0.71875000000000000       0.25000000000000000        0.0000000000000000     
  0.75000000000000000       0.25000000000000000        0.0000000000000000     
  0.75000000000000000       0.12500000000000000        0.0000000000000000     
  0.78125000000000000       0.12500000000000000        0.0000000000000000     
  0.81250000000000000       0.12500000000000000        0.0000000000000000     
  0.84375000000000000       0.12500000000000000        0.0000000000000000     
  0.87500000000000000       0.12500000000000000        0.0000000000000000     
  0.75000000000000000       0.15625000000000000        0.0000000000000000     
  0.78125000000000000       0.15625000000000000        0.0000000000000000     
  0.81250000000000000       0.15625000000000000        0.0000000000000000     
  0.84375000000000000       0.15625000000000000        0.0000000000000000     
  0.87500000000000000       0.15625000000000000        0.0000000000000000     
  0.75000000000000000       0.18750000000000000        0.0000000000000000     
  0.78125000000000000       0.18750000000000000        0.0000000000000000     
  0.81250000000000000       0.18750000000000000        0.0000000000000000     
  0.84375000000000000       0.18750000000000000        0.0000000000000000     
  0.87500000000000000       0.18750000000000000        0.0000000000000000     
  0.75000000000000000       0.21875000000000000        0.0000000000000000     
  0.78125000000000000       0.21875000000000000        0.0000000000000000     
  0.81250000000000000       0.21875000000000000        0.0000000000000000     
  0.84375000000000000       0.21875000000000000        0.0000000000000000     
  0.87500000000000000       0.21875000000000000        0.0000000000000000     
  0.75000000000000000       0.25000000000000000        0.0000000000000000     
  0.78125000000000000       0.25000000000000000        0.0000000000000000     
  0.81250000000000000       0.25000000000000000        0.0000000000000000     
  0.84375000000000000       0.25000000000000000        0.0000000000000000     
  0.87500000000000000       0.25000000000000000        0.0000000000000000     
  0.87500000000000000       0.12500000000000000        0.0000000000000000     
  0.90625000000000000       0.12500000000000000        0.0000000000000000     
  0.93750000000000000       0.12500000000000000        0.0000000000000000     
  0.96875000000000000       0.12500000000000000        0.0000000000000000     
   1.0000000000000000       0.12500000000000000        0.0000000000000000     
  0.87500000000000000       0.15625000000000000        0.0000000000000000     
  0.90625000000000000       0.15625000000000000        0.0000000000000000     
  0.93750000000000000       0.15625000000000000        0.0000000000000000     
  0.96875000000000000       0.15625000000000000        0.0000000000000000     
   1.0000000000000000       0.15625000000000000        0.0000000000000000     
  0.87500000000000000       0.18750000000000000        0.0000000000000000     
  0.90625000000000000       0.18750000000000000        0.0000000000000000     
  0.93750000000000000       0.18750000000000000        0.0000000000000000     
  0.96875000000000000       0.18750000000000000        0.0000000000000000     
   1.0000000000000000       0.18750000000000000        0.0000000000000000     
  0.87500000000000000       0.21875000000000000        0.0000000000000000     
  0.90625000000000000       0.21875000000000000        0.0000000000000000     
  0.93750000000000000       0.21875000000000000        0.0000000000000000     
  0.96875000000000000       0.21875000000000000        0.0000000000000000     
   1.0000000000000000       0.21875000000000000        0.0000000000000000     
  0.87500000000000000       0.25000000000000000        0.0000000000000000     
  0.90625000000000000       0.25000000000000000        0.0000000000000000     
  0.93750000000000000       0.25000000000000000        0.0000000000000000     
  0.96875000000000000       0.25000000000000000        0.0000000000000000     
   1.0000000000000000       0.25000000000000000        0.0000000000000000     
   1.0000000000000000       0.12500000000000000        0.0000000000000000     
   1.0312500000000000       0.12500000000000000        0.0000000000000000     
   1.0625000000000000       0.12500000000000000        0.0000000000000000     
   1.0937500000000000       0.12500000000000000        0.0000000000000000     
   1.1250000000000000       0.12500000000000000        0.0000000000000000     
   1.0000000000000000       0.15625000000000000        0.0000000000000000     
   1.0312500000000000       0.15625000000000000        0.0000000000000000     
   1.0625000000000000       0.15625000000000000        0.0000000000000000     
   1.0937500000000000       0.15625000000000000        0.0000000000000000     
   1.1250000000000000       0.15625000000000000        0.0000000000000000     
   1.0000000000000000       0.18750000000000000        0.0000000000000000     
   1.0312500000000000       0.18750000000000000        0.0000000000000000     
   1.0625000000000000       0.18750000000000000        0.0000000000000000     
   1.0937500000000000       0.18750000000000000        0.0000000000000000     
   1.1250000000000000       0.18750000000000000        0.0000000000000000     
   1.0000000000000000       0.21875000000000000        0.0000000000000000     
   1.0312500000000000       0.21875000000000000        0.0000000000000000     
   1.0625000000000000       0.21875000000000000        0.0000000000000000     
   1.0937500000000000       0.21875000000000000        0.0000000000000000     
   1.1250000000000000       0.21875000000000000        0.0000000000000000     
   1.0000000000000000       0.25000000000000000        0.0000000000000000     
   1.0312500000000000       0.25000000000000000        0.0000000000000000     
   1.0625000000000000       0.25000000000000000        0.0000000000000000     
   1.0937500000000000       0.25000000000000000        0.0000000000000000     
   1.1250000000000000       0.25000000000000000        0.0000000000000000     
   1.1250000000000000       0.12500000000000000        0.0000000000000000     
   1.1562500000000000       0.12500000000000000        0.0000000000000000     
   1.1875000000000000       0.12500000000000000        0.0000000000000000     
   1.2187500000000000       0.12500000000000000        0.0000000000000000     
   1.2500000000000000       0.12500000000000000        0.0000000000000000     
   1.1250000000000000       0.15625000000000000        0.0000000000000000     
   1.1562500000000000       0.15625000000000000        0.0000000000000000     
   1.1875000000000000       0.15625000000000000        0.0000000000000000     
   1.2187500000000000       0.15625000000000000        0.0000000000000000     
   1.2500000000000000       0.15625000000000000        0.0000000000000000     
   1.1250000000000000       0.18750000000000000        0.0000000000000000     
   1.1562500000000000       0.18750000000000000        0.0000000000000000     
   1.1875000000000000       0.18750000000000000        0.0000000000000000     
   1.2187500000000000       0.18750000000000000        0.0000000000000000     
   1.2500000000000000       0.18750000000000000        0.0000000000000000     
   1.1250000000000000       0.21875000000000000        0.0000000000000000     
   1.1562500000000000       0.21875000000000000        0.0000000000000000     
   1.1875000000000000       0.21875000000000000        0.0000000000000000     
   1.2187500000000000       0.21875000000000000        0.0000000000000000     
   1.2500000000000000       0.21875000000000000        0.0000000000000000     
   1.1250000000000000       0.25000000000000000        0.0000000000000000     
   1.1562500000000000       0.25000000000000000        0.0000000000000000     
   1.1875000000000000       0.25000000000000000        0.0000000000000000     
   1.2187500000000000       0.25000000000000000        0.0000000000000000     
   1.2500000000000000       0.25000000000000000        0.0000000000000000     
   1.2500000000000000       0.12500000000000000        0.0000000000000000     
   1.2812500000000000       0.12500000000000000        0.0000000000000000     
   1.3125000000000000       0.12500000000000000        0.0000000000000000     
   1.3437500000000000       0.12500000000000000        0.0000000000000000     
   1.3750000000000000       0.12500000000000000        0.0000000000000000     
   1.2500000000000000       0.15625000000000000        0.0000000000000000     
   1.2812500000000000       0.15625000000000000        0.0000000000000000     
   1.3125000000000000       0.15625000000000000        0.0000000000000000     
   1.3437500000000000       0.15625000000000000        0.0000000000000000     
   1.3750000000000000       0.15625000000000000        0.0000000000000000     
   1.2500000000000000       0.18750000000000000        0.0000000000000000     
   1.2812500000000000       0.18750000000000000        0.0000000000000000     
   1.3125000000000000       0.18750000000000000        0.0000000000000000     
   1.3437500000000000       0.18750000000000000        0.0000000000000000     
   1.3750000000000000       0.18750000000000000        0.0000000000000000     
   1.2500000000000000       0.21875000000000000        0.0000000000000000     
   1.2812500000000000       0.21875000000000000        0.0000000000000000     
   1.3125000000000000       0.21875000000000000        0.0000000000000000     
   1.3437500000000000       0.21875000000000000        0.0000000000000000     
   1.3750000000000000       0.21875000000000000        0.0000000000000000     
   1.2500000000000000       0.25000000000000000        0.0000000000000000     
   1.2812500000000000       0.25000000000000000        0.0000000000000000     
   1.3125000000000000       0.25000000000000000        0.0000000000000000     
   1.3437500000000000       0.25000000000000000        0.0000000000000000     
   1.3750000000000000       0.25000000000000000        0.0000000000000000     
   1.3750000000000000       0.12500000000000000        0.0000000000000000     
   1.4062500000000000       0.12500000000000000        0.0000000000000000     
   1.4375000000000000       0.12500000000000000        0.0000000000000000     
   1.4687500000000000       0.12500000000000000        0.0000000000000000     
   1.5000000000000000       0.12500000000000000        0.0000000000000000     
   1.3750000000000000       0.15625000000000000        0.0000000000000000     
   1.4062500000000000       0.15625000000000000        0.0000000000000000     
   1.4375000000000000       0.15625000000000000        0.0000000000000000     
   1.4687500000000000       0.15625000000000000        0.0000000000000000     
   1.5000000000000000       0.15625000000000000        0.0000000000000000     
   1.3750000000000000       0.18750000000000000        0.0000000000000000     
   1.4062500000000000       0.18750000000000000        0.0000000000000000     
   1.4375000000000000       0.18750000000000000        0.0000000000000000     
   1.4687500000000000       0.18750000000000000        0.0000000000000000     
   1.5000000000000000       0.18750000000000000        0.0000000000000000     
   1.3750000000000000       0.21875000000000000        0.0000000000000000     
   1.4062500000000000       0.21875000000000000        0.0000000000000000     
   1.4375000000000000       0.21875000000000000        0.0000000000000000     
   1.4687500000000000       0.21875000000000000        0.0000000000000000     
   1.5000000000000000       0.21875000000000000        0.0000000000000000     
   1.3750000000000000       0.25000000000000000        0.0000000000000000     
   1.4062500000000000       0.25000000000000000        0.0000000000000000     
   1.4375000000000000       0.25000000000000000        0.0000000000000000     
   1.4687500000000000       0.25000000000000000        0.0000000000000000     
   1.5000000000000000       0.25000000000000000        0.0000000000000000     
  0.50000000000000000       0.25000000000000000        0.0000000000000000     
  0.53125000000000000       0.25000000000000000        0.0000000000000000     
  0.56250000000000000       0.25000000000000000        0.0000000000000000     
  0.59375000000000000       0.25000000000000000        0.0000000000000000     
  0.62500000000000000       0.25000000000000000        0.0000000000000000     
  0.50000000000000000       0.28125000000000000        0.0000000000000000     
  0.53125000000000000       0.28125000000000000        0.0000000000000000     
  0.56250000000000000       0.28125000000000000        0.0000000000000000     
  0.59375000000000000       0.28125000000000000        0.0000000000000000     
  0.62500000000000000       0.28125000000000000        0.0000000000000000     
  0.50000000000000000       0.31250000000000000        0.0000000000000000     
  0.53125000000000000       0.31250000000000000        0.0000000000000000     
  0.56250000000000000       0.31250000000000000        0.0000000000000000     
  0.59375000000000000       0.31250000000000000        0.0000000000000000     
  0.62500000000000000       0.31250000000000000        0.0000000000000000     
  0.50000000000000000       0.34375000000000000        0.0000000000000000     
  0.53125000000000000       0.34375000000000000        0.0000000000000000     
  0.56250000000000000       0.34375000000000000        0.0000000000000000     
  0.59375000000000000       0.34375000000000000        0.0000000000000000     
  0.62500000000000000       0.34375000000000000        0.0000000000000000     
  0.50000000000000000       0.37500000000000000        0.0000000000000000     
  0.53125000000000000       0.37500000000000000        0.0000000000000000     
  0.56250000000000000       0.37500000000000000        0.0000000000000000     
  0.59375000000000000       0.37500000000000000        0.0000000000000000     
  0.62500000000000000       0.37500000000000000        0.0000000000000000     
  0.62500000000000000       0.25000000000000000        0.0000000000000000     
  0.65625000000000000       0.25000000000000000        0.0000000000000000     
  0.68750000000000000       0.25000000000000000        0.0000000000000000     
  0.71875000000000000       0.25000000000000000        0.0000000000000000     
  0.75000000000000000       0.25000000000000000        0.0000000000000000     
  0.62500000000000000       0.28125000000000000        0.0000000000000000     
  0.65625000000000000       0.28125000000000000        0.0000000000000000     
  0.68750000000000000       0.28125000000000000        0.0000000000000000     
  0.71875000000000000       0.28125000000000000        0.0000000000000000     
  0.75000000000000000       0.28125000000000000        0.0000000000000000     
  0.62500000000000000       0.31250000000000000        0.0000000000000000     
  0.65625000000000000       0.31250000000000000        0.0000000000000000     
  0.68750000000000000       0.31250000000000000        0.0000000000000000     
  0.71875000000000000       0.31250000000000000        0.0000000000000000     
  0.75000000000000000       0.31250000000000000        0.0000000000000000     
  0.62500000000000000       0.34375000000000000        0.0000000000000000     
  0.65625000000000000       0.34375000000000000        0.0000000000000000     
  0.68750000000000000       0.34375000000000000        0.0000000000000000     
  0.71875000000000000       0.34375000000000000        0.0000000000000000     
  0.75000000000000000       0.34375000000000000        0.0000000000000000     
  0.62500000000000000       0.37500000000000000        0.0000000000000000     
  0.65625000000000000       0.37500000000000000        0.0000000000000000     
  0.68750000000000000       0.37500000000000000        0.0000000000000000     
  0.71875000000000000       0.37500000000000000        0.0000000000000000     
  0.75000000000000000       0.37500000000000000        0.0000000000000000     
  0.75000000000000000       0.25000000000000000        0.0000000000000000     
  0.78125000000000000       0.25000000000000000        0.0000000000000000     
  0.81250000000000000       0.25000000000000000        0.0000000000000000     
  0.84375000000000000       0.25000000000000000        0.0000000000000000     
  0.87500000000000000       0.25000000000000000        0.0000000000000000     
  0.75000000000000000       0.28125000000000000        0.0000000000000000     
  0.78125000000000000       0.28125000000000000        0.0000000000000000     
  0.81250000000000000       0.28125000000000000        0.0000000000000000     
  0.84375000000000000       0.28125000000000000        0.0000000000000000     
  0.87500000000000000       0.28125000000000000        0.0000000000000000     
  0.75000000000000000       0.31250000000000000        0.0000000000000000     
  0.78125000000000000       0.31250000000000000        0.0000000000000000     
  0.81250000000000000       0.31250000000000000        0.0000000000000000     
  0.84375000000000000       0.31250000000000000        0.0000000000000000     
  0.87500000000000000       0.31250000000000000        0.0000000000000000     
  0.75000000000000000       0.34375000000000000        0.0000000000000000     
  0.78125000000000000       0.34375000000000000        0.0000000000000000     
  0.81250000000000000       0.34375000000000000        0.0000000000000000     
  0.84375000000000000       0.34375000000000000        0.0000000000000000     
  0.87500000000000000       0.34375000000000000        0.0000000000000000     
  0.75000000000000000       0.37500000000000000        0.0000000000000000     
  0.78125000000000000       0.37500000000000000        0.0000000000000000     
  0.81250000000000000       0.37500000000000000        0.0000000000000000     
  0.84375000000000000       0.37500000000000000        0.0000000000000000     
  0.87500000000000000       0.37500000000000000        0.0000000000000000     
  0.87500000000000000       0.25000000000000000        0.0000000000000000     
  0.90625000000000000       0.25000000000000000        0.0000000000000000     
  0.93750000000000000       0.25000000000000000        0.0000000000000000     
  0.96875000000000000       0.25000000000000000        0.0000000000000000     
   1.0000000000000000       0.25000000000000000        0.0000000000000000     
  0.87500000000000000       0.28125000000000000        0.0000000000000000     
  0.90625000000000000       0.28125000000000000        0.0000000000000000     
  0.93750000000000000       0.28125000000000000        0.0000000000000000     
  0.96875000000000000       0.28125000000000000        0.0000000000000000     
   1.0000000000000000       0.28125000000000000        0.0000000000000000     
  0.87500000000000000       0.31250000000000000        0.0000000000000000     
  0.90625000000000000       0.31250000000000000        0.0000000000000000     
  0.93750000000000000       0.31250000000000000        0.0000000000000000     
  0.96875000000000000       0.31250000000000000        0.0000000000000000     
   1.0000000000000000       0.31250000000000000        0.0000000000000000     
  0.87500000000000000       0.34375000000000000        0.0000000000000000     
  0.90625000000000000       0.34375000000000000        0.0000000000000000     
  0.93750000000000000       0.34375000000000000        0.0000000000000000     
  0.96875000000000000       0.34375000000000000        0.0000000000000000     
   1.0000000000000000       0.34375000000000000        0.0000000000000000     
  0.87500000000000000       0.37500000000000000        0.0000000000000000     
  0.90625000000000000       0.37500000000000000        0.0000000000000000     
  0.93750000000000000       0.37500000000000000        0.0000000000000000     
  0.96875000000000000       0.37500000000000000        0.0000000000000000     
   1.0000000000000000       0.37500000000000000        0.0000000000000000     
   1.0000000000000000       0.25000000000000000        0.0000000000000000     
   1.0312500000000000       0.25000000000000000        0.0000000000000000     
   1.0625000000000000       0.25000000000000000        0.0000000000000000     
   1.0937500000000000       0.25000000000000000        0.0000000000000000     
   1.1250000000000000       0.25000000000000000        0.0000000000000000     
   1.0000000000000000       0.28125000000000000        0.0000000000000000     
   1.0312500000000000       0.28125000000000000        0.0000000000000000     
   1.0625000000000000       0.28125000000000000        0.0000000000000000     
   1.0937500000000000       0.28125000000000000        0.0000000000000000     
   1.1250000000000000       0.28125000000000000        0.0000000000000000     
   1.0000000000000000       0.31250000000000000        0.0000000000000000     
   1.0312500000000000       0.31250000000000000        0.0000000000000000     
   1.0625000000000000       0.31250000000000000        0.0000000000000000     
   1.0937500000000000       0.31250000000000000        0.0000000000000000     
   1.1250000000000000       0.31250000000000000        0.0000000000000000     
   1.0000000000000000       0.34375000000000000        0.0000000000000000     
   1.0312500000000000       0.34375000000000000        0.0000000000000000     
   1.0625000000000000       0.34375000000000000        0.0000000000000000     
   1.0937500000000000       0.34375000000000000        0.0000000000000000     
   1.1250000000000000       0.34375000000000000        0.0000000000000000     
   1.0000000000000000       0.37500000000000000        0.0000000000000000     
   1.0312500000000000       0.37500000000000000        0.0000000000000000     
   1.0625000000000000       0.37500000000000000        0.0000000000000000     
   1.0937500000000000       0.37500000000000000        0.0000000000000000     
   1.1250000000000000       0.37500000000000000        0.0000000000000000     
   1.1250000000000000       0.25000000000000000        0.0000000000000000     
   1.1562500000000000       0.25000000000000000        0.0000000000000000     
   1.1875000000000000       0.25000000000000000        0.0000000000000000     
   1.2187500000000000       0.25000000000000000        0.0000000000000000     
   1.2500000000000000       0.25000000000000000        0.0000000000000000     
   1.1250000000000000       0.28125000000000000        0.0000000000000000     
   1.1562500000000000       0.28125000000000000        0.0000000000000000     
   1.1875000000000000       0.28125000000000000        0.0000000000000000     
   1.2187500000000000       0.28125000000000000        0.0000000000000000     
   1.2500000000000000       0.28125000000000000        0.0000000000000000     
   1.1250000000000000       0.31250000000000000        0.0000000000000000     
   1.1562500000000000       0.31250000000000000        0.0000000000000000     
   1.1875000000000000       0.31250000000000000        0.0000000000000000     
   1.2187500000000000       0.31250000000000000        0.0000000000000000     
   1.2500000000000000       0.31250000000000000        0.0000000000000000     
   1.1250000000000000       0.34375000000000000        0.0000000000000000     
   1.1562500000000000       0.34375000000000000        0.0000000000000000     
   1.1875000000000000       0.34375000000000000        0.0000000000000000     
   1.2187500000000000       0.34375000000000000        0.0000000000000000     
   1.2500000000000000       0.34375000000000000        0.0000000000000000     
   1.1250000000000000       0.37500000000000000        0.0000000000000000     
   1.1562500000000000       0.37500000000000000        0.0000000000000000     
   1.1875000000000000       0.37500000000000000        0.0000000000000000     
   1.2187500000000000       0.37500000000000000        0.0000000000000000     
   1.2500000000000000       0.37500000000000000        0.0000000000000000     
   1.2500000000000000       0.25000000000000000        0.0000000000000000     
   1.2812500000000000       0.25000000000000000        0.0000000000000000     
   1.3125000000000000       0.25000000000000000        0.0000000000000000     
   1.3437500000000000       0.25000000000000000        0.0000000000000000     
   1.3750000000000000       0.25000000000000000        0.0000000000000000     
   1.2500000000000000       0.28125000000000000        0.0000000000000000     
   1.2812500000000000       0.28125000000000000        0.0000000000000000     
   1.3125000000000000       0.28125000000000000        0.0000000000000000     
   1.3437500000000000       0.28125000000000000        0.0000000000000000     
   1.3750000000000000       0.28125000000000000        0.0000000000000000     
   1.2500000000000000       0.31250000000000000        0.0000000000000000     
   1.2812500000000000       0.31250000000000000        0.0000000000000000     
   1.3125000000000000       0.31250000000000000        0.0000000000000000     
   1.3437500000000000       0.31250000000000000        0.0000000000000000     
   1.3750000000000000       0.31250000000000000        0.0000000000000000     
   1.2500000000000000       0.34375000000000000        0.0000000000000000     
   1.2812500000000000       0.34375000000000000        0.0000000000000000     
   1.3125000000000000       0.34375000000000000        0.0000000000000000     
   1.3437500000000000       0.34375000000000000        0.0000000000000000     
   1.3750000000000000       0.34375000000000000        0.0000000000000000     
   1.2500000000000000       0.37500000000000000        0.0000000000000000     
   1.2812500000000000       0.37500000000000000        0.0000000000000000     
   1.3125000000000000       0.37500000000000000        0.0000000000000000     
   1.3437500000000000       0.37500000000000000        0.0000000000000000     
   1.3750000000000000       0.37500000000000000        0.0000000000000000     
   1.3750000000000000       0.25000000000000000        0.0000000000000000     
   1.4062500000000000       0.25000000000000000        0.0000000000000000     
   1.4375000000000000       0.25000000000000000        0.0000000000000000     
   1.4687500000000000       0.25000000000000000        0.0000000000000000     
   1.5000000000000000       0.25000000000000000        0.0000000000000000     
   1.3750000000000000       0.28125000000000000        0.0000000000000000     
   1.4062500000000000       0.28125000000000000        0.0000000000000000     
   1.4375000000000000       0.28125000000000000        0.0000000000000000     
   1.4687500000000000       0.28125000000000000        0.0000000000000000     
   1.5000000000000000       0.28125000000000000        0.0000000000000000     
   1.3750000000000000       0.31250000000000000        0.0000000000000000     
   1.4062500000000000       0.31250000000000000        0.0000000000000000     
   1.4375000000000000       0.31250000000000000        0.0000000000000000     
   1.4687500000000000       0.31250000000000000        0.0000000000000000     
   1.5000000000000000       0.31250000000000000        0.0000000000000000     
   1.3750000000000000       0.34375000000000000        0.0000000000000000     
   1.4062500000000000       0.34375000000000000        0.0000000000000000     
   1.4375000000000000       0.34375000000000000        0.0000000000000000     
   1.4687500000000000       0.34375000000000000        0.0000000000000000     
   1.5000000000000000       0.34375000000000000        0.0000000000000000     
   1.3750000000000000       0.37500000000000000        0.0000000000000000     
   1.4062500000000000       0.37500000000000000        0.0000000000000000     
   1.4375000000000000       0.37500000000000000        0.0000000000000000     
   1.4687500000000000       0.37500000000000000        0.0000000000000000     
   1.5000000000000000       0.37500000000000000        0.0000000000000000     
  0.50000000000000000       0.37500000000000000        0.0000000000000000     
  0.53125000000000000       0.37500000000000000        0.0000000000000000     
  0.56250000000000000       0.37500000000000000        0.0000000000000000     
  0.59375000000000000       0.37500000000000000        0.0000000000000000     
  0.62500000000000000       0.37500000000000000        0.0000000000000000     
  0.50000000000000000       0.40625000000000000        0.0000000000000000     
  0.53125000000000000       0.40625000000000000        0.0000000000000000     
  0.56250000000000000       0.40625000000000000        0.0000000000000000     
  0.59375000000000000       0.40625000000000000        0.0000000000000000     
  0.62500000000000000       0.40625000000000000        0.0000000000000000     
  0.50000000000000000       0.43750000000000000        0.0000000000000000     
  0.53125000000000000       0.43750000000000000        0.0000000000000000     
  0.56250000000000000       0.43750000000000000        0.0000000000000000     
  0.59375000000000000       0.43750000000000000        0.0000000000000000     
  0.62500000000000000       0.43750000000000000        0.0000000000000000     
  0.50000000000000000       0.46875000000000000        0.0000000000000000     
  0.53125000000000000       0.46875000000000000        0.0000000000000000     
  0.56250000000000000       0.46875000000000000        0.0000000000000000     
  0.59375000000000000       0.46875000000000000        0.0000000000000000     
  0.62500000000000000       0.46875000000000000        0.0000000000000000     
  0.50000000000000000       0.50000000000000000        0.0000000000000000     
  0.53125000000000000       0.50000000000000000        0.0000000000000000     
  0.56250000000000000       0.50000000000000000        0.0000000000000000     
  0.59375000000000000       0.50000000000000000        0.0000000000000000     
  0.62500000000000000       0.50000000000000000        0.0000000000000000     
  0.62500000000000000       0.37500000000000000        0.0000000000000000     
  0.65625000000000000       0.37500000000000000        0.0000000000000000     
  0.68750000000000000       0.37500000000000000        0.0000000000000000     
  0.71875000000000000       0.37500000000000000        0.0000000000000000     
  0.75000000000000000       0.37500000000000000        0.0000000000000000     
  0.62500000000000000       0.40625000000000000        0.0000000000000000     
  0.65625000000000000       0.40625000000000000        0.0000000000000000     
  0.68750000000000000       0.40625000000000000        0.0000000000000000     
  0.71875000000000000       0.40625000000000000        0.0000000000000000     
  0.75000000000000000       0.40625000000000000        0.0000000000000000     
  0.62500000000000000       0.43750000000000000        0.0000000000000000     
  0.65625000000000000       0.43750000000000000        0.0000000000000000     
  0.68750000000000000       0.43750000000000000        0.0000000000000000     
  0.71875000000000000       0.43750000000000000        0.0000000000000000     
  0.75000000000000000       0.43750000000000000        0.0000000000000000     
  0.62500000000000000       0.46875000000000000        0.0000000000000000     
  0.65625000000000000       0.46875000000000000        0.0000000000000000     
  0.68750000000000000       0.46875000000000000        0.0000000000000000     
  0.71875000000000000       0.46875000000000000        0.0000000000000000     
  0.75000000000000000       0.46875000000000000        0.0000000000000000     
  0.62500000000000000       0.50000000000000000        0.0000000000000000     
  0.65625000000000000       0.50000000000000000        0.0000000000000000     
  0.68750000000000000       0.50000000000000000        0.0000000000000000     
  0.71875000000000000       0.50000000000000000        0.0000000000000000     
  0.75000000000000000       0.50000000000000000        0.0000000000000000     
  0.75000000000000000       0.37500000000000000        0.0000000000000000     
  0.78125000000000000       0.37500000000000000        0.0000000000000000     
  0.81250000000000000       0.37500000000000000        0.0000000000000000     
  0.84375000000000000       0.37500000000000000        0.0000000000000000     
  0.87500000000000000       0.37500000000000000        0.0000000000000000     
  0.75000000000000000       0.40625000000000000        0.0000000000000000     
  0.78125000000000000       0.40625000000000000        0.0000000000000000     
  0.81250000000000000       0.40625000000000000        0.0000000000000000     
  0.84375000000000000       0.40625000000000000        0.0000000000000000     
  0.87500000000000000       0.40625000000000000        0.0000000000000000     
  0.75000000000000000       0.43750000000000000        0.0000000000000000     
  0.78125000000000000       0.43750000000000000        0.0000000000000000     
  0.81250000000000000       0.43750000000000000        0.0000000000000000     
  0.84375000000000000       0.43750000000000000        0.0000000000000000     
  0.87500000000000000       0.43750000000000000        0.0000000000000000     
  0.75000000000000000       0.46875000000000000        0.0000000000000000     
  0.78125000000000000       0.46875000000000000        0.0000000000000000     
  0.81250000000000000       0.46875000000000000        0.0000000000000000     
  0.84375000000000000       0.46875000000000000        0.0000000000000000     
  0.87500000000000000       0.46875000000000000        0.0000000000000000     
  0.75000000000000000       0.50000000000000000        0.0000000000000000     
  0.78125000000000000       0.50000000000000000        0.0000000000000000     
  0.81250000000000000       0.50000000000000000        0.0000000000000000     
  0.84375000000000000       0.50000000000000000        0.0000000000000000     
  0.87500000000000000       0.50000000000000000        0.0000000000000000     
  0.87500000000000000       0.37500000000000000        0.0000000000000000     
  0.90625000000000000       0.37500000000000000        0.0000000000000000     
  0.93750000000000000       0.37500000000000000        0.0000000000000000     
  0.96875000000000000       0.37500000000000000        0.0000000000000000     
   1.0000000000000000       0.37500000000000000        0.0000000000000000     
  0.87500000000000000       0.40625000000000000        0.0000000000000000     
  0.90625000000000000       0.40625000000000000        0.0000000000000000     
  0.93750000000000000       0.40625000000000000        0.0000000000000000     
  0.96875000000000000       0.40625000000000000        0.0000000000000000     
   1.0000000000000000       0.40625000000000000        0.0000000000000000     
  0.87500000000000000       0.43750000000000000        0.0000000000000000     
  0.90625000000000000       0.43750000000000000        0.0000000000000000     
  0.93750000000000000       0.43750000000000000        0.0000000000000000     
  0.96875000000000000       0.43750000000000000        0.0000000000000000     
   1.0000000000000000       0.43750000000000000        0.0000000000000000     
  0.87500000000000000       0.46875000000000000        0.0000000000000000     
  0.90625000000000000       0.46875000000000000        0.0000000000000000     
  0.93750000000000000       0.46875000000000000        0.0000000000000000     
  0.96875000000000000       0.46875000000000000        0.0000000000000000     
   1.0000000000000000       0.46875000000000000        0.0000000000000000     
  0.87500000000000000       0.50000000000000000        0.0000000000000000     
  0.90625000000000000       0.50000000000000000        0.0000000000000000     
  0.93750000000000000       0.50000000000000000        0.0000000000000000     
  0.96875000000000000       0.50000000000000000        0.0000000000000000     
   1.0000000000000000       0.50000000000000000        0.0000000000000000     
   1.0000000000000000       0.37500000000000000        0.0000000000000000     
   1.0312500000000000       0.37500000000000000        0.0000000000000000     
   1.0625000000000000       0.37500000000000000        0.0000000000000000     
   1.0937500000000000       0.37500000000000000        0.0000000000000000     
   1.1250000000000000       0.37500000000000000        0.0000000000000000     
   1.0000000000000000       0.40625000000000000        0.0000000000000000     
   1.0312500000000000       0.40625000000000000        0.0000000000000000     
   1.0625000000000000       0.40625000000000000        0.0000000000000000     
   1.0937500000000000       0.40625000000000000        0.0000000000000000     
   1.1250000000000000       0.40625000000000000        0.0000000000000000     
   1.0000000000000000       0.43750000000000000        0.0000000000000000     
   1.0312500000000000       0.43750000000000000        0.0000000000000000     
   1.0625000000000000       0.43750000000000000        0.0000000000000000     
   1.0937500000000000       0.43750000000000000        0.0000000000000000     
   1.1250000000000000       0.43750000000000000        0.0000000000000000     
   1.0000000000000000       0.46875000000000000        0.0000000000000000     
   1.0312500000000000       0.46875000000000000        0.0000000000000000     
   1.0625000000000000       0.46875000000000000        0.0000000000000000     
   1.0937500000000000       0.46875000000000000        0.0000000000000000     
   1.1250000000000000       0.46875000000000000        0.0000000000000000     
   1.0000000000000000       0.50000000000000000        0.0000000000000000     
   1.0312500000000000       0.50000000000000000        0.0000000000000000     
   1.0625000000000000       0.50000000000000000        0.0000000000000000     
   1.0937500000000000       0.50000000000000000        0.0000000000000000     
   1.1250000000000000       0.50000000000000000        0.0000000000000000     
   1.1250000000000000       0.37500000000000000        0.0000000000000000     
   1.1562500000000000       0.37500000000000000        0.0000000000000000     
   1.1875000000000000       0.37500000000000000        0.0000000000000000     
   1.2187500000000000       0.37500000000000000        0.0000000000000000     
   1.2500000000000000       0.37500000000000000        0.0000000000000000     
   1.1250000000000000       0.40625000000000000        0.0000000000000000     
   1.1562500000000000       0.40625000000000000        0.0000000000000000     
   1.1875000000000000       0.40625000000000000        0.0000000000000000     
   1.2187500000000000       0.40625000000000000        0.0000000000000000     
   1.2500000000000000       0.40625000000000000        0.0000000000000000     
   1.1250000000000000       0.43750000000000000        0.0000000000000000     
   1.1562500000000000       0.43750000000000000        0.0000000000000000     
   1.1875000000000000       0.43750000000000000        0.0000000000000000     
   1.2187500000000000       0.43750000000000000        0.0000000000000000     
   1.2500000000000000       0.43750000000000000        0.0000000000000000     
   1.1250000000000000       0.46875000000000000        0.0000000000000000     
   1.1562500000000000       0.46875000000000000        0.0000000000000000     
   1.1875000000000000       0.46875000000000000        0.0000000000000000     
   1.2187500000000000       0.46875000000000000        0.0000000000000000     
   1.2500000000000000       0.46875000000000000        0.0000000000000000     
   1.1250000000000000       0.50000000000000000        0.0000000000000000     
   1.1562500000000000       0.50000000000000000        0.0000000000000000     
   1.1875000000000000       0.50000000000000000        0.0000000000000000     
   1.2187500000000000       0.50000000000000000        0.0000000000000000     
   1.2500000000000000       0.50000000000000000        0.0000000000000000     
   1.2500000000000000       0.37500000000000000        0.0000000000000000     
   1.2812500000000000       0.37500000000000000        0.0000000000000000     
   1.3125000000000000       0.37500000000000000        0.0000000000000000     
   1.3437500000000000       0.37500000000000000        0.0000000000000000     
   1.3750000000000000       0.37500000000000000        0.0000000000000000     
   1.2500000000000000       0.40625000000000000        0.0000000000000000     
   1.2812500000000000       0.40625000000000000        0.0000000000000000     
   1.3125000000000000       0.40625000000000000        0.0000000000000000     
   1.3437500000000000       0.40625000000000000        0.0000000000000000     
   1.3750000000000000       0.40625000000000000        0.0000000000000000     
   1.2500000000000000       0.43750000000000000        0.0000000000000000     
   1.2812500000000000       0.43750000000000000        0.0000000000000000     
   1.3125000000000000       0.43750000000000000        0.0000000000000000     
   1.3437500000000000       0.43750000000000000        0.0000000000000000     
   1.3750000000000000       0.43750000000000000        0.0000000000000000     
   1.2500000000000000       0.46875000000000000        0.0000000000000000     
   1.2812500000000000       0.46875000000000000        0.0000000000000000     
   1.3125000000000000       0.46875000000000000        0.0000000000000000     
   1.3437500000000000       0.46875000000000000        0.0000000000000000     
   1.3750000000000000       0.46875000000000000        0.0000000000000000     
   1.2500000000000000       0.50000000000000000        0.0000000000000000     
   1.2812500000000000       0.50000000000000000        0.0000000000000000     
   1.3125000000000000       0.50000000000000000        0.0000000000000000     
   1.3437500000000000       0.50000000000000000        0.0000000000000000     
   1.3750000000000000       0.50000000000000000        0.0000000000000000     
   1.3750000000000000       0.37500000000000000        0.0000000000000000     
   1.4062500000000000       0.37500000000000000        0.0000000000000000     
   1.4375000000000000       0.37500000000000000        0.0000000000000000     
   1.4687500000000000       0.37500000000000000        0.0000000000000000     
   1.5000000000000000       0.37500000000000000        0.0000000000000000     
   1.3750000000000000       0.40625000000000000        0.0000000000000000     
   1.4062500000000000       0.40625000000000000        0.0000000000000000     
   1.4375000000000000       0.40625000000000000        0.0000000000000000     
   1.4687500000000000       0.40625000000000000        0.0000000000000000     
   1.5000000000000000       0.40625000000000000        0.0000000000000000     
   1.3750000000000000       0.43750000000000000        0.0000000000000000     
   1.4062500000000000       0.43750000000000000        0.0000000000000000     
   1.4375000000000000       0.43750000000000000        0.0000000000000000     
   1.4687500000000000       0.43750000000000000        0.0000000000000000     
   1.5000000000000000       0.43750000000000000        0.0000000000000000     
   1.3750000000000000       0.46875000000000000        0.0000000000000000     
   1.4062500000000000       0.46875000000000000        0.0000000000000000     
   1.4375000000000000       0.46875000000000000        0.0000000000000000     
   1.4687500000000000       0.46875000000000000        0.0000000000000000     
   1.5000000000000000       0.46875000000000000        0.0000000000000000     
   1.3750000000000000       0.50000000000000000        0.0000000000000000     
   1.4062500000000000       0.50000000000000000        0.0000000000000000     
   1.4375000000000000       0.50000000000000000        0.0000000000000000     
   1.4687500000000000       0.50000000000000000        0.0000000000000000     
   1.5000000000000000       0.50000000000000000        0.0000000000000000     
  0.50000000000000000       0.50000000000000000        0.0000000000000000     
  0.53125000000000000       0.50000000000000000        0.0000000000000000     
  0.56250000000000000       0.50000000000000000        0.0000000000000000     
  0.59375000000000000       0.50000000000000000        0.0000000000000000     
  0.62500000000000000       0.50000000000000000        0.0000000000000000     
  0.50000000000000000       0.53125000000000000        0.0000000000000000     
  0.53125000000000000       0.53125000000000000        0.0000000000000000     
  0.56250000000000000       0.53125000000000000        0.0000000000000000     
  0.59375000000000000       0.53125000000000000        0.0000000000000000     
  0.62500000000000000       0.53125000000000000        0.0000000000000000     
  0.50000000000000000       0.56250000000000000        0.0000000000000000     
  0.53125000000000000       0.56250000000000000        0.0000000000000000     
  0.56250000000000000       0.56250000000000000        0.0000000000000000     
  0.59375000000000000       0.56250000000000000        0.0000000000000000     
  0.62500000000000000       0.56250000000000000        0.0000000000000000     
  0.50000000000000000       0.59375000000000000        0.0000000000000000     
  0.53125000000000000       0.59375000000000000        0.0000000000000000     
  0.56250000000000000       0.59375000000000000        0.0000000000000000     
  0.59375000000000000       0.59375000000000000        0.0000000000000000     
  0.62500000000000000       0.59375000000000000        0.0000000000000000     
  0.50000000000000000       0.62500000000000000        0.0000000000000000     
  0.53125000000000000       0.62500000000000000        0.0000000000000000     
  0.56250000000000000       0.62500000000000000        0.0000000000000000     
  0.59375000000000000       0.62500000000000000        0.0000000000000000     
  0.62500000000000000       0.62500000000000000        0.0000000000000000     
  0.62500000000000000       0.50000000000000000        0.0000000000000000     
  0.65625000000000000       0.50000000000000000        0.0000000000000000     
  0.68750000000000000       0.50000000000000000        0.0000000000000000     
  0.71875000000000000       0.50000000000000000        0.0000000000000000     
  0.75000000000000000       0.50000000000000000        0.0000000000000000     
  0.62500000000000000       0.53125000000000000        0.0000000000000000     
  0.65625000000000000       0.53125000000000000        0.0000000000000000     
  0.68750000000000000       0.53125000000000000        0.0000000000000000     
  0.71875000000000000       0.53125000000000000        0.0000000000000000     
  0.75000000000000000       0.53125000000000000        0.0000000000000000     
  0.62500000000000000       0.56250000000000000        0.0000000000000000     
  0.65625000000000000       0.56250000000000000        0.0000000000000000     
  0.68750000000000000       0.56250000000000000        0.0000000000000000     
  0.71875000000000000       0.56250000000000000        0.0000000000000000     
  0.75000000000000000       0.56250000000000000        0.0000000000000000     
  0.62500000000000000       0.59375000000000000        0.0000000000000000     
  0.65625000000000000       0.59375000000000000        0.0000000000000000     
  0.68750000000000000       0.59375000000000000        0.0000000000000000     
  0.71875000000000000       0.59375000000000000        0.0000000000000000     
  0.75000000000000000       0.59375000000000000        0.0000000000000000     
  0.62500000000000000       0.62500000000000000        0.0000000000000000     
  0.65625000000000000       0.62500000000000000        0.0000000000000000     
  0.68750000000000000       0.62500000000000000        0.0000000000000000     
  0.71875000000000000       0.62500000000000000        0.0000000000000000     
  0.75000000000000000       0.62500000000000000        0.0000000000000000     
  0.75000000000000000       0.50000000000000000        0.0000000000000000     
  0.78125000000000000       0.50000000000000000        0.0000000000000000     
  0.81250000000000000       0.50000000000000000        0.0000000000000000     
  0.84375000000000000       0.50000000000000000        0.0000000000000000     
  0.87500000000000000       0.50000000000000000        0.0000000000000000     
  0.75000000000000000       0.53125000000000000        0.0000000000000000     
  0.78125000000000000       0.53125000000000000        0.0000000000000000     
  0.81250000000000000       0.53125000000000000        0.0000000000000000     
  0.84375000000000000       0.53125000000000000        0.0000000000000000     
  0.87500000000000000       0.53125000000000000        0.0000000000000000     
  0.75000000000000000       0.56250000000000000        0.0000000000000000     
  0.78125000000000000       0.56250000000000000        0.0000000000000000     
  0.81250000000000000       0.56250000000000000        0.0000000000000000     
  0.84375000000000000       0.56250000000000000        0.0000000000000000     
  0.87500000000000000       0.56250000000000000        0.0000000000000000     
  0.75000000000000000       0.59375000000000000        0.0000000000000000     
  0.78125000000000000       0.59375000000000000        0.0000000000000000     
  0.81250000000000000       0.59375000000000000        0.0000000000000000     
  0.84375000000000000       0.59375000000000000        0.0000000000000000     
  0.87500000000000000       0.59375000000000000        0.0000000000000000     
  0.75000000000000000       0.62500000000000000        0.0000000000000000     
  0.78125000000000000       0.62500000000000000        0.0000000000000000     
  0.81250000000000000       0.62500000000000000        0.0000000000000000     
  0.84375000000000000       0.62500000000000000        0.0000000000000000     
  0.87500000000000000       0.62500000000000000        0.0000000000000000     
  0.87500000000000000       0.50000000000000000        0.0000000000000000     
  0.90625000000000000       0.50000000000000000        0.0000000000000000     
  0.93750000000000000       0.50000000000000000        0.0000000000000000     
  0.96875000000000000       0.50000000000000000        0.0000000000000000     
   1.0000000000000000       0.50000000000000000        0.0000000000000000     
  0.87500000000000000       0.53125000000000000        0.0000000000000000     
  0.90625000000000000       0.53125000000000000        0.0000000000000000     
  0.93750000000000000       0.53125000000000000        0.0000000000000000     
  0.96875000000000000       0.53125000000000000        0.0000000000000000     
   1.0000000000000000       0.53125000000000000        0.0000000000000000     
  0.87500000000000000       0.56250000000000000        0.0000000000000000     
  0.90625000000000000       0.56250000000000000        0.0000000000000000     
  0.93750000000000000       0.56250000000000000        0.0000000000000000     
  0.96875000000000000       0.56250000000000000        0.0000000000000000     
   1.0000000000000000       0.56250000000000000        0.0000000000000000     
  0.87500000000000000       0.59375000000000000        0.0000000000000000     
  0.90625000000000000       0.59375000000000000        0.0000000000000000     
  0.93750000000000000       0.59375000000000000        0.0000000000000000     
  0.96875000000000000       0.59375000000000000        0.0000000000000000     
   1.0000000000000000       0.59375000000000000        0.0000000000000000     
  0.87500000000000000       0.62500000000000000        0.0000000000000000     
  0.90625000000000000       0.62500000000000000        0.0000000000000000     
  0.93750000000000000       0.62500000000000000        0.0000000000000000     
  0.96875000000000000       0.62500000000000000        0.0000000000000000     
   1.0000000000000000       0.62500000000000000        0.0000000000000000     
   1.0000000000000000       0.50000000000000000        0.0000000000000000     
   1.0312500000000000       0.50000000000000000        0.0000000000000000     
   1.0625000000000000       0.50000000000000000        0.0000000000000000     
   1.0937500000000000       0.50000000000000000        0.0000000000000000     
   1.1250000000000000       0.50000000000000000        0.0000000000000000     
   1.0000000000000000       0.53125000000000000        0.0000000000000000     
   1.0312500000000000       0.53125000000000000        0.0000000000000000     
   1.0625000000000000       0.53125000000000000        0.0000000000000000     
   1.0937500000000000       0.53125000000000000        0.0000000000000000     
   1.1250000000000000       0.53125000000000000        0.0000000000000000     
   1.0000000000000000       0.56250000000000000        0.0000000000000000     
   1.0312500000000000       0.56250000000000000        0.0000000000000000     
   1.0625000000000000       0.56250000000000000        0.0000000000000000     
   1.0937500000000000       0.56250000000000000        0.0000000000000000     
   1.1250000000000000       0.56250000000000000        0.0000000000000000     
   1.0000000000000000       0.59375000000000000        0.0000000000000000     
   1.0312500000000000       0.59375000000000000        0.0000000000000000     
   1.0625000000000000       0.59375000000000000        0.0000000000000000     
   1.0937500000000000       0.59375000000000000        0.0000000000000000     
   1.1250000000000000       0.59375000000000000        0.0000000000000000     
   1.0000000000000000       0.62500000000000000        0.0000000000000000     
   1.0312500000000000       0.62500000000000000        0.0000000000000000     
   1.0625000000000000       0.62500000000000000        0.0000000000000000     
   1.0937500000000000       0.62500000000000000        0.0000000000000000     
   1.1250000000000000       0.62500000000000000        0.0000000000000000     
   1.1250000000000000       0.50000000000000000        0.0000000000000000     
   1.1562500000000000       0.50000000000000000        0.0000000000000000     
   1.1875000000000000       0.50000000000000000        0.0000000000000000     
   1.2187500000000000       0.50000000000000000        0.0000000000000000     
   1.2500000000000000       0.50000000000000000        0.0000000000000000     
   1.1250000000000000       0.53125000000000000        0.0000000000000000     
   1.1562500000000000       0.53125000000000000        0.0000000000000000     
   1.1875000000000000       0.53125000000000000        0.0000000000000000     
   1.2187500000000000       0.53125000000000000        0.0000000000000000     
   1.2500000000000000       0.53125000000000000        0.0000000000000000     
   1.1250000000000000       0.56250000000000000        0.0000000000000000     
   1.1562500000000000       0.56250000000000000        0.0000000000000000     
   1.1875000000000000       0.56250000000000000        0.0000000000000000     
   1.2187500000000000       0.56250000000000000        0.0000000000000000     
   1.2500000000000000       0.56250000000000000        0.0000000000000000     
   1.1250000000000000       0.59375000000000000        0.0000000000000000     
   1.1562500000000000       0.59375000000000000        0.0000000000000000     
   1.1875000000000000       0.59375000000000000        0.0000000000000000     
   1.2187500000000000       0.59375000000000000        0.0000000000000000     
   1.2500000000000000       0.59375000000000000        0.0000000000000000     
   1.1250000000000000       0.62500000000000000        0.0000000000000000     
   1.1562500000000000       0.62500000000000000        0.0000000000000000     
   1.1875000000000000       0.62500000000000000        0.0000000000000000     
   1.2187500000000000       0.62500000000000000        0.0000000000000000     
   1.2500000000000000       0.62500000000000000        0.0000000000000000     
   1.2500000000000000       0.50000000000000000        0.0000000000000000     
   1.2812500000000000       0.50000000000000000        0.0000000000000000     
   1.3125000000000000       0.50000000000000000        0.0000000000000000     
   1.3437500000000000       0.50000000000000000        0.0000000000000000     
   1.3750000000000000       0.50000000000000000        0.0000000000000000     
   1.2500000000000000       0.53125000000000000        0.0000000000000000     
   1.2812500000000000       0.53125000000000000        0.0000000000000000     
   1.3125000000000000       0.53125000000000000        0.0000000000000000     
   1.3437500000000000       0.53125000000000000        0.0000000000000000     
   1.3750000000000000       0.53125000000000000        0.0000000000000000     
   1.2500000000000000       0.56250000000000000        0.0000000000000000     
   1.2812500000000000       0.56250000000000000        0.0000000000000000     
   1.3125000000000000       0.56250000000000000        0.0000000000000000     
   1.3437500000000000       0.56250000000000000        0.0000000000000000     
   1.3750000000000000       0.56250000000000000        0.0000000000000000     
   1.2500000000000000       0.59375000000000000        0.0000000000000000     
   1.2812500000000000       0.59375000000000000        0.0000000000000000     
   1.3125000000000000       0.59375000000000000        0.0000000000000000     
   1.3437500000000000       0.59375000000000000        0.0000000000000000     
   1.3750000000000000       0.59375000000000000        0.0000000000000000     
   1.2500000000000000       0.62500000000000000        0.0000000000000000     
   1.2812500000000000       0.62500000000000000        0.0000000000000000     
   1.3125000000000000       0.62500000000000000        0.0000000000000000     
   1.3437500000000000       0.62500000000000000        0.0000000000000000     
   1.3750000000000000       0.62500000000000000        0.0000000000000000     
   1.3750000000000000       0.50000000000000000        0.0000000000000000     
   1.4062500000000000       0.50000000000000000        0.0000000000000000     
   1.4375000000000000       0.50000000000000000        0.0000000000000000     
   1.4687500000000000       0.50000000000000000        0.0000000000000000     
   1.5000000000000000       0.50000000000000000        0.0000000000000000     
   1.3750000000000000       0.53125000000000000        0.0000000000000000     
   1.4062500000000000       0.53125000000000000        0.0000000000000000     
   1.4375000000000000       0.53125000000000000        0.0000000000000000     
   1.4687500000000000       0.53125000000000000        0.0000000000000000     
   1.5000000000000000       0.53125000000000000        0.0000000000000000     
   1.3750000000000000       0.56250000000000000        0.0000000000000000     
   1.4062500000000000       0.56250000000000000        0.0000000000000000     
   1.4375000000000000       0.56250000000000000        0.0000000000000000     
   1.4687500000000000       0.56250000000000000        0.0000000000000000     
   1.5000000000000000       0.56250000000000000        0.0000000000000000     
   1.3750000000000000       0.59375000000000000        0.0000000000000000     
   1.4062500000000000       0.59375000000000000        0.0000000000000000     
   1.4375000000000000       0.59375000000000000        0.0000000000000000     
   1.4687500000000000       0.59375000000000000        0.0000000000000000     
   1.5000000000000000       0.59375000000000000        0.0000000000000000     
   1.3750000000000000       0.62500000000000000        0.0000000000000000     
   1.4062500000000000       0.62500000000000000        0.0000000000000000     
   1.4375000000000000       0.62500000000000000        0.0000000000000000     
   1.4687500000000000       0.62500000000000000        0.0000000000000000     
   1.5000000000000000       0.62500000000000000        0.0000000000000000     
  0.50000000000000000       0.62500000000000000        0.0000000000000000     
  0.53125000000000000       0.62500000000000000        0.0000000000000000     
  0.56250000000000000       0.62500000000000000        0.0000000000000000     
  0.59375000000000000       0.62500000000000000        0.0000000000000000     
  0.62500000000000000       0.62500000000000000        0.0000000000000000     
  0.50000000000000000       0.65625000000000000        0.0000000000000000     
  0.53125000000000000       0.65625000000000000        0.0000000000000000     
  0.56250000000000000       0.65625000000000000        0.0000000000000000     
  0.59375000000000000       0.65625000000000000        0.0000000000000000     
  0.62500000000000000       0.65625000000000000        0.0000000000000000     
  0.50000000000000000       0.68750000000000000        0.0000000000000000     
  0.53125000000000000       0.68750000000000000        0.0000000000000000     
  0.56250000000000000       0.68750000000000000        0.0000000000000000     
  0.59375000000000000       0.68750000000000000        0.0000000000000000     
  0.62500000000000000       0.68750000000000000        0.0000000000000000     
  0.50000000000000000       0.71875000000000000        0.0000000000000000     
  0.53125000000000000       0.71875000000000000        0.0000000000000000     
  0.56250000000000000       0.71875000000000000        0.0000000000000000     
  0.59375000000000000       0.71875000000000000        0.0000000000000000     
  0.62500000000000000       0.71875000000000000        0.0000000000000000     
  0.50000000000000000       0.75000000000000000        0.0000000000000000     
  0.53125000000000000       0.75000000000000000        0.0000000000000000     
  0.56250000000000000       0.75000000000000000        0.0000000000000000     
  0.59375000000000000       0.75000000000000000        0.0000000000000000     
  0.62500000000000000       0.75000000000000000        0.0000000000000000     
  0.62500000000000000       0.62500000000000000        0.0000000000000000     
  0.65625000000000000       0.62500000000000000        0.0000000000000000     
  0.68750000000000000       0.62500000000000000        0.0000000000000000     
  0.71875000000000000       0.62500000000000000        0.0000000000000000     
  0.75000000000000000       0.62500000000000000        0.0000000000000000     
  0.62500000000000000       0.65625000000000000        0.0000000000000000     
  0.65625000000000000       0.65625000000000000        0.0000000000000000     
  0.68750000000000000       0.65625000000000000        0.0000000000000000     
  0.71875000000000000       0.65625000000000000        0.0000000000000000     
  0.75000000000000000       0.65625000000000000        0.0000000000000000     
  0.62500000000000000       0.68750000000000000        0.0000000000000000     
  0.65625000000000000       0.68750000000000000        0.0000000000000000     
  0.68750000000000000       0.68750000000000000        0.0000000000000000     
  0.71875000000000000       0.68750000000000000        0.0000000000000000     
  0.75000000000000000       0.68750000000000000        0.0000000000000000     
  0.62500000000000000       0.71875000000000000        0.0000000000000000     
  0.65625000000000000       0.71875000000000000        0.0000000000000000     
  0.68750000000000000       0.71875000000000000        0.0000000000000000     
  0.71875000000000000       0.71875000000000000        0.0000000000000000     
  0.75000000000000000       0.71875000000000000        0.0000000000000000     
  0.62500000000000000       0.75000000000000000        0.0000000000000000     
  0.65625000000000000       0.75000000000000000        0.0000000000000000     
  0.68750000000000000       0.75000000000000000        0.0000000000000000     
  0.71875000000000000       0.75000000000000000        0.0000000000000000     
  0.75000000000000000       0.75000000000000000        0.0000000000000000     
  0.75000000000000000       0.62500000000000000        0.0000000000000000     
  0.78125000000000000       0.62500000000000000        0.0000000000000000     
  0.81250000000000000       0.62500000000000000        0.0000000000000000     
  0.84375000000000000       0.62500000000000000        0.0000000000000000     
  0.87500000000000000       0.62500000000000000        0.0000000000000000     
  0.75000000000000000       0.65625000000000000        0.0000000000000000     
  0.78125000000000000       0.65625000000000000        0.0000000000000000     
  0.81250000000000000       0.65625000000000000        0.0000000000000000     
  0.84375000000000000       0.65625000000000000        0.0000000000000000     
  0.87500000000000000       0.65625000000000000        0.0000000000000000     
  0.75000000000000000       0.68750000000000000        0.0000000000000000     
  0.78125000000000000       0.68750000000000000        0.0000000000000000     
  0.81250000000000000       0.68750000000000000        0.0000000000000000     
  0.84375000000000000       0.68750000000000000        0.0000000000000000     
  0.87500000000000000       0.68750000000000000        0.0000000000000000     
  0.75000000000000000       0.71875000000000000        0.0000000000000000     
  0.78125000000000000       0.71875000000000000        0.0000000000000000     
  0.81250000000000000       0.71875000000000000        0.0000000000000000     
  0.84375000000000000       0.71875000000000000        0.0000000000000000     
  0.87500000000000000       0.71875000000000000        0.0000000000000000     
  0.75000000000000000       0.75000000000000000        0.0000000000000000     
  0.78125000000000000       0.75000000000000000        0.0000000000000000     
  0.81250000000000000       0.75000000000000000        0.0000000000000000     
  0.84375000000000000       0.75000000000000000        0.0000000000000000     
  0.87500000000000000       0.75000000000000000        0.0000000000000000     
  0.87500000000000000       0.62500000000000000        0.0000000000000000     
  0.90625000000000000       0.62500000000000000        0.0000000000000000     
  0.93750000000000000       0.62500000000000000        0.0000000000000000     
  0.96875000000000000       0.62500000000000000        0.0000000000000000     
   1.0000000000000000       0.62500000000000000        0.0000000000000000     
  0.87500000000000000       0.65625000000000000        0.0000000000000000     
  0.90625000000000000       0.65625000000000000        0.0000000000000000     
  0.93750000000000000       0.65625000000000000        0.0000000000000000     
  0.96875000000000000       0.65625000000000000        0.0000000000000000     
   1.0000000000000000       0.65625000000000000        0.0000000000000000     
  0.87500000000000000       0.68750000000000000        0.0000000000000000     
  0.90625000000000000       0.68750000000000000        0.0000000000000000     
  0.93750000000000000       0.68750000000000000        0.0000000000000000     
  0.96875000000000000       0.68750000000000000        0.0000000000000000     
   1.0000000000000000       0.68750000000000000        0.0000000000000000     
  0.87500000000000000       0.71875000000000000        0.0000000000000000     
  0.90625000000000000       0.71875000000000000        0.0000000000000000     
  0.93750000000000000       0.71875000000000000        0.0000000000000000     
  0.96875000000000000       0.71875000000000000        0.0000000000000000     
   1.0000000000000000       0.71875000000000000        0.0000000000000000     
  0.87500000000000000       0.75000000000000000        0.0000000000000000     
  0.90625000000000000       0.75000000000000000        0.0000000000000000     
  0.93750000000000000       0.75000000000000000        0.0000000000000000     
  0.96875000000000000       0.75000000000000000        0.0000000000000000     
   1.0000000000000000       0.75000000000000000        0.0000000000000000     
   1.0000000000000000       0.62500000000000000        0.0000000000000000     
   1.0312500000000000       0.62500000000000000        0.0000000000000000     
   1.0625000000000000       0.62500000000000000        0.0000000000000000     
   1.0937500000000000       0.62500000000000000        0.0000000000000000     
   1.1250000000000000       0.62500000000000000        0.0000000000000000     
   1.0000000000000000       0.65625000000000000        0.0000000000000000     
   1.0312500000000000       0.65625000000000000        0.0000000000000000     
   1.0625000000000000       0.65625000000000000        0.0000000000000000     
   1.0937500000000000       0.65625000000000000        0.0000000000000000     
   1.1250000000000000       0.65625000000000000        0.0000000000000000     
   1.0000000000000000       0.68750000000000000        0.0000000000000000     
   1.0312500000000000       0.68750000000000000        0.0000000000000000     
   1.0625000000000000       0.68750000000000000        0.0000000000000000     
   1.0937500000000000       0.68750000000000000        0.0000000000000000     
   1.1250000000000000       0.68750000000000000        0.0000000000000000     
   1.0000000000000000       0.71875000000000000        0.0000000000000000     
   1.0312500000000000       0.71875000000000000        0.0000000000000000     
   1.0625000000000000       0.71875000000000000        0.0000000000000000     
   1.0937500000000000       0.71875000000000000        0.0000000000000000     
   1.1250000000000000       0.71875000000000000        0.0000000000000000     
   1.0000000000000000       0.75000000000000000        0.0000000000000000     
   1.0312500000000000       0.75000000000000000        0.0000000000000000     
   1.0625000000000000       0.75000000000000000        0.0000000000000000     
   1.0937500000000000       0.75000000000000000        0.0000000000000000     
   1.1250000000000000       0.75000000000000000        0.0000000000000000     
   1.1250000000000000       0.62500000000000000        0.0000000000000000     
   1.1562500000000000       0.62500000000000000        0.0000000000000000     
   1.1875000000000000       0.62500000000000000        0.0000000000000000     
   1.2187500000000000       0.62500000000000000        0.0000000000000000     
   1.2500000000000000       0.62500000000000000        0.0000000000000000     
   1.1250000000000000       0.65625000000000000        0.0000000000000000     
   1.1562500000000000       0.65625000000000000        0.0000000000000000     
   1.1875000000000000       0.65625000000000000        0.0000000000000000     
   1.2187500000000000       0.65625000000000000        0.0000000000000000     
   1.2500000000000000       0.65625000000000000        0.0000000000000000     
   1.1250000000000000       0.68750000000000000        0.0000000000000000     
   1.1562500000000000       0.68750000000000000        0.0000000000000000     
   1.1875000000000000       0.68750000000000000        0.0000000000000000     
   1.2187500000000000       0.68750000000000000        0.0000000000000000     
   1.2500000000000000       0.68750000000000000        0.0000000000000000     
   1.1250000000000000       0.71875000000000000        0.0000000000000000     
   1.1562500000000000       0.71875000000000000        0.0000000000000000     
   1.1875000000000000       0.71875000000000000        0.0000000000000000     
   1.2187500000000000       0.71875000000000000        0.0000000000000000     
   1.2500000000000000       0.71875000000000000        0.0000000000000000     
   1.1250000000000000       0.75000000000000000        0.0000000000000000     
   1.1562500000000000       0.75000000000000000        0.0000000000000000     
   1.1875000000000000       0.75000000000000000        0.0000000000000000     
   1.2187500000000000       0.75000000000000000        0.0000000000000000     
   1.2500000000000000       0.75000000000000000        0.0000000000000000     
   1.2500000000000000       0.62500000000000000        0.0000000000000000     
   1.2812500000000000       0.62500000000000000        0.0000000000000000     
   1.3125000000000000       0.62500000000000000        0.0000000000000000     
   1.3437500000000000       0.62500000000000000        0.0000000000000000     
   1.3750000000000000       0.62500000000000000        0.0000000000000000     
   1.2500000000000000       0.65625000000000000        0.0000000000000000     
   1.2812500000000000       0.65625000000000000        0.0000000000000000     
   1.3125000000000000       0.65625000000000000        0.0000000000000000     
   1.3437500000000000       0.65625000000000000        0.0000000000000000     
   1.3750000000000000       0.65625000000000000        0.0000000000000000     
   1.2500000000000000       0.68750000000000000        0.0000000000000000     
   1.2812500000000000       0.68750000000000000        0.0000000000000000     
   1.3125000000000000       0.68750000000000000        0.0000000000000000     
   1.3437500000000000       0.68750000000000000        0.0000000000000000     
   1.3750000000000000       0.68750000000000000        0.0000000000000000     
   1.2500000000000000       0.71875000000000000        0.0000000000000000     
   1.2812500000000000       0.71875000000000000        0.0000000000000000     
   1.3125000000000000       0.71875000000000000        0.0000000000000000     
   1.3437500000000000       0.71875000000000000        0.0000000000000000     
   1.3750000000000000       0.71875000000000000        0.0000000000000000     
   1.2500000000000000       0.75000000000000000        0.0000000000000000     
   1.2812500000000000       0.75000000000000000        0.0000000000000000     
   1.3125000000000000       0.75000000000000000        0.0000000000000000     
   1.3437500000000000       0.75000000000000000        0.0000000000000000     
   1.3750000000000000       0.75000000000000000        0.0000000000000000     
   1.3750000000000000       0.62500000000000000        0.0000000000000000     
   1.4062500000000000       0.62500000000000000        0.0000000000000000     
   1.4375000000000000       0.62500000000000000        0.0000000000000000     
   1.4687500000000000       0.62500000000000000        0.0000000000000000     
   1.5000000000000000       0.62500000000000000        0.0000000000000000     
   1.3750000000000000       0.65625000000000000        0.0000000000000000     
   1.4062500000000000       0.65625000000000000        0.0000000000000000     
   1.4375000000000000       0.65625000000000000        0.0000000000000000     
   1.4687500000000000       0.65625000000000000        0.0000000000000000     
   1.5000000000000000       0.65625000000000000        0.0000000000000000     
   1.3750000000000000       0.68750000000000000        0.0000000000000000     
   1.4062500000000000       0.68750000000000000        0.0000000000000000     
   1.4375000000000000       0.68750000000000000        0.0000000000000000     
   1.4687500000000000       0.68750000000000000        0.0000000000000000     
   1.5000000000000000       0.68750000000000000        0.0000000000000000     
   1.3750000000000000       0.71875000000000000        0.0000000000000000     
   1.4062500000000000       0.71875000000000000        0.0000000000000000     
   1.4375000000000000       0.71875000000000000        0.0000000000000000     
   1.4687500000000000       0.71875000000000000        0.0000000000000000     
   1.5000000000000000       0.71875000000000000        0.0000000000000000     
   1.3750000000000000       0.75000000000000000        0.0000000000000000     
   1.4062500000000000       0.75000000000000000        0.0000000000000000     
   1.4375000000000000       0.75000000000000000        0.0000000000000000     
   1.4687500000000000       0.75000000000000000        0.0000000000000000     
   1.5000000000000000       0.75000000000000000        0.0000000000000000     
  0.50000000000000000       0.75000000000000000        0.0000000000000000     
  0.53125000000000000       0.75000000000000000        0.0000000000000000     
  0.56250000000000000       0.75000000000000000        0.0000000000000000     
  0.59375000000000000       0.75000000000000000        0.0000000000000000     
  0.62500000000000000       0.75000000000000000        0.0000000000000000     
  0.50000000000000000       0.78125000000000000        0.0000000000000000     
  0.53125000000000000       0.78125000000000000        0.0000000000000000     
  0.56250000000000000       0.78125000000000000        0.0000000000000000     
  0.59375000000000000       0.78125000000000000        0.0000000000000000     
  0.62500000000000000       0.78125000000000000        0.0000000000000000     
  0.50000000000000000       0.81250000000000000        0.0000000000000000     
  0.53125000000000000       0.81250000000000000        0.0000000000000000     
  0.56250000000000000       0.81250000000000000        0.0000000000000000     
  0.59375000000000000       0.81250000000000000        0.0000000000000000     
  0.62500000000000000       0.81250000000000000        0.0000000000000000     
  0.50000000000000000       0.84375000000000000        0.0000000000000000     
  0.53125000000000000       0.84375000000000000        0.0000000000000000     
  0.56250000000000000       0.84375000000000000        0.0000000000000000     
  0.59375000000000000       0.84375000000000000        0.0000000000000000     
  0.62500000000000000       0.84375000000000000        0.0000000000000000     
  0.50000000000000000       0.87500000000000000        0.0000000000000000     
  0.53125000000000000       0.87500000000000000        0.0000000000000000     
  0.56250000000000000       0.87500000000000000        0.0000000000000000     
  0.59375000000000000       0.87500000000000000        0.0000000000000000     
  0.62500000000000000       0.87500000000000000        0.0000000000000000     
  0.62500000000000000       0.75000000000000000        0.0000000000000000     
  0.65625000000000000       0.75000000000000000        0.0000000000000000     
  0.68750000000000000       0.75000000000000000        0.0000000000000000     
  0.71875000000000000       0.75000000000000000        0.0000000000000000     
  0.75000000000000000       0.75000000000000000        0.0000000000000000     
  0.62500000000000000       0.78125000000000000        0.0000000000000000     
  0.65625000000000000       0.78125000000000000        0.0000000000000000     
  0.68750000000000000       0.78125000000000000        0.0000000000000000     
  0.71875000000000000       0.78125000000000000        0.0000000000000000     
  0.75000000000000000       0.78125000000000000        0.0000000000000000     
  0.62500000000000000       0.81250000000000000        0.0000000000000000     
  0.65625000000000000       0.81250000000000000        0.0000000000000000     
  0.68750000000000000       0.81250000000000000        0.0000000000000000     
  0.71875000000000000       0.81250000000000000        0.0000000000000000     
  0.75000000000000000       0.81250000000000000        0.0000000000000000     
  0.62500000000000000       0.84375000000000000        0.0000000000000000     
  0.65625000000000000       0.84375000000000000        0.0000000000000000     
  0.68750000000000000       0.84375000000000000        0.0000000000000000     
  0.71875000000000000       0.84375000000000000        0.0000000000000000     
  0.75000000000000000       0.84375000000000000        0.0000000000000000     
  0.62500000000000000       0.87500000000000000        0.0000000000000000     
  0.65625000000000000       0.87500000000000000        0.0000000000000000     
  0.68750000000000000       0.87500000000000000        0.0000000000000000     
  0.71875000000000000       0.87500000000000000        0.0000000000000000     
  0.75000000000000000       0.87500000000000000        0.0000000000000000     
  0.75000000000000000       0.75000000000000000        0.0000000000000000     
  0.78125000000000000       0.75000000000000000        0.0000000000000000     
  0.81250000000000000       0.75000000000000000        0.0000000000000000     
  0.84375000000000000       0.75000000000000000        0.0000000000000000     
  0.87500000000000000       0.75000000000000000        0.0000000000000000     
  0.75000000000000000       0.78125000000000000        0.0000000000000000     
  0.78125000000000000       0.78125000000000000        0.0000000000000000     
  0.81250000000000000       0.78125000000000000        0.0000000000000000     
  0.84375000000000000       0.78125000000000000        0.0000000000000000     
  0.87500000000000000       0.78125000000000000        0.0000000000000000     
  0.75000000000000000       0.81250000000000000        0.0000000000000000     
  0.78125000000000000       0.81250000000000000        0.0000000000000000     
  0.81250000000000000       0.81250000000000000        0.0000000000000000     
  0.84375000000000000       0.81250000000000000        0.0000000000000000     
  0.87500000000000000       0.81250000000000000        0.0000000000000000     
  0.75000000000000000       0.84375000000000000        0.0000000000000000     
  0.78125000000000000       0.84375000000000000        0.0000000000000000     
  0.81250000000000000       0.84375000000000000        0.0000000000000000     
  0.84375000000000000       0.84375000000000000        0.0000000000000000     
  0.87500000000000000       0.84375000000000000        0.0000000000000000     
  0.75000000000000000       0.87500000000000000        0.0000000000000000     
  0.78125000000000000       0.87500000000000000        0.0000000000000000     
  0.81250000000000000       0.87500000000000000        0.0000000000000000     
  0.84375000000000000       0.87500000000000000        0.0000000000000000     
  0.87500000000000000       0.87500000000000000        0.0000000000000000     
  0.87500000000000000       0.75000000000000000        0.0000000000000000     
  0.90625000000000000       0.75000000000000000        0.0000000000000000     
  0.93750000000000000       0.75000000000000000        0.0000000000000000     
  0.96875000000000000       0.75000000000000000        0.0000000000000000     
   1.0000000000000000       0.75000000000000000        0.0000000000000000     
  0.87500000000000000       0.78125000000000000        0.0000000000000000     
  0.90625000000000000       0.78125000000000000        0.0000000000000000     
  0.93750000000000000       0.78125000000000000        0.0000000000000000     
  0.96875000000000000       0.78125000000000000        0.0000000000000000     
   1.0000000000000000       0.78125000000000000        0.0000000000000000     
  0.87500000000000000       0.81250000000000000        0.0000000000000000     
  0.90625000000000000       0.81250000000000000        0.0000000000000000     
  0.93750000000000000       0.81250000000000000        0.0000000000000000     
  0.96875000000000000       0.81250000000000000        0.0000000000000000     
   1.0000000000000000       0.81250000000000000        0.0000000000000000     
  0.87500000000000000       0.84375000000000000        0.0000000000000000     
  0.90625000000000000       0.84375000000000000        0.0000000000000000     
  0.93750000000000000       0.84375000000000000        0.0000000000000000     
  0.96875000000000000       0.84375000000000000        0.0000000000000000     
   1.0000000000000000       0.84375000000000000        0.0000000000000000     
  0.87500000000000000       0.87500000000000000        0.0000000000000000     
  0.90625000000000000       0.87500000000000000        0.0000000000000000     
  0.93750000000000000       0.87500000000000000        0.0000000000000000     
  0.96875000000000000       0.87500000000000000        0.0000000000000000     
   1.0000000000000000       0.87500000000000000        0.0000000000000000     
   1.0000000000000000       0.75000000000000000        0.0000000000000000     
   1.0312500000000000       0.75000000000000000        0.0000000000000000     
   1.0625000000000000       0.75000000000000000        0.0000000000000000     
   1.0937500000000000       0.75000000000000000        0.0000000000000000     
   1.1250000000000000       0.75000000000000000        0.0000000000000000     
   1.0000000000000000       0.78125000000000000        0.0000000000000000     
   1.0312500000000000       0.78125000000000000        0.0000000000000000     
   1.0625000000000000       0.78125000000000000        0.0000000000000000     
   1.0937500000000000       0.78125000000000000        0.0000000000000000     
   1.1250000000000000       0.78125000000000000        0.0000000000000000     
   1.0000000000000000       0.81250000000000000        0.0000000000000000     
   1.0312500000000000       0.81250000000000000        0.0000000000000000     
   1.0625000000000000       0.81250000000000000        0.0000000000000000     
   1.0937500000000000       0.81250000000000000        0.0000000000000000     
   1.1250000000000000       0.81250000000000000        0.0000000000000000     
   1.0000000000000000       0.84375000000000000        0.0000000000000000     
   1.0312500000000000       0.84375000000000000        0.0000000000000000     
   1.0625000000000000       0.84375000000000000        0.0000000000000000     
   1.0937500000000000       0.84375000000000000        0.0000000000000000     
   1.1250000000000000       0.84375000000000000        0.0000000000000000     
   1.0000000000000000       0.87500000000000000        0.0000000000000000     
   1.0312500000000000       0.87500000000000000        0.0000000000000000     
   1.0625000000000000       0.87500000000000000        0.0000000000000000     
   1.0937500000000000       0.87500000000000000        0.0000000000000000     
   1.1250000000000000       0.87500000000000000        0.0000000000000000     
   1.1250000000000000       0.75000000000000000        0.0000000000000000     
   1.1562500000000000       0.75000000000000000        0.0000000000000000     
   1.1875000000000000       0.75000000000000000        0.0000000000000000     
   1.2187500000000000       0.75000000000000000        0.0000000000000000     
   1.2500000000000000       0.75000000000000000        0.0000000000000000     
   1.1250000000000000       0.78125000000000000        0.0000000000000000     
   1.1562500000000000       0.78125000000000000        0.0000000000000000     
   1.1875000000000000       0.78125000000000000        0.0000000000000000     
   1.2187500000000000       0.78125000000000000        0.0000000000000000     
   1.2500000000000000       0.78125000000000000        0.0000000000000000     
   1.1250000000000000       0.81250000000000000        0.0000000000000000     
   1.1562500000000000       0.81250000000000000        0.0000000000000000     
   1.1875000000000000       0.81250000000000000        0.0000000000000000     
   1.2187500000000000       0.81250000000000000        0.0000000000000000     
   1.2500000000000000       0.81250000000000000        0.0000000000000000     
   1.1250000000000000       0.84375000000000000        0.0000000000000000     
   1.1562500000000000       0.84375000000000000        0.0000000000000000     
   1.1875000000000000       0.84375000000000000        0.0000000000000000     
   1.2187500000000000       0.84375000000000000        0.0000000000000000     
   1.2500000000000000       0.84375000000000000        0.0000000000000000     
   1.1250000000000000       0.87500000000000000        0.0000000000000000     
   1.1562500000000000       0.87500000000000000        0.0000000000000000     
   1.1875000000000000       0.87500000000000000        0.0000000000000000     
   1.2187500000000000       0.87500000000000000        0.0000000000000000     
   1.2500000000000000       0.87500000000000000        0.0000000000000000     
   1.2500000000000000       0.75000000000000000        0.0000000000000000     
   1.2812500000000000       0.75000000000000000        0.0000000000000000     
   1.3125000000000000       0.75000000000000000        0.0000000000000000     
   1.3437500000000000       0.75000000000000000        0.0000000000000000     
   1.3750000000000000       0.75000000000000000        0.0000000000000000     
   1.2500000000000000       0.78125000000000000        0.0000000000000000     
   1.2812500000000000       0.78125000000000000        0.0000000000000000     
   1.3125000000000000       0.78125000000000000        0.0000000000000000     
   1.3437500000000000       0.78125000000000000        0.0000000000000000     
   1.3750000000000000       0.78125000000000000        0.0000000000000000     
   1.2500000000000000       0.81250000000000000        0.0000000000000000     
   1.2812500000000000       0.81250000000000000        0.0000000000000000     
   1.3125000000000000       0.81250000000000000        0.0000000000000000     
   1.3437500000000000       0.81250000000000000        0.0000000000000000     
   1.3750000000000000       0.81250000000000000        0.0000000000000000     
   1.2500000000000000       0.84375000000000000        0.0000000000000000     
   1.2812500000000000       0.84375000000000000        0.0000000000000000     
   1.3125000000000000       0.84375000000000000        0.0000000000000000     
   1.3437500000000000       0.84375000000000000        0.0000000000000000     
   1.3750000000000000       0.84375000000000000        0.0000000000000000     
   1.2500000000000000       0.87500000000000000        0.0000000000000000     
   1.2812500000000000       0.87500000000000000        0.0000000000000000     
   1.3125000000000000       0.87500000000000000        0.0000000000000000     
   1.3437500000000000       0.87500000000000000        0.0000000000000000     
   1.3750000000000000       0.87500000000000000        0.0000000000000000     
   1.3750000000000000       0.75000000000000000        0.0000000000000000     
   1.4062500000000000       0.75000000000000000        0.0000000000000000     
   1.4375000000000000       0.75000000000000000        0.0000000000000000     
   1.4687500000000000       0.75000000000000000        0.0000000000000000     
   1.5000000000000000       0.75000000000000000        0.0000000000000000     
   1.3750000000000000       0.78125000000000000        0.0000000000000000     
   1.4062500000000000       0.78125000000000000        0.0000000000000000     
   1.4375000000000000       0.78125000000000000        0.0000000000000000     
   1.4687500000000000       0.78125000000000000        0.0000000000000000     
   1.5000000000000000       0.78125000000000000        0.0000000000000000     
   1.3750000000000000       0.81250000000000000        0.0000000000000000     
   1.4062500000000000       0.81250000000000000        0.0000000000000000     
   1.4375000000000000       0.81250000000000000        0.0000000000000000     
   1.4687500000000000       0.81250000000000000        0.0000000000000000     
   1.5000000000000000       0.81250000000000000        0.0000000000000000     
   1.3750000000000000       0.84375000000000000        0.0000000000000000     
   1.4062500000000000       0.84375000000000000        0.0000000000000000     
   1.4375000000000000       0.84375000000000000        0.0000000000000000     
   1.4687500000000000       0.84375000000000000        0.0000000000000000     
   1.5000000000000000       0.84375000000000000        0.0000000000000000     
   1.3750000000000000       0.87500000000000000        0.0000000000000000     
   1.4062500000000000       0.87500000000000000        0.0000000000000000     
   1.4375000000000000       0.87500000000000000        0.0000000000000000     
   1.4687500000000000       0.87500000000000000        0.0000000000000000     
   1.5000000000000000       0.87500000000000000        0.0000000000000000     
  0.50000000000000000       0.87500000000000000        0.0000000000000000     
  0.53125000000000000       0.87500000000000000        0.0000000000000000     
  0.56250000000000000       0.87500000000000000        0.0000000000000000     
  0.59375000000000000       0.87500000000000000        0.0000000000000000     
  0.62500000000000000       0.87500000000000000        0.0000000000000000     
  0.50000000000000000       0.90625000000000000        0.0000000000000000     
  0.53125000000000000       0.90625000000000000        0.0000000000000000     
  0.56250000000000000       0.90625000000000000        0.0000000000000000     
  0.59375000000000000       0.90625000000000000        0.0000000000000000     
  0.62500000000000000       0.90625000000000000        0.0000000000000000     
  0.50000000000000000       0.93750000000000000        0.0000000000000000     
  0.53125000000000000       0.93750000000000000        0.0000000000000000     
  0.56250000000000000       0.93750000000000000        0.0000000000000000     
  0.59375000000000000       0.93750000000000000        0.0000000000000000     
  0.62500000000000000       0.93750000000000000        0.0000000000000000     
  0.50000000000000000       0.96875000000000000        0.0000000000000000     
  0.53125000000000000       0.96875000000000000        0.0000000000000000     
  0.56250000000000000       0.96875000000000000        0.0000000000000000     
  0.59375000000000000       0.96875000000000000        0.0000000000000000     
  0.62500000000000000       0.96875000000000000        0.0000000000000000     
  0.50000000000000000        1.0000000000000000        0.0000000000000000     
  0.53125000000000000        1.0000000000000000        0.0000000000000000     
  0.56250000000000000        1.0000000000000000        0.0000000000000000     
  0.59375000000000000        1.0000000000000000        0.0000000000000000     
  0.62500000000000000        1.0000000000000000        0.0000000000000000     
  0.62500000000000000       0.87500000000000000        0.0000000000000000     
  0.65625000000000000       0.87500000000000000        0.0000000000000000     
  0.68750000000000000       0.87500000000000000        0.0000000000000000     
  0.71875000000000000       0.87500000000000000        0.0000000000000000     
  0.75000000000000000       0.87500000000000000        0.0000000000000000     
  0.62500000000000000       0.90625000000000000        0.0000000000000000     
  0.65625000000000000       0.90625000000000000        0.0000000000000000     
  0.68750000000000000       0.90625000000000000        0.0000000000000000     
  0.71875000000000000       0.90625000000000000        0.0000000000000000     
  0.75000000000000000       0.90625000000000000        0.0000000000000000     
  0.62500000000000000       0.93750000000000000        0.0000000000000000     
  0.65625000000000000       0.93750000000000000        0.0000000000000000     
  0.68750000000000000       0.93750000000000000        0.0000000000000000     
  0.71875000000000000       0.93750000000000000        0.0000000000000000     
  0.75000000000000000       0.93750000000000000        0.0000000000000000     
  0.62500000000000000       0.96875000000000000        0.0000000000000000     
  0.65625000000000000       0.96875000000000000        0.0000000000000000     
  0.68750000000000000       0.96875000000000000        0.0000000000000000     
  0.71875000000000000       0.96875000000000000        0.0000000000000000     
  0.75000000000000000       0.96875000000000000        0.0000000000000000     
  0.62500000000000000        1.0000000000000000        0.0000000000000000     
  0.65625000000000000        1.0000000000000000        0.0000000000000000     
  0.68750000000000000        1.0000000000000000        0.0000000000000000     
  0.71875000000000000        1.0000000000000000        0.0000000000000000     
  0.75000000000000000        1.0000000000000000        0.0000000000000000     
  0.75000000000000000       0.87500000000000000        0.0000000000000000     
  0.78125000000000000       0.87500000000000000        0.0000000000000000     
  0.81250000000000000       0.87500000000000000        0.0000000000000000     
  0.84375000000000000       0.87500000000000000        0.0000000000000000     
  0.87500000000000000       0.87500000000000000        0.0000000000000000     
  0.75000000000000000       0.90625000000000000        0.0000000000000000     
  0.78125000000000000       0.90625000000000000        0.0000000000000000     
  0.81250000000000000       0.90625000000000000        0.0000000000000000     
  0.84375000000000000       0.90625000000000000        0.0000000000000000     
  0.87500000000000000       0.90625000000000000        0.0000000000000000     
  0.75000000000000000       0.93750000000000000        0.0000000000000000     
  0.78125000000000000       0.93750000000000000        0.0000000000000000     
  0.81250000000000000       0.93750000000000000        0.0000000000000000     
  0.84375000000000000       0.93750000000000000        0.0000000000000000     
  0.87500000000000000       0.93750000000000000        0.0000000000000000     
  0.75000000000000000       0.96875000000000000        0.0000000000000000     
  0.78125000000000000       0.96875000000000000        0.0000000000000000     
  0.81250000000000000       0.96875000000000000        0.0000000000000000     
  0.84375000000000000       0.96875000000000000        0.0000000000000000     
  0.87500000000000000       0.96875000000000000        0.0000000000000000     
  0.75000000000000000        1.0000000000000000        0.0000000000000000     
  0.78125000000000000        1.0000000000000000        0.0000000000000000     
  0.81250000000000000        1.0000000000000000        0.0000000000000000     
  0.84375000000000000        1.0000000000000000        0.0000000000000000     
  0.87500000000000000        1.0000000000000000        0.0000000000000000     
  0.87500000000000000       0.87500000000000000        0.0000000000000000     
  0.90625000000000000       0.87500000000000000        0.0000000000000000     
  0.93750000000000000       0.87500000000000000        0.0000000000000000     
  0.96875000000000000       0.87500000000000000        0.0000000000000000     
   1.0000000000000000       0.87500000000000000        0.0000000000000000     
  0.87500000000000000       0.90625000000000000        0.0000000000000000     
  0.90625000000000000       0.90625000000000000        0.0000000000000000     
  0.93750000000000000       0.90625000000000000        0.0000000000000000     
  0.96875000000000000       0.90625000000000000        0.0000000000000000     
   1.0000000000000000       0.90625000000000000        0.0000000000000000     
  0.87500000000000000       0.93750000000000000        0.0000000000000000     
  0.90625000000000000       0.93750000000000000        0.0000000000000000     
  0.93750000000000000       0.93750000000000000        0.0000000000000000     
  0.96875000000000000       0.93750000000000000        0.0000000000000000     
   1.0000000000000000       0.93750000000000000        0.0000000000000000     
  0.87500000000000000       0.96875000000000000        0.0000000000000000     
  0.90625000000000000       0.96875000000000000        0.0000000000000000     
  0.93750000000000000       0.96875000000000000        0.0000000000000000     
  0.96875000000000000       0.96875000000000000        0.0000000000000000     
   1.0000000000000000       0.96875000000000000        0.0000000000000000     
  0.87500000000000000        1.0000000000000000        0.0000000000000000     
  0.90625000000000000        1.0000000000000000        0.0000000000000000     
  0.93750000000000000        1.0000000000000000        0.0000000000000000     
  0.96875000000000000        1.0000000000000000        0.0000000000000000     
   1.0000000000000000        1.0000000000000000        0.0000000000000000     
   1.0000000000000000       0.87500000000000000        0.0000000000000000     
   1.0312500000000000       0.87500000000000000        0.0000000000000000     
   1.0625000000000000       0.87500000000000000        0.0000000000000000     
   1.0937500000000000       0.87500000000000000        0.0000000000000000     
   1.1250000000000000       0.87500000000000000        0.0000000000000000     
   1.0000000000000000       0.90625000000000000        0.0000000000000000     
   1.0312500000000000       0.90625000000000000        0.0000000000000000     
   1.0625000000000000       0.90625000000000000        0.0000000000000000     
   1.0937500000000000       0.90625000000000000        0.0000000000000000     
   1.1250000000000000       0.90625000000000000        0.0000000000000000     
   1.0000000000000000       0.93750000000000000        0.0000000000000000     
   1.0312500000000000       0.93750000000000000        0.0000000000000000     
   1.0625000000000000       0.93750000000000000        0.0000000000000000     
   1.0937500000000000       0.93750000000000000        0.0000000000000000     
   1.1250000000000000       0.93750000000000000        0.0000000000000000     
   1.0000000000000000       0.96875000000000000        0.0000000000000000     
   1.0312500000000000       0.96875000000000000        0.0000000000000000     
   1.0625000000000000       0.96875000000000000        0.0000000000000000     
   1.0937500000000000       0.96875000000000000        0.0000000000000000     
   1.1250000000000000       0.96875000000000000        0.0000000000000000     
   1.0000000000000000        1.0000000000000000        0.0000000000000000     
   1.0312500000000000        1.0000000000000000        0.0000000000000000     
   1.0625000000000000        1.0000000000000000        0.0000000000000000     
   1.0937500000000000        1.0000000000000000        0.0000000000000000     
   1.1250000000000000        1.0000000000000000        0.0000000000000000     
   1.1250000000000000       0.87500000000000000        0.0000000000000000     
   1.1562500000000000       0.87500000000000000        0.0000000000000000     
   1.1875000000000000       0.87500000000000000        0.0000000000000000     
   1.2187500000000000       0.87500000000000000        0.0000000000000000     
   1.2500000000000000       0.87500000000000000        0.0000000000000000     
   1.1250000000000000       0.90625000000000000        0.0000000000000000     
   1.1562500000000000       0.90625000000000000        0.0000000000000000     
   1.1875000000000000       0.90625000000000000        0.0000000000000000     
   1.2187500000000000       0.90625000000000000        0.0000000000000000     
   1.2500000000000000       0.90625000000000000        0.0000000000000000     
   1.1250000000000000       0.93750000000000000        0.0000000000000000     
   1.1562500000000000       0.93750000000000000        0.0000000000000000     
   1.1875000000000000       0.93750000000000000        0.0000000000000000     
   1.2187500000000000       0.93750000000000000        0.0000000000000000     
   1.2500000000000000       0.93750000000000000        0.0000000000000000     
   1.1250000000000000       0.96875000000000000        0.0000000000000000     
   1.1562500000000000       0.96875000000000000        0.0000000000000000     
   1.1875000000000000       0.96875000000000000        0.0000000000000000     
   1.2187500000000000       0.96875000000000000        0.0000000000000000     
   1.2500000000000000       0.96875000000000000        0.0000000000000000     
   1.1250000000000000        1.0000000000000000        0.0000000000000000     
   1.1562500000000000        1.0000000000000000        0.0000000000000000     
   1.1875000000000000        1.0000000000000000        0.0000000000000000     
   1.2187500000000000        1.0000000000000000        0.0000000000000000     
   1.2500000000000000        1.0000000000000000        0.0000000000000000     
   1.2500000000000000       0.87500000000000000        0.0000000000000000     
   1.2812500000000000       0.87500000000000000        0.0000000000000000     
   1.3125000000000000       0.87500000000000000        0.0000000000000000     
   1.3437500000000000       0.87500000000000000        0.0000000000000000     
   1.3750000000000000       0.87500000000000000        0.0000000000000000     
   1.2500000000000000       0.90625000000000000        0.0000000000000000     
   1.2812500000000000       0.90625000000000000        0.0000000000000000     
   1.3125000000000000       0.90625000000000000        0.0000000000000000     
   1.3437500000000000       0.90625000000000000        0.0000000000000000     
   1.3750000000000000       0.90625000000000000        0.0000000000000000     
   1.2500000000000000       0.93750000000000000        0.0000000000000000     
   1.2812500000000000       0.93750000000000000        0.0000000000000000     
   1.3125000000000000       0.93750000000000000        0.0000000000000000     
   1.3437500000000000       0.93750000000000000        0.0000000000000000     
   1.3750000000000000       0.93750000000000000        0.0000000000000000     
   1.2500000000000000       0.96875000000000000        0.0000000000000000     
   1.2812500000000000       0.96875000000000000        0.0000000000000000     
   1.3125000000000000       0.96875000000000000        0.0000000000000000     
   1.3437500000000000       0.96875000000000000        0.0000000000000000     
   1.3750000000000000       0.96875000000000000        0.0000000000000000     
   1.2500000000000000        1.0000000000000000        0.0000000000000000     
   1.2812500000000000        1.0000000000000000        0.0000000000000000     
   1.3125000000000000        1.0000000000000000        0.0000000000000000     
   1.3437500000000000        1.0000000000000000        0.0000000000000000     
   1.3750000000000000        1.0000000000000000        0.0000000000000000     
   1.3750000000000000       0.87500000000000000        0.0000000000000000     
   1.4062500000000000       0.87500000000000000        0.0000000000000000     
   1.4375000000000000       0.87500000000000000        0.0000000000000000     
   1.4687500000000000       0.87500000000000000        0.0000000000000000     
   1.5000000000000000       0.87500000000000000        0.0000000000000000     
   1.3750000000000000       0.90625000000000000        0.0000000000000000     
   1.4062500000000000       0.90625000000000000        0.0000000000000000     
   1.4375000000000000       0.90625000000000000        0.0000000000000000     
   1.4687500000000000       0.90625000000000000        0.0000000000000000     
   1.5000000000000000       0.90625000000000000        0.0000000000000000     
   1.3750000000000000       0.93750000000000000        0.0000000000000000     
   1.4062500000000000       0.93750000000000000        0.0000000000000000     
   1.4375000000000000       0.93750000000000000        0.0000000000000000     
   1.4687500000000000       0.93750000000000000        0.0000000000000000     
   1.5000000000000000       0.93750000000000000        0.0000000000000000     
   1.3750000000000000       0.96875000000000000        0.0000000000000000     
   1.4062500000000000       0.96875000000000000        0.0000000000000000     
   1.4375000000000000       0.96875000000000000        0.0000000000000000     
   1.4687500000000000       0.96875000000000000        0.0000000000000000     
   1.5000000000000000       0.96875000000000000        0.0000000000000000     
   1.3750000000000000        1.0000000000000000        0.0000000000000000     
   1.4062500000000000        1.0000000000000000        0.0000000000000000     
   1.4375000000000000        1.0000000000000000        0.0000000000000000     
   1.4687500000000000        1.0000000000000000        0.0000000000000000     
   1.5000000000000000        1.0000000000000000        0.0000000000000000     
 </DataArray>
 </Points>
 <Cells>
 <DataArray  type="Int32"  Name="connectivity"  format="ascii">
           0           1           6           5
           1           2           7           6
           2           3           8           7
           3           4           9           8
           5           6          11          10
           6           7          12          11
           7           8          13          12
           8           9          14          13
          10          11          16          15
          11          12          17          16
          12          13          18          17
          13          14          19          18
          15          16          21          20
          16          17          22          21
          17          18          23          22
          18          19          24          23
          25          26          31          30
          26          27          32          31
          27          28          33          32
          28          29          34          33
          30          31          36          35
          31          32          37          36
          32          33          38          37
          33          34          39          38
          35          36          41          40
          36          37          42          41
          37          38          43          42
          38          39          44          43
          40          41          46          45
          41          42          47          46
          42          43          48          47
          43          44          49          48
          50          51          56          55
          51          52          57          56
          52          53          58          57
          53          54          59          58
          55          56          61          60
          56          57          62          61
          57          58          63          62
          58          59          64          63
          60          61          66          65
          61          62          67          66
          62          63          68          67
          63          64          69          68
          65          66          71          70
          66          67          72          71
          67          68          73          72
          68          69          74          73
          75          76          81          80
          76          77          82          81
          77          78          83          82
          78          79          84          83
          80          81          86          85
          81          82          87          86
          82          83          88          87
          83          84          89          88
          85          86          91          90
          86          87          92          91
          87          88          93          92
          88          89          94          93
          90          91          96          95
          91          92          97          96
          92          93          98          97
          93          94          99          98
         100         101         106         105
         101         102         107         106
         102         103         108         107
         103         104         109         108
         105         106         111         110
         106         107         112         111
         107         108         113         112
         108         109         114         113
         110         111         116         115
         111         112         117         116
         112         113         118         117
         113         114         119         118
         115         116         121         120
         116         117         122         121
         117         118         123         122
         118         119         124         123
         125         126         131         130
         126         127         132         131
         127         128         133         132
         128         129         134         133
         130         131         136         135
         131         132         137         136
         132         133         138         137
         133         134         139         138
         135         136         141         140
         136         137         142         141
         137         138         143         142
         138         139         144         143
         140         141         146         145
         141         142         147         146
         142         143         148         147
         143         144         149         148
         150         151         156         155
         151         152         157         156
         152         153         158         157
         153         154         159         158
         155         156         161         160
         156         157         162         161
         157         158         163         162
         158         159         164         163
         160         161         166         165
         161         162         167         166
         162         163         168         167
         163         164         169         168
         165         166         171         170
         166         167         172         171
         167         168         173         172
         168         169         174         173
         175         176         181         180
         176         177         182         181
         177         178         183         182
         178         179         184         183
         180         181         186         185
         181         182         187         186
         182         183         188         187
         183         184         189         188
         185         186         191         190
         186         187         192         191
         187         188         193         192
         188         189         194         193
         190         191         196         195
         191         192         197         196
         192         193         198         197
         193         194         199         198
         200         201         206         205
         201         202         207         206
         202         203         208         207
         203         204         209         208
         205         206         211         210
         206         207         212         211
         207         208         213         212
         208         209         214         213
         210         211         216         215
         211         212         217         216
         212         213         218         217
         213         214         219         218
         215         216         221         220
         216         217         222         221
         217         218         223         222
         218         219         224         223
         225         226         231         230
         226         227         232         231
         227         228         233         232
         228         229         234         233
         230         231         236         235
         231         232         237         236
         232         233         238         237
         233         234         239         238
         235         236         241         240
         236         237         242         241
         237         238         243         242
         238         239         244         243
         240         241         246         245
         241         242         247         246
         242         243         248         247
         243         244         249         248
         250         251         256         255
         251         252         257         256
         252         253         258         257
         253         254         259         258
         255         256         261         260
         256         257         262         261
         257         258         263         262
         258         259         264         263
         260         261         266         265
         261         262         267         266
         262         263         268         267
         263         264         269         268
         265         266         271         270
         266         267         272         271
         267         268         273         272
         268         269         274         273
         275         276         281         280
         276         277         282         281
         277         278         283         282
         278         279         284         283
         280         281         286         285
         281         282         287         286
         282         283         288         287
         283         284         289         288
         285         286         291         290
         286         287         292         291
         287         288         293         292
         288         289         294         293
         290         291         296         295
         291         292         297         296
         292         293         298         297
         293         294         299         298
         300         301         306         305
         301         302         307         306
         302         303         308         307
         303         304         309         308
         305         306         311         310
         306         307         312         311
         307         308         313         312
         308         309         314         313
         310         311         316         315
         311         312         317         316
         312         313         318         317
         313         314         319         318
         315         316         321         320
         316         317         322         321
         317         318         323         322
         318         319         324         323
         325         326         331         330
         326         327         332         331
         327         328         333         332
         328         329         334         333
         330         331         336         335
         331         332         337         336
         332         333         338         337
         333         334         339         338
         335         336         341         340
         336         337         342         341
         337         338         343         342
         338         339         344         343
         340         341         346         345
         341         342         347         346
         342         343         348         347
         343         344         349         348
         350         351         356         355
         351         352         357         356
         352         353         358         357
         353         354         359         358
         355         356         361         360
         356         357         362         361
         357         358         363         362
         358         359         364         363
         360         361         366         365
         361         362         367         366
         362         363         368         367
         363         364         369         368
         365         366         371         370
         366         367         372         371
         367         368         373         372
         368         369         374         373
         375         376         381         380
         376         377         382         381
         377         378         383         382
         378         379         384         383
         380         381         386         385
         381         382         387         386
         382         383         388         387
         383         384         389         388
         385         386         391         390
         386         387         392         391
         387         388         393         392
         388         389         394         393
         390         391         396         395
         391         392         397         396
         392         393         398         397
         393         394         399         398
         400         401         406         405
         401         402         407         406
         402         403         408         407
         403         404         409         408
         405         406         411         410
         406         407         412         411
         407         408         413         412
         408         409         414         413
         410         411         416         415
         411         412         417         416
         412         413         418         417
         413         414         419         418
         415         416         421         420
         416         417         422         421
         417         418         423         422
         418         419         424         423
         425         426         431         430
         426         427         432         431
         427         428         433         432
         428         429         434         433
         430         431         436         435
         431         432         437         436
         432         433         438         437
         433         434         439         438
         435         436         441         440
         436         437         442         441
         437         438         443         442
         438         439         444         443
         440         441         446         445
         441         442         447         446
         442         443         448         447
         443         444         449         448
         450         451         456         455
         451         452         457         456
         452         453         458         457
         453         454         459         458
         455         456         461         460
         456         457         462         461
         457         458         463         462
         458         459         464         463
         460         461         466         465
         461         462         467         466
         462         463         468         467
         463         464         469         468
         465         466         471         470
         466         467         472         471
         467         468         473         472
         468         469         474         473
         475         476         481         480
         476         477         482         481
         477         478         483         482
         478         479         484         483
         480         481         486         485
         481         482         487         486
         482         483         488         487
         483         484         489         488
         485         486         491         490
         486         487         492         491
         487         488         493         492
         488         489         494         493
         490         491         496         495
         491         492         497         496
         492         493         498         497
         493         494         499         498
         500         501         506         505
         501         502         507         506
         502         503         508         507
         503         504         509         508
         505         506         511         510
         506         507         512         511
         507         508         513         512
         508         509         514         513
         510         511         516         515
         511         512         517         516
         512         513         518         517
         513         514         519         518
         515         516         521         520
         516         517         522         521
         517         518         523         522
         518         519         524         523
         525         526         531         530
         526         527         532         531
         527         528         533         532
         528         529         534         533
         530         531         536         535
         531         532         537         536
         532         533         538         537
         533         534         539         538
         535         536         541         540
         536         537         542         541
         537         538         543         542
         538         539         544         543
         540         541         546         545
         541         542         547         546
         542         543         548         547
         543         544         549         548
         550         551         556         555
         551         552         557         556
         552         553         558         557
         553         554         559         558
         555         556         561         560
         556         557         562         561
         557         558         563         562
         558         559         564         563
         560         561         566         565
         561         562         567         566
         562         563         568         567
         563         564         569         568
         565         566         571         570
         566         567         572         571
         567         568         573         572
         568         569         574         573
         575         576         581         580
         576         577         582         581
         577         578         583         582
         578         579         584         583
         580         581         586         585
         581         582         587         586
         582         583         588         587
         583         584         589         588
         585         586         591         590
         586         587         592         591
         587         588         593         592
         588         589         594         593
         590         591         596         595
         591         592         597         596
         592         593         598         597
         593         594         599         598
         600         601         606         605
         601         602         607         606
         602         603         608         607
         603         604         609         608
         605         606         611         610
         606         607         612         611
         607         608         613         612
         608         609         614         613
         610         611         616         615
         611         612         617         616
         612         613         618         617
         613         614         619         618
         615         616         621         620
         616         617         622         621
         617         618         623         622
         618         619         624         623
         625         626         631         630
         626         627         632         631
         627         628         633         632
         628         629         634         633
         630         631         636         635
         631         632         637         636
         632         633         638         637
         633         634         639         638
         635         636         641         640
         636         637         642         641
         637         638         643         642
         638         639         644         643
         640         641         646         645
         641         642         647         646
         642         643         648         647
         643         644         649         648
         650         651         656         655
         651         652         657         656
         652         653         658         657
         653         654         659         658
         655         656         661         660
         656         657         662         661
         657         658         663         662
         658         659         664         663
         660         661         666         665
         661         662         667         666
         662         663         668         667
         663         664         669         668
         665         666         671         670
         666         667         672         671
         667         668         673         672
         668         669         674         673
         675         676         681         680
         676         677         682         681
         677         678         683         682
         678         679         684         683
         680         681         686         685
         681         682         687         686
         682         683         688         687
         683         684         689         688
         685         686         691         690
         686         687         692         691
         687         688         693         692
         688         689         694         693
         690         691         696         695
         691         692         697         696
         692         693         698         697
         693         694         699         698
         700         701         706         705
         701         702         707         706
         702         703         708         707
         703         704         709         708
         705         706         711         710
         706         707         712         711
         707         708         713         712
         708         709         714         713
         710         711         716         715
         711         712         717         716
         712         713         718         717
         713         714         719         718
         715         716         721         720
         716         717         722         721
         717         718         723         722
         718         719         724         723
         725         726         731         730
         726         727         732         731
         727         728         733         732
         728         729         734         733
         730         731         736         735
         731         732         737         736
         732         733         738         737
         733         734         739         738
         735         736         741         740
         736         737         742         741
         737         738         743         742
         738         739         744         743
         740         741         746         745
         741         742         747         746
         742         743         748         747
         743         744         749         748
         750         751         756         755
         751         752         757         756
         752         753         758         757
         753         754         759         758
         755         756         761         760
         756         757         762         761
         757         758         763         762
         758         759         764         763
         760         761         766         765
         761         762         767         766
         762         763         768         767
         763         764         769         768
         765         766         771         770
         766         767         772         771
         767         768         773         772
         768         769         774         773
         775         776         781         780
         776         777         782         781
         777         778         783         782
         778         779         784         783
         780         781         786         785
         781         782         787         786
         782         783         788         787
         783         784         789         788
         785         786         791         790
         786         787         792         791
         787         788         793         792
         788         789         794         793
         790         791         796         795
         791         792         797         796
         792         793         798         797
         793         794         799         798
         800         801         806         805
         801         802         807         806
         802         803         808         807
         803         804         809         808
         805         806         811         810
         806         807         812         811
         807         808         813         812
         808         809         814         813
         810         811         816         815
         811         812         817         816
         812         813         818         817
         813         814         819         818
         815         816         821         820
         816         817         822         821
         817         818         823         822
         818         819         824         823
         825         826         831         830
         826         827         832         831
         827         828         833         832
         828         829         834         833
         830         831         836         835
         831         832         837         836
         832         833         838         837
         833         834         839         838
         835         836         841         840
         836         837         842         841
         837         838         843         842
         838         839         844         843
         840         841         846         845
         841         842         847         846
         842         843         848         847
         843         844         849         848
         850         851         856         855
         851         852         857         856
         852         853         858         857
         853         854         859         858
         855         856         861         860
         856         857         862         861
         857         858         863         862
         858         859         864         863
         860         861         866         865
         861         862         867         866
         862         863         868         867
         863         864         869         868
         865         866         871         870
         866         867         872         871
         867         868         873         872
         868         869         874         873
         875         876         881         880
         876         877         882         881
         877         878         883         882
         878         879         884         883
         880         881         886         885
         881         882         887         886
         882         883         888         887
         883         884         889         888
         885         886         891         890
         886         887         892         891
         887         888         893         892
         888         889         894         893
         890         891         896         895
         891         892         897         896
         892         893         898         897
         893         894         899         898
         900         901         906         905
         901         902         907         906
         902         903         908         907
         903         904         909         908
         905         906         911         910
         906         907         912         911
         907         908         913         912
         908         909         914         913
         910         911         916         915
         911         912         917         916
         912         913         918         917
         913         914         919         918
         915         916         921         920
         916         917         922         921
         917         918         923         922
         918         919         924         923
         925         926         931         930
         926         927         932         931
         927         928         933         932
         928         929         934         933
         930         931         936         935
         931         932         937         936
         932         933         938         937
         933         934         939         938
         935         936         941         940
         936         937         942         941
         937         938         943         942
         938         939         944         943
         940         941         946         945
         941         942         947         946
         942         943         948         947
         943         944         949         948
         950         951         956         955
         951         952         957         956
         952         953         958         957
         953         954         959         958
         955         956         961         960
         956         957         962         961
         957         958         963         962
         958         959         964         963
         960         961         966         965
         961         962         967         966
         962         963         968         967
         963         964         969         968
         965         966         971         970
         966         967         972         971
         967         968         973         972
         968         969         974         973
         975         976         981         980
         976         977         982         981
         977         978         983         982
         978         979         984         983
         980         981         986         985
         981         982         987         986
         982         983         988         987
         983         984         989         988
         985         986         991         990
         986         987         992         991
         987         988         993         992
         988         989         994         993
         990         991         996         995
         991         992         997         996
         992         993         998         997
         993         994         999         998
        1000        1001        1006        1005
        1001        1002        1007        1006
        1002        1003        1008        1007
        1003        1004        1009        1008
        1005        1006        1011        1010
        1006        1007        1012        1011
        1007        1008        1013        1012
        1008        1009        1014        1013
        1010        1011        1016        1015
        1011        1012        1017        1016
        1012        1013        1018        1017
        1013        1014        1019        1018
        1015        1016        1021        1020
        1016        1017        1022        1021
        1017        1018        1023        1022
        1018        1019        1024        1023
        1025        1026        1031        1030
        1026        1027        1032        1031
        1027        1028        1033        1032
        1028        1029        1034        1033
        1030        1031        1036        1035
        1031        1032        1037        1036
        1032        1033        1038        1037
        1033        1034        1039        1038
        1035        1036        1041        1040
        1036        1037        1042        1041
        1037        1038        1043        1042
        1038        1039        1044        1043
        1040        1041        1046        1045
        1041        1042        1047        1046
        1042        1043        1048        1047
        1043        1044        1049        1048
        1050        1051        1056        1055
        1051        1052        1057        1056
        1052        1053        1058        1057
        1053        1054        1059        1058
        1055        1056        1061        1060
        1056        1057        1062        1061
        1057        1058        1063        1062
        1058        1059        1064        1063
        1060        1061        1066        1065
        1061        1062        1067        1066
        1062        1063        1068        1067
        1063        1064        1069        1068
        1065        1066        1071        1070
        1066        1067        1072        1071
        1067        1068        1073        1072
        1068        1069        1074        1073
        1075        1076        1081        1080
        1076        1077        1082        1081
        1077        1078        1083        1082
        1078        1079        1084        1083
        1080        1081        1086        1085
        1081        1082        1087        1086
        1082        1083        1088        1087
        1083        1084        1089        1088
        1085        1086        1091        1090
        1086        1087        1092        1091
        1087        1088        1093        1092
        1088        1089        1094        1093
        1090        1091        1096        1095
        1091        1092        1097        1096
        1092        1093        1098        1097
        1093        1094        1099        1098
        1100        1101        1106        1105
        1101        1102        1107        1106
        1102        1103        1108        1107
        1103        1104        1109        1108
        1105        1106        1111        1110
        1106        1107        1112        1111
        1107        1108        1113        1112
        1108        1109        1114        1113
        1110        1111        1116        1115
        1111        1112        1117        1116
        1112        1113        1118        1117
        1113        1114        1119        1118
        1115        1116        1121        1120
        1116        1117        1122        1121
        1117        1118        1123        1122
        1118        1119        1124        1123
        1125        1126        1131        1130
        1126        1127        1132        1131
        1127        1128        1133        1132
        1128        1129        1134        1133
        1130        1131        1136        1135
        1131        1132        1137        1136
        1132        1133        1138        1137
        1133        1134        1139        1138
        1135        1136        1141        1140
        1136        1137        1142        1141
        1137        1138        1143        1142
        1138        1139        1144        1143
        1140        1141        1146        1145
        1141        1142        1147        1146
        1142        1143        1148        1147
        1143        1144        1149        1148
        1150        1151        1156        1155
        1151        1152        1157        1156
        1152        1153        1158        1157
        1153        1154        1159        1158
        1155        1156        1161        1160
        1156        1157        1162        1161
        1157        1158        1163        1162
        1158        1159        1164        1163
        1160        1161        1166        1165
        1161        1162        1167        1166
        1162        1163        1168        1167
        1163        1164        1169        1168
        1165        1166        1171        1170
        1166        1167        1172        1171
        1167        1168        1173        1172
        1168        1169        1174        1173
        1175        1176        1181        1180
        1176        1177        1182        1181
        1177        1178        1183        1182
        1178        1179        1184        1183
        1180        1181        1186        1185
        1181        1182        1187        1186
        1182        1183        1188        1187
        1183        1184        1189        1188
        1185        1186        1191        1190
        1186        1187        1192        1191
        1187        1188        1193        1192
        1188        1189        1194        1193
        1190        1191        1196        1195
        1191        1192        1197        1196
        1192        1193        1198        1197
        1193        1194        1199        1198
        1200        1201        1206        1205
        1201        1202        1207        1206
        1202        1203        1208        1207
        1203        1204        1209        1208
        1205        1206        1211        1210
        1206        1207        1212        1211
        1207        1208        1213        1212
        1208        1209        1214        1213
        1210        1211        1216        1215
        1211        1212        1217        1216
        1212        1213        1218        1217
        1213        1214        1219        1218
        1215        1216        1221        1220
        1216        1217        1222        1221
        1217        1218        1223        1222
        1218        1219        1224        1223
        1225        1226        1231        1230
        1226        1227        1232        1231
        1227        1228        1233        1232
        1228        1229        1234        1233
        1230        1231        1236        1235
        1231        1232        1237        1236
        1232        1233        1238        1237
        1233        1234        1239        1238
        1235        1236        1241        1240
        1236        1237        1242        1241
        1237        1238        1243        1242
        1238        1239        1244        1243
        1240        1241        1246        1245
        1241        1242        1247        1246
        1242        1243        1248        1247
        1243        1244        1249        1248
        1250        1251        1256        1255
        1251        1252        1257        1256
        1252        1253        1258        1257
        1253        1254        1259        1258
        1255        1256        1261        1260
        1256        1257        1262        1261
        1257        1258        1263        1262
        1258        1259        1264        1263
        1260        1261        1266        1265
        1261        1262        1267        1266
        1262        1263        1268        1267
        1263        1264        1269        1268
        1265        1266        1271        1270
        1266        1267        1272        1271
        1267        1268        1273        1272
        1268        1269        1274        1273
        1275        1276        1281        1280
        1276        1277        1282        1281
        1277        1278        1283        1282
        1278        1279        1284        1283
        1280        1281        1286        1285
        1281        1282        1287        1286
        1282        1283        1288        1287
        1283        1284        1289        1288
        1285        1286        1291        1290
        1286        1287        1292        1291
        1287        1288        1293        1292
        1288        1289        1294        1293
        1290        1291        1296        1295
        1291        1292        1297        1296
        1292        1293        1298        1297
        1293        1294        1299        1298
        1300        1301        1306        1305
        1301        1302        1307        1306
        1302        1303        1308        1307
        1303        1304        1309        1308
        1305        1306        1311        1310
        1306        1307        1312        1311
        1307        1308        1313        1312
        1308        1309        1314        1313
        1310        1311        1316        1315
        1311        1312        1317        1316
        1312        1313        1318        1317
        1313        1314        1319        1318
        1315        1316        1321        1320
        1316        1317        1322        1321
        1317        1318        1323        1322
        1318        1319        1324        1323
        1325        1326        1331        1330
        1326        1327        1332        1331
        1327        1328        1333        1332
        1328        1329        1334        1333
        1330        1331        1336        1335
        1331        1332        1337        1336
        1332        1333        1338        1337
        1333        1334        1339        1338
        1335        1336        1341        1340
        1336        1337        1342        1341
        1337        1338        1343        1342
        1338        1339        1344        1343
        1340        1341        1346        1345
        1341        1342        1347        1346
        1342        1343        1348        1347
        1343        1344        1349        1348
        1350        1351        1356        1355
        1351        1352        1357        1356
        1352        1353        1358        1357
        1353        1354        1359        1358
        1355        1356        1361        1360
        1356        1357        1362        1361
        1357        1358        1363        1362
        1358        1359        1364        1363
        1360        1361        1366        1365
        1361        1362        1367        1366
        1362        1363        1368        1367
        1363        1364        1369        1368
        1365        1366        1371        1370
        1366        1367        1372        1371
        1367        1368        1373        1372
        1368        1369        1374        1373
        1375        1376        1381        1380
        1376        1377        1382        1381
        1377        1378        1383        1382
        1378        1379        1384        1383
        1380        1381        1386        1385
        1381        1382        1387        1386
        1382        1383        1388        1387
        1383        1384        1389        1388
        1385        1386        1391        1390
        1386        1387        1392        1391
        1387        1388        1393        1392
        1388        1389        1394        1393
        1390        1391        1396        1395
        1391        1392        1397        1396
        1392        1393        1398        1397
        1393        1394        1399        1398
        1400        1401        1406        1405
        1401        1402        1407        1406
        1402        1403        1408        1407
        1403        1404        1409        1408
        1405        1406        1411        1410
        1406        1407        1412        1411
        1407        1408        1413        1412
        1408        1409        1414        1413
        1410        1411        1416        1415
        1411        1412        1417        1416
        1412        1413        1418        1417
        1413        1414        1419        1418
        1415        1416        1421        1420
        1416        1417        1422        1421
        1417        1418        1423        1422
        1418        1419        1424        1423
        1425        1426        1431        1430
        1426        1427        1432        1431
        1427        1428        1433        1432
        1428        1429        1434        1433
        1430        1431        1436        1435
        1431        1432        1437        1436
        1432        1433        1438        1437
        1433        1434        1439        1438
        1435        1436        1441        1440
        1436        1437        1442        1441
        1437        1438        1443        1442
        1438        1439        1444        1443
        1440        1441        1446        1445
        1441        1442        1447        1446
        1442        1443        1448        1447
        1443        1444        1449        1448
        1450        1451        1456        1455
        1451        1452        1457        1456
        1452        1453        1458        1457
        1453        1454        1459        1458
        1455        1456        1461        1460
        1456        1457        1462        1461
        1457        1458        1463        1462
        1458        1459        1464        1463
        1460        1461        1466        1465
        1461        1462        1467        1466
        1462        1463        1468        1467
        1463        1464        1469        1468
        1465        1466        1471        1470
        1466        1467        1472        1471
        1467        1468        1473        1472
        1468        1469        1474        1473
        1475        1476        1481        1480
        1476        1477        1482        1481
        1477        1478        1483        1482
        1478        1479        1484        1483
        1480        1481        1486        1485
        1481        1482        1487        1486
        1482        1483        1488        1487
        1483        1484        1489        1488
        1485        1486        1491        1490
        1486        1487        1492        1491
        1487        1488        1493        1492
        1488        1489        1494        1493
        1490        1491        1496        1495
        1491        1492        1497        1496
        1492        1493        1498        1497
        1493        1494        1499        1498
        1500        1501        1506        1505
        1501        1502        1507        1506
        1502        1503        1508        1507
        1503        1504        1509        1508
        1505        1506        1511        1510
        1506        1507        1512        1511
        1507        1508        1513        1512
        1508        1509        1514        1513
        1510        1511        1516        1515
        1511        1512        1517        1516
        1512        1513        1518        1517
        1513        1514        1519        1518
        1515        1516        1521        1520
        1516        1517        1522        1521
        1517        1518        1523        1522
        1518        1519        1524        1523
        1525        1526        1531        1530
        1526        1527        1532        1531
        1527        1528        1533        1532
        1528        1529        1534        1533
        1530        1531        1536        1535
        1531        1532        1537        1536
        1532        1533        1538        1537
        1533        1534        1539        1538
        1535        1536        1541        1540
        1536        1537        1542        1541
        1537        1538        1543        1542
        1538        1539        1544        1543
        1540        1541        1546        1545
        1541        1542        1547        1546
        1542        1543        1548        1547
        1543        1544        1549        1548
        1550        1551        1556        1555
        1551        1552        1557        1556
        1552        1553        1558        1557
        1553        1554        1559        1558
        1555        1556        1561        1560
        1556        1557        1562        1561
        1557        1558        1563        1562
        1558        1559        1564        1563
        1560        1561        1566        1565
        1561        1562        1567        1566
        1562        1563        1568        1567
        1563        1564        1569        1568
        1565        1566        1571        1570
        1566        1567        1572        1571
        1567        1568        1573        1572
        1568        1569        1574        1573
        1575        1576        1581        1580
        1576        1577        1582        1581
        1577        1578        1583        1582
        1578        1579        1584        1583
        1580        1581        1586        1585
        1581        1582        1587        1586
        1582        1583        1588        1587
        1583        1584        1589        1588
        1585        1586        1591        1590
        1586        1587        1592        1591
        1587        1588        1593        1592
        1588        1589        1594        1593
        1590        1591        1596        1595
        1591        1592        1597        1596
        1592        1593        1598        1597
        1593        1594        1599        1598
 </DataArray>
 <DataArray  type="Int32"  Name="offsets"  format="ascii"> 
           4
           8
          12
          16
          20
          24
          28
          32
          36
          40
          44
          48
          52
          56
          60
          64
          68
          72
          76
          80
          84
          88
          92
          96
         100
         104
         108
         112
         116
         120
         124
         128
         132
         136
         140
         144
         148
         152
         156
         160
         164
         168
         172
         176
         180
         184
         188
         192
         196
         200
         204
         208
         212
         216
         220
         224
         228
         232
         236
         240
         244
         248
         252
         256
         260
         264
         268
         272
         276
         280
         284
         288
         292
         296
         300
         304
         308
         312
         316
         320
         324
         328
         332
         336
         340
         344
         348
         352
         356
         360
         364
         368
         372
         376
         380
         384
         388
         392
         396
         400
         404
         408
         412
         416
         420
         424
         428
         432
         436
         440
         444
         448
         452
         456
         460
         464
         468
         472
         476
         480
         484
         488
         492
         496
         500
         504
         508
         512
         516
         520
         524
         528
         532
         536
         540
         544
         548
         552
         556
         560
         564
         568
         572
         576
         580
         584
         588
         592
         596
         600
         604
         608
         612
         616
         620
         624
         628
         632
         636
         640
         644
         648
         652
         656
         660
         664
         668
         672
         676
         680
         684
         688
         692
         696
         700
         704
         708
         712
         716
         720
         724
         728
         732
         736
         740
         744
         748
         752
         756
         760
         764
         768
         772
         776
         780
         784
         788
         792
         796
         800
         804
         808
         812
         816
         820
         824
         828
         832
         836
         840
         844
         848
         852
         856
         860
         864
         868
         872
         876
         880
         884
         888
         892
         896
         900
         904
         908
         912
         916
         920
         924
         928
         932
         936
         940
         944
         948
         952
         956
         960
         964
         968
         972
         976
         980
         984
         988
         992
         996
        1000
        1004
        1008
        1012
        1016
        1020
        1024
        1028
        1032
        1036
        1040
        1044
        1048
        1052
        1056
        1060
        1064
        1068
        1072
        1076
        1080
        1084
        1088
        1092
        1096
        1100
        1104
        1108
        1112
        1116
        1120
        1124
        1128
        1132
        1136
        1140
        1144
        1148
        1152
        1156
        1160
        1164
        1168
        1172
        1176
        1180
        1184
        1188
        1192
        1196
        1200
        1204
        1208
        1212
        1216
        1220
        1224
        1228
        1232
        1236
        1240
        1244
        1248
        1252
        1256
        1260
        1264
        1268
        1272
        1276
        1280
        1284
        1288
        1292
        1296
        1300
        1304
        1308
        1312
        1316
        1320
        1324
        1328
        1332
        1336
        1340
        1344
        1348
        1352
        1356
        1360
        1364
        1368
        1372
        1376
        1380
        1384
        1388
        1392
        1396
        1400
        1404
        1408
        1412
        1416
        1420
        1424
        1428
        1432
        1436
        1440
        1444
        1448
        1452
        1456
        1460
        1464
        1468
        1472
        1476
        1480
        1484
        1488
        1492
        1496
        1500
        1504
        1508
        1512
        1516
        1520
        1524
        1528
        1532
        1536
        1540
        1544
        1548
        1552
        1556
        1560
        1564
        1568
        1572
        1576
        1580
        1584
        1588
        1592
        1596
        1600
        1604
        1608
        1612
        1616
        1620
        1624
        1628
        1632
        1636
        1640
        1644
        1648
        1652
        1656
        1660
        1664
        1668
        1672
        1676
        1680
        1684
        1688
        1692
        1696
        1700
        1704
        1708
        1712
        1716
        1720
        1724
        1728
        1732
        1736
        1740
        1744
        1748
        1752
        1756
        1760
        1764
        1768
        1772
        1776
        1780
        1784
        1788
        1792
        1796
        1800
        1804
        1808
        1812
        1816
        1820
        1824
        1828
        1832
        1836
        1840
        1844
        1848
        1852
        1856
        1860
        1864
        1868
        1872
        1876
        1880
        1884
        1888
        1892
        1896
        1900
        1904
        1908
        1912
        1916
        1920
        1924
        1928
        1932
        1936
        1940
        1944
        1948
        1952
        1956
        1960
        1964
        1968
        1972
        1976
        1980
        1984
        1988
        1992
        1996
        2000
        2004
        2008
        2012
        2016
        2020
        2024
        2028
        2032
        2036
        2040
        2044
        2048
        2052
        2056
        2060
        2064
        2068
        2072
        2076
        2080
        2084
        2088
        2092
        2096
        2100
        2104
        2108
        2112
        2116
        2120
        2124
        2128
        2132
        2136
        2140
        2144
        2148
        2152
        2156
        2160
        2164
        2168
        2172
        2176
        2180
        2184
        2188
        2192
        2196
        2200
        2204
        2208
        2212
        2216
        2220
        2224
        2228
        2232
        2236
        2240
        2244
        2248
        2252
        2256
        2260
        2264
        2268
        2272
        2276
        2280
        2284
        2288
        2292
        2296
        2300
        2304
        2308
        2312
        2316
        2320
        2324
        2328
        2332
        2336
        2340
        2344
        2348
        2352
        2356
        2360
        2364
        2368
        2372
        2376
        2380
        2384
        2388
        2392
        2396
        2400
        2404
        2408
        2412
        2416
        2420
        2424
        2428
        2432
        2436
        2440
        2444
        2448
        2452
        2456
        2460
        2464
        2468
        2472
        2476
        2480
        2484
        2488
        2492
        2496
        2500
        2504
        2508
        2512
        2516
        2520
        2524
        2528
        2532
        2536
        2540
        2544
        2548
        2552
        2556
        2560
        2564
        2568
        2572
        2576
        2580
        2584
        2588
        2592
        2596
        2600
        2604
        2608
        2612
        2616
        2620
        2624
        2628
        2632
        2636
        2640
        2644
        2648
        2652
        2656
        2660
        2664
        2668
        2672
        2676
        2680
        2684
        2688
        2692
        2696
        2700
        2704
        2708
        2712
        2716
        2720
        2724
        2728
        2732
        2736
        2740
        2744
        2748
        2752
        2756
        2760
        2764
        2768
        2772
        2776
        2780
        2784
        2788
        2792
        2796
        2800
        2804
        2808
        2812
        2816
        2820
        2824
        2828
        2832
        2836
        2840
        2844
        2848
        2852
        2856
        2860
        2864
        2868
        2872
        2876
        2880
        2884
        2888
        2892
        2896
        2900
        2904
        2908
        2912
        2916
        2920
        2924
        2928
        2932
        2936
        2940
        2944
        2948
        2952
        2956
        2960
        2964
        2968
        2972
        2976
        2980
        2984
        2988
        2992
        2996
        3000
        3004
        3008
        3012
        3016
        3020
        3024
        3028
        3032
        3036
        3040
        3044
        3048
        3052
        3056
        3060
        3064
        3068
        3072
        3076
        3080
        3084
        3088
        3092
        3096
        3100
        3104
        3108
        3112
        3116
        3120
        3124
        3128
        3132
        3136
        3140
        3144
        3148
        3152
        3156
        3160
        3164
        3168
        3172
        3176
        3180
        3184
        3188
        3192
        3196
        3200
        3204
        3208
        3212
        3216
        3220
        3224
        3228
        3232
        3236
        3240
        3244
        3248
        3252
        3256
        3260
        3264
        3268
        3272
        3276
        3280
        3284
        3288
        3292
        3296
        3300
        3304
        3308
        3312
        3316
        3320
        3324
        3328
        3332
        3336
        3340
        3344
        3348
        3352
        3356
        3360
        3364
        3368
        3372
        3376
        3380
        3384
        3388
        3392
        3396
        3400
        3404
        3408
        3412
        3416
        3420
        3424
        3428
        3432
        3436
        3440
        3444
        3448
        3452
        3456
        3460
        3464
        3468
        3472
        3476
        3480
        3484
        3488
        3492
        3496
        3500
        3504
        3508
        3512
        3516
        3520
        3524
        3528
        3532
        3536
        3540
        3544
        3548
        3552
        3556
        3560
        3564
        3568
        3572
        3576
        3580
        3584
        3588
        3592
        3596
        3600
        3604
        3608
        3612
        3616
        3620
        3624
        3628
        3632
        3636
        3640
        3644
        3648
        3652
        3656
        3660
        3664
        3668
        3672
        3676
        3680
        3684
        3688
        3692
        3696
        3700
        3704
        3708
        3712
        3716
        3720
        3724
        3728
        3732
        3736
        3740
        3744
        3748
        3752
        3756
        3760
        3764
        3768
        3772
        3776
        3780
        3784
        3788
        3792
        3796
        3800
        3804
        3808
        3812
        3816
        3820
        3824
        3828
        3832
        3836
        3840
        3844
        3848
        3852
        3856
        3860
        3864
        3868
        3872
        3876
        3880
        3884
        3888
        3892
        3896
        3900
        3904
        3908
        3912
        3916
        3920
        3924
        3928
        3932
        3936
        3940
        3944
        3948
        3952
        3956
        3960
        3964
        3968
        3972
        3976
        3980
        3984
        3988
        3992
        3996
        4000
        4004
        4008
        4012
        4016
        4020
        4024
        4028
        4032
        4036
        4040
        4044
        4048
        4052
        4056
        4060
        4064
        4068
        4072
        4076
        4080
        4084
        4088
        4092
        4096
 </DataArray>
 <DataArray  type="UInt8"  Name="types"  format="ascii">
 9
 9
 9
 9
 9
 9
 9
 9
 9
 9
 9
 9
 9
 9
 9
 9
 9
 9
 9
 9
 9
 9
 9
 9
 9
 9
 9
 9
 9
 9
 9
 9
 9
 9
 9
 9
 9
 9
 9
 9
 9
 9
 9
 9
 9
 9
 9
 9
 9
 9
 9
 9
 9
 9
 9
 9
 9
 9
 9
 9
 9
 9
 9
 9
 9
 9
 9
 9
 9
 9
 9
 9
 9
 9
 9
 9
 9
 9
 9
 9
 9
 9
 9
 9
 9
 9
 9
 9
 9
 9
 9
 9
 9
 9
 9
 9
 9
 9
 9
 9
 9
 9
 9
 9
 9
 9
 9
 9
 9
 9
 9
 9
 9
 9
 9
 9
 9
 9
 9
 9
 9
 9
 9
 9
 9
 9
 9
 9
 9
 9
 9
 9
 9
 9
 9
 9
 9
 9
 9
 9
 9
 9
 9
 9
 9
 9
 9
 9
 9
 9
 9
 9
 9
 9
 9
 9
 9
 9
 9
 9
 9
 9
 9
 9
 9
 9
 9
 9
 9
 9
 9
 9
 9
 9
 9
 9
 9
 9
 9
 9
 9
 9
 9
 9
 9
 9
 9
 9
 9
 9
 9
 9
 9
 9
 9
 9
 9
 9
 9
 9
 9
 9
 9
 9
 9
 9
 9
 9
 9
 9
 9
 9
 9
 9
 9
 9
 9
 9
 9
 9
 9
 9
 9
 9
 9
 9
 9
 9
 9
 9
 9
 9
 9
 9
 9
 9
 9
 9
 9
 9
 9
 9
 9
 9
 9
 9
 9
 9
 9
 9
 9
 9
 9
 9
 9
 9
 9
 9
 9
 9
 9
 9
 9
 9
 9
 9
 9
 9
 9
 9
 9
 9
 9
 9
 9
 9
 9
 9
 9
 9
 9
 9
 9
 9
 9
 9
 9
 9
 9
 9
 9
 9
 9
 9
 9
 9
 9
 9
 9
 9
 9
 9
 9
 9
 9
 9
 9
 9
 9
 9
 9
 9
 9
 9
 9
 9
 9
 9
 9
 9
 9
 9
 9
 9
 9
 9
 9
 9
 9
 9
 9
 9
 9
 9
 9
 9
 9
 9
 9
 9
 9
 9
 9
 9
 9
 9
 9
 9
 9
 9
 9
 9
 9
 9
 9
 9
 9
 9
 9
 9
 9
 9
 9
 9
 9
 9
 9
 9
 9
 9
 9
 9
 9
 9
 9
 9
 9
 9
 9
 9
 9
 9
 9
 9
 9
 9
 9
 9
 9
 9
 9
 9
 9
 9
 9
 9
 9
 9
 9
 9
 9
 9
 9
 9
 9
 9
 9
 9
 9
 9
 9
 9
 9
 9
 9
 9
 9
 9
 9
 9
 9
 9
 9
 9
 9
 9
 9
 9
 9
 9
 9
 9
 9
 9
 9
 9
 9
 9
 9
 9
 9
 9
 9
 9
 9
 9
 9
 9
 9
 9
 9
 9
 9
 9
 9
 9
 9
 9
 9
 9
 9
 9
 9
 9
 9
 9
 9
 9
 9
 9
 9
 9
 9
 9
 9
 9
 9
 9
 9
 9
 9
 9
 9
 9
 9
 9
 9
 9
 9
 9
 9
 9
 9
 9
 9
 9
 9
 9
 9
 9
 9
 9
 9
 9
 9
 9
 9
 9
 9
 9
 9
 9
 9
 9
 9
 9
 9
 9
 9
 9
 9
 9
 9
 9
 9
 9
 9
 9
 9
 9
 9
 9
 9
 9
 9
 9
 9
 9
 9
 9
 9
 9
 9
 9
 9
 9
 9
 9
 9
 9
 9
 9
 9
 9
 9
 9
 9
 9
 9
 9
 9
 9
 9
 9
 9
 9
 9
 9
 9
 9
 9
 9
 9
 9
 9
 9
 9
 9
 9
 9
 9
 9
 9
 9
 9
 9
 9
 9
 9
 9
 9
 9
 9
 9
 9
 9
 9
 9
 9
 9
 9
 9
 9
 9
 9
 9
 9
 9
 9
 9
 9
 9
 9
 9
 9
 9
 9
 9
 9
 9
 9
 9
 9
 9
 9
 9
 9
 9
 9
 9
 9
 9
 9
 9
 9
 9
 9
 9
 9
 9
 9
 9
 9
 9
 9
 9
 9
 9
 9
 9
 9
 9
 9
 9
 9
 9
 9
 9
 9
 9
 9
 9
 9
 9
 9
 9
 9
 9
 9
 9
 9
 9
 9
 9
 9
 9
 9
 9
 9
 9
 9
 9
 9
 9
 9
 9
 9
 9
 9
 9
 9
 9
 9
 9
 9
 9
 9
 9
 9
 9
 9
 9
 9
 9
 9
 9
 9
 9
 9
 9
 9
 9
 9
 9
 9
 9
 9
 9
 9
 9
 9
 9
 9
 9
 9
 9
 9
 9
 9
 9
 9
 9
 9
 9
 9
 9
 9
 9
 9
 9
 9
 9
 9
 9
 9
 9
 9
 9
 9
 9
 9
 9
 9
 9
 9
 9
 9
 9
 9
 9
 9
 9
 9
 9
 9
 9
 9
 9
 9
 9
 9
 9
 9
 9
 9
 9
 9
 9
 9
 9
 9
 9
 9
 9
 9
 9
 9
 9
 9
 9
 9
 9
 9
 9
 9
 9
 9
 9
 9
 9
 9
 9
 9
 9
 9
 9
 9
 9
 9
 9
 9
 9
 9
 9
 9
 9
 9
 9
 9
 9
 9
 9
 9
 9
 9
 9
 9
 9
 9
 9
 9
 9
 9
 9
 9
 9
 9
 9
 9
 9
 9
 9
 9
 9
 9
 9
 9
 9
 9
 9
 9
 9
 9
 9
 9
 9
 9
 9
 9
 9
 9
 9
 9
 9
 9
 9
 9
 9
 9
 9
 9
 9
 9
 9
 9
 9
 9
 9
 9
 9
 9
 9
 9
 9
 9
 9
 9
 9
 9
 9
 9
 9
 9
 9
 9
 9
 9
 9
 9
 9
 9
 9
 9
 9
 9
 9
 9
 9
 9
 9
 9
 9
 9
 9
 9
 9
 9
 9
 9
 9
 9
 9
 9
 9
 9
 9
 9
 9
 9
 9
 9
 9
 9
 9
 9
 9
 9
 9
 9
 9
 9
 9
 9
 9
 9
 9
 9
 9
 9
 9
 9
 9
 9
 9
 9
 9
 9
 9
 9
 9
 9
 9
 9
 9
 9
 9
 9
 9
 9
 9
 9
 9
 9
 9
 9
 9
 9
 9
 9
 9
 9
 9
 9
 9
 9
 9
 9
 9
 9
 9
 9
 9
 9
 9
 9
 9
 9
 9
 9
 9
 9
 9
 9
 9
 9
 9
 9
 9
 9
 9
 9
 9
 9
 9
 9
 9
 9
 9
 9
 9
 9
 9
 9
 9
 </DataArray>
 </Cells> 
 <PointData>
 <DataArray  type="Float64" Name="disp" NumberOfComponents="3" format="ascii">
   6.5229840068168218E-002   6.2789754894424385E-002   0.0000000000000000     
   6.8329569479591526E-002   6.8177148613182484E-002   0.0000000000000000     
   7.1319243422433912E-002   7.3743416603358633E-002   0.0000000000000000     
   7.4198861896695334E-002   7.9488558864952791E-002   0.0000000000000000     
   7.6968424902375848E-002   8.5412575397965027E-002   0.0000000000000000     
   6.0141893765609342E-002   6.1887384866722052E-002   0.0000000000000000     
   6.3029306582346817E-002   6.7300325092728014E-002   0.0000000000000000     
   6.5817952379505301E-002   7.2893241151666260E-002   0.0000000000000000     
   6.8507831157084809E-002   7.8666133043536784E-002   0.0000000000000000     
   7.1098942915085353E-002   8.4619000768339586E-002   0.0000000000000000     
   5.5202672160245658E-002   6.1040725693972772E-002   0.0000000000000000     
   5.7889228138016169E-002   6.6479035114257096E-002   0.0000000000000000     
   6.0485834984824918E-002   7.2097767101455976E-002   0.0000000000000000     
   6.2992492700671920E-002   7.7896921655569468E-002   0.0000000000000000     
   6.5409201285557175E-002   8.3876498776597502E-002   0.0000000000000000     
   5.0412175252077140E-002   6.0249777376176553E-002   0.0000000000000000     
   5.2909334146599554E-002   6.5713278677769701E-002   0.0000000000000000     
   5.5322891238392728E-002   7.1356994452727793E-002   0.0000000000000000     
   5.7652846527456642E-002   7.7180924701050813E-002   0.0000000000000000     
   5.9899200013791322E-002   8.3185069422738789E-002   0.0000000000000000     
   4.5770403041103809E-002   5.9514539913333372E-002   0.0000000000000000     
   4.8089624608097001E-002   6.5003055783265845E-002   0.0000000000000000     
   5.0329121140208738E-002   7.0670923205481698E-002   0.0000000000000000     
   5.2488892637439000E-002   7.6518142179980889E-002   0.0000000000000000     
   5.4568939099787807E-002   8.2544712706763446E-002   0.0000000000000000     
   7.6968424902375848E-002   8.5412575397965027E-002   0.0000000000000000     
   7.9638504282110750E-002   9.1505506019087551E-002   0.0000000000000000     
   8.2219671878535378E-002   9.7757390545012701E-002   0.0000000000000000     
   8.4711927691649716E-002  0.10416822897574041        0.0000000000000000     
   8.7115271721453794E-002  0.11073802131127072        0.0000000000000000     
   7.1098942915085353E-002   8.4619000768339586E-002   0.0000000000000000     
   7.3599219272686783E-002   9.0741039933325163E-002   0.0000000000000000     
   7.6016591849068990E-002   9.7021446145744025E-002   0.0000000000000000     
   7.8351060644231960E-002  0.10346021940559619        0.0000000000000000     
   8.0602625658175719E-002  0.11005735971288161        0.0000000000000000     
   6.5409201285557175E-002   8.3876498776597502E-002   0.0000000000000000     
   6.7742242543485043E-002   9.0025345916357011E-002   0.0000000000000000     
   6.9997898278459827E-002   9.6332310526664827E-002   0.0000000000000000     
   7.2176168490481571E-002  0.10279739260752098        0.0000000000000000     
   7.4277053179550287E-002  0.10942059215892544        0.0000000000000000     
   5.9899200013791322E-002   8.3185069422738789E-002   0.0000000000000000     
   6.2067574094505508E-002   8.9358423968183082E-002   0.0000000000000000     
   6.4163591166707931E-002   9.5689983687775107E-002   0.0000000000000000     
   6.6187251230398592E-002  0.10217974858151482        0.0000000000000000     
   6.8138554285577510E-002  0.10882771864940226        0.0000000000000000     
   5.4568939099787807E-002   8.2544712706763446E-002   0.0000000000000000     
   5.6575213925748220E-002   8.8740274088803417E-002   0.0000000000000000     
   5.8513670513813280E-002   9.5094465629074823E-002   0.0000000000000000     
   6.0384308863983001E-002  0.10160728732757771        0.0000000000000000     
   6.2187128976257375E-002  0.10827873918431202        0.0000000000000000     
   8.7115271721453794E-002  0.11073802131127072        0.0000000000000000     
   8.9423214700346573E-002  0.11745363060005348        0.0000000000000000     
   9.1629267360727018E-002  0.12430191989053857        0.0000000000000000     
   9.3733429702595142E-002  0.13128288918272596        0.0000000000000000     
   9.5735701725950931E-002  0.13839653847661568        0.0000000000000000     
   8.0602625658175719E-002  0.11005735971288161        0.0000000000000000     
   8.2765103353970693E-002  0.11680017544027967        0.0000000000000000     
   8.4832310194687358E-002  0.12367597496046978        0.0000000000000000     
   8.6804246180325687E-002  0.13068475827345188        0.0000000000000000     
   8.8680911310885707E-002  0.13782652537922599        0.0000000000000000     
   7.4277053179550287E-002  0.10942059215892544        0.0000000000000000     
   7.6294760409197845E-002  0.11618940926637863        0.0000000000000000     
   7.8223498242956171E-002  0.12309134401538105        0.0000000000000000     
   8.0063266680825251E-002  0.13012639640593257        0.0000000000000000     
   8.1814065722805140E-002  0.13729456643803326        0.0000000000000000     
   6.8138554285577510E-002  0.10882771864940226        0.0000000000000000     
   7.0012185866028004E-002  0.11562133207835040        0.0000000000000000     
   7.1802831505533446E-002  0.12254802705527235        0.0000000000000000     
   7.3510491204093864E-002  0.12960780358016799        0.0000000000000000     
   7.5135164961709203E-002  0.13680066165303745        0.0000000000000000     
   6.2187128976257375E-002  0.10827873918431202        0.0000000000000000     
   6.3917379724461196E-002  0.11509594387619496        0.0000000000000000     
   6.5570309982419223E-002  0.12204602408014371        0.0000000000000000     
   6.7145919750131455E-002  0.12912897979615826        0.0000000000000000     
   6.8644209027597908E-002  0.13634481102423859        0.0000000000000000     
   9.5735701725950931E-002  0.13839653847661568        0.0000000000000000     
   9.7642030472749303E-002  0.14563157491903186        0.0000000000000000     
   9.9458362984945065E-002  0.15297670565679861        0.0000000000000000     
  0.10118469926253833       0.16043193068991590        0.0000000000000000     
  0.10282103930552899       0.16799725001838378        0.0000000000000000     
   8.8680911310885707E-002  0.13782652537922599        0.0000000000000000     
   9.0467541751259276E-002  0.14508942298878139        0.0000000000000000     
   9.2169373666338289E-002  0.15246159781310739        0.0000000000000000     
   9.3786407056122748E-002  0.15994304985220395        0.0000000000000000     
   9.5318641920612623E-002  0.16753377910607112        0.0000000000000000     
   8.1814065722805140E-002  0.13729456643803326        0.0000000000000000     
   8.3480429757308600E-002  0.14458374593688600        0.0000000000000000     
   8.5066893172748487E-002  0.15198182672769381        0.0000000000000000     
   8.6573455969124816E-002  0.15948880881045654        0.0000000000000000     
   8.8000118146437586E-002  0.16710469218517429        0.0000000000000000     
   7.5135164961709203E-002  0.13680066165303745        0.0000000000000000     
   7.6680694490897219E-002  0.14411454376334568        0.0000000000000000     
   7.8150921504175658E-002  0.15153739240055775        0.0000000000000000     
   7.9545846001544546E-002  0.15906920756467363        0.0000000000000000     
   8.0865467983003855E-002  0.16670998925569339        0.0000000000000000     
   6.8644209027597908E-002  0.13634481102423859        0.0000000000000000     
   7.0068335952025176E-002  0.14368181646816039        0.0000000000000000     
   7.1421458660619830E-002  0.15112829483169926        0.0000000000000000     
   7.2703577153381937E-002  0.15868424611485527        0.0000000000000000     
   7.3914691430311444E-002  0.16634967031762837        0.0000000000000000     
  0.10282103930552899       0.16799725001838378        0.0000000000000000     
  0.10436911862500015       0.17566246952502823        0.0000000000000000     
  0.10583067273203481       0.18341739509267518        0.0000000000000000     
  0.10720570162663301       0.19126202672132472        0.0000000000000000     
  0.10849420530879469       0.19919636441097674        0.0000000000000000     
   9.5318641920612623E-002  0.16753377910607112        0.0000000000000000     
   9.6766432785167361E-002  0.17522431758435231        0.0000000000000000     
   9.8130134175146391E-002  0.18300519729669104        0.0000000000000000     
   9.9409746090549672E-002  0.19087641824308735        0.0000000000000000     
  0.10060526853137725       0.19883798042354117        0.0000000000000000     
   8.8000118146437586E-002  0.16710469218517429        0.0000000000000000     
   8.9346173193376455E-002  0.17482029488336837        0.0000000000000000     
   9.0610914598631048E-002  0.18262643493656006        0.0000000000000000     
   9.1794342362201437E-002  0.19052311234474939        0.0000000000000000     
   9.2896456484087592E-002  0.19851032710793631        0.0000000000000000     
   8.0865467983003855E-002  0.16670998925569339        0.0000000000000000     
   8.2108339849627343E-002  0.17445040142207646        0.0000000000000000     
   8.3273014002488821E-002  0.18228110801228228        0.0000000000000000     
   8.4359490441588275E-002  0.19020210902631088        0.0000000000000000     
   8.5367769166925692E-002  0.19821340446416225        0.0000000000000000     
   7.3914691430311444E-002  0.16634967031762837        0.0000000000000000     
   7.5052932753920096E-002  0.17411463720047651        0.0000000000000000     
   7.6116432386719682E-002  0.18196921652385764        0.0000000000000000     
   7.7105190328710160E-002  0.18991340828777178        0.0000000000000000     
   7.8019206579891573E-002  0.19794721249221892        0.0000000000000000     
  0.10849420530879469       0.19919636441097674        0.0000000000000000     
  0.10970182418916560       0.20721630510228439        0.0000000000000000     
  0.11083419867839138       0.21531774573590068        0.0000000000000000     
  0.11189132877647204       0.22350068631182568        0.0000000000000000     
  0.11287321448340756       0.23176512683005934        0.0000000000000000     
  0.10060526853137725       0.19883798042354117        0.0000000000000000     
  0.10172218031539973       0.20688338864312272        0.0000000000000000     
  0.10276596026038773       0.21500614770690224        0.0000000000000000     
  0.10373660836634124       0.22320625761487967        0.0000000000000000     
  0.10463412463326033       0.23148371836705503        0.0000000000000000     
   9.2896456484087592E-002  0.19851032710793631        0.0000000000000000     
   9.3921867276815549E-002  0.20658027655316746        0.0000000000000000     
   9.4875185052911440E-002  0.21472515800748937        0.0000000000000000     
   9.5756409812375237E-002  0.22294497147090206        0.0000000000000000     
   9.6565541555206941E-002  0.23123971694340545        0.0000000000000000     
   8.5367769166925692E-002  0.19821340446416225        0.0000000000000000     
   8.6300885073413103E-002  0.20630696883241859        0.0000000000000000     
   8.7161873055962541E-002  0.21447477663766210        0.0000000000000000     
   8.7950733114573992E-002  0.22271682787989275        0.0000000000000000     
   8.8667465249247429E-002  0.23103312255911054        0.0000000000000000     
   7.8019206579891573E-002  0.19794721249221892        0.0000000000000000     
   7.8859233705192350E-002  0.20606346548087612        0.0000000000000000     
   7.9626024269540990E-002  0.21425500359742042        0.0000000000000000     
   8.0319578272937481E-002  0.22252182684185182        0.0000000000000000     
   8.0939895715381835E-002  0.23086393521417031        0.0000000000000000     
  0.11287321448340756       0.23176512683005934        0.0000000000000000     
  0.11380795938029689       0.24012780436925621        0.0000000000000000     
  0.11472366704823889       0.24860545600807091        0.0000000000000000     
  0.11562033748723358       0.25719808174650333        0.0000000000000000     
  0.11649797069728093       0.26590568158455358        0.0000000000000000     
  0.10463412463326033       0.23148371836705503        0.0000000000000000     
  0.10546350802405703       0.23986214441447465        0.0000000000000000     
  0.10622975750164360       0.24836515020818478        0.0000000000000000     
  0.10693287306601999       0.25699273574818543        0.0000000000000000     
  0.10757285471718619       0.26574490103447651        0.0000000000000000     
   9.6565541555206941E-002  0.23123971694340545        0.0000000000000000     
   9.7293422899615428E-002  0.23963594991603721        0.0000000000000000     
   9.7930896463809577E-002  0.24816022587983483        0.0000000000000000     
   9.8477962247789458E-002  0.25681254483479843        0.0000000000000000     
   9.8934620251554972E-002  0.26559290678092784        0.0000000000000000     
   8.8667465249247429E-002  0.23103312255911054        0.0000000000000000     
   8.9297704006972040E-002  0.23944922087394388        0.0000000000000000     
   8.9827083934736873E-002  0.24799068302302116        0.0000000000000000     
   9.0255605032541930E-002  0.25665750900634243        0.0000000000000000     
   9.0583267300387224E-002  0.26544969882390756        0.0000000000000000     
   8.0939895715381835E-002  0.23086393521417031        0.0000000000000000     
   8.1476351346126852E-002  0.23930195728819470        0.0000000000000000     
   8.1918319914425400E-002  0.24785652163774372        0.0000000000000000     
   8.2265801420277437E-002  0.25652762826281733        0.0000000000000000     
   8.2518795863683006E-002  0.26531527716341563        0.0000000000000000     
  0.11649797069728093       0.26590568158455358        0.0000000000000000     
  0.11729692217805593       0.27489276691727194        0.0000000000000000     
  0.11795754742923344       0.28432384913970893        0.0000000000000000     
  0.11847984645081347       0.29419892825186450        0.0000000000000000     
  0.11886381924279604       0.30451800425373859        0.0000000000000000     
  0.10757285471718619       0.26574490103447651        0.0000000000000000     
  0.10813072827612945       0.27475373026491162        0.0000000000000000     
  0.10858751956383690       0.28415130763734409        0.0000000000000000     
  0.10894322858030855       0.29393763315177401        0.0000000000000000     
  0.10919785532554441       0.30411270680820129        0.0000000000000000     
   9.8934620251554972E-002  0.26559290678092784        0.0000000000000000     
   9.9311893121693140E-002  0.27459956845504524        0.0000000000000000     
   9.9620803504790842E-002  0.28393078659397258        0.0000000000000000     
   9.9861351400848147E-002  0.29358656119770982        0.0000000000000000     
  0.10003353680986500       0.30356689226625694        0.0000000000000000     
   9.0583267300387224E-002  0.26544969882390756        0.0000000000000000     
   9.0840416714746977E-002  0.27443028148767279        0.0000000000000000     
   9.1057399252095328E-002  0.28366228600959420        0.0000000000000000     
   9.1234214912432277E-002  0.29314571238967180        0.0000000000000000     
   9.1370863695757823E-002  0.30288056062790558        0.0000000000000000     
   8.2518795863683006E-002  0.26531527716341563        0.0000000000000000     
   8.2716299055290987E-002  0.27424586936279427        0.0000000000000000     
   8.2897306805750290E-002  0.28334580588420905        0.0000000000000000     
   8.3061819115060914E-002  0.29261508672766001        0.0000000000000000     
   8.3209835983222874E-002  0.30205371189314717        0.0000000000000000     
   4.5770403041103809E-002   5.9514539913333372E-002   0.0000000000000000     
   4.8089624608097001E-002   6.5003055783265845E-002   0.0000000000000000     
   5.0329121140208738E-002   7.0670923205481698E-002   0.0000000000000000     
   5.2488892637439000E-002   7.6518142179980889E-002   0.0000000000000000     
   5.4568939099787807E-002   8.2544712706763446E-002   0.0000000000000000     
   4.1293867201754320E-002   5.8837414150267504E-002   0.0000000000000000     
   4.3435801083115455E-002   6.4349139871903702E-002   0.0000000000000000     
   4.5501701772827877E-002   7.0039353278711761E-002   0.0000000000000000     
   4.7491569270891570E-002   7.5908054370691661E-002   0.0000000000000000     
   4.9405403577306543E-002   8.1955243147843457E-002   0.0000000000000000     
   3.6999079408457342E-002   5.8220800931803186E-002   0.0000000000000000     
   3.8953565132261878E-002   6.3752304384841391E-002   0.0000000000000000     
   4.0837810218805073E-002   6.9462084591412079E-002   0.0000000000000000     
   4.2651814668086936E-002   7.5350141551515218E-002   0.0000000000000000     
   4.4395578480107452E-002   8.1416475265150848E-002   0.0000000000000000     
   3.2886039661212861E-002   5.7664700257940418E-002   0.0000000000000000     
   3.4642916755536254E-002   6.3212549322078926E-002   0.0000000000000000     
   3.6337446478140335E-002   6.8939117143582626E-002   0.0000000000000000     
   3.7969628829025097E-002   7.4844403722451547E-002   0.0000000000000000     
   3.9539463808190525E-002   8.0928409058685619E-002   0.0000000000000000     
   2.8954747960020878E-002   5.7169112128679200E-002   0.0000000000000000     
   3.0503855952938599E-002   6.2729874683616321E-002   0.0000000000000000     
   3.2000610550833655E-002   6.8470450935223456E-002   0.0000000000000000     
   3.3445011753706053E-002   7.4390840883500606E-002   0.0000000000000000     
   3.4837059561555778E-002   8.0491044528447755E-002   0.0000000000000000     
   5.4568939099787807E-002   8.2544712706763446E-002   0.0000000000000000     
   5.6575213925748220E-002   8.8740274088803417E-002   0.0000000000000000     
   5.8513670513813280E-002   9.5094465629074823E-002   0.0000000000000000     
   6.0384308863983001E-002  0.10160728732757771        0.0000000000000000     
   6.2187128976257375E-002  0.10827873918431202        0.0000000000000000     
   4.9405403577306543E-002   8.1955243147843457E-002   0.0000000000000000     
   5.1249581979512869E-002   8.8171240656291228E-002   0.0000000000000000     
   5.3030481764950663E-002   9.4546367942159149E-002   0.0000000000000000     
   5.4748102933619876E-002  0.10108062500544716        0.0000000000000000     
   5.6402445485520536E-002  0.10777401184615532        0.0000000000000000     
   4.4395578480107452E-002   8.1416475265150848E-002   0.0000000000000000     
   4.6075098198099219E-002   8.7651668048719877E-002   0.0000000000000000     
   4.7696370365294831E-002   9.4046302218623187E-002   0.0000000000000000     
   4.9259394981694293E-002  0.10060037777486082        0.0000000000000000     
   5.0764172047297614E-002  0.10731389471743276        0.0000000000000000     
   3.9539463808190525E-002   8.0928409058685619E-002   0.0000000000000000     
   4.1051762581507237E-002   8.7181556266089297E-002   0.0000000000000000     
   4.2511336314845820E-002   9.3594268458466981E-002   0.0000000000000000     
   4.3918185008206267E-002  0.10016654563581866        0.0000000000000000     
   4.5272308661588601E-002  0.10689838779814431        0.0000000000000000     
   3.4837059561555778E-002   8.0491044528447755E-002   0.0000000000000000     
   3.6179575129736935E-002   8.6760905308399514E-002   0.0000000000000000     
   3.7475379613603609E-002   9.3190266661690474E-002   0.0000000000000000     
   3.8724473013155798E-002   9.9779128588320651E-002   0.0000000000000000     
   3.9926855328393504E-002  0.10652749108829000        0.0000000000000000     
   6.2187128976257375E-002  0.10827873918431202        0.0000000000000000     
   6.3917379724461196E-002  0.11509594387619496        0.0000000000000000     
   6.5570309982419223E-002  0.12204602408014371        0.0000000000000000     
   6.7145919750131455E-002  0.12912897979615826        0.0000000000000000     
   6.8644209027597908E-002  0.13634481102423859        0.0000000000000000     
   5.6402445485520536E-002  0.10777401184615532        0.0000000000000000     
   5.7989288481239167E-002  0.11461331053759065        0.0000000000000000     
   5.9504410981362249E-002  0.12158530315306021        0.0000000000000000     
   6.0947812985889832E-002  0.12868998969256404        0.0000000000000000     
   6.2319494494821895E-002  0.13592737015610207        0.0000000000000000     
   5.0764172047297614E-002  0.10731389471743276        0.0000000000000000     
   5.2206858633103675E-002  0.11417349794021585        0.0000000000000000     
   5.3583611810111391E-002  0.12116583233708697        0.0000000000000000     
   5.4894431578320753E-002  0.12829089790804607        0.0000000000000000     
   5.6139317937731775E-002  0.13554869465309322        0.0000000000000000     
   4.5272308661588601E-002  0.10689838779814431        0.0000000000000000     
   4.6570090180054730E-002  0.11377650608407057        0.0000000000000000     
   4.7807912468666600E-002  0.12078761163222392        0.0000000000000000     
   4.8985775527424204E-002  0.12793170444260443        0.0000000000000000     
   5.0103679356327563E-002  0.13520878451521207        0.0000000000000000     
   3.9926855328393504E-002  0.10652749108829000        0.0000000000000000     
   4.1078983122092336E-002  0.11342233496915477        0.0000000000000000     
   4.2177312957027903E-002  0.12045064103847113        0.0000000000000000     
   4.3221844833200199E-002  0.12761240929623907        0.0000000000000000     
   4.4212578750609237E-002  0.13490763974245862        0.0000000000000000     
   6.8644209027597908E-002  0.13634481102423859        0.0000000000000000     
   7.0068335952025176E-002  0.14368181646816039        0.0000000000000000     
   7.1421458660619830E-002  0.15112829483169926        0.0000000000000000     
   7.2703577153381937E-002  0.15868424611485527        0.0000000000000000     
   7.3914691430311444E-002  0.16634967031762837        0.0000000000000000     
   6.2319494494821895E-002  0.13592737015610207        0.0000000000000000     
   6.3621976798235488E-002  0.14328615963192265        0.0000000000000000     
   6.4857781186207664E-002  0.15075507320827411        0.0000000000000000     
   6.6026907658738476E-002  0.15833411088515648        0.0000000000000000     
   6.7129356215827857E-002  0.16602327266256972        0.0000000000000000     
   5.6139317937731775E-002  0.13554869465309322        0.0000000000000000     
   5.7320239687071214E-002  0.14292816883522499        0.0000000000000000     
   5.8439165625065834E-002  0.15041826671743802        0.0000000000000000     
   5.9496095751715647E-002  0.15801898829973238        0.0000000000000000     
   6.0491030067020647E-002  0.16573033358210787        0.0000000000000000     
   5.0103679356327563E-002  0.13520878451521207        0.0000000000000000     
   5.1163124618532368E-002  0.14260784407806745        0.0000000000000000     
   5.2165611977194333E-002  0.15011787535919099        0.0000000000000000     
   5.3111141432313477E-002  0.15773887835858288        0.0000000000000000     
   5.3999712983889794E-002  0.16547085307624296        0.0000000000000000     
   4.4212578750609237E-002  0.13490763974245862        0.0000000000000000     
   4.5150631592618916E-002  0.14232518536044994        0.0000000000000000     
   4.6037120242593155E-002  0.14985389913353303        0.0000000000000000     
   4.6872044700531960E-002  0.15749378106170803        0.0000000000000000     
   4.7655404966435319E-002  0.16524483114497490        0.0000000000000000     
   7.3914691430311444E-002  0.16634967031762837        0.0000000000000000     
   7.5052932753920096E-002  0.17411463720047651        0.0000000000000000     
   7.6116432386719682E-002  0.18196921652385764        0.0000000000000000     
   7.7105190328710160E-002  0.18991340828777178        0.0000000000000000     
   7.8019206579891573E-002  0.19794721249221892        0.0000000000000000     
   6.7129356215827857E-002  0.16602327266256972        0.0000000000000000     
   6.8163035606553832E-002  0.17381192748064903        0.0000000000000000     
   6.9125854579994386E-002  0.18168944427952968        0.0000000000000000     
   7.0017813136149507E-002  0.18965582305921164        0.0000000000000000     
   7.0838911275019179E-002  0.19771106381969492        0.0000000000000000     
   6.0491030067020647E-002  0.16573033358210787        0.0000000000000000     
   6.1421732107827705E-002  0.17354119752467448        0.0000000000000000     
   6.2285965410983697E-002  0.18144047508754182        0.0000000000000000     
   6.3083729976488631E-002  0.18942816627070994        0.0000000000000000     
   6.3815025804342493E-002  0.19750427107417878        0.0000000000000000     
   5.3999712983889794E-002  0.16547085307624296        0.0000000000000000     
   5.4829022257741708E-002  0.17330244733255284        0.0000000000000000     
   5.5596764879687628E-002  0.18122230894789407        0.0000000000000000     
   5.6302940849727548E-002  0.18923043792226665        0.0000000000000000     
   5.6947550167861488E-002  0.19732683425567057        0.0000000000000000     
   4.7655404966435319E-002  0.16524483114497490        0.0000000000000000     
   4.8384906056295834E-002  0.17309567690428418        0.0000000000000000     
   4.9058252986106159E-002  0.18103494586058649        0.0000000000000000     
   4.9675445755866271E-002  0.18906263801388187        0.0000000000000000     
   5.0236484365576171E-002  0.19717875336417023        0.0000000000000000     
   7.8019206579891573E-002  0.19794721249221892        0.0000000000000000     
   7.8859233705192350E-002  0.20606346548087612        0.0000000000000000     
   7.9626024269540990E-002  0.21425500359742042        0.0000000000000000     
   8.0319578272937481E-002  0.22252182684185182        0.0000000000000000     
   8.0939895715381835E-002  0.23086393521417031        0.0000000000000000     
   7.0838911275019179E-002  0.19771106381969492        0.0000000000000000     
   7.1587737528196679E-002  0.20584898105528204        0.0000000000000000     
   7.2262880427275217E-002  0.21406338926027546        0.0000000000000000     
   7.2864339972254819E-002  0.22235428843467528        0.0000000000000000     
   7.3392116163135443E-002  0.23072167857848139        0.0000000000000000     
   6.3815025804342493E-002  0.19750427107417878        0.0000000000000000     
   6.4477220898469439E-002  0.20566273011237834        0.0000000000000000     
   6.5067683262793607E-002  0.21389748399973840        0.0000000000000000     
   6.5586412897315025E-002  0.22220853273625907        0.0000000000000000     
   6.6033409802033649E-002  0.23059587632194031        0.0000000000000000     
   5.6947550167861488E-002  0.19732683425567057        0.0000000000000000     
   5.7527683816010630E-002  0.20550471265216502        0.0000000000000000     
   5.8040432776096162E-002  0.21375728781580927        0.0000000000000000     
   5.8485797048118099E-002  0.22208455974660329        0.0000000000000000     
   5.8863776632076432E-002  0.23048652844454709        0.0000000000000000     
   5.0236484365576171E-002  0.19717875336417023        0.0000000000000000     
   5.0739126280820238E-002  0.20537492867464216        0.0000000000000000     
   5.1181128967182875E-002  0.21364280070848801        0.0000000000000000     
   5.1562492424664055E-002  0.22198236946570787        0.0000000000000000     
   5.1883216653263800E-002  0.23039363494630175        0.0000000000000000     
   8.0939895715381835E-002  0.23086393521417031        0.0000000000000000     
   8.1476351346126852E-002  0.23930195728819470        0.0000000000000000     
   8.1918319914425400E-002  0.24785652163774372        0.0000000000000000     
   8.2265801420277437E-002  0.25652762826281733        0.0000000000000000     
   8.2518795863683006E-002  0.26531527716341563        0.0000000000000000     
   7.3392116163135443E-002  0.23072167857848139        0.0000000000000000     
   7.3842914734366091E-002  0.23917919842078147        0.0000000000000000     
   7.4213441420395723E-002  0.24774048669066329        0.0000000000000000     
   7.4503696221224311E-002  0.25640554338812660        0.0000000000000000     
   7.4713679136851882E-002  0.26517436851317155        0.0000000000000000     
   6.6033409802033649E-002  0.23059587632194031        0.0000000000000000     
   6.6410943988975957E-002  0.23906598353369615        0.0000000000000000     
   6.6721285470168354E-002  0.24762532314844052        0.0000000000000000     
   6.6964434245610868E-002  0.25627389516617355        0.0000000000000000     
   6.7140390315303472E-002  0.26501169958689513        0.0000000000000000     
   5.8863776632076432E-002  0.23048652844454709        0.0000000000000000     
   5.9180439109956420E-002  0.23896231262693857        0.0000000000000000     
   5.9441852063743306E-002  0.24751103101107555        0.0000000000000000     
   5.9648015493437095E-002  0.25613268359695812        0.0000000000000000     
   5.9798929399037776E-002  0.26482727038458614        0.0000000000000000     
   5.1883216653263800E-002  0.23039363494630175        0.0000000000000000     
   5.2151400097307510E-002  0.23886818570050880        0.0000000000000000     
   5.2375141201120579E-002  0.24739761027856835        0.0000000000000000     
   5.2554439964702999E-002  0.25598190868048032        0.0000000000000000     
   5.2689296388054800E-002  0.26462108090624475        0.0000000000000000     
   8.2518795863683006E-002  0.26531527716341563        0.0000000000000000     
   8.2716299055290987E-002  0.27424586936279427        0.0000000000000000     
   8.2897306805750290E-002  0.28334580588420905        0.0000000000000000     
   8.3061819115060914E-002  0.29261508672766001        0.0000000000000000     
   8.3209835983222874E-002  0.30205371189314717        0.0000000000000000     
   7.4713679136851882E-002  0.26517436851317155        0.0000000000000000     
   7.4884360667389127E-002  0.27404064155058844        0.0000000000000000     
   7.5056711312946764E-002  0.28299804198516743        0.0000000000000000     
   7.5230731073524765E-002  0.29204656981690852        0.0000000000000000     
   7.5406419949123171E-002  0.30118622504581172        0.0000000000000000     
   6.7140390315303472E-002  0.26501169958689513        0.0000000000000000     
   6.7289422075105354E-002  0.27380890752123416        0.0000000000000000     
   6.7451797920875703E-002  0.28263569007981953        0.0000000000000000     
   6.7627517852614491E-002  0.29149204726265121        0.0000000000000000     
   6.7816581870321746E-002  0.30037797906972918        0.0000000000000000     
   5.9798929399037776E-002  0.26482727038458614        0.0000000000000000     
   5.9931483278439689E-002  0.27355066727473143        0.0000000000000000     
   6.0082566629537135E-002  0.28225875016816532        0.0000000000000000     
   6.0252179452330107E-002  0.29095151906488814        0.0000000000000000     
   6.0440321746818619E-002  0.29962897396489957        0.0000000000000000     
   5.2689296388054800E-002  0.26462108090624475        0.0000000000000000     
   5.2810544277392096E-002  0.27326592081108009        0.0000000000000000     
   5.2949017438931024E-002  0.28186722225020494        0.0000000000000000     
   5.3104715872671591E-002  0.29042498522361920        0.0000000000000000     
   5.3277639578613770E-002  0.29893920973132293        0.0000000000000000     
   2.8954747960020878E-002   5.7169112128679200E-002   0.0000000000000000     
   3.0503855952938599E-002   6.2729874683616321E-002   0.0000000000000000     
   3.2000610550833655E-002   6.8470450935223456E-002   0.0000000000000000     
   3.3445011753706053E-002   7.4390840883500606E-002   0.0000000000000000     
   3.4837059561555778E-002   8.0491044528447755E-002   0.0000000000000000     
   2.5141913847449637E-002   5.6733247490163577E-002   0.0000000000000000     
   2.6482586001066614E-002   6.2304511911567662E-002   0.0000000000000000     
   2.7780918051778607E-002   6.8056891526022845E-002   0.0000000000000000     
   2.9036909999585619E-002   7.3990386333529140E-002   0.0000000000000000     
   3.0250561844487656E-002   8.0104996334086506E-002   0.0000000000000000     
   2.1384246866067370E-002   5.6356317288537620E-002   0.0000000000000000     
   2.2525310176517998E-002   6.1936692448047066E-002   0.0000000000000000     
   2.3631984595868745E-002   6.7699244475669135E-002   0.0000000000000000     
   2.4704270124119621E-002   7.3643973371403798E-002   0.0000000000000000     
   2.5742166761270606E-002   7.9770879135251105E-002   0.0000000000000000     
   1.7681747015874074E-002   5.6038321523801317E-002   0.0000000000000000     
   1.8632028479292757E-002   6.1626416293054528E-002   0.0000000000000000     
   1.9553810183104075E-002   6.7397509784162299E-002   0.0000000000000000     
   2.0447092127308032E-002   7.3351601997124649E-002   0.0000000000000000     
   2.1311874311904636E-002   7.9488692931941524E-002   0.0000000000000000     
   1.4034414296869756E-002   5.5779260195954680E-002   0.0000000000000000     
   1.4802740909390889E-002   6.1373683446590069E-002   0.0000000000000000     
   1.5546394813484597E-002   6.7151687451502379E-002   0.0000000000000000     
   1.6265376009150879E-002   7.3113272210691624E-002   0.0000000000000000     
   1.6959684496389738E-002   7.9258437724157804E-002   0.0000000000000000     
   3.4837059561555778E-002   8.0491044528447755E-002   0.0000000000000000     
   3.6179575129736935E-002   8.6760905308399514E-002   0.0000000000000000     
   3.7475379613603609E-002   9.3190266661690474E-002   0.0000000000000000     
   3.8724473013155798E-002   9.9779128588320651E-002   0.0000000000000000     
   3.9926855328393504E-002  0.10652749108829000        0.0000000000000000     
   3.0250561844487656E-002   8.0104996334086506E-002   0.0000000000000000     
   3.1422764651212888E-002   8.6389865729562962E-002   0.0000000000000000     
   3.2554409484489497E-002   9.2834138721826470E-002   0.0000000000000000     
   3.3645496344317481E-002   9.9437815310877017E-002   0.0000000000000000     
   3.4696025230696856E-002  0.10620089549671460        0.0000000000000000     
   2.5742166761270606E-002   7.9770879135251105E-002   0.0000000000000000     
   2.6745559954359680E-002   8.6068588083492034E-002   0.0000000000000000     
   2.7714335150424801E-002   9.2525726532407662E-002   0.0000000000000000     
   2.8648492349465968E-002   9.9142294481997947E-002   0.0000000000000000     
   2.9548031551483184E-002  0.10591829193226290        0.0000000000000000     
   2.1311874311904636E-002   7.9488692931941524E-002   0.0000000000000000     
   2.2147961039177318E-002   8.5797072370186758E-002   0.0000000000000000     
   2.2955156611409514E-002   9.2265030093434050E-002   0.0000000000000000     
   2.3733461028601240E-002   9.8892566101683427E-002   0.0000000000000000     
   2.4482874290752483E-002  0.10567968039493490        0.0000000000000000     
   1.6959684496389738E-002   7.9258437724157804E-002   0.0000000000000000     
   1.7629967905665785E-002   8.5575318589647092E-002   0.0000000000000000     
   1.8276873867443637E-002   9.2052049404905661E-002   0.0000000000000000     
   1.8900402381723299E-002   9.8688630169933497E-002   0.0000000000000000     
   1.9500553448504761E-002  0.10548506088473059        0.0000000000000000     
   3.9926855328393504E-002  0.10652749108829000        0.0000000000000000     
   4.1078983122092336E-002  0.11342233496915477        0.0000000000000000     
   4.2177312957027903E-002  0.12045064103847113        0.0000000000000000     
   4.3221844833200199E-002  0.12761240929623907        0.0000000000000000     
   4.4212578750609237E-002  0.13490763974245862        0.0000000000000000     
   3.4696025230696856E-002  0.10620089549671460        0.0000000000000000     
   3.5702529178815973E-002  0.11311067759260438        0.0000000000000000     
   3.6661541223863232E-002  0.12015445991181144        0.0000000000000000     
   3.7573061365838614E-002  0.12733224245433583        0.0000000000000000     
   3.8437089604742132E-002  0.13464402522017749        0.0000000000000000     
   2.9548031551483184E-002  0.10591829193226290        0.0000000000000000     
   3.0409720069825136E-002  0.11284122695155528        0.0000000000000000     
   3.1230325217840513E-002  0.11989860760822776        0.0000000000000000     
   3.2009846995529320E-002  0.12709043390228039        0.0000000000000000     
   3.2748285402891569E-002  0.13441670583371315        0.0000000000000000     
   2.4482874290752483E-002  0.10567968039493490        0.0000000000000000     
   2.5200555795119799E-002  0.11261398304600748        0.0000000000000000     
   2.5883664938959751E-002  0.11968308412772011        0.0000000000000000     
   2.6532201722272324E-002  0.12688698364007286        0.0000000000000000     
   2.7146166145057535E-002  0.13422568158306572        0.0000000000000000     
   1.9500553448504761E-002  0.10548506088473059        0.0000000000000000     
   2.0075036354699989E-002  0.11242894587596093        0.0000000000000000     
   2.0621560387220943E-002  0.11950788947028847        0.0000000000000000     
   2.1140125546067628E-002  0.12672189166771322        0.0000000000000000     
   2.1630731831240028E-002  0.13407095246823511        0.0000000000000000     
   4.4212578750609237E-002  0.13490763974245862        0.0000000000000000     
   4.5150631592618916E-002  0.14232518536044994        0.0000000000000000     
   4.6037120242593155E-002  0.14985389913353303        0.0000000000000000     
   4.6872044700531960E-002  0.15749378106170803        0.0000000000000000     
   4.7655404966435319E-002  0.16524483114497490        0.0000000000000000     
   3.8437089604742132E-002  0.13464402522017749        0.0000000000000000     
   3.9254441592189333E-002  0.14207846132135576        0.0000000000000000     
   4.0025932979795772E-002  0.14962420386988992        0.0000000000000000     
   4.0751563767561415E-002  0.15728125286577999        0.0000000000000000     
   4.1431333955486288E-002  0.16504960830902599        0.0000000000000000     
   3.2748285402891569E-002  0.13441670583371315        0.0000000000000000     
   3.3446235600102063E-002  0.14186594059976812        0.0000000000000000     
   3.4104292747335604E-002  0.14942665539768732        0.0000000000000000     
   3.4722456844592207E-002  0.15709885022747078        0.0000000000000000     
   3.5300727891871865E-002  0.16488252508911846        0.0000000000000000     
   2.7146166145057535E-002  0.13422568158306572        0.0000000000000000     
   2.7726013616357081E-002  0.14168762319568703        0.0000000000000000     
   2.8272199545212668E-002  0.14926125371692528        0.0000000000000000     
   2.8784723931624318E-002  0.15694657314678043        0.0000000000000000     
   2.9263586775592005E-002  0.16474358148525248        0.0000000000000000     
   2.1630731831240028E-002  0.13407095246823511        0.0000000000000000     
   2.2093775640954400E-002  0.14154350910911254        0.0000000000000000     
   2.2529653373426974E-002  0.14912799882760380        0.0000000000000000     
   2.2938365028657752E-002  0.15682442162370891        0.0000000000000000     
   2.3319910606646732E-002  0.16463277749742786        0.0000000000000000     
   4.7655404966435319E-002  0.16524483114497490        0.0000000000000000     
   4.8384906056295834E-002  0.17309567690428418        0.0000000000000000     
   4.9058252986106159E-002  0.18103494586058649        0.0000000000000000     
   4.9675445755866271E-002  0.18906263801388187        0.0000000000000000     
   5.0236484365576171E-002  0.19717875336417023        0.0000000000000000     
   4.1431333955486288E-002  0.16504960830902599        0.0000000000000000     
   4.2063028212732223E-002  0.17291792866945235        0.0000000000000000     
   4.2644431208461023E-002  0.18087487241688358        0.0000000000000000     
   4.3175542942672694E-002  0.18892043955131968        0.0000000000000000     
   4.3656363415367230E-002  0.19705463007276067        0.0000000000000000     
   3.5300727891871865E-002  0.16488252508911846        0.0000000000000000     
   3.5837033436292971E-002  0.17276624505764127        0.0000000000000000     
   3.6329301024973920E-002  0.18073857520804990        0.0000000000000000     
   3.6777530657914712E-002  0.18879951554034438        0.0000000000000000     
   3.7181722335115353E-002  0.19694906605452475        0.0000000000000000     
   2.9263586775592005E-002  0.16474358148525248        0.0000000000000000     
   2.9706921726978079E-002  0.17264062606885094        0.0000000000000000     
   3.0112862435644851E-002  0.18062605423408543        0.0000000000000000     
   3.0481408901592340E-002  0.18869986598095595        0.0000000000000000     
   3.0812561124820528E-002  0.19686206130946246        0.0000000000000000     
   2.3319910606646732E-002  0.16463277749742786        0.0000000000000000     
   2.3672693084787547E-002  0.17254107170308139        0.0000000000000000     
   2.3995115440473825E-002  0.18053730949499022        0.0000000000000000     
   2.4287177673705567E-002  0.18862149087315438        0.0000000000000000     
   2.4548879784482773E-002  0.19679361583757382        0.0000000000000000     
   5.0236484365576171E-002  0.19717875336417023        0.0000000000000000     
   5.0739126280820238E-002  0.20537492867464216        0.0000000000000000     
   5.1181128967182875E-002  0.21364280070848801        0.0000000000000000     
   5.1562492424664055E-002  0.22198236946570787        0.0000000000000000     
   5.1883216653263800E-002  0.23039363494630175        0.0000000000000000     
   4.3656363415367230E-002  0.19705463007276067        0.0000000000000000     
   4.4085682210129207E-002  0.20526714646154146        0.0000000000000000     
   4.4462288910543185E-002  0.21354769119799696        0.0000000000000000     
   4.4786183516609179E-002  0.22189626428212725        0.0000000000000000     
   4.5057366028327162E-002  0.23031286571393222        0.0000000000000000     
   3.7181722335115353E-002  0.19694906605452475        0.0000000000000000     
   3.7541485521168420E-002  0.20517513429459486        0.0000000000000000     
   3.7856429680666548E-002  0.21346562780455844        0.0000000000000000     
   3.8126554813609735E-002  0.22182054658441575        0.0000000000000000     
   3.8351860919997968E-002  0.23023989063416650        0.0000000000000000     
   3.0812561124820528E-002  0.19686206130946246        0.0000000000000000     
   3.1106536213937917E-002  0.20509889217380223        0.0000000000000000     
   3.1363551277552984E-002  0.21339661052817252        0.0000000000000000     
   3.1583606315665744E-002  0.22175521637257331        0.0000000000000000     
   3.1766701328276185E-002  0.23017470970700457        0.0000000000000000     
   2.4548879784482773E-002  0.19679361583757382        0.0000000000000000     
   2.4780834288437668E-002  0.20503842009916368        0.0000000000000000     
   2.4983653701202480E-002  0.21334063936883910        0.0000000000000000     
   2.5157338022777202E-002  0.22170027364660000        0.0000000000000000     
   2.5301887253161841E-002  0.23011732293244644        0.0000000000000000     
   5.1883216653263800E-002  0.23039363494630175        0.0000000000000000     
   5.2151400097307510E-002  0.23886818570050880        0.0000000000000000     
   5.2375141201120579E-002  0.24739761027856835        0.0000000000000000     
   5.2554439964702999E-002  0.25598190868048032        0.0000000000000000     
   5.2689296388054800E-002  0.26462108090624475        0.0000000000000000     
   4.5057366028327162E-002  0.23031286571393222        0.0000000000000000     
   4.5284681667523946E-002  0.23878217619492667        0.0000000000000000     
   4.5476975656026278E-002  0.24728887642662528        0.0000000000000000     
   4.5634247993834171E-002  0.25583296640902803        0.0000000000000000     
   4.5756498680947610E-002  0.26441444614213488        0.0000000000000000     
   3.8351860919997968E-002  0.23023989063416650        0.0000000000000000     
   3.8541138537100485E-002  0.23870285755071183        0.0000000000000000     
   3.8703178202186543E-002  0.24718864493095263        0.0000000000000000     
   3.8837979915256150E-002  0.25569725277488892        0.0000000000000000     
   3.8945543676309285E-002  0.26422868108252073        0.0000000000000000     
   3.1766701328276185E-002  0.23017470970700457        0.0000000000000000     
   3.1920770706037133E-002  0.23863022976786430        0.0000000000000000     
   3.2053748839601388E-002  0.24709691579155052        0.0000000000000000     
   3.2165635728968939E-002  0.25557476777806309        0.0000000000000000     
   3.2256431374139811E-002  0.26406378572740230        0.0000000000000000     
   2.5301887253161841E-002  0.23011732293244644        0.0000000000000000     
   2.5423578174333876E-002  0.23856429284638414        0.0000000000000000     
   2.5528687568270779E-002  0.24701368900841889        0.0000000000000000     
   2.5617215434972550E-002  0.25546551141855067        0.0000000000000000     
   2.5689161774439195E-002  0.26391976007677947        0.0000000000000000     
   5.2689296388054800E-002  0.26462108090624475        0.0000000000000000     
   5.2810544277392096E-002  0.27326592081108009        0.0000000000000000     
   5.2949017438931024E-002  0.28186722225020494        0.0000000000000000     
   5.3104715872671591E-002  0.29042498522361920        0.0000000000000000     
   5.3277639578613770E-002  0.29893920973132293        0.0000000000000000     
   4.5756498680947610E-002  0.26441444614213488        0.0000000000000000     
   4.5867851028971549E-002  0.27298338192554511        0.0000000000000000     
   4.5992428349510901E-002  0.28148984005885769        0.0000000000000000     
   4.6130230642565669E-002  0.28993382054207278        0.0000000000000000     
   4.6281257908135850E-002  0.29831532337519034        0.0000000000000000     
   3.8945543676309285E-002  0.26422868108252073        0.0000000000000000     
   3.9044649490186982E-002  0.27273176441339109        0.0000000000000000     
   3.9154077361730238E-002  0.28115533732704334        0.0000000000000000     
   3.9273827290939069E-002  0.28949939982347722        0.0000000000000000     
   3.9403899277813459E-002  0.29776395190269289        0.0000000000000000     
   3.2256431374139811E-002  0.26406378572740230        0.0000000000000000     
   3.2340939661038383E-002  0.27251106827461830        0.0000000000000000     
   3.2433964475589043E-002  0.28086371405476163        0.0000000000000000     
   3.2535505817791785E-002  0.28912172306783246        0.0000000000000000     
   3.2645563687646630E-002  0.29728509531383068        0.0000000000000000     
   2.5689161774439195E-002  0.26391976007677947        0.0000000000000000     
   2.5756721541525762E-002  0.27232129350922640        0.0000000000000000     
   2.5832089691087308E-002  0.28061497024201282        0.0000000000000000     
   2.5915266223123835E-002  0.28880079027513855        0.0000000000000000     
   2.6006251137635338E-002  0.29687875360860361        0.0000000000000000     
   1.4034414296869756E-002   5.5779260195954680E-002   0.0000000000000000     
   1.4802740909390889E-002   6.1373683446590069E-002   0.0000000000000000     
   1.5546394813484597E-002   6.7151687451502379E-002   0.0000000000000000     
   1.6265376009150879E-002   7.3113272210691624E-002   0.0000000000000000     
   1.6959684496389738E-002   7.9258437724157804E-002   0.0000000000000000     
   1.0442451537990142E-002   5.5578365351594439E-002   0.0000000000000000     
   1.1029601722630317E-002   6.1177717404053464E-002   0.0000000000000000     
   1.1595718251405013E-002   6.6961054567555273E-002   0.0000000000000000     
   1.2140801124314225E-002   7.2928376842099893E-002   0.0000000000000000     
   1.2664850341357961E-002   7.9079684227687311E-002   0.0000000000000000     
   6.9060615681709623E-003   5.5434869037317341E-002   0.0000000000000000     
   7.3047651748289599E-003   6.1037741660844531E-002   0.0000000000000000     
   7.6877602612600224E-003   6.6824888222186921E-002   0.0000000000000000     
   8.0550468274641525E-003   7.2796308721344544E-002   0.0000000000000000     
   8.4066248734413467E-003   7.8952003158317421E-002   0.0000000000000000     
   3.4252443874122191E-003   5.5348771253123395E-002   0.0000000000000000     
   3.6282312659868163E-003   6.0953756216963244E-002   0.0000000000000000     
   3.8225208430496291E-003   6.6743188415397295E-002   0.0000000000000000     
   4.0081131186006560E-003   7.2717067848425604E-002   0.0000000000000000     
   4.1850080926398997E-003   7.8875394516048122E-002   0.0000000000000000     
  -4.2860879775896699E-012   5.5320071999012593E-002   0.0000000000000000     
  -3.8961121655300968E-012   6.0925761072409615E-002   0.0000000000000000     
  -3.2261692232624095E-012   6.6715955147186437E-002   0.0000000000000000     
  -2.2762596657826401E-012   7.2690654223343046E-002   0.0000000000000000     
  -1.0463830323048651E-012   7.8849858300879427E-002   0.0000000000000000     
   1.6959684496389738E-002   7.9258437724157804E-002   0.0000000000000000     
   1.7629967905665785E-002   8.5575318589647092E-002   0.0000000000000000     
   1.8276873867443637E-002   9.2052049404905661E-002   0.0000000000000000     
   1.8900402381723299E-002   9.8688630169933497E-002   0.0000000000000000     
   1.9500553448504761E-002  0.10548506088473059        0.0000000000000000     
   1.2664850341357961E-002   7.9079684227687311E-002   0.0000000000000000     
   1.3169452229562808E-002   8.5403054877111431E-002   0.0000000000000000     
   1.3656193115955362E-002   9.1886566943166201E-002   0.0000000000000000     
   1.4125073000535620E-002   9.8530220425851592E-002   0.0000000000000000     
   1.4576091883303589E-002  0.10533401532516762        0.0000000000000000     
   8.4066248734413467E-003   7.8952003158317421E-002   0.0000000000000000     
   8.7442856866060941E-003   8.5280009367818155E-002   0.0000000000000000     
   9.0698205543728750E-003   9.1768365184559442E-002   0.0000000000000000     
   9.3832294767416929E-003   9.8417070608541254E-002   0.0000000000000000     
   9.6845124537125443E-003  0.10522612563976361        0.0000000000000000     
   4.1850080926398997E-003   7.8875394516048122E-002   0.0000000000000000     
   4.3544682767956457E-003   8.5206182061767249E-002   0.0000000000000000     
   4.5177561826961823E-003   9.1697444129085370E-002   0.0000000000000000     
   4.6748718103415089E-003   9.8349180718002444E-002   0.0000000000000000     
   4.8258151597316270E-003  0.10516139182851855        0.0000000000000000     
  -1.0463830323048651E-012   7.8849858300879427E-002   0.0000000000000000     
   1.3146211549908138E-013   8.5181572958958701E-002   0.0000000000000000     
   9.2528057698409993E-013   9.1673803776743973E-002   0.0000000000000000     
   1.3350716745238328E-012   9.8326550754235229E-002   0.0000000000000000     
   1.3608350557525739E-012  0.10513981389143245        0.0000000000000000     
   1.9500553448504761E-002  0.10548506088473059        0.0000000000000000     
   2.0075036354699989E-002  0.11242894587596093        0.0000000000000000     
   2.0621560387220943E-002  0.11950788947028847        0.0000000000000000     
   2.1140125546067628E-002  0.12672189166771322        0.0000000000000000     
   2.1630731831240028E-002  0.13407095246823511        0.0000000000000000     
   1.4576091883303589E-002  0.10533401532516762        0.0000000000000000     
   1.5007573815146750E-002  0.11228550379898947        0.0000000000000000     
   1.5417842846952589E-002  0.11937223800519230        0.0000000000000000     
   1.5806898978721107E-002  0.12659421794377612        0.0000000000000000     
   1.6174742210452304E-002  0.13395144361474093        0.0000000000000000     
   9.6845124537125443E-003  0.10522612563976361        0.0000000000000000     
   9.9725802430411375E-003  0.11218304517266675        0.0000000000000000     
   1.0246343602483178E-002  0.11927534410169099        0.0000000000000000     
   1.0505802532038666E-002  0.12650302242683634        0.0000000000000000     
   1.0750957031707602E-002  0.13386608014810272        0.0000000000000000     
   4.8258151597316270E-003  0.10516139182851855        0.0000000000000000     
   4.9700556383831538E-003  0.11212156999699285        0.0000000000000000     
   5.1070626538127148E-003  0.11921720775978462        0.0000000000000000     
   5.2368362060203023E-003  0.12644830511689384        0.0000000000000000     
   5.3593762950059241E-003  0.13381486206832049        0.0000000000000000     
   1.3608350557525739E-012  0.10513981389143245        0.0000000000000000     
   1.1728005719358059E-012  0.11210107827196773        0.0000000000000000     
   9.4119308700901794E-013  0.11919782897947313        0.0000000000000000     
   6.6601590778883613E-013  0.12643006601394863        0.0000000000000000     
   3.4726822112363109E-013  0.13379778937539427        0.0000000000000000     
   2.1630731831240028E-002  0.13407095246823511        0.0000000000000000     
   2.2093775640954400E-002  0.14154350910911254        0.0000000000000000     
   2.2529653373426974E-002  0.14912799882760380        0.0000000000000000     
   2.2938365028657752E-002  0.15682442162370891        0.0000000000000000     
   2.3319910606646732E-002  0.16463277749742786        0.0000000000000000     
   1.6174742210452304E-002  0.13395144361474093        0.0000000000000000     
   1.6521730184974940E-002  0.14143237323481700        0.0000000000000000     
   1.6848220545117771E-002  0.14902546502073458        0.0000000000000000     
   1.7154213290880797E-002  0.15673071897249366        0.0000000000000000     
   1.7439708422264021E-002  0.16454813509009428        0.0000000000000000     
   1.0750957031707602E-002  0.13386608014810272        0.0000000000000000     
   1.0982085759499613E-002  0.14135299046757285        0.0000000000000000     
   1.1199467373424322E-002  0.14895222658732926        0.0000000000000000     
   1.1403101873481735E-002  0.15666378850737209        0.0000000000000000     
   1.1592989259671851E-002  0.16448767622770125        0.0000000000000000     
   5.3593762950059241E-003  0.13381486206832049        0.0000000000000000     
   5.4748423645284185E-003  0.14130536080738007        0.0000000000000000     
   5.5833938583466358E-003  0.14890828352738797        0.0000000000000000     
   5.6850307764605710E-003  0.15662363022834419        0.0000000000000000     
   5.7797531188702282E-003  0.16445140091024871        0.0000000000000000     
   3.4726822112363109E-013  0.13379778937539427        0.0000000000000000     
   6.1360855632686118E-014  0.14128948425423868        0.0000000000000000     
  -1.1529644426688801E-013  0.14889363584091053        0.0000000000000000     
  -1.8269950439672722E-013  0.15661024413540992        0.0000000000000000     
  -1.4085087263193685E-013  0.16443930913773674        0.0000000000000000     
   2.3319910606646732E-002  0.16463277749742786        0.0000000000000000     
   2.3672693084787547E-002  0.17254107170308139        0.0000000000000000     
   2.3995115440473825E-002  0.18053730949499022        0.0000000000000000     
   2.4287177673705567E-002  0.18862149087315438        0.0000000000000000     
   2.4548879784482773E-002  0.19679361583757382        0.0000000000000000     
   1.7439708422264021E-002  0.16454813509009428        0.0000000000000000     
   1.7703434435513921E-002  0.17246536490558365        0.0000000000000000     
   1.7944119826876975E-002  0.18047005995100901        0.0000000000000000     
   1.8161764596353182E-002  0.18856222022637031        0.0000000000000000     
   1.8356368743942555E-002  0.19674184573166770        0.0000000000000000     
   1.1592989259671851E-002  0.16448767622770125        0.0000000000000000     
   1.1768232704949729E-002  0.17241128862160865        0.0000000000000000     
   1.1927935382270438E-002  0.18042202456238648        0.0000000000000000     
   1.2072097291633978E-002  0.18851988405003456        0.0000000000000000     
   1.2200718433040346E-002  0.19670486708455298        0.0000000000000000     
   5.7797531188702282E-003  0.16445140091024871        0.0000000000000000     
   5.8670878930949842E-003  0.17237884285115657        0.0000000000000000     
   5.9465621066542244E-003  0.18039320332912262        0.0000000000000000     
   6.0181757595479451E-003  0.18849448234414701        0.0000000000000000     
   6.0819288517761499E-003  0.19668267989622965        0.0000000000000000     
  -1.4085087263193685E-013  0.16443930913773674        0.0000000000000000     
  -5.0317822825052261E-014  0.17236802759422723        0.0000000000000000     
   2.8327600681832266E-014  0.18038359625121753        0.0000000000000000     
   9.5089409436754924E-014  0.18848601510870769        0.0000000000000000     
   1.4996424241298101E-013  0.19667528416669763        0.0000000000000000     
   2.4548879784482773E-002  0.19679361583757382        0.0000000000000000     
   2.4780834288437668E-002  0.20503842009916368        0.0000000000000000     
   2.4983653701202480E-002  0.21334063936883910        0.0000000000000000     
   2.5157338022777202E-002  0.22170027364660000        0.0000000000000000     
   2.5301887253161841E-002  0.23011732293244644        0.0000000000000000     
   1.8356368743942555E-002  0.19674184573166770        0.0000000000000000     
   1.8528723469445802E-002  0.20499240642904229        0.0000000000000000     
   1.8679619972663652E-002  0.21329737228063533        0.0000000000000000     
   1.8809058253596099E-002  0.22165674328644688        0.0000000000000000     
   1.8917038312243156E-002  0.23007051944647688        0.0000000000000000     
   1.2200718433040346E-002  0.19670486708455298        0.0000000000000000     
   1.2314547481740431E-002  0.20495953952180110        0.0000000000000000     
   1.2414333112985128E-002  0.21326646721763845        0.0000000000000000     
   1.2500075326774435E-002  0.22162565017206501        0.0000000000000000     
   1.2571774123108347E-002  0.23003708838508069        0.0000000000000000     
   6.0819288517761499E-003  0.19668267989622965        0.0000000000000000     
   6.1383063253215627E-003  0.20493981937744019        0.0000000000000000     
   6.1877931221669116E-003  0.21324792417984842        0.0000000000000000     
   6.2303892423121992E-003  0.22160699430345432        0.0000000000000000     
   6.2660946857574238E-003  0.23001702974825783        0.0000000000000000     
   1.4996424241298101E-013  0.19667528416669763        0.0000000000000000     
   1.8918937597089958E-013  0.20493324599595947        0.0000000000000000     
   2.0900165279003069E-013  0.21324174316726521        0.0000000000000000     
   2.0939641080103266E-013  0.22160077568061487        0.0000000000000000     
   1.9037896259455067E-013  0.23001034353600841        0.0000000000000000     
   2.5301887253161841E-002  0.23011732293244644        0.0000000000000000     
   2.5423578174333876E-002  0.23856429284638414        0.0000000000000000     
   2.5528687568270779E-002  0.24701368900841889        0.0000000000000000     
   2.5617215434972550E-002  0.25546551141855067        0.0000000000000000     
   2.5689161774439195E-002  0.26391976007677947        0.0000000000000000     
   1.8917038312243156E-002  0.23007051944647688        0.0000000000000000     
   1.9007900876930932E-002  0.23850952529193917        0.0000000000000000     
   1.9085986675985555E-002  0.24694458535404765        0.0000000000000000     
   1.9151295709407021E-002  0.25537569963280227        0.0000000000000000     
   1.9203827977195335E-002  0.26380286812820303        0.0000000000000000     
   1.2571774123108347E-002  0.23003708838508069        0.0000000000000000     
   1.2632078748768497E-002  0.23847040561019731        0.0000000000000000     
   1.2683638450536515E-002  0.24689522560092669        0.0000000000000000     
   1.2726453228412394E-002  0.25531154835726882        0.0000000000000000     
   1.2760523082396138E-002  0.26371937387922362        0.0000000000000000     
   6.2660946857574238E-003  0.23001702974825783        0.0000000000000000     
   6.2961117898465780E-003  0.23844693380115858        0.0000000000000000     
   6.3216428919236579E-003  0.24686560974905608        0.0000000000000000     
   6.3426879919886627E-003  0.25527305759195029        0.0000000000000000     
   6.3592470900415924E-003  0.26366927732984130        0.0000000000000000     
   1.9037896259455067E-013  0.23001034353600841        0.0000000000000000     
   1.6516735895644175E-013  0.23843910986482300        0.0000000000000000     
   1.4698550536429433E-013  0.24685573779843575        0.0000000000000000     
   1.3583269708669632E-013  0.25526022733684672        0.0000000000000000     
   1.3170974727527707E-013  0.26365257848005591        0.0000000000000000     
   2.5689161774439195E-002  0.26391976007677947        0.0000000000000000     
   2.5756721541525762E-002  0.27232129350922640        0.0000000000000000     
   2.5832089691087308E-002  0.28061497024201282        0.0000000000000000     
   2.5915266223123835E-002  0.28880079027513855        0.0000000000000000     
   2.6006251137635338E-002  0.29687875360860361        0.0000000000000000     
   1.9203827977195335E-002  0.26380286812820303        0.0000000000000000     
   1.9253572246667496E-002  0.27216876869036610        0.0000000000000000     
   1.9310517285140501E-002  0.28041607916940742        0.0000000000000000     
   1.9374663092614354E-002  0.28854479956532708        0.0000000000000000     
   1.9446009669089048E-002  0.29655492987812521        0.0000000000000000     
   1.2760523082396138E-002  0.26371937387922362        0.0000000000000000     
   1.2793068891481959E-002  0.27205982239118731        0.0000000000000000     
   1.2831311534664078E-002  0.28027401411755620        0.0000000000000000     
   1.2875251011942495E-002  0.28836194905833007        0.0000000000000000     
   1.2924887323317209E-002  0.29632362721350913        0.0000000000000000     
   6.3592470900415924E-003  0.26366927732984130        0.0000000000000000     
   6.3752114759691534E-003  0.27199445461169031        0.0000000000000000     
   6.3944724396580426E-003  0.28018877508645901        0.0000000000000000     
   6.4170299811082670E-003  0.28825223875414741        0.0000000000000000     
   6.4428841003198230E-003  0.29618484561475533        0.0000000000000000     
   1.3170974727527707E-013  0.26365257848005591        0.0000000000000000     
   1.2907643703874427E-013  0.27197266535187509        0.0000000000000000     
   1.2239558325188860E-013  0.28016036207611617        0.0000000000000000     
   1.1166621013275480E-013  0.28821566865277903        0.0000000000000000     
   9.6889510303732607E-014  0.29613858508186386        0.0000000000000000     
  -4.2860879775896699E-012   5.5320071999012593E-002   0.0000000000000000     
  -3.8961121655300968E-012   6.0925761072409615E-002   0.0000000000000000     
  -3.2261692232624095E-012   6.6715955147186437E-002   0.0000000000000000     
  -2.2762596657826401E-012   7.2690654223343046E-002   0.0000000000000000     
  -1.0463830323048651E-012   7.8849858300879427E-002   0.0000000000000000     
  -3.4252443954270397E-003   5.5348771271942529E-002   0.0000000000000000     
  -3.6282312732614473E-003   6.0953756225735609E-002   0.0000000000000000     
  -3.8225208490457216E-003   6.6743188417207069E-002   0.0000000000000000     
  -4.0081131227798624E-003   7.2717067846356939E-002   0.0000000000000000     
  -4.1850080944638686E-003   7.8875394513185204E-002   0.0000000000000000     
  -6.9060615745137168E-003   5.5434869068870810E-002   0.0000000000000000     
  -7.3047651805508125E-003   6.1037741675493140E-002   0.0000000000000000     
  -7.6877602658873790E-003   6.6824888225111997E-002   0.0000000000000000     
  -8.0550468305234137E-003   7.2796308717727395E-002   0.0000000000000000     
  -8.4066248744589182E-003   7.8952003153339320E-002   0.0000000000000000     
  -1.0442451541546119E-002   5.5578365389797407E-002   0.0000000000000000     
  -1.1029601725764211E-002   6.1177717421682209E-002   0.0000000000000000     
  -1.1595718253751143E-002   6.6961054570901207E-002   0.0000000000000000     
  -1.2140801125506919E-002   7.2928376837454401E-002   0.0000000000000000     
  -1.2664850341031536E-002   7.9079684221341789E-002   0.0000000000000000     
  -1.4034414296524248E-002   5.5779260234722350E-002   0.0000000000000000     
  -1.4802740908901635E-002   6.1373683464302817E-002   0.0000000000000000     
  -1.5546394812637013E-002   6.7151687454574671E-002   0.0000000000000000     
  -1.6265376007730370E-002   7.3113272205537941E-002   0.0000000000000000     
  -1.6959684494181719E-002   7.9258437717192570E-002   0.0000000000000000     
  -1.0463830323048651E-012   7.8849858300879427E-002   0.0000000000000000     
   1.3146211549908138E-013   8.5181572958958701E-002   0.0000000000000000     
   9.2528057698409993E-013   9.1673803776743973E-002   0.0000000000000000     
   1.3350716745238328E-012   9.8326550754235229E-002   0.0000000000000000     
   1.3608350557525739E-012  0.10513981389143245        0.0000000000000000     
  -4.1850080944638686E-003   7.8875394513185204E-002   0.0000000000000000     
  -4.3544682763648453E-003   8.5206182059642505E-002   0.0000000000000000     
  -4.5177561807499015E-003   9.1697444127679509E-002   0.0000000000000000     
  -4.6748718076190356E-003   9.8349180717296203E-002   0.0000000000000000     
  -4.8258151569722475E-003  0.10516139182849256        0.0000000000000000     
  -8.4066248744589182E-003   7.8952003153339320E-002   0.0000000000000000     
  -8.7442856856716662E-003   8.5280009364068654E-002   0.0000000000000000     
  -9.0698205521394359E-003   9.1768365182036238E-002   0.0000000000000000     
  -9.3832294738622254E-003   9.8417070607242071E-002   0.0000000000000000     
  -9.6845124508400365E-003  0.10522612563968614        0.0000000000000000     
  -1.2664850341031536E-002   7.9079684221341789E-002   0.0000000000000000     
  -1.3169452227789001E-002   8.5403054872237108E-002   0.0000000000000000     
  -1.3656193113243323E-002   9.1886566939814132E-002   0.0000000000000000     
  -1.4125072997394501E-002   9.8530220424072820E-002   0.0000000000000000     
  -1.4576091880242534E-002  0.10533401532501320        0.0000000000000000     
  -1.6959684494181719E-002   7.9258437717192570E-002   0.0000000000000000     
  -1.7629967902716853E-002   8.5575318584147908E-002   0.0000000000000000     
  -1.8276873864061564E-002   9.2052049401013206E-002   0.0000000000000000     
  -1.8900402378215865E-002   9.8688630167788477E-002   0.0000000000000000     
  -1.9500553445179741E-002  0.10548506088447371        0.0000000000000000     
   1.3608350557525739E-012  0.10513981389143245        0.0000000000000000     
   1.1728005719358059E-012  0.11210107827196773        0.0000000000000000     
   9.4119308700901794E-013  0.11919782897947313        0.0000000000000000     
   6.6601590778883613E-013  0.12643006601394863        0.0000000000000000     
   3.4726822112363109E-013  0.13379778937539427        0.0000000000000000     
  -4.8258151569722475E-003  0.10516139182849256        0.0000000000000000     
  -4.9700556359976158E-003  0.11212156999752827        0.0000000000000000     
  -5.1070626518832244E-003  0.11921720776066295        0.0000000000000000     
  -5.2368362046290680E-003  0.12644830511789654        0.0000000000000000     
  -5.3593762942351526E-003  0.13381486206922916        0.0000000000000000     
  -9.6845124508400365E-003  0.10522612563968614        0.0000000000000000     
  -9.9725802405357840E-003  0.11218304517361134        0.0000000000000000     
  -1.0246343600412381E-002  0.11927534410326043        0.0000000000000000     
  -1.0505802530469826E-002  0.12650302242863343        0.0000000000000000     
  -1.0750957030708127E-002  0.13386608014973034        0.0000000000000000     
  -1.4576091880242534E-002  0.10533401532501320        0.0000000000000000     
  -1.5007573812441702E-002  0.11228550380021690        0.0000000000000000     
  -1.5417842844646278E-002  0.11937223800726560        0.0000000000000000     
  -1.5806898976856262E-002  0.12659421794615922        0.0000000000000000     
  -1.6174742209071651E-002  0.13395144361689784        0.0000000000000000     
  -1.9500553445179741E-002  0.10548506088447371        0.0000000000000000     
  -2.0075036351715370E-002  0.11242894587734499        0.0000000000000000     
  -2.0621560384584913E-002  0.11950788947267842        0.0000000000000000     
  -2.1140125543788364E-002  0.12672189167047393        0.0000000000000000     
  -2.1630731829325733E-002  0.13407095247073164        0.0000000000000000     
   3.4726822112363109E-013  0.13379778937539427        0.0000000000000000     
   6.1360855632686118E-014  0.14128948425423868        0.0000000000000000     
  -1.1529644426688801E-013  0.14889363584091053        0.0000000000000000     
  -1.8269950439672722E-013  0.15661024413540992        0.0000000000000000     
  -1.4085087263193685E-013  0.16443930913773674        0.0000000000000000     
  -5.3593762942351526E-003  0.13381486206922916        0.0000000000000000     
  -5.4748423643152661E-003  0.14130536080807615        0.0000000000000000     
  -5.5833938584832089E-003  0.14890828352785312        0.0000000000000000     
  -5.6850307767389759E-003  0.15662363022855996        0.0000000000000000     
  -5.7797531190825653E-003  0.16445140091019675        0.0000000000000000     
  -1.0750957030708127E-002  0.13386608014973034        0.0000000000000000     
  -1.0982085759015166E-002  0.14135299046882011        0.0000000000000000     
  -1.1199467373278841E-002  0.14895222658817167        0.0000000000000000     
  -1.1403101873499154E-002  0.15666378850778506        0.0000000000000000     
  -1.1592989259676102E-002  0.16448767622766017        0.0000000000000000     
  -1.6174742209071651E-002  0.13395144361689784        0.0000000000000000     
  -1.6521730184038338E-002  0.14143237323647048        0.0000000000000000     
  -1.6848220544502201E-002  0.14902546502186628        0.0000000000000000     
  -1.7154213290463238E-002  0.15673071897308510        0.0000000000000000     
  -1.7439708421921451E-002  0.16454813509012706        0.0000000000000000     
  -2.1630731829325733E-002  0.13407095247073164        0.0000000000000000     
  -2.2093775639384781E-002  0.14154350911102731        0.0000000000000000     
  -2.2529653372153281E-002  0.14912799882893685        0.0000000000000000     
  -2.2938365027631226E-002  0.15682442162446017        0.0000000000000000     
  -2.3319910605818624E-002  0.16463277749759733        0.0000000000000000     
  -1.4085087263193685E-013  0.16443930913773674        0.0000000000000000     
  -5.0317822825052261E-014  0.17236802759422723        0.0000000000000000     
   2.8327600681832266E-014  0.18038359625121753        0.0000000000000000     
   9.5089409436754924E-014  0.18848601510870769        0.0000000000000000     
   1.4996424241298101E-013  0.19667528416669763        0.0000000000000000     
  -5.7797531190825653E-003  0.16445140091019675        0.0000000000000000     
  -5.8670878931473538E-003  0.17237884285088589        0.0000000000000000     
  -5.9465621065667006E-003  0.18039320332874975        0.0000000000000000     
  -6.0181757593406144E-003  0.18849448234378846        0.0000000000000000     
  -6.0819288514690900E-003  0.19668267989600186        0.0000000000000000     
  -1.1592989259676102E-002  0.16448767622766017        0.0000000000000000     
  -1.1768232704857285E-002  0.17241128862119764        0.0000000000000000     
  -1.1927935382090310E-002  0.18042202456179796        0.0000000000000000     
  -1.2072097291375185E-002  0.18851988404946110        0.0000000000000000     
  -1.2200718432711899E-002  0.19670486708418708        0.0000000000000000     
  -1.7439708421921451E-002  0.16454813509012706        0.0000000000000000     
  -1.7703434435180115E-002  0.17246536490516259        0.0000000000000000     
  -1.7944119826542506E-002  0.18047005995036214        0.0000000000000000     
  -1.8161764596008618E-002  0.18856222022572575        0.0000000000000000     
  -1.8356368743578457E-002  0.19674184573125336        0.0000000000000000     
  -2.3319910605818624E-002  0.16463277749759733        0.0000000000000000     
  -2.3672693084115851E-002  0.17254107170278060        0.0000000000000000     
  -2.3995115439923279E-002  0.18053730949444222        0.0000000000000000     
  -2.4287177673240921E-002  0.18862149087258226        0.0000000000000000     
  -2.4548879784068767E-002  0.19679361583720062        0.0000000000000000     
   1.4996424241298101E-013  0.19667528416669763        0.0000000000000000     
   1.8918937597089958E-013  0.20493324599595947        0.0000000000000000     
   2.0900165279003069E-013  0.21324174316726521        0.0000000000000000     
   2.0939641080103266E-013  0.22160077568061487        0.0000000000000000     
   1.9037896259455067E-013  0.23001034353600841        0.0000000000000000     
  -6.0819288514690900E-003  0.19668267989600186        0.0000000000000000     
  -6.1383063249430313E-003  0.20493981937737260        0.0000000000000000     
  -6.1877931217533344E-003  0.21324792417988317        0.0000000000000000     
  -6.2303892419000029E-003  0.22160699430353359        0.0000000000000000     
  -6.2660946853830323E-003  0.23001702974832383        0.0000000000000000     
  -1.2200718432711899E-002  0.19670486708418708        0.0000000000000000     
  -1.2314547481361448E-002  0.20495953952169321        0.0000000000000000     
  -1.2414333112584825E-002  0.21326646721769665        0.0000000000000000     
  -1.2500075326382028E-002  0.22162565017219751        0.0000000000000000     
  -1.2571774122753059E-002  0.23003708838519571        0.0000000000000000     
  -1.8356368743578457E-002  0.19674184573125336        0.0000000000000000     
  -1.8528723469066061E-002  0.20499240642892125        0.0000000000000000     
  -1.8679619972285469E-002  0.21329737228070567        0.0000000000000000     
  -1.8809058253236682E-002  0.22165674328660664        0.0000000000000000     
  -1.8917038311919702E-002  0.23007051944662404        0.0000000000000000     
  -2.4548879784068767E-002  0.19679361583720062        0.0000000000000000     
  -2.4780834288056868E-002  0.20503842009905679        0.0000000000000000     
  -2.4983653700855268E-002  0.21334063936891023        0.0000000000000000     
  -2.5157338022463963E-002  0.22170027364676090        0.0000000000000000     
  -2.5301887252882960E-002  0.23011732293260884        0.0000000000000000     
   1.9037896259455067E-013  0.23001034353600841        0.0000000000000000     
   1.6516735895644175E-013  0.23843910986482300        0.0000000000000000     
   1.4698550536429433E-013  0.24685573779843575        0.0000000000000000     
   1.3583269708669632E-013  0.25526022733684672        0.0000000000000000     
   1.3170974727527707E-013  0.26365257848005591        0.0000000000000000     
  -6.2660946853830323E-003  0.23001702974832383        0.0000000000000000     
  -6.2961117895214934E-003  0.23844693380119064        0.0000000000000000     
  -6.3216428916344596E-003  0.24686560974907076        0.0000000000000000     
  -6.3426879917219212E-003  0.25527305759196423        0.0000000000000000     
  -6.3592470897838862E-003  0.26366927732987094        0.0000000000000000     
  -1.2571774122753059E-002  0.23003708838519571        0.0000000000000000     
  -1.2632078748459175E-002  0.23847040561026175        0.0000000000000000     
  -1.2683638450261627E-002  0.24689522560096613        0.0000000000000000     
  -1.2726453228160427E-002  0.25531154835730874        0.0000000000000000     
  -1.2760523082155563E-002  0.26371937387928979        0.0000000000000000     
  -1.8917038311919702E-002  0.23007051944662404        0.0000000000000000     
  -1.9007900876647870E-002  0.23850952529203634        0.0000000000000000     
  -1.9085986675734530E-002  0.24694458535412181        0.0000000000000000     
  -1.9151295709179676E-002  0.25537569963288043        0.0000000000000000     
  -1.9203827976983320E-002  0.26380286812831233        0.0000000000000000     
  -2.5301887252882960E-002  0.23011732293260884        0.0000000000000000     
  -2.5423578174087587E-002  0.23856429284651437        0.0000000000000000     
  -2.5528687568053158E-002  0.24701368900853782        0.0000000000000000     
  -2.5617215434779687E-002  0.25546551141867929        0.0000000000000000     
  -2.5689161774267166E-002  0.26391976007693857        0.0000000000000000     
   1.3170974727527707E-013  0.26365257848005591        0.0000000000000000     
   1.2907643703874427E-013  0.27197266535187509        0.0000000000000000     
   1.2239558325188860E-013  0.28016036207611617        0.0000000000000000     
   1.1166621013275480E-013  0.28821566865277903        0.0000000000000000     
   9.6889510303732607E-014  0.29613858508186386        0.0000000000000000     
  -6.3592470897838862E-003  0.26366927732987094        0.0000000000000000     
  -6.3752114757175639E-003  0.27199445461174121        0.0000000000000000     
  -6.3944724394201652E-003  0.28018877508652523        0.0000000000000000     
  -6.4170299808916920E-003  0.28825223875422296        0.0000000000000000     
  -6.4428841001321398E-003  0.29618484561483444        0.0000000000000000     
  -1.2760523082155563E-002  0.26371937387928979        0.0000000000000000     
  -1.2793068891250063E-002  0.27205982239128845        0.0000000000000000     
  -1.2831311534446936E-002  0.28027401411768421        0.0000000000000000     
  -1.2875251011746188E-002  0.28836194905847706        0.0000000000000000     
  -1.2924887323147814E-002  0.29632362721366701        0.0000000000000000     
  -1.9203827976983320E-002  0.26380286812831233        0.0000000000000000     
  -1.9253572246468415E-002  0.27216876869051676        0.0000000000000000     
  -1.9310517284957914E-002  0.28041607916959305        0.0000000000000000     
  -1.9374663092451817E-002  0.28854479956554141        0.0000000000000000     
  -1.9446009668950125E-002  0.29655492987836163        0.0000000000000000     
  -2.5689161774267166E-002  0.26391976007693857        0.0000000000000000     
  -2.5756721541372627E-002  0.27232129350942602        0.0000000000000000     
  -2.5832089690953099E-002  0.28061497024225179        0.0000000000000000     
  -2.5915266223008587E-002  0.28880079027541578        0.0000000000000000     
  -2.6006251137539085E-002  0.29687875360891824        0.0000000000000000     
  -1.4034414296524248E-002   5.5779260234722350E-002   0.0000000000000000     
  -1.4802740908901635E-002   6.1373683464302817E-002   0.0000000000000000     
  -1.5546394812637013E-002   6.7151687454574671E-002   0.0000000000000000     
  -1.6265376007730370E-002   7.3113272205537941E-002   0.0000000000000000     
  -1.6959684494181719E-002   7.9258437717192570E-002   0.0000000000000000     
  -1.7681747011942518E-002   5.6038321560824556E-002   0.0000000000000000     
  -1.8632028475432359E-002   6.1626416309750583E-002   0.0000000000000000     
  -1.9553810179278968E-002   6.7397509786720350E-002   0.0000000000000000     
  -2.0447092123482342E-002   7.3351601991733836E-002   0.0000000000000000     
  -2.1311874308042489E-002   7.9488692924791077E-002   0.0000000000000000     
  -2.1384246860295344E-002   5.6356317325282970E-002   0.0000000000000000     
  -2.2525310170825635E-002   6.1936692464421114E-002   0.0000000000000000     
  -2.3631984590410986E-002   6.7699244477926107E-002   0.0000000000000000     
  -2.4704270119051394E-002   7.3643973365797963E-002   0.0000000000000000     
  -2.5742166756746867E-002   7.9770879128036626E-002   0.0000000000000000     
  -2.5141913841582736E-002   5.6733247528097608E-002   0.0000000000000000     
  -2.6482585995081472E-002   6.2304511928314432E-002   0.0000000000000000     
  -2.7780918046033068E-002   6.8056891528191971E-002   0.0000000000000000     
  -2.9036909994437528E-002   7.3990386327730251E-002   0.0000000000000000     
  -3.0250561840294850E-002   8.0104996326929231E-002   0.0000000000000000     
  -2.8954747955804685E-002   5.7169112169268448E-002   0.0000000000000000     
  -3.0503855948199862E-002   6.2729874701430516E-002   0.0000000000000000     
  -3.2000610546145218E-002   6.8470450937517940E-002   0.0000000000000000     
  -3.3445011749640735E-002   7.4390840877530742E-002   0.0000000000000000     
  -3.4837059558686434E-002   8.0491044521468894E-002   0.0000000000000000     
  -1.6959684494181719E-002   7.9258437717192570E-002   0.0000000000000000     
  -1.7629967902716853E-002   8.5575318584147908E-002   0.0000000000000000     
  -1.8276873864061564E-002   9.2052049401013206E-002   0.0000000000000000     
  -1.8900402378215865E-002   9.8688630167788477E-002   0.0000000000000000     
  -1.9500553445179741E-002  0.10548506088447371        0.0000000000000000     
  -2.1311874308042489E-002   7.9488692924791077E-002   0.0000000000000000     
  -2.2147961035308073E-002   8.5797072364466195E-002   0.0000000000000000     
  -2.2955156607627772E-002   9.2265030089333303E-002   0.0000000000000000     
  -2.3733461025001568E-002   9.8892566099392468E-002   0.0000000000000000     
  -2.4482874287429474E-002  0.10567968039464364        0.0000000000000000     
  -2.5742166756746867E-002   7.9770879128036626E-002   0.0000000000000000     
  -2.6745559950415537E-002   8.6068588077857097E-002   0.0000000000000000     
  -2.7714335146975543E-002   9.2525726528474309E-002   0.0000000000000000     
  -2.8648492346426878E-002   9.9142294479888260E-002   0.0000000000000000     
  -2.9548031548769556E-002  0.10591829193209894        0.0000000000000000     
  -3.0250561840294850E-002   8.0104996326929231E-002   0.0000000000000000     
  -3.1422764648039225E-002   8.6389865724320641E-002   0.0000000000000000     
  -3.2554409482104883E-002   9.2834138718436168E-002   0.0000000000000000     
  -3.3645496342491796E-002   9.9437815309275812E-002   0.0000000000000000     
  -3.4696025229199984E-002  0.10620089549683961        0.0000000000000000     
  -3.4837059558686434E-002   8.0491044521468894E-002   0.0000000000000000     
  -3.6179575128179160E-002   8.6760905303856814E-002   0.0000000000000000     
  -3.7475379613015787E-002   9.3190266659218923E-002   0.0000000000000000     
  -3.8724473013196321E-002   9.9779128587555194E-002   0.0000000000000000     
  -3.9926855328720756E-002  0.10652749108886564        0.0000000000000000     
  -1.9500553445179741E-002  0.10548506088447371        0.0000000000000000     
  -2.0075036351715370E-002  0.11242894587734499        0.0000000000000000     
  -2.0621560384584913E-002  0.11950788947267842        0.0000000000000000     
  -2.1140125543788364E-002  0.12672189167047393        0.0000000000000000     
  -2.1630731829325733E-002  0.13407095247073164        0.0000000000000000     
  -2.4482874287429474E-002  0.10567968039464364        0.0000000000000000     
  -2.5200555792105922E-002  0.11261398304747092        0.0000000000000000     
  -2.5883664936225338E-002  0.11968308413025844        0.0000000000000000     
  -2.6532201719787724E-002  0.12688698364300618        0.0000000000000000     
  -2.7146166142793079E-002  0.13422568158571413        0.0000000000000000     
  -2.9548031548769556E-002  0.10591829193209894        0.0000000000000000     
  -3.0409720067362492E-002  0.11284122695307003        0.0000000000000000     
  -3.1230325215564618E-002  0.11989860761076518        0.0000000000000000     
  -3.2009846993375925E-002  0.12709043390518440        0.0000000000000000     
  -3.2748285400796419E-002  0.13441670583632767        0.0000000000000000     
  -3.4696025229199984E-002  0.10620089549683961        0.0000000000000000     
  -3.5702529177485079E-002  0.11311067759414227        0.0000000000000000     
  -3.6661541222602755E-002  0.12015445991419860        0.0000000000000000     
  -3.7573061364552948E-002  0.12733224245700858        0.0000000000000000     
  -3.8437089603335736E-002  0.13464402522257221        0.0000000000000000     
  -3.9926855328720756E-002  0.10652749108886564        0.0000000000000000     
  -4.1078983122473697E-002  0.11342233497068767        0.0000000000000000     
  -4.2177312957339723E-002  0.12045064104055872        0.0000000000000000     
  -4.3221844833318840E-002  0.12761240929847878        0.0000000000000000     
  -4.4212578750411041E-002  0.13490763974444783        0.0000000000000000     
  -2.1630731829325733E-002  0.13407095247073164        0.0000000000000000     
  -2.2093775639384781E-002  0.14154350911102731        0.0000000000000000     
  -2.2529653372153281E-002  0.14912799882893685        0.0000000000000000     
  -2.2938365027631226E-002  0.15682442162446017        0.0000000000000000     
  -2.3319910605818624E-002  0.16463277749759733        0.0000000000000000     
  -2.7146166142793079E-002  0.13422568158571413        0.0000000000000000     
  -2.7726013614310954E-002  0.14168762319772066        0.0000000000000000     
  -2.8272199543410884E-002  0.14926125371836418        0.0000000000000000     
  -2.8784723930092879E-002  0.15694657314764465        0.0000000000000000     
  -2.9263586774356934E-002  0.16474358148556209        0.0000000000000000     
  -3.2748285400796419E-002  0.13441670583632767        0.0000000000000000     
  -3.3446235598073304E-002  0.14186594060178068        0.0000000000000000     
  -3.4104292745453825E-002  0.14942665539912911        0.0000000000000000     
  -3.4722456842937954E-002  0.15709885022837305        0.0000000000000000     
  -3.5300727890525706E-002  0.16488252508951240        0.0000000000000000     
  -3.8437089603335736E-002  0.13464402522257221        0.0000000000000000     
  -3.9254441590671839E-002  0.14207846132320734        0.0000000000000000     
  -4.0025932978282087E-002  0.14962420387123171        0.0000000000000000     
  -4.0751563766166447E-002  0.15728125286664535        0.0000000000000000     
  -4.1431333954324946E-002  0.16504960830944826        0.0000000000000000     
  -4.4212578750411041E-002  0.13490763974444783        0.0000000000000000     
  -4.5150631592106569E-002  0.14232518536200062        0.0000000000000000     
  -4.6037120241895685E-002  0.14985389913467187        0.0000000000000000     
  -4.6872044699778376E-002  0.15749378106246154        0.0000000000000000     
  -4.7655404965754641E-002  0.16524483114536964        0.0000000000000000     
  -2.3319910605818624E-002  0.16463277749759733        0.0000000000000000     
  -2.3672693084115851E-002  0.17254107170278060        0.0000000000000000     
  -2.3995115439923279E-002  0.18053730949444222        0.0000000000000000     
  -2.4287177673240921E-002  0.18862149087258226        0.0000000000000000     
  -2.4548879784068767E-002  0.19679361583720062        0.0000000000000000     
  -2.9263586774356934E-002  0.16474358148556209        0.0000000000000000     
  -2.9706921726024599E-002  0.17264062606871483        0.0000000000000000     
  -3.0112862434917415E-002  0.18062605423370129        0.0000000000000000     
  -3.0481408901035394E-002  0.18869986598052135        0.0000000000000000     
  -3.0812561124378520E-002  0.19686206130917511        0.0000000000000000     
  -3.5300727890525706E-002  0.16488252508951240        0.0000000000000000     
  -3.5837033435266487E-002  0.17276624505762833        0.0000000000000000     
  -3.6329301024209691E-002  0.18073857520780215        0.0000000000000000     
  -3.6777530657355333E-002  0.18879951554003369        0.0000000000000000     
  -3.7181722334703397E-002  0.19694906605432305        0.0000000000000000     
  -4.1431333954324946E-002  0.16504960830944826        0.0000000000000000     
  -4.2063028211841512E-002  0.17291792866952116        0.0000000000000000     
  -4.2644431207800121E-002  0.18087487241674483        0.0000000000000000     
  -4.3175542942200745E-002  0.18892043955111931        0.0000000000000000     
  -4.3656363415043406E-002  0.19705463007264448        0.0000000000000000     
  -4.7655404965754641E-002  0.16524483114536964        0.0000000000000000     
  -4.8384906055749674E-002  0.17309567690439326        0.0000000000000000     
  -4.9058252985688666E-002  0.18103494586052943        0.0000000000000000     
  -4.9675445755571625E-002  0.18906263801377812        0.0000000000000000     
  -5.0236484365398550E-002  0.19717875336413943        0.0000000000000000     
  -2.4548879784068767E-002  0.19679361583720062        0.0000000000000000     
  -2.4780834288056868E-002  0.20503842009905679        0.0000000000000000     
  -2.4983653700855268E-002  0.21334063936891023        0.0000000000000000     
  -2.5157338022463963E-002  0.22170027364676090        0.0000000000000000     
  -2.5301887252882960E-002  0.23011732293260884        0.0000000000000000     
  -3.0812561124378520E-002  0.19686206130917511        0.0000000000000000     
  -3.1106536213575214E-002  0.20509889217372823        0.0000000000000000     
  -3.1363551277253897E-002  0.21339661052824635        0.0000000000000000     
  -3.1583606315414563E-002  0.22175521637272946        0.0000000000000000     
  -3.1766701328057215E-002  0.23017470970717768        0.0000000000000000     
  -3.7181722334703397E-002  0.19694906605432305        0.0000000000000000     
  -3.7541485520862450E-002  0.20517513429456399        0.0000000000000000     
  -3.7856429680441048E-002  0.21346562780465012        0.0000000000000000     
  -3.8126554813439177E-002  0.22182054658458150        0.0000000000000000     
  -3.8351860919856845E-002  0.23023989063435812        0.0000000000000000     
  -4.3656363415043406E-002  0.19705463007264448        0.0000000000000000     
  -4.4085682209918570E-002  0.20526714646156405        0.0000000000000000     
  -4.4462288910416703E-002  0.21354769119812156        0.0000000000000000     
  -4.4786183516537792E-002  0.22189626428231690        0.0000000000000000     
  -4.5057366028281864E-002  0.23031286571415024        0.0000000000000000     
  -5.0236484365398550E-002  0.19717875336413943        0.0000000000000000     
  -5.0739126280743577E-002  0.20537492867472845        0.0000000000000000     
  -5.1181128967180876E-002  0.21364280070866060        0.0000000000000000     
  -5.1562492424710435E-002  0.22198236946593580        0.0000000000000000     
  -5.1883216653332259E-002  0.23039363494655404        0.0000000000000000     
  -2.5301887252882960E-002  0.23011732293260884        0.0000000000000000     
  -2.5423578174087587E-002  0.23856429284651437        0.0000000000000000     
  -2.5528687568053158E-002  0.24701368900853782        0.0000000000000000     
  -2.5617215434779687E-002  0.25546551141867929        0.0000000000000000     
  -2.5689161774267166E-002  0.26391976007693857        0.0000000000000000     
  -3.1766701328057215E-002  0.23017470970717768        0.0000000000000000     
  -3.1920770705842663E-002  0.23863022976802784        0.0000000000000000     
  -3.2053748839431712E-002  0.24709691579171694        0.0000000000000000     
  -3.2165635728824381E-002  0.25557476777824506        0.0000000000000000     
  -3.2256431374020650E-002  0.26406378572761219        0.0000000000000000     
  -3.8351860919856845E-002  0.23023989063435812        0.0000000000000000     
  -3.8541138536977465E-002  0.23870285755090875        0.0000000000000000     
  -3.8703178202084423E-002  0.24718864493116208        0.0000000000000000     
  -3.8837979915177720E-002  0.25569725277511807        0.0000000000000000     
  -3.8945543676257348E-002  0.26422868108277681        0.0000000000000000     
  -4.5057366028281864E-002  0.23031286571415024        0.0000000000000000     
  -4.5284681667491992E-002  0.23878217619515710        0.0000000000000000     
  -4.5476975656011262E-002  0.24728887642687306        0.0000000000000000     
  -4.5634247993839701E-002  0.25583296640929820        0.0000000000000000     
  -4.5756498680977274E-002  0.26441444614243237        0.0000000000000000     
  -5.1883216653332259E-002  0.23039363494655404        0.0000000000000000     
  -5.2151400097386218E-002  0.23886818570077289        0.0000000000000000     
  -5.2375141201212241E-002  0.24739761027885002        0.0000000000000000     
  -5.2554439964810296E-002  0.25598190868078535        0.0000000000000000     
  -5.2689296388180401E-002  0.26462108090657893        0.0000000000000000     
  -2.5689161774267166E-002  0.26391976007693857        0.0000000000000000     
  -2.5756721541372627E-002  0.27232129350942602        0.0000000000000000     
  -2.5832089690953099E-002  0.28061497024225179        0.0000000000000000     
  -2.5915266223008587E-002  0.28880079027541578        0.0000000000000000     
  -2.6006251137539085E-002  0.29687875360891824        0.0000000000000000     
  -3.2256431374020650E-002  0.26406378572761219        0.0000000000000000     
  -3.2340939660943195E-002  0.27251106827486510        0.0000000000000000     
  -3.2433964475514679E-002  0.28086371405505056        0.0000000000000000     
  -3.2535505817735101E-002  0.28912172306816863        0.0000000000000000     
  -3.2645563687604462E-002  0.29728509531421926        0.0000000000000000     
  -3.8945543676257348E-002  0.26422868108277681        0.0000000000000000     
  -3.9044649490160628E-002  0.27273176441368252        0.0000000000000000     
  -3.9154077361724833E-002  0.28115533732737946        0.0000000000000000     
  -3.9273827290949963E-002  0.28949939982386780        0.0000000000000000     
  -3.9403899277836031E-002  0.29776395190314731        0.0000000000000000     
  -4.5756498680977274E-002  0.26441444614243237        0.0000000000000000     
  -4.5867851029024916E-002  0.27298338192587829        0.0000000000000000     
  -4.5992428349583558E-002  0.28148984005923866        0.0000000000000000     
  -4.6130230642653175E-002  0.28993382054251332        0.0000000000000000     
  -4.6281257908233786E-002  0.29831532337570238        0.0000000000000000     
  -5.2689296388180401E-002  0.26462108090657893        0.0000000000000000     
  -5.2810544277536071E-002  0.27326592081145251        0.0000000000000000     
  -5.2949017439090862E-002  0.28186722225062794        0.0000000000000000     
  -5.3104715872844752E-002  0.29042498522410526        0.0000000000000000     
  -5.3277639578797747E-002  0.29893920973188437        0.0000000000000000     
  -2.8954747955804685E-002   5.7169112169268448E-002   0.0000000000000000     
  -3.0503855948199862E-002   6.2729874701430516E-002   0.0000000000000000     
  -3.2000610546145218E-002   6.8470450937517940E-002   0.0000000000000000     
  -3.3445011749640735E-002   7.4390840877530742E-002   0.0000000000000000     
  -3.4837059558686434E-002   8.0491044521468894E-002   0.0000000000000000     
  -3.2886039659101647E-002   5.7664700300012334E-002   0.0000000000000000     
  -3.4642916752583366E-002   6.3212549340551885E-002   0.0000000000000000     
  -3.6337446475066704E-002   6.8939117146115322E-002   0.0000000000000000     
  -3.7969628826551652E-002   7.4844403716702618E-002   0.0000000000000000     
  -3.9539463807038197E-002   8.0928409052313785E-002   0.0000000000000000     
  -3.6999079407614072E-002   5.8220800971546104E-002   0.0000000000000000     
  -3.8953565130634520E-002   6.3752304402461074E-002   0.0000000000000000     
  -4.0837810217116778E-002   6.9462084594195408E-002   0.0000000000000000     
  -4.2651814667060840E-002   7.5350141546749058E-002   0.0000000000000000     
  -4.4395578480466706E-002   8.1416475260122106E-002   0.0000000000000000     
  -4.1293867201341955E-002   5.8837414183869736E-002   0.0000000000000000     
  -4.3435801082353336E-002   6.4349139887158083E-002   0.0000000000000000     
  -4.5501701772295455E-002   7.0039353281758213E-002   0.0000000000000000     
  -4.7491569271168328E-002   7.5908054367670105E-002   0.0000000000000000     
  -4.9405403578971961E-002   8.1955243144893802E-002   0.0000000000000000     
  -4.5770403040285318E-002   5.9514539936983274E-002   0.0000000000000000     
  -4.8089624607739787E-002   6.5003055794642897E-002   0.0000000000000000     
  -5.0329121140602721E-002   7.0670923208803721E-002   0.0000000000000000     
  -5.2488892638874109E-002   7.6518142179465731E-002   0.0000000000000000     
  -5.4568939102553962E-002   8.2544712706628942E-002   0.0000000000000000     
  -3.4837059558686434E-002   8.0491044521468894E-002   0.0000000000000000     
  -3.6179575128179160E-002   8.6760905303856814E-002   0.0000000000000000     
  -3.7475379613015787E-002   9.3190266659218923E-002   0.0000000000000000     
  -3.8724473013196321E-002   9.9779128587555194E-002   0.0000000000000000     
  -3.9926855328720756E-002  0.10652749108886564        0.0000000000000000     
  -3.9539463807038197E-002   8.0928409052313785E-002   0.0000000000000000     
  -4.1051762581827966E-002   8.7181556262588805E-002   0.0000000000000000     
  -4.2511336316222587E-002   9.3594268457167687E-002   0.0000000000000000     
  -4.3918185010222051E-002  0.10016654563605039        0.0000000000000000     
  -4.5272308663826359E-002  0.10689838779923695        0.0000000000000000     
  -4.4395578480466706E-002   8.1416475260122106E-002   0.0000000000000000     
  -4.6075098199978307E-002   8.7651668046639833E-002   0.0000000000000000     
  -4.7696370368239614E-002   9.4046302218627600E-002   0.0000000000000000     
  -4.9259394985250594E-002  0.10060037777608546        0.0000000000000000     
  -5.0764172051011268E-002  0.10731389471901340        0.0000000000000000     
  -4.9405403578971961E-002   8.1955243144893802E-002   0.0000000000000000     
  -5.1249581982630181E-002   8.8171240656009828E-002   0.0000000000000000     
  -5.3030481769066828E-002   9.4546367943598705E-002   0.0000000000000000     
  -5.4748102938281924E-002  0.10108062500766042        0.0000000000000000     
  -5.6402445490275462E-002  0.10777401184819500        0.0000000000000000     
  -5.4568939102553962E-002   8.2544712706628942E-002   0.0000000000000000     
  -5.6575213929783576E-002   8.8740274090698845E-002   0.0000000000000000     
  -5.8513670518704285E-002   9.5094465632080932E-002   0.0000000000000000     
  -6.0384308869316082E-002  0.10160728733077526        0.0000000000000000     
  -6.2187128981618961E-002  0.10827873918678177        0.0000000000000000     
  -3.9926855328720756E-002  0.10652749108886564        0.0000000000000000     
  -4.1078983122473697E-002  0.11342233497068767        0.0000000000000000     
  -4.2177312957339723E-002  0.12045064104055872        0.0000000000000000     
  -4.3221844833318840E-002  0.12761240929847878        0.0000000000000000     
  -4.4212578750411041E-002  0.13490763974444783        0.0000000000000000     
  -4.5272308663826359E-002  0.10689838779923695        0.0000000000000000     
  -4.6570090182233133E-002  0.11377650608557972        0.0000000000000000     
  -4.7807912470639993E-002  0.12078761163393115        0.0000000000000000     
  -4.8985775529046927E-002  0.12793170444429122        0.0000000000000000     
  -5.0103679357453954E-002  0.13520878451665991        0.0000000000000000     
  -5.0764172051011268E-002  0.10731389471901340        0.0000000000000000     
  -5.2206858636668192E-002  0.11417349794169189        0.0000000000000000     
  -5.3583611813367994E-002  0.12116583233840146        0.0000000000000000     
  -5.4894431581110625E-002  0.12829089790914214        0.0000000000000000     
  -5.6139317939896100E-002  0.13554869465391384        0.0000000000000000     
  -5.6402445490275462E-002  0.10777401184819500        0.0000000000000000     
  -5.7989288485778903E-002  0.11461331053902417        0.0000000000000000     
  -5.9504410985523705E-002  0.12158530315396968        0.0000000000000000     
  -6.0947812989509909E-002  0.12868998969303150        0.0000000000000000     
  -6.2319494497737472E-002  0.13592737015620965        0.0000000000000000     
  -6.2187128981618961E-002  0.10827873918678177        0.0000000000000000     
  -6.3917379729565224E-002  0.11509594387757657        0.0000000000000000     
  -6.5570309987107167E-002  0.12204602408063576        0.0000000000000000     
  -6.7145919754244790E-002  0.12912897979595939        0.0000000000000000     
  -6.8644209030978079E-002  0.13634481102354731        0.0000000000000000     
  -4.4212578750411041E-002  0.13490763974444783        0.0000000000000000     
  -4.5150631592106569E-002  0.14232518536200062        0.0000000000000000     
  -4.6037120241895685E-002  0.14985389913467187        0.0000000000000000     
  -4.6872044699778376E-002  0.15749378106246154        0.0000000000000000     
  -4.7655404965754641E-002  0.16524483114536964        0.0000000000000000     
  -5.0103679357453954E-002  0.13520878451665991        0.0000000000000000     
  -5.1163124619155544E-002  0.14260784407918173        0.0000000000000000     
  -5.2165611977446194E-002  0.15011787536000110        0.0000000000000000     
  -5.3111141432325891E-002  0.15773887835911807        0.0000000000000000     
  -5.3999712983794648E-002  0.16547085307653264        0.0000000000000000     
  -5.6139317939896100E-002  0.13554869465391384        0.0000000000000000     
  -5.7320239688596827E-002  0.14292816883577175        0.0000000000000000     
  -5.8439165626085185E-002  0.15041826671777098        0.0000000000000000     
  -5.9496095752361186E-002  0.15801898829991151        0.0000000000000000     
  -6.0491030067424824E-002  0.16573033358219327        0.0000000000000000     
  -6.2319494497737472E-002  0.13592737015620965        0.0000000000000000     
  -6.3621976800430399E-002  0.14328615963177074        0.0000000000000000     
  -6.4857781187812671E-002  0.15075507320798143        0.0000000000000000     
  -6.6026907659884240E-002  0.15833411088484173        0.0000000000000000     
  -6.7129356216645175E-002  0.16602327266235156        0.0000000000000000     
  -6.8644209030978079E-002  0.13634481102354731        0.0000000000000000     
  -7.0068335954656280E-002  0.14368181646717870        0.0000000000000000     
  -7.1421458662628612E-002  0.15112829483063256        0.0000000000000000     
  -7.2703577154895088E-002  0.15868424611390883        0.0000000000000000     
  -7.3914691431455681E-002  0.16634967031700751        0.0000000000000000     
  -4.7655404965754641E-002  0.16524483114536964        0.0000000000000000     
  -4.8384906055749674E-002  0.17309567690439326        0.0000000000000000     
  -4.9058252985688666E-002  0.18103494586052943        0.0000000000000000     
  -4.9675445755571625E-002  0.18906263801377812        0.0000000000000000     
  -5.0236484365398550E-002  0.19717875336413943        0.0000000000000000     
  -5.3999712983794648E-002  0.16547085307653264        0.0000000000000000     
  -5.4829022257621540E-002  0.17330244733265443        0.0000000000000000     
  -5.5596764879575614E-002  0.18122230894789310        0.0000000000000000     
  -5.6302940849656889E-002  0.18923043792224872        0.0000000000000000     
  -5.6947550167865367E-002  0.19732683425572117        0.0000000000000000     
  -6.0491030067424824E-002  0.16573033358219327        0.0000000000000000     
  -6.1421732108087657E-002  0.17354119752471447        0.0000000000000000     
  -6.2285965411161187E-002  0.18144047508757322        0.0000000000000000     
  -6.3083729976645464E-002  0.18942816627076947        0.0000000000000000     
  -6.3815025804540432E-002  0.19750427107430324        0.0000000000000000     
  -6.7129356216645175E-002  0.16602327266235156        0.0000000000000000     
  -6.8163035607148023E-002  0.17381192748057345        0.0000000000000000     
  -6.9125854580445414E-002  0.18168944427956971        0.0000000000000000     
  -7.0017813136537307E-002  0.18965582305934045        0.0000000000000000     
  -7.0838911275423730E-002  0.19771106381988562        0.0000000000000000     
  -7.3914691431455681E-002  0.16634967031700751        0.0000000000000000     
  -7.5052932754802654E-002  0.17411463720023126        0.0000000000000000     
  -7.6116432387428240E-002  0.18196921652388265        0.0000000000000000     
  -7.7105190329332440E-002  0.18991340828796169        0.0000000000000000     
  -7.8019206580515241E-002  0.19794721249246827        0.0000000000000000     
  -5.0236484365398550E-002  0.19717875336413943        0.0000000000000000     
  -5.0739126280743577E-002  0.20537492867472845        0.0000000000000000     
  -5.1181128967180876E-002  0.21364280070866060        0.0000000000000000     
  -5.1562492424710435E-002  0.22198236946593580        0.0000000000000000     
  -5.1883216653332259E-002  0.23039363494655404        0.0000000000000000     
  -5.6947550167865367E-002  0.19732683425572117        0.0000000000000000     
  -5.7527683816094792E-002  0.20550471265231374        0.0000000000000000     
  -5.8040432776238889E-002  0.21375728781602960        0.0000000000000000     
  -5.8485797048297677E-002  0.22208455974686883        0.0000000000000000     
  -5.8863776632271145E-002  0.23048652844483128        0.0000000000000000     
  -6.3815025804540432E-002  0.19750427107430324        0.0000000000000000     
  -6.4477220898729509E-002  0.20566273011257646        0.0000000000000000     
  -6.5067683263096060E-002  0.21389748399999095        0.0000000000000000     
  -6.5586412897640112E-002  0.22220853273654678        0.0000000000000000     
  -6.6033409802361623E-002  0.23059587632224393        0.0000000000000000     
  -7.0838911275423730E-002  0.19771106381988562        0.0000000000000000     
  -7.1587737528647721E-002  0.20584898105551655        0.0000000000000000     
  -7.2262880427752404E-002  0.21406338926054458        0.0000000000000000     
  -7.2864339972737738E-002  0.22235428843496968        0.0000000000000000     
  -7.3392116163603735E-002  0.23072167857879192        0.0000000000000000     
  -7.8019206580515241E-002  0.19794721249246827        0.0000000000000000     
  -7.8859233705849463E-002  0.20606346548113408        0.0000000000000000     
  -7.9626024270207901E-002  0.21425500359769048        0.0000000000000000     
  -8.0319578273590569E-002  0.22252182684213756        0.0000000000000000     
  -8.0939895715997440E-002  0.23086393521447521        0.0000000000000000     
  -5.1883216653332259E-002  0.23039363494655404        0.0000000000000000     
  -5.2151400097386218E-002  0.23886818570077289        0.0000000000000000     
  -5.2375141201212241E-002  0.24739761027885002        0.0000000000000000     
  -5.2554439964810296E-002  0.25598190868078535        0.0000000000000000     
  -5.2689296388180401E-002  0.26462108090657893        0.0000000000000000     
  -5.8863776632271145E-002  0.23048652844483128        0.0000000000000000     
  -5.9180439110156413E-002  0.23896231262723192        0.0000000000000000     
  -5.9441852063950640E-002  0.24751103101138558        0.0000000000000000     
  -5.9648015493653797E-002  0.25613268359729230        0.0000000000000000     
  -5.9798929399265899E-002  0.26482727038495202        0.0000000000000000     
  -6.6033409802361623E-002  0.23059587632224393        0.0000000000000000     
  -6.6410943989298782E-002  0.23906598353400996        0.0000000000000000     
  -6.6721285470489722E-002  0.24762532314877253        0.0000000000000000     
  -6.6964434245934429E-002  0.25627389516653165        0.0000000000000000     
  -6.7140390315632903E-002  0.26501169958728726        0.0000000000000000     
  -7.3392116163603735E-002  0.23072167857879192        0.0000000000000000     
  -7.3842914734813331E-002  0.23917919842110696        0.0000000000000000     
  -7.4213441420829473E-002  0.24774048669101081        0.0000000000000000     
  -7.4503696221652163E-002  0.25640554338850335        0.0000000000000000     
  -7.4713679137281427E-002  0.26517436851358461        0.0000000000000000     
  -8.0939895715997440E-002  0.23086393521447521        0.0000000000000000     
  -8.1476351346700060E-002  0.23930195728852305        0.0000000000000000     
  -8.1918319914969936E-002  0.24785652163810049        0.0000000000000000     
  -8.2265801420807069E-002  0.25652762826320746        0.0000000000000000     
  -8.2518795864211458E-002  0.26531527716384412        0.0000000000000000     
  -5.2689296388180401E-002  0.26462108090657893        0.0000000000000000     
  -5.2810544277536071E-002  0.27326592081145251        0.0000000000000000     
  -5.2949017439090862E-002  0.28186722225062794        0.0000000000000000     
  -5.3104715872844752E-002  0.29042498522410526        0.0000000000000000     
  -5.3277639578797747E-002  0.29893920973188437        0.0000000000000000     
  -5.9798929399265899E-002  0.26482727038495202        0.0000000000000000     
  -5.9931483278680038E-002  0.27355066727513849        0.0000000000000000     
  -6.0082566629789315E-002  0.28225875016862562        0.0000000000000000     
  -6.0252179452593736E-002  0.29095151906541333        0.0000000000000000     
  -6.0440321747093288E-002  0.29962897396550164        0.0000000000000000     
  -6.7140390315632903E-002  0.26501169958728726        0.0000000000000000     
  -6.7289422075442737E-002  0.27380890752166986        0.0000000000000000     
  -6.7451797921221510E-002  0.28263569008030992        0.0000000000000000     
  -6.7627517852969207E-002  0.29149204726320738        0.0000000000000000     
  -6.7816581870685816E-002  0.30037797907036246        0.0000000000000000     
  -7.4713679137281427E-002  0.26517436851358461        0.0000000000000000     
  -7.4884360667824182E-002  0.27404064155104652        0.0000000000000000     
  -7.5056711313387425E-002  0.28299804198568079        0.0000000000000000     
  -7.5230731073971144E-002  0.29204656981748756        0.0000000000000000     
  -7.5406419949575323E-002  0.30118622504646675        0.0000000000000000     
  -8.2518795864211458E-002  0.26531527716384412        0.0000000000000000     
  -8.2716299055824380E-002  0.27424586936326845        0.0000000000000000     
  -8.2897306806287097E-002  0.28334580588473823        0.0000000000000000     
  -8.3061819115599567E-002  0.29261508672825365        0.0000000000000000     
  -8.3209835983761832E-002  0.30205371189381469        0.0000000000000000     
  -4.5770403040285318E-002   5.9514539936983274E-002   0.0000000000000000     
  -4.8089624607739787E-002   6.5003055794642897E-002   0.0000000000000000     
  -5.0329121140602721E-002   7.0670923208803721E-002   0.0000000000000000     
  -5.2488892638874109E-002   7.6518142179465731E-002   0.0000000000000000     
  -5.4568939102553962E-002   8.2544712706628942E-002   0.0000000000000000     
  -5.0412175250247077E-002   6.0249777390724277E-002   0.0000000000000000     
  -5.2909334146261526E-002   6.5713278685727239E-002   0.0000000000000000     
  -5.5322891239447176E-002   7.1356994456494835E-002   0.0000000000000000     
  -5.7652846529804007E-002   7.7180924703027107E-002   0.0000000000000000     
  -5.9899200017332052E-002   8.3185069425323999E-002   0.0000000000000000     
  -5.5202672157030154E-002   6.1040725704930375E-002   0.0000000000000000     
  -5.7889228137386152E-002   6.6479035121222788E-002   0.0000000000000000     
  -6.0485834986237400E-002   7.2097767105994456E-002   0.0000000000000000     
  -6.2992492703583869E-002   7.7896921659245347E-002   0.0000000000000000     
  -6.5409201289425581E-002   8.3876498780975500E-002   0.0000000000000000     
  -6.0141893760634578E-002   6.1887384879601562E-002   0.0000000000000000     
  -6.3029306581113678E-002   6.7300325101129571E-002   0.0000000000000000     
  -6.5817952380973377E-002   7.2893241157302543E-002   0.0000000000000000     
  -6.8507831160213695E-002   7.8666133048120521E-002   0.0000000000000000     
  -7.1098942918834562E-002   8.4619000773583475E-002   0.0000000000000000     
  -6.5229840061060321E-002   6.2789754914737830E-002   0.0000000000000000     
  -6.8329569477444119E-002   6.8177148625447562E-002   0.0000000000000000     
  -7.1319243423655157E-002   7.3743416610419152E-002   0.0000000000000000     
  -7.4198861899693436E-002   7.9488558869652587E-002   0.0000000000000000     
  -7.6968424905558983E-002   8.5412575403147895E-002   0.0000000000000000     
  -5.4568939102553962E-002   8.2544712706628942E-002   0.0000000000000000     
  -5.6575213929783576E-002   8.8740274090698845E-002   0.0000000000000000     
  -5.8513670518704285E-002   9.5094465632080932E-002   0.0000000000000000     
  -6.0384308869316082E-002  0.10160728733077526        0.0000000000000000     
  -6.2187128981618961E-002  0.10827873918678177        0.0000000000000000     
  -5.9899200017332052E-002   8.3185069425323999E-002   0.0000000000000000     
  -6.2067574099018162E-002   8.9358423972141762E-002   0.0000000000000000     
  -6.4163591171849207E-002   9.5689983692236635E-002   0.0000000000000000     
  -6.6187251235825209E-002  0.10217974858560862        0.0000000000000000     
  -6.8138554290946132E-002  0.10882771865225768        0.0000000000000000     
  -6.5409201289425581E-002   8.3876498780975500E-002   0.0000000000000000     
  -6.7742242547913570E-002   9.0025345921773525E-002   0.0000000000000000     
  -6.9997898283198856E-002   9.6332310532228113E-002   0.0000000000000000     
  -7.2176168495281440E-002  0.10279739261233919        0.0000000000000000     
  -7.4277053184161321E-002  0.10942059216210683        0.0000000000000000     
  -7.1098942918834562E-002   8.4619000773583475E-002   0.0000000000000000     
  -7.3599219276469841E-002   9.0741039939594162E-002   0.0000000000000000     
  -7.6016591852753265E-002   9.7021446152055324E-002   0.0000000000000000     
  -7.8351060647684823E-002  0.10346021941096702        0.0000000000000000     
  -8.0602625661264582E-002  0.11005735971632916        0.0000000000000000     
  -7.6968424905558983E-002   8.5412575403147895E-002   0.0000000000000000     
  -7.9638504284686912E-002   9.1505506025603603E-002   0.0000000000000000     
  -8.2219671880512352E-002   9.7757390551718309E-002   0.0000000000000000     
  -8.4711927693035344E-002  0.10416822898149201        0.0000000000000000     
  -8.7115271722255833E-002  0.11073802131492469        0.0000000000000000     
  -6.2187128981618961E-002  0.10827873918678177        0.0000000000000000     
  -6.3917379729565224E-002  0.11509594387757657        0.0000000000000000     
  -6.5570309987107167E-002  0.12204602408063576        0.0000000000000000     
  -6.7145919754244790E-002  0.12912897979595939        0.0000000000000000     
  -6.8644209030978079E-002  0.13634481102354731        0.0000000000000000     
  -6.8138554290946132E-002  0.10882771865225768        0.0000000000000000     
  -7.0012185871105290E-002  0.11562133207968177        0.0000000000000000     
  -7.1802831510195952E-002  0.12254802705537873        0.0000000000000000     
  -7.3510491208218121E-002  0.12960780357934854        0.0000000000000000     
  -7.5135164965171780E-002  0.13680066165159127        0.0000000000000000     
  -7.4277053184161321E-002  0.10942059216210683        0.0000000000000000     
  -7.6294760413477200E-002  0.11618940926767243        0.0000000000000000     
  -7.8223498246867654E-002  0.12309134401517752        0.0000000000000000     
  -8.0063266684332723E-002  0.13012639640462204        0.0000000000000000     
  -8.1814065725872423E-002  0.13729456643600599        0.0000000000000000     
  -8.0602625661264582E-002  0.11005735971632916        0.0000000000000000     
  -8.2765103356680914E-002  0.11680017544154861        0.0000000000000000     
  -8.4832310197122257E-002  0.12367597496003213        0.0000000000000000     
  -8.6804246182588640E-002  0.13068475827177978        0.0000000000000000     
  -8.8680911313080035E-002  0.13782652537679149        0.0000000000000000     
  -8.7115271722255833E-002  0.11073802131492469        0.0000000000000000     
  -8.9423214700716458E-002  0.11745363060131025        0.0000000000000000     
  -9.1629267360959776E-002  0.12430191988994260        0.0000000000000000     
  -9.3733429702985815E-002  0.13128288918082176        0.0000000000000000     
  -9.5735701726794575E-002  0.13839653847394767        0.0000000000000000     
  -6.8644209030978079E-002  0.13634481102354731        0.0000000000000000     
  -7.0068335954656280E-002  0.14368181646717870        0.0000000000000000     
  -7.1421458662628612E-002  0.15112829483063256        0.0000000000000000     
  -7.2703577154895088E-002  0.15868424611390883        0.0000000000000000     
  -7.3914691431455681E-002  0.16634967031700751        0.0000000000000000     
  -7.5135164965171780E-002  0.13680066165159127        0.0000000000000000     
  -7.6680694493689375E-002  0.14411454376156804        0.0000000000000000     
  -7.8150921506403348E-002  0.15153739239873995        0.0000000000000000     
  -7.9545846003313686E-002  0.15906920756310700        0.0000000000000000     
  -8.0865467984420403E-002  0.16670998925466921        0.0000000000000000     
  -8.1814065725872423E-002  0.13729456643600599        0.0000000000000000     
  -8.3480429759944616E-002  0.14458374593451118        0.0000000000000000     
  -8.5066893175007166E-002  0.15198182672531940        0.0000000000000000     
  -8.6573455971060101E-002  0.15948880880843053        0.0000000000000000     
  -8.8000118148103379E-002  0.16710469218384466        0.0000000000000000     
  -8.8680911313080035E-002  0.13782652537679149        0.0000000000000000     
  -9.0467541753421990E-002  0.14508942298600822        0.0000000000000000     
  -9.2169373668440080E-002  0.15246159781037083        0.0000000000000000     
  -9.3786407058134277E-002  0.15994304984987945        0.0000000000000000     
  -9.5318641922504638E-002  0.16753377910453399        0.0000000000000000     
  -9.5735701726794575E-002  0.13839653847394767        0.0000000000000000     
  -9.7642030474121497E-002  0.14563157491605899        0.0000000000000000     
  -9.9458362986702062E-002  0.15297670565389432        0.0000000000000000     
 -0.10118469926453628       0.16043193068745368        0.0000000000000000     
 -0.10282103930762414       0.16799725001673704        0.0000000000000000     
  -7.3914691431455681E-002  0.16634967031700751        0.0000000000000000     
  -7.5052932754802654E-002  0.17411463720023126        0.0000000000000000     
  -7.6116432387428240E-002  0.18196921652388265        0.0000000000000000     
  -7.7105190329332440E-002  0.18991340828796169        0.0000000000000000     
  -7.8019206580515241E-002  0.19794721249246827        0.0000000000000000     
  -8.0865467984420403E-002  0.16670998925466921        0.0000000000000000     
  -8.2108339850783668E-002  0.17445040142165052        0.0000000000000000     
  -8.3273014003463736E-002  0.18228110801227496        0.0000000000000000     
  -8.4359490442460536E-002  0.19020210902654242        0.0000000000000000     
  -8.5367769167774138E-002  0.19821340446445304        0.0000000000000000     
  -8.8000118148103379E-002  0.16710469218384466        0.0000000000000000     
  -8.9346173194823242E-002  0.17482029488279371        0.0000000000000000     
  -9.0610914599905917E-002  0.18262643493650954        0.0000000000000000     
  -9.1794342363351336E-002  0.19052311234499217        0.0000000000000000     
  -9.2896456485159568E-002  0.19851032710824157        0.0000000000000000     
  -9.5318641922504638E-002  0.16753377910453399        0.0000000000000000     
  -9.6766432786921347E-002  0.17522431758366083        0.0000000000000000     
  -9.8130134176754757E-002  0.18300519729658649        0.0000000000000000     
  -9.9409746092004786E-002  0.19087641824331086        0.0000000000000000     
 -0.10060526853267149       0.19883798042383394        0.0000000000000000     
 -0.10282103930762414       0.16799725001673704        0.0000000000000000     
 -0.10436911862707801       0.17566246952425188        0.0000000000000000     
 -0.10583067273401027       0.18341739509250568        0.0000000000000000     
 -0.10720570162842091       0.19126202672149845        0.0000000000000000     
 -0.10849420531030993       0.19919636441123015        0.0000000000000000     
  -7.8019206580515241E-002  0.19794721249246827        0.0000000000000000     
  -7.8859233705849463E-002  0.20606346548113408        0.0000000000000000     
  -7.9626024270207901E-002  0.21425500359769048        0.0000000000000000     
  -8.0319578273590569E-002  0.22252182684213756        0.0000000000000000     
  -8.0939895715997440E-002  0.23086393521447521        0.0000000000000000     
  -8.5367769167774138E-002  0.19821340446445304        0.0000000000000000     
  -8.6300885074266906E-002  0.20630696883268648        0.0000000000000000     
  -8.7161873056801217E-002  0.21447477663792255        0.0000000000000000     
  -8.7950733115377086E-002  0.22271682788016128        0.0000000000000000     
  -8.8667465249994512E-002  0.23103312255940267        0.0000000000000000     
  -9.2896456485159568E-002  0.19851032710824157        0.0000000000000000     
  -9.3921867277832208E-002  0.20658027655343125        0.0000000000000000     
  -9.4875185053870992E-002  0.21472515800773473        0.0000000000000000     
  -9.5756409813275822E-002  0.22294497147115197        0.0000000000000000     
  -9.6565541556046755E-002  0.23123971694368298        0.0000000000000000     
 -0.10060526853267149       0.19883798042383394        0.0000000000000000     
 -0.10172218031654544       0.20688338864336850        0.0000000000000000     
 -0.10276596026141718       0.21500614770712695        0.0000000000000000     
 -0.10373660836728675       0.22320625761510959        0.0000000000000000     
 -0.10463412463415415       0.23148371836731615        0.0000000000000000     
 -0.10849420531030993       0.19919636441123015        0.0000000000000000     
 -0.10970182419040651       0.20721630510249806        0.0000000000000000     
 -0.11083419867943985       0.21531774573609935        0.0000000000000000     
 -0.11189132877740988       0.22350068631203407        0.0000000000000000     
 -0.11287321448431667       0.23176512683030220        0.0000000000000000     
  -8.0939895715997440E-002  0.23086393521447521        0.0000000000000000     
  -8.1476351346700060E-002  0.23930195728852305        0.0000000000000000     
  -8.1918319914969936E-002  0.24785652163810049        0.0000000000000000     
  -8.2265801420807069E-002  0.25652762826320746        0.0000000000000000     
  -8.2518795864211458E-002  0.26531527716384412        0.0000000000000000     
  -8.8667465249994512E-002  0.23103312255940267        0.0000000000000000     
  -8.9297704007661682E-002  0.23944922087426868        0.0000000000000000     
  -8.9827083935386715E-002  0.24799068302338134        0.0000000000000000     
  -9.0255605033169678E-002  0.25665750900674067        0.0000000000000000     
  -9.0583267301010517E-002  0.26544969882434655        0.0000000000000000     
  -9.6565541556046755E-002  0.23123971694368298        0.0000000000000000     
  -9.7293422900400953E-002  0.23963594991635453        0.0000000000000000     
  -9.7930896464555564E-002  0.24816022588019329        0.0000000000000000     
  -9.8477962248510603E-002  0.25681254483519933        0.0000000000000000     
  -9.8934620252266070E-002  0.26559290678137260        0.0000000000000000     
 -0.10463412463415415       0.23148371836731615        0.0000000000000000     
 -0.10546350802491786       0.23986214441478049        0.0000000000000000     
 -0.10622975750247642       0.24836515020853633        0.0000000000000000     
 -0.10693287306682984       0.25699273574858350        0.0000000000000000     
 -0.10757285471797813       0.26574490103492232        0.0000000000000000     
 -0.11287321448431667       0.23176512683030220        0.0000000000000000     
 -0.11380795938121241       0.24012780436954667        0.0000000000000000     
 -0.11472366704914931       0.24860545600841041        0.0000000000000000     
 -0.11562033748812743       0.25719808174689335        0.0000000000000000     
 -0.11649797069814670       0.26590568158499561        0.0000000000000000     
  -8.2518795864211458E-002  0.26531527716384412        0.0000000000000000     
  -8.2716299055824380E-002  0.27424586936326845        0.0000000000000000     
  -8.2897306806287097E-002  0.28334580588473823        0.0000000000000000     
  -8.3061819115599567E-002  0.29261508672825365        0.0000000000000000     
  -8.3209835983761832E-002  0.30205371189381469        0.0000000000000000     
  -9.0583267301010517E-002  0.26544969882434655        0.0000000000000000     
  -9.0840416715373448E-002  0.27443028148815801        0.0000000000000000     
  -9.1057399252722687E-002  0.28366228601013393        0.0000000000000000     
  -9.1234214913058220E-002  0.29314571239027426        0.0000000000000000     
  -9.1370863696380034E-002  0.30288056062857899        0.0000000000000000     
  -9.8934620252266070E-002  0.26559290678137260        0.0000000000000000     
  -9.9311893122401490E-002  0.27459956845553779        0.0000000000000000     
  -9.9620803505496403E-002  0.28393078659451959        0.0000000000000000     
  -9.9861351401550794E-002  0.29358656119831783        0.0000000000000000     
 -0.10003353681056468       0.30356689226693268        0.0000000000000000     
 -0.10757285471797813       0.26574490103492232        0.0000000000000000     
 -0.10813072827690852       0.27475373026540773        0.0000000000000000     
 -0.10858751956460827       0.28415130763789509        0.0000000000000000     
 -0.10894322858107734       0.29393763315238441        0.0000000000000000     
 -0.10919785532631579       0.30411270680887564        0.0000000000000000     
 -0.11649797069814670       0.26590568158499561        0.0000000000000000     
 -0.11729692217889451       0.27489276691776771        0.0000000000000000     
 -0.11795754743005823       0.28432384914026054        0.0000000000000000     
 -0.11847984645163784       0.29419892825247396        0.0000000000000000     
 -0.11886381924363332       0.30451800425440800        0.0000000000000000     
 </DataArray>
 <DataArray  type="Float64" Name="stress" NumberOfComponents="3" format="ascii">
   6067388854.4916763        34183782.404092550        100170780.47455108     
   5851410123.3209114        18609677.419488192        71243616.565212026     
   5636335886.3934250        6050553.2458779812        51564744.983970761     
   5422166143.7092466       -3493590.1167387962        41134165.730854191     
   5208900895.2683687       -10022752.668356895        39951878.805843093     
   5642778612.3095665        13765551.259321690        228456631.81184724     
   5450505034.7797909        4962551.4655547142        208805517.55156949     
   5258721467.2533226       -2207081.6505444050        196578281.79684210     
   5067427909.7301483       -7743348.0889697075        191774924.54766119     
   4876624362.2102776       -11646247.849733353        194395445.80402422     
   5244953500.8412619        1382859.3286926746        356853326.81421942     
   5071172466.0308790       -2212818.5507228374        345994697.25634873     
   4897466956.9837942       -5556743.8857858181        340735532.38145912     
   4723836973.7000132       -8648916.6765155792        341075832.18954521     
   4550282516.1795425       -11489336.922895908        347015596.68061566     
   4873913520.0867729       -2964293.3877899647        485360865.48166919     
   4713412417.0741587       -2916432.6293380260        482811155.67954105     
   4552572355.5848503       -3998433.4598658085        484036496.73782396     
   4391393335.6188526       -6210295.8793666363        489036888.65652466     
   4229875357.1761560       -9552019.8878579140        497812331.43563730     
   4529658670.0460987        724093.10987162590        613979247.81419432     
   4377224887.9096394        2851709.2297041416        619254892.82114291     
   4224037663.0564928        2467849.6272346973        626481174.86593938     
   4070096995.4866552       -427485.69753789902        635658093.94858491     
   3915402885.2001252       -5834296.7446088791        646785650.06908333     
   5208900895.2683687       -10022752.668356895        39951878.805843093     
   5040459643.8475523       -2458177.5519742966        30992066.945532221     
   4871540187.3451700        3512380.6258544922        26649762.041658364     
   4702142525.7612362        7888921.8651783466        26924964.094197176     
   4532266659.0957527        10671446.166003227        31817673.103162747     
   4876624362.2102776       -11646247.849733353        194395445.80402422     
   4719403150.5910816       -5132753.4440059662        186898574.31830156     
   4561917221.3177948        498348.78140091896        183657552.81063178     
   4404166574.3904047        5247058.8264701366        184672381.28102195     
   4246151209.8089094        9113376.6912069321        189943059.72945866     
   4550282516.1795425       -11489336.922895908        347015596.68061566     
   4403248038.7094917       -6336914.9235367775        341230734.23485416     
   4256162331.0127916       -1355260.3463406563        339340064.78877491     
   4109025393.0894551        3455626.8087391853        341343588.34237170     
   3961837224.9394760        8095746.5416698456        347241304.89564914     
   4229875357.1761560       -9552019.8878579140        497812331.43563730     
   4091994308.2027454       -6070661.9906432629        493988546.69519633     
   3954275516.4301548       -2048446.7573692799        493697297.97606605     
   3816718981.8583746        2514625.8119492531        496938585.27824283     
   3679324704.4874148        7618555.7173264027        503712408.60172367     
   3915402885.2001252       -5834296.7446088791        646785650.06908333     
   3785641959.0708694       -4333994.6452732086        645172011.69933045     
   3656256777.5698862       -1581210.4516856670        646729252.37251604     
   3527247340.6971741        2424055.8361351490        651457372.08863616     
   3398613648.4527354        7681804.2182006836        659356370.84769344     
   4532266659.0957527        10671446.166003227        31817673.103162747     
   4334891443.6716700        4852099.8979263306        22119686.737137172     
   4137762301.9392853       -147000.73113417625        17427336.474347729     
   3940879233.8985877       -4325855.7212393284        17740622.314789295     
   3744242239.5495858       -7684465.0723805428        23059544.258456741     
   4246151209.8089094        9113376.6912069321        189943059.72945866     
   4061979572.4756289        4941391.4148552418        180982506.99302837     
   3877946440.9400291        1231092.1307783127        176792756.45588851     
   3694051815.2021098       -2017521.1610224247        177373808.11803457     
   3510295695.2618709       -4804448.4605770111        182725661.97949925     
   3961837224.9394760        8095746.5416698456        347241304.89564914     
   3790198211.6857405        5369836.0536296368        338892689.91244966     
   3618590136.3356757        2747051.9111700058        335080043.22461402     
   3447012998.8892851        227394.11429047585        335803364.83213568     
   3275466799.3465638       -2189137.3370342255        341062654.73502761     
   3679324704.4874148        7618555.7173264027        503712408.60172367     
   3519547361.3019862        6137433.8142507076        495850235.49542338     
   3359693388.1262217        4400878.6100409031        492289196.78054631     
   3199762784.9601173        2408890.1047006845        493029292.45709956     
   3039755551.8036709        161468.29823076725        498070522.52507305     
   3398613648.4527354        7681804.2182006836        659356370.84769344     
   3250027021.3243752        7244184.6967035532        651855143.74193358     
   3101256196.3116665        6192572.2273803949        648420217.12367141     
   2952301173.4146018        4526966.8102160692        649051590.99290085     
   2803161952.6331906        2247368.4452131987        653749265.34961498     
   3744242239.5495858       -7684465.0723805428        23059544.258456741     
   3572495089.9383225       -4199062.3201966286        16177111.260393331     
   3400091136.0960445       -2903007.0047409534        13243683.195139740     
   3227030378.0227394       -3796299.1260427237        14259260.062665218     
   3053312815.7184076       -6878938.6840885878        19223841.863010764     
   3510295695.2618709       -4804448.4605770111        182725661.97949925     
   3348515510.3038235       -1361169.7688601017        174820326.80887216     
   3186357759.4359803        823555.89018988609        170642603.52958605     
   3023822442.6583138        1749728.5165046453        170192492.14161336     
   2860909559.9708476        1417348.1101508141        173469992.64496496     
   3275466799.3465638       -2189137.3370342255        341062654.73502761     
   3123021027.4946532        1022251.8300912380        332460195.43328410     
   2970476928.0541487        3905882.3685717583        327363954.98138744     
   2817834501.0250549        6461754.2784086466        325773933.37932265     
   2665093746.4073644        8689867.5596066713        327690130.62710500     
   3039755551.8036709        161468.29823076725        498070522.52507305     
   2896011641.5108085        2951202.4766323566        489096717.13361526     
   2752448641.9505696        6343972.4304451942        483407737.55052167     
   2609066553.1229472        10339778.159648180        481003583.77579117     
   2465865375.0279522        14938619.664273858        481884255.80941868     
   2803161952.6331906        2247368.4452131987        653749265.34961498     
   2667487352.3522987        4425682.1707837582        644729891.90986764     
   2532272901.1252241        8137826.0757673979        638773951.23700345     
   2397518598.9520044        13383800.160249829        635881443.33101726     
   2263224445.8326144        20163604.424176693        636052368.19191694     
   3053312815.7184076       -6878938.6840885878        19223841.863010764     
   2886860824.8186398       -7957548.7565181255        11943561.815639893     
   2720949830.2801728       -7232837.6245666742        6336406.9464209536     
   2555579832.1030087       -4704805.2882953882        2402377.2553232010     
   2390750830.2871475       -373451.74767923355        141472.74236713076     
   2860909559.9708476        1417348.1101508141        173469992.64496496     
   2699435458.8509631        1342981.6618317366        165589941.78322679     
   2538224448.5778661        2145584.7028253078        159634163.19923955     
   2377276529.1515722        3825157.2331616879        155602656.89300770     
   2216591700.5720911        6381699.2528445721        153495422.86452809     
   2665093746.4073644        8689867.5596066713        327690130.62710500     
   2509315098.2091117        9835013.6779055595        318886085.85074151     
   2353521635.3431544        10930777.570522308        312257460.45173633     
   2197713357.8094864        11977159.237437487        307804254.43009704     
   2041890265.6081164        12974158.678679585        305526467.78582758     
   2465865375.0279522        14938619.664273858        481884255.80941868     
   2316499742.8930945        17518547.291728377        471831994.01816571     
   2166841390.5760317        19122740.978502870        464206298.70389402     
   2016890318.0767384        19751200.724514604        459007169.86660612     
   1866646525.3952472        19403926.529852986        456234607.50629091     
   2263224445.8326144        20163604.424176693        636052368.19191694     
   2120989392.9029083        24393582.503310084        624427666.28552258     
   1978183714.2764788        26721474.926717520        615480677.95571959     
   1834807409.9533324        27147281.694398403        609211403.20251274     
   1690860479.9334762        25671002.806369066        605619842.02590370     
   2390750830.2871475       -373451.74767923355        141472.74236713076     
   2248406698.9057927        6710213.6432720423       -6364525.9530620277     
   2102888725.4839797        3214405.5660089254       -10914032.120644081     
   1954196910.0217156       -10860875.979419112       -13507045.760375185     
   1802331252.5189979       -35515630.993015528       -14143566.872271994     
   2216591700.5720911        6381699.2528445721        153495422.86452809     
   2078118502.9718487        12848143.739315748        143339213.91175884     
   1937566662.7707856        12385779.556392431        134346589.39458585     
   1794936179.9688795        4994606.7039774656        126517549.31299181     
   1650227054.5661352       -9325374.8178973198        119852093.66697738     
   2041890265.6081164        12974158.678679585        305526467.78582758     
   1905022550.0968237        18143746.753081918        292997781.25529462     
   1767171391.4243159        20035190.956764817        280839771.06807441     
   1628336789.5905902        18648491.289711177        269052437.22417361     
   1488518744.5956542        13983647.751961946        257635779.72359005     
   1866646525.3952472        19403926.529852986        456234607.50629091     
   1729118840.2807224        22597022.684521675        442611176.07753086     
   1591702911.4445970        26162639.767183244        428565512.89983320     
   1454398738.8868675        30100777.777841628        414097617.97318643     
   1317206322.6075535        34411436.716535270        399207491.29759580     
   1690860479.9334762        25671002.806369066        605619842.02590370     
   1550407373.5235257        26207971.533606350        592179398.37848532     
   1411161222.8316071        30768125.987610459        577523814.88985157     
   1273122027.8577106        39351466.168349266        561653091.56001556     
   1136289788.6018312        51957992.075828850        544567228.38896930     
   1802331252.5189979       -35515630.993015528       -14143566.872271994     
   1771481622.9195280       -16509464.395117879       -8470067.5444902517     
   1748656019.9146953        29243457.518258452       -41571775.275589958     
   1733854443.5045261        101743134.74716920       -113448690.06554933     
   1727076893.6889939        200989567.29153717       -224100811.91437221     
   1650227054.5661352       -9325374.8178973198        119852093.66697738     
   1527641177.0559287       -13887921.973471820        135469056.16550902     
   1409191388.2993953       -4663506.6167908907        124733815.11930276     
   1294877688.2965634        18347871.252233744        87646370.528357342     
   1184700077.0474248        55146211.633546412        24206722.392668881     
   1488518744.5956542        13983647.751961946        257635779.72359005     
   1309690914.9293468       -3499324.4307204485        278660277.91176987     
   1131111236.1757615       -20155126.904328823        285755576.06933552     
   952779708.33491766       -35983759.668807089        278921674.19627863     
   774696331.40680814       -50985222.724165261        258158572.29260752     
   1317206322.6075535        34411436.716535270        399207491.29759580     
   1117630836.5397992        14656328.233161271        421103597.69429874     
   914415563.54379308       -17231403.344372928        441493507.57450527     
   707560503.61958420       -61251758.015927374        460377220.93822396     
   497065656.76713103       -117404735.78161845        477754737.78545302     
   1136289788.6018312        51957992.075828850        544567228.38896930     
   951460941.88725698        40579036.018104553        562799015.51307905     
   759104370.40349126        4107664.0630863011        591947609.63481987     
   559220074.15054631       -57456123.789204806        632013010.75419593     
   351808053.12841988       -144112327.53876182        682995218.87119794     
   1727076893.6889939        200989567.29153717       -224100811.91437221     
   1456554501.4028311        184536129.09480613       -96583013.977017492     
   1153891762.9615963        60948203.714491248        60108479.058060482     
   819088678.36531413       -169774208.84928763        245973667.19086298     
   452145247.61396939       -507631108.59665251        461012550.42141694     
   1184700077.0474248        55146211.633546412        24206722.392668881     
   977623182.04763258        11816430.876615107        155585555.63253909     
   732745361.36247921       -157516435.49818701        312797155.35500461     
   450066614.99194324       -452852387.49093622        495841521.56007189     
   129586942.93603593       -874191425.10157943        704718654.24774218     
   774696331.40680814       -50985222.724165261        258158572.29260752     
   621519423.36445320       -124054999.13995019        386794431.38296366     
   424881010.10641158       -341996459.60801542        537922128.34079421     
   184781091.63269362       -704809604.12832820        711541663.16609061     
  -98780332.056696534       -1212494432.7008927        907653035.85885322     
   497065656.76713103       -117404735.78161845        477754737.78545302     
   388243225.35327005       -223078160.95492661        597043613.27426839     
   230298709.19341251       -492491868.61489069        735483398.01542664     
   23232108.287565887       -925645858.76146710        893074092.00892437     
  -232956577.36425006       -1522540131.3946657        1069815695.2547679     
   351808053.12841988       -144112327.53876182        682995218.87119794     
   277794588.01409501       -285253054.56831396        786333101.30645525     
   148998458.62347850       -609002662.51885486        905480964.37891519     
  -34580335.043440938       -1115361151.3903916        1040438808.0885949     
  -272941792.98665833       -1804328521.1829219        1191206632.4354734     
   4529658670.0460987        724093.10987162590        613979247.81419432     
   4377224887.9096394        2851709.2297041416        619254892.82114291     
   4224037663.0564928        2467849.6272346973        626481174.86593938     
   4070096995.4866552       -427485.69753789902        635658093.94858491     
   3915402885.2001252       -5834296.7446088791        646785650.06908333     
   4190008889.5774283        15013244.604243279        765651738.62918830     
   4043192071.9608436        12236279.100775242        762786333.27106190     
   3896035098.2560611        8325459.9699847698        763422859.34190035     
   3748537968.4630876        3280787.2118940353        767561316.84171116     
   3600700682.5819244       -2897739.1735117435        775201705.77048469     
   3826705495.0389032        22206311.877665043        914548656.73937643     
   3689937911.6310973        15854445.657554388        904024368.74942040     
   3553243458.7635880        9746347.9051229954        898553306.57955682     
   3416622136.4363914        3882018.6203804016        898135470.22977340     
   3280073944.6494927       -1738542.1966817379        902770859.70007741     
   3439748486.4305186        22303294.930125713        1060670002.1447593     
   3317462406.9203997        13706208.900051594        1042968999.2562263     
   3195662744.5790749        6730513.4326506853        1031872516.5788993     
   3074349499.4065599        1376208.5279299021        1027380554.1127743     
   2953522671.4028449       -2356705.8141143322        1029493111.8578529     
   3029137863.7522788        15304193.761629939        1204015774.8453355     
   2925765557.8287477        5791568.8282608986        1179620224.7914734     
   2823292955.7025194       -722043.44744014740        1163380489.3399327     
   2721720057.3735938       -4236643.0654653311        1155296568.4907138     
   2621046862.8419704       -4752230.0258215666        1155368462.2438157     
   3915402885.2001252       -5834296.7446088791        646785650.06908333     
   3785641959.0708694       -4333994.6452732086        645172011.69933045     
   3656256777.5698862       -1581210.4516856670        646729252.37251604     
   3527247340.6971741        2424055.8361351490        651457372.08863616     
   3398613648.4527354        7681804.2182006836        659356370.84769344     
   3600700682.5819244       -2897739.1735117435        775201705.77048469     
   3479732440.2135053       -1142066.4161481857        772064886.15384865     
   3359020938.1677427        1469407.4167521000        772461858.69691622     
   3238566176.4446430        4936682.3251911402        776392623.39968383     
   3118368155.0442066        9259758.3091653585        783857180.26215088     
   3280073944.6494927       -1738542.1966817379        902770859.70007741     
   3168935280.6612396        583569.60450577736        897972020.48001099     
   3057934352.6900349        3364801.4625270367        897069886.53641021     
   2947071160.7358799        6605153.3773770332        900064457.86927891     
   2836345704.7987747        10304625.349064350        906955734.47861278     
   2953522671.4028449       -2356705.8141143322        1029493111.8578529     
   2853250480.4140830        842913.41668593884        1022893414.6778092     
   2752997021.1367607        4104971.6856238842        1020553335.8909972     
   2652762293.5708790        7429468.9926943779        1022472875.4974159     
   2552546297.7164345        10816405.337888002        1028652033.4970686     
   2621046862.8419704       -4752230.0258215666        1155368462.2438157     
   2532678039.4720359       -364034.97958576679        1146829068.7472503     
   2444208943.5079279        3689918.0860697031        1142912206.7606809     
   2355639574.9496436        7409629.1711378098        1143617876.2841051     
   2266969933.7971897        10795098.275640488        1148946077.3175309     
   3398613648.4527354        7681804.2182006836        659356370.84769344     
   3250027021.3243752        7244184.6967035532        651855143.74193358     
   3101256196.3116665        6192572.2273803949        648420217.12367141     
   2952301173.4146018        4526966.8102160692        649051590.99290085     
   2803161952.6331906        2247368.4452131987        653749265.34961498     
   3118368155.0442066        9259758.3091653585        783857180.26215088     
   2980464226.8638082        8591169.5191875696        775669002.66364872     
   2842514618.0926442        7770312.0933153629        771685285.90727758     
   2704519328.7307038        6797186.0315288305        771906029.99303281     
   2566478358.7779942        5671791.3338390589        776331234.92092693     
   2836345704.7987747        10304625.349064350        906955734.47861278     
   2709519219.4367466        9523490.4517321587        898242209.89653277     
   2582785570.7775254        9051811.2304149866        893871306.51122642     
   2456144758.8211141        8889587.6851375103        893843024.32269537     
   2329596783.5675068        9036819.8158737421        898157363.33093381     
   2552546297.7164345        10816405.337888002        1028652033.4970686     
   2437191999.0431776        10041147.494316816        1019574765.4405941     
   2322069054.3663082        10037069.638688326        1014978278.9355340     
   2207177463.6858263        10804171.771028280        1014862573.9818847     
   2092517227.0017288        12342453.891313195        1019227650.5796521     
   2266969933.7971897        10795098.275640488        1148946077.3175309     
   2163482565.6831131        10144140.646955967        1139666669.2958319     
   2060365068.8589931        10726087.318132401        1135006203.1801879     
   1957617443.3248470        12540938.289221525        1134964678.9705999     
   1855239689.0806634        15588693.560179949        1139542096.6670668     
   2803161952.6331906        2247368.4452131987        653749265.34961498     
   2667487352.3522987        4425682.1707837582        644729891.90986764     
   2532272901.1252241        8137826.0757673979        638773951.23700345     
   2397518598.9520044        13383800.160249829        635881443.33101726     
   2263224445.8326144        20163604.424176693        636052368.19191694     
   2566478358.7779942        5671791.3338390589        776331234.92092693     
   2439235940.0494094        8269054.3968538046        767854813.74206996     
   2312357724.3688240        12080327.619861007        762704572.68177903     
   2185843711.7362404        17105611.002865672        760880511.74004531     
   2059693902.1516435        23344904.545859456        762382630.91687763     
   2329596783.5675068        9036819.8158737421        898157363.33093381     
   2211537253.1103272        12278244.232087731        890111957.40616250     
   2093745979.6953001        16413858.788801670        885655478.95162940     
   1976222963.3224385        21443663.486070395        884787927.96734083     
   1858968203.9917302        27367658.323852777        887509304.45329392     
   2092517227.0017288        12342453.891313195        1019227650.5796521     
   1984391291.5350358        16453251.676441550        1011501322.9021451     
   1876437667.1046634        21138419.582626581        1007626670.0465587     
   1768656353.7106080        26397957.609866381        1007603692.0128964     
   1661047351.3528669        32231865.758167982        1011432388.8011583     
   1855239689.0806634        15588693.560179949        1139542096.6670668     
   1757798055.3235464        20794076.729945660        1132022910.2300131     
   1660432786.5969028        26254010.001297474        1128618145.9665601     
   1563143882.9007435        31968493.374256134        1129327803.8767157     
   1465931344.2350574        37937526.848792493        1134151883.9604666     
   2263224445.8326144        20163604.424176693        636052368.19191694     
   2120989392.9029083        24393582.503310084        624427666.28552258     
   1978183714.2764788        26721474.926717520        615480677.95571959     
   1834807409.9533324        27147281.694398403        609211403.20251274     
   1690860479.9334762        25671002.806369066        605619842.02590370     
   2059693902.1516435        23344904.545859456        762382630.91687763     
   1924711871.3943739        26911472.648379087        751373896.93572867     
   1789350433.7943745        29213351.275128126        743419791.81290758     
   1653609589.3516464        30250540.426122129        738520315.54844344     
   1517489338.0661876        30023040.101342380        736675468.14232695     
   1858968203.9917302        27367658.323852777        887509304.45329392     
   1732316096.2119076        30593886.691257119        877339627.06035423     
   1605475800.4433444        33192821.762854218        870601493.80751634     
   1478447316.6860356        35164463.538635254        867294904.69477808     
   1351230644.9399877        36508812.018622279        867419859.72214174     
   1661047351.3528669        32231865.758167982        1011432388.8011583     
   1543802067.3554997        35440824.631951630        1002324856.6594272     
   1426559814.2233784        38659886.389893055        997025783.93954217     
   1309320591.9565012        41889051.031984687        995535170.64151835     
   1192084400.5548763        45128318.558238864        997853016.76534486     
   1465931344.2350574        37937526.848792493        1134151883.9604666     
   1359169784.8251598        41452286.470479846        1126329585.7329252     
   1252602475.1344941        45614545.156277955        1122692662.2089896     
   1146229415.1630576        50424302.906164885        1123241113.3886638     
   1040050604.9108608        55881559.720184088        1127974939.2719464     
   1690860479.9334762        25671002.806369066        605619842.02590370     
   1550407373.5235257        26207971.533606350        592179398.37848532     
   1411161222.8316071        30768125.987610459        577523814.88985157     
   1273122027.8577106        39351466.168349266        561653091.56001556     
   1136289788.6018312        51957992.075828850        544567228.38896930     
   1517489338.0661876        30023040.101342380        736675468.14232695     
   1375383076.9653084        27908969.331716955        727500049.42436004     
   1233596376.0037291        26860099.026407063        718879891.43847132     
   1092129235.1814418        26876429.185409784        710814994.18466091     
   950981654.49844146        27957959.808719337        703305357.66291833     
   1351230644.9399877        36508812.018622279        867419859.72214174     
   1212529516.5004201        33261187.957806230        861474171.09178293     
   1073260552.6214182        28120779.098872304        857854143.76678216     
   933423753.30297542        21087585.441797316        856559777.74714255     
   793019118.54509509        12161606.986606121        857591073.03286421     
   1192084400.5548763        45128318.558238864        997853016.76534486     
   1061846692.1288598        42264627.411903858        994101763.38073337     
   930153752.68468082        34550166.205016911        994446571.87477541     
   797005582.22232580        21984934.937546670        998887442.24745893     
   662402180.74180543        4568933.6095283031        1007424374.4987738     
   1040050604.9108608        55881559.720184088        1127974939.2719464     
   923334603.85063112        54919287.693997711        1125382826.2912383     
   804275976.19350529        46148260.344811827        1128657175.7624593     
   682874721.93947828        29568477.672622144        1137797987.6856110     
   559130841.08855033        5179939.6774408221        1152805262.0606854     
   1136289788.6018312        51957992.075828850        544567228.38896930     
   951460941.88725698        40579036.018104553        562799015.51307905     
   759104370.40349126        4107664.0630863011        591947609.63481987     
   559220074.15054631       -57456123.789204806        632013010.75419593     
   351808053.12841988       -144112327.53876182        682995218.87119794     
   950981654.49844146        27957959.808719337        703305357.66291833     
   791771215.02665329        10996560.189330518        721255663.39603996     
   623917651.05995965       -34775254.413084656        749283885.44789720     
   447420962.59834164       -109357483.99857929        787390023.81850874     
   262281149.64180773       -212750128.56712174        835574078.50784683     
   793019118.54509509        12161606.986606121        857591073.03286421     
   657030255.80499661       -11101285.347719401        873958597.69497037     
   511282868.84424406       -66892591.750899076        899565147.99692225     
   355776957.66283488       -155212312.22292483        934410723.93872499     
   190512522.26077342       -276060446.76379174        978495325.52038074     
   662402180.74180543        4568933.6095283031        1007424374.4987738     
   547238064.22225749       -25714500.593124032        1020907818.4098506     
   421200023.75632846       -92244347.950389326        1042791397.2818747     
   284288059.34401363       -195020608.46227461        1073075111.1148616     
   136502170.98530531       -334043282.12879354        1111758959.9088016     
   559130841.08855033        5179939.6774408221        1152805262.0606854     
   462394640.27845323       -32843085.546824932        1162103325.5406959     
   353669115.79622728       -110830523.01152028        1178962633.3027706     
   232954267.64187849       -228782372.71661973        1203383185.3469126     
   100250095.81540594       -386698634.66213137        1235364981.6731124     
   351808053.12841988       -144112327.53876182        682995218.87119794     
   277794588.01409501       -285253054.56831396        786333101.30645525     
   148998458.62347850       -609002662.51885486        905480964.37891519     
  -34580335.043440938       -1115361151.3903916        1040438808.0885949     
  -272941792.98665833       -1804328521.1829219        1191206632.4354734     
   262281149.64180773       -212750128.56712174        835574078.50784683     
   223588877.67227659       -352406704.59600538        884971012.36069047     
   140661800.24838910       -639512632.13942683        945385617.76447749     
   13499917.370117605       -1074067911.1974475        1016817894.7192041     
  -157896770.96252519       -1656072541.7700505        1099267843.2248766     
   190512522.26077342       -276060446.76379174        978495325.52038074     
   173449131.76098248       -418340565.29451954        986257146.08306789     
   122698794.62876350       -672910505.93335867        1000244329.1104255     
   38261510.864085913       -1039770268.6803869        1020456874.6024534     
  -79862719.533032238       -1518919853.5355446        1046894782.5591482     
   136502170.98530531       -334043282.12879354        1111758959.9088016     
   127375350.28021118       -483054636.66386682        1090191502.4735801     
   95109441.764605016       -709196283.90066433        1070057098.4167591     
   39704445.438477516       -1012468223.8391825        1051355747.7383286     
  -38839638.698165476       -1392870456.4794466        1034087450.4383196     
   100250095.81540594       -386698634.66213137        1235364981.6731124     
   85367533.229947060       -546548918.70408869        1196774081.5322173     
   57893741.655914366       -748369966.04129779        1154823925.6834650     
   17828721.093265235       -992161776.67389500        1109514514.1268420     
  -34827528.457950532       -1277924350.6017308        1060845846.8623528     
   3029137863.7522788        15304193.761629939        1204015774.8453355     
   2925765557.8287477        5791568.8282608986        1179620224.7914734     
   2823292955.7025194       -722043.44744014740        1163380489.3399327     
   2721720057.3735938       -4236643.0654653311        1155296568.4907138     
   2621046862.8419704       -4752230.0258215666        1155368462.2438157     
   2616101230.5193391        4547322.6198915243        1252029251.3736205     
   2532975332.2108431       -1562346.4832268953        1235113203.4850459     
   2450597338.7105527       -5178999.5589879751        1224830203.1987252     
   2368967250.0184712       -6302636.6073861122        1221180250.5146668     
   2288085066.1346030       -4933257.6284103394        1224163345.4328709     
   2223863970.5590692        30263.459952950478        1299103982.5221086     
   2156633717.0082836       -3981678.6701169014        1289490337.9782104     
   2089999569.2766142       -6006601.4031308889        1284986974.0365076     
   2023961527.3640597       -6044504.7390921116        1285593890.6970029     
   1958519591.2706246       -4095388.6779892445        1291311087.9597003     
   1852426083.8714736        1753016.2818169594        1345239968.2908001     
   1796740712.2210808       -1466427.7323954105        1342751628.2709684     
   1741499647.4007094       -3204848.9798603058        1343850801.8532770     
   1686702889.4103620       -3462247.4605830908        1348537489.0377192     
   1632350438.2500453       -2238623.1745433807        1356811689.8242974     
   1501787570.4565461        9715581.0854816437        1390437208.6796966     
   1453296317.8492227        5983406.3299245834        1394897074.3633263     
   1405097573.0828347        3226257.7108128071        1401421686.6490335     
   1357191336.1573746        1444135.2281334400        1410011045.5368149     
   1309577607.0728528        637038.88191187382        1420665151.0266702     
   2621046862.8419704       -4752230.0258215666        1155368462.2438157     
   2532678039.4720359       -364034.97958576679        1146829068.7472503     
   2444208943.5079279        3689918.0860697031        1142912206.7606809     
   2355639574.9496436        7409629.1711378098        1143617876.2841051     
   2266969933.7971897        10795098.275640488        1148946077.3175309     
   2288085066.1346030       -4933257.6284103394        1224163345.4328709     
   2211325685.3059521       -1226830.3193979263        1216662355.3339221     
   2134543811.1505060        2404619.2336375713        1213626505.1576297     
   2057739443.6682689        5961091.0306917429        1215055794.9039953     
   1980912582.8592279        9442585.0717502832        1220950224.5730162     
   1958519591.2706246       -4095388.6779892445        1291311087.9597003     
   1892919962.7337146       -1205636.1810503006        1284939243.7369788     
   1827375620.1373842        1868402.7844952345        1282875147.8495712     
   1761886563.4816365        5126728.2186514139        1285118800.2974772     
   1696452792.7664759        8569340.1214263439        1291670201.0806987     
   1632350438.2500453       -2238623.1745433807        1356811689.8242974     
   1577460871.7553196       -300452.56455606222        1351659733.9564140     
   1522704370.4685597        2081268.7386422157        1350658134.8364997     
   1468080934.3897631        4906540.7350506186        1353806892.4645596     
   1413590563.5189235        8175363.4246588349        1361106006.8405921     
   1309577607.0728528        637038.88191187382        1420665151.0266702     
   1264948412.3707764        1488720.5301020145        1416823825.9922276     
   1220530062.1440363        3043217.0960835814        1416975466.1184161     
   1176322556.3926370        5300528.5798665881        1421120071.4052367     
   1132325895.1165781        8260654.9814535379        1429257641.8526869     
   2266969933.7971897        10795098.275640488        1148946077.3175309     
   2163482565.6831131        10144140.646955967        1139666669.2958319     
   2060365068.8589931        10726087.318132401        1135006203.1801879     
   1957617443.3248470        12540938.289221525        1134964678.9705999     
   1855239689.0806634        15588693.560179949        1139542096.6670668     
   1980912582.8592279        9442585.0717502832        1220950224.5730162     
   1889600268.5396311        9016383.6663739681        1212665118.5832443     
   1798599199.5952210        9627666.8449485302        1209074629.8624167     
   1707909376.0259907        11276434.607459545        1210178758.4105165     
   1617530797.8319468        13962686.953932762        1215977504.2275548     
   1696452792.7664759        8569340.1214263439        1291670201.0806987     
   1617531747.5638759        8432759.5361251831        1284311000.2222857     
   1538863321.8216753        9138243.8188294172        1281722091.9956846     
   1460447515.5398767        10685792.969540060        1283903476.4008982     
   1382284328.7184803        13075406.988250375        1290855153.4379263     
   1413590563.5189235        8175363.4246588349        1361106006.8405921     
   1347277002.7558331        8393268.2561923862        1354604314.2129498     
   1281157435.5383582        9257818.2397806048        1352948589.5800011     
   1215231861.8665047        10769013.375436664        1356138832.9417450     
   1149500281.7402642        12926853.663138270        1364175044.2981830     
   1132325895.1165781        8260654.9814535379        1429257641.8526869     
   1078836034.1155021        8897909.8265548944        1423545060.5552368     
   1025481540.7452681        9986390.1077980995        1422754122.6153631     
   972262415.00586820        11526095.825151861        1426884828.0330560     
   919178656.89730072        13517026.978618681        1435937176.8083265     
   1855239689.0806634        15588693.560179949        1139542096.6670668     
   1757798055.3235464        20794076.729945660        1132022910.2300131     
   1660432786.5969028        26254010.001297474        1128618145.9665601     
   1563143882.9007435        31968493.374256134        1129327803.8767157     
   1465931344.2350574        37937526.848792493        1134151883.9604666     
   1617530797.8319468        13962686.953932762        1215977504.2275548     
   1530799064.8078294        18364749.187825978        1209519750.3491354     
   1444166035.6413448        23095824.280492902        1207371341.2307777     
   1357631710.3325033        28155912.231977105        1209532276.8724768     
   1271196088.8812997        33545013.042243481        1216002557.2742469     
   1382284328.7184803        13075406.988250375        1290855153.4379263     
   1306819418.1029549        16841224.788937390        1285484894.0831630     
   1231475550.1722317        21010518.205635190        1284618902.0749211     
   1156252724.9263027        25583287.238309860        1288257177.4131947     
   1081150942.3651702        30559531.886976123        1296399720.0979912     
   1149500281.7402642        12926853.663138270        1364175044.2981830     
   1085859115.2089307        16223503.533324778        1359918341.4320929     
   1022361330.1895570        19998091.776695490        1360360828.4989793     
   959006926.68213904        24250618.393260360        1365502505.4988470     
   895795904.68667531        28981083.382999182        1375343372.4316916     
   919178656.89730072        13517026.978618681        1435937176.8083265     
   867918156.12575436        16511585.420959800        1432820092.3959310     
   816823375.69332576        20058544.993696451        1434597120.5029714     
   765894315.60000968        24157905.696806401        1441268261.1294448     
   715130975.84581220        28809667.530311704        1452833514.2753587     
   1465931344.2350574        37937526.848792493        1134151883.9604666     
   1359169784.8251598        41452286.470479846        1126329585.7329252     
   1252602475.1344941        45614545.156277955        1122692662.2089896     
   1146229415.1630576        50424302.906164885        1123241113.3886638     
   1040050604.9108608        55881559.720184088        1127974939.2719464     
   1271196088.8812997        33545013.042243481        1216002557.2742469     
   1175491198.9259036        36392786.900564075        1210113780.1309772     
   1079845486.6069293        39437819.546942711        1208698678.4252698     
   984258951.92436004        42680110.981344044        1211757252.1571209     
   888731594.87820768        46119661.203799456        1219289501.3265254     
   1081150942.3651702        30559531.886976123        1296399720.0979912     
   997326438.24700403        32987434.896761894        1292286879.9423714     
   913426039.68242860        35162356.418519199        1292936015.9582610     
   829449746.67144263        37084296.452243716        1298347128.1456583     
   745397559.21405101        38753254.997943729        1308520216.5045707     
   895795904.68667531        28981083.382999182        1375343372.4316916     
   824675502.78845191        31236230.459067345        1372848885.1670947     
   753344134.36099613        32788155.771019936        1375404674.8079627     
   681801799.40431130        33636859.318882644        1383010741.3542929     
   610048497.91839504        33782341.102634877        1395667084.8060777     
   715130975.84581220        28809667.530311704        1452833514.2753587     
   657538392.55024838        31139173.587463975        1451799795.8051667     
   599599770.64263034        32315217.604435682        1456104654.9743814     
   541315110.12296820        32337799.581260145        1465748091.7830122     
   482684410.99125260        31206919.517906725        1480730106.2310531     
   1040050604.9108608        55881559.720184088        1127974939.2719464     
   923334603.85063112        54919287.693997711        1125382826.2912383     
   804275976.19350529        46148260.344811827        1128657175.7624593     
   682874721.93947828        29568477.672622144        1137797987.6856110     
   559130841.08855033        5179939.6774408221        1152805262.0606854     
   888731594.87820768        46119661.203799456        1219289501.3265254     
   786975487.81900001        44290041.500269800        1216770596.5235090     
   682918085.59237826        34789437.905359745        1220092997.1948802     
   576559388.19831824        17617850.418986320        1229256703.3406520     
   467899395.63683742       -7224720.9587844908        1244261714.9608297     
   745397559.21405101        38753254.997943729        1308520216.5045707     
   658529469.07721567        36034724.493517607        1306122739.8802896     
   569401415.20242739        25782981.529239714        1309541411.7528691     
   478013397.58968675        7998026.1051221788        1318776232.1223147     
   384365416.23898786       -17320141.778850794        1333827200.9886317     
   610048497.91839504        33782341.102634877        1395667084.8060777     
   537996547.62527573        30153336.673714548        1393439256.3615806     
   463725965.02366203        19128891.216485709        1397002419.4364250     
   387236750.11357623        709004.73101103306        1406356574.0305991     
   308528902.89500046       -25106322.782758459        1421501720.1441083     
   482684410.99125260        31206919.517906725        1480730106.2310531     
   425376723.46317321        26645878.040852666        1478720145.9673979     
   365891735.05607915        14827166.967083111        1482476020.2455416     
   304229445.76998526       -4249213.7033550143        1491997729.0654879     
   240389855.60487521       -30583263.970514148        1507285272.4272459     
   559130841.08855033        5179939.6774408221        1152805262.0606854     
   462394640.27845323       -32843085.546824932        1162103325.5406959     
   353669115.79622728       -110830523.01152028        1178962633.3027706     
   232954267.64187849       -228782372.71661973        1203383185.3469126     
   100250095.81540594       -386698634.66213137        1235364981.6731124     
   467899395.63683742       -7224720.9587844908        1244261714.9608297     
   390341467.52704334       -41612583.547010794        1242738148.6102233     
   302639179.27966511       -109814979.92716777        1247566971.7540798     
   204792530.89469528       -211831910.09930503        1258748184.3923998     
   96801522.372136340       -347663374.06340605        1276281786.5251873     
   384365416.23898786       -17320141.778850794        1333827200.9886317     
   322531890.00778687       -49109002.977505714        1323634462.2643728     
   252398967.17352781       -108562519.51968862        1318585258.2469702     
   173966647.73622173       -195680691.40536439        1318679588.9364347     
   87234931.695853159       -310463518.63457489        1323917454.3327568     
   308528902.89500046       -25106322.782758459        1421501720.1441083     
   258965907.72066918       -55332343.838381439        1404792266.5031416     
   202948479.47781485       -107073141.78908174        1392017492.7814457     
   140476618.16644382       -180328716.63483489        1383177398.9790034     
   71550323.786550418       -275099068.37566787        1378271985.0958185     
   240389855.60487521       -30583263.970514148        1507285272.4272459     
   199643520.66569376       -60282606.129614502        1486211561.3265414     
   154287716.19252405       -105346846.73534825        1467863675.3574939     
   104322442.18537466       -165775985.78767949        1452241614.5200982     
   49747698.644235983       -241570023.28664440        1439345378.8143649     
   100250095.81540594       -386698634.66213137        1235364981.6731124     
   85367533.229947060       -546548918.70408869        1196774081.5322173     
   57893741.655914366       -748369966.04129779        1154823925.6834650     
   17828721.093265235       -992161776.67389500        1109514514.1268420     
  -34827528.457950532       -1277924350.6017308        1060845846.8623528     
   96801522.372136340       -347663374.06340605        1276281786.5251873     
   79841142.072895408       -488837799.15953207        1221968909.3603849     
   51496232.065720677       -667960656.61543179        1165107152.9822524     
   11766792.350612640       -885031946.43110526        1105696517.3908083     
  -39347177.072421014       -1140051668.6065500        1043737002.5860597     
   87234931.695853159       -310463518.63457489        1323917454.3327568     
   70512095.095813066       -432267476.36100459        1255290415.9714675     
   43611428.068509400       -587997535.51165032        1184924874.8914044     
   6532930.6139328480       -777653696.08655012        1112820831.0925813     
  -40723397.267915487       -1001235958.0856631        1038978284.5749873     
   71550323.786550418       -275099068.37566787        1378271985.0958185     
   57380392.298717126       -376837950.30847788        1296738601.3654864     
   34239329.664271593       -508480602.73000056        1214277091.4109349     
   2127135.8832203746       -670027025.64021158        1130887455.2321601     
  -38956189.044434249       -861477219.03908992        1046569692.8291824     
   49747698.644235983       -241570023.28664440        1439345378.8143649     
   40446033.681605339       -322549221.00194257        1346313465.5424302     
   23379936.853021771       -429409858.27042270        1253163802.5408299     
  -1450591.8415066004       -562151935.09204936        1159896389.8095455     
  -34045552.401979625       -720775451.46682477        1066511227.3486022     
   1501787570.4565461        9715581.0854816437        1390437208.6796966     
   1453296317.8492227        5983406.3299245834        1394897074.3633263     
   1405097573.0828347        3226257.7108128071        1401421686.6490335     
   1357191336.1573746        1444135.2281334400        1410011045.5368149     
   1309577607.0728528        637038.88191187382        1420665151.0266702     
   1152017593.9037857        14989765.879293799        1434966005.6036093     
   1110312978.6632490        10589779.283243775        1434355746.9780583     
   1068827744.5864824        6921063.2330973744        1437055342.4573019     
   1027561891.6734858        3983617.7288502455        1443064792.0413420     
   986515419.92425704        1777442.7704963684        1452384095.7301793     
   785129674.55115378        15128567.833146095        1478497535.5056696     
   753769146.68517959        11128004.398938507        1472731838.1142437     
   722554873.30581188        7614955.9200899005        1471521102.3303325     
   691486854.41304874        4589422.3965892792        1474865328.1539404     
   660565090.00689220        2051403.8284417987        1482764515.5850699     
   401123812.39865142        10131986.947037280        1521031798.3858740     
   383664821.91501576        7598081.6770061255        1510025347.7718792     
   366278959.24082118        5307935.7717813104        1504818966.2681224     
   348966224.37607139        3261549.2313712090        1505412653.8746097     
   331726617.32076192        1458922.0557617694        1511806410.5913358     
   7.4462754643608093        23.220964711518469        1562568794.2442150     
   4.3527541461306667        11.117439432420902        1546236275.9509649     
   2.3915136812272246        2.7881843583017289        1536948934.2706771     
   1.5625504553255283       -1.7668132524782951        1534706769.2033496     
   1.8658647886822182       -2.5475516385076413        1539509780.7489851     
   1309577607.0728528        637038.88191187382        1420665151.0266702     
   1264948412.3707764        1488720.5301020145        1416823825.9922276     
   1220530062.1440363        3043217.0960835814        1416975466.1184161     
   1176322556.3926370        5300528.5798665881        1421120071.4052367     
   1132325895.1165781        8260654.9814535379        1429257641.8526869     
   986515419.92425704        1777442.7704963684        1452384095.7301793     
   952351656.84260464        2208644.0969986916        1447827875.6009352     
   918346027.11449659        3166956.6019830108        1447426056.2471609     
   884498530.73993158        4652380.2854409218        1451178637.6688533     
   850809167.71890211        6664915.1473541260        1459085619.8660226     
   660565090.00689220        2051403.8284417987        1482764515.5850699     
   637328003.15949321        2200498.2174209952        1477431904.0522578     
   614196338.54383647        2701000.0455391705        1476415128.9097543     
   591170096.15992391        3552909.3128044903        1479714190.1575568     
   568249276.00775480        4756226.0192148983        1487329087.7956693     
   331726617.32076192        1458922.0557617694        1511806410.5913358     
   319877451.32143736        1464282.8913528323        1505635911.3461931     
   308080996.43205816        1645347.4267633855        1503942684.1061983     
   296337252.65262550        2002115.6619942635        1506726728.8713474     
   284646219.98313606        2534587.5970368087        1513988045.6416430     
   1.8658647886822182       -2.5475516385076413        1539509780.7489851     
   1.3284410659420849       -1.8811890918639369        1532439897.4827476     
  0.77915984104231384       -1.2543508585296368        1530008721.8364928     
  0.21802866288945899      -0.66701281631697718        1532216253.8102238     
 -0.35495718086420769      -0.11919032610702335        1539062493.4039395     
   1132325895.1165781        8260654.9814535379        1429257641.8526869     
   1078836034.1155021        8897909.8265548944        1423545060.5552368     
   1025481540.7452681        9986390.1077980995        1422754122.6153631     
   972262415.00586820        11526095.825151861        1426884828.0330560     
   919178656.89730072        13517026.978618681        1435937176.8083265     
   850809167.71890211        6664915.1473541260        1459085619.8660226     
   810177497.31243515        6988574.0313209593        1453206117.5504565     
   769647352.61023188        7650651.9294958115        1452368256.0180523     
   729218733.61229503        8651148.8418944776        1456572035.2688084     
   688891640.31861949        9990064.7684970200        1465817455.3027203     
   568249276.00775480        4756226.0192148983        1487329087.7956693     
   540818645.98328340        4869143.8782473505        1481243182.2143276     
   513455699.73650360        5207674.3295867443        1480318914.8417296     
   486160437.26741683        5771817.3732357323        1484556285.6778784     
   458932858.57602328        6561573.0091959238        1493955294.7227733     
   284646219.98313606        2534587.5970368087        1513988045.6416430     
   270759480.12804770        2539619.3673473299        1507656254.5468533     
   256906582.12408316        2657457.3080696017        1506606099.0863976     
   243087525.97124070        2888101.4191992134        1510837579.2602706     
   229302311.66951731        3231551.7007243484        1520350695.0684764     
 -0.35495718086420769      -0.11919032610702335        1539062493.4039395     
 -0.25326503714741588       0.49863750948799279        1532445334.5480351     
 -0.22702956730686336       0.86494309882887810        1531229808.7520511     
 -0.27623937935629478       0.97976441520315027        1535415916.0159836     
 -0.40090119868518603       0.84307904064588957        1545003656.3398349     
   919178656.89730072        13517026.978618681        1435937176.8083265     
   867918156.12575436        16511585.420959800        1432820092.3959310     
   816823375.69332576        20058544.993696451        1434597120.5029714     
   765894315.60000968        24157905.696806401        1441268261.1294448     
   715130975.84581220        28809667.530311704        1452833514.2753587     
   688891640.31861949        9990064.7684970200        1465817455.3027203     
   650186629.13781440        12158092.863226891        1463014716.7528090     
   611605908.20940900        14740421.799285859        1465166672.3719463     
   573149477.53339767        17737051.576663762        1472273322.1601288     
   534817337.10977954        21147982.195347577        1484334666.1173522     
   458932858.57602328        6561573.0091959238        1493955294.7227733     
   432956427.41342241        7954997.8845683634        1491418566.9341707     
   407062856.41649342        9624623.3121818900        1493897114.9642262     
   381252145.58524019        11570449.292047352        1501390938.8129363     
   355524294.91965938        13792475.824153885        1513900038.4802988     
   229302311.66951731        3231551.7007243484        1520350695.0684764     
   216227550.95256948        3902300.4849565625        1518031642.9400105     
   203194220.31458160        4711149.5323859155        1520788448.2798092     
   190202319.75553960        5658098.8429697454        1528621111.0878720     
   177251849.27544907        6743148.4167247713        1541529631.3641999     
 -0.40090119868518603       0.84307904064588957        1545003656.3398349     
 -0.24473394922341296       0.66442293516860884        1542853944.7703290     
  -9.6334112847989956E-002  0.45987545273682817        1545840672.3186970     
   4.4300048977138143E-002  0.22944377624951168        1553963838.9849372     
  0.17715673250717645       -2.6915603445665605E-002   1567223444.7690587     
   715130975.84581220        28809667.530311704        1452833514.2753587     
   657538392.55024838        31139173.587463975        1451799795.8051667     
   599599770.64263034        32315217.604435682        1456104654.9743814     
   541315110.12296820        32337799.581260145        1465748091.7830122     
   482684410.99125260        31206919.517906725        1480730106.2310531     
   534817337.10977954        21147982.195347577        1484334666.1173522     
   491052110.94977987        22723875.071143866        1483371500.7053139     
   447027355.84154993        23434671.452843666        1487880096.9538462     
   402743071.78511071        23280371.340513214        1497860454.8629386     
   358199258.78045243        22260974.734116271        1513312574.4326046     
   355524294.91965938        13792475.824153885        1513900038.4802988     
   325966951.66994113        14728913.250986025        1513108354.0675581     
   296236589.13583308        15088619.729853243        1517921615.3365386     
   266333207.31734839        14871595.260794610        1528339822.2872376     
   236256806.21447256        14077839.843771890        1544362974.9196575     
   177251849.27544907        6743148.4167247713        1541529631.3641999     
   162282914.71074328        7154288.1270204335        1541010355.8918958     
   147227470.52548435        7277062.4354736581        1546229210.1224644     
   132085516.71967748        7111471.3421002179        1557186194.0559094     
   116857053.29331520        6657514.8468742780        1573881307.6922255     
  0.17715673250717645       -2.6915603445665605E-002   1567223444.7690587     
   7.2193075693329514E-002 -0.30072752895962951        1567077506.1783276     
   1.0501169531010462E-002 -0.43029959174577659        1572802881.3116233     
  -7.8954242411398978E-003 -0.41555394656469491        1584399570.1689444     
   1.6979641136339985E-002 -0.25657013144090268        1601867572.7503040     
   482684410.99125260        31206919.517906725        1480730106.2310531     
   425376723.46317321        26645878.040852666        1478720145.9673979     
   365891735.05607915        14827166.967083111        1482476020.2455416     
   304229445.76998526       -4249213.7033550143        1491997729.0654879     
   240389855.60487521       -30583263.970514148        1507285272.4272459     
   358199258.78045243        22260974.734116271        1513312574.4326046     
   316047882.73828059        19089010.553422824        1509873135.6075397     
   272263531.03132588        10473794.156790376        1512006007.0845156     
   226846203.65960455       -3584674.4557328373        1519711188.8635342     
   179795900.62310380       -23086395.284187347        1532988680.9445992     
   236256806.21447256        14077839.843771890        1544362974.9196575     
   208708815.25888366        12129075.039639957        1540129103.6164649     
   180072173.85274917        6551475.4003589079        1541274018.3755524     
   150346881.99607724       -2654959.0740475729        1547797719.1969132     
   119532939.68886158       -15490228.383598462        1559700206.0805566     
   116857053.29331520        6657514.8468742780        1573881307.6922255     
   103359521.02498302        5766071.4995035194        1569488049.9941797     
   89317663.520341188        3060210.6977672577        1570280054.1186466     
   74731480.779392511       -1460067.5583263785        1576257320.0656226     
   59600972.802139387       -7794763.2687685527        1587419847.8351178     
   1.6979641136339985E-002 -0.25657013144090268        1601867572.7503040     
   3.6581086145585293E-002  -6.6979983830379786E-002   1597949974.7406731     
   3.4110168901878332E-002   4.9037010715749660E-002   1599024114.3137949     
   9.5690396998135141E-003   9.1485244288572104E-002   1605089991.4696646     
  -3.7045824283668080E-002   6.0355749702119404E-002   1616147606.2082899     
   240389855.60487521       -30583263.970514148        1507285272.4272459     
   199643520.66569376       -60282606.129614502        1486211561.3265414     
   154287716.19252405       -105346846.73534825        1467863675.3574939     
   104322442.18537466       -165775985.78767949        1452241614.5200982     
   49747698.644235983       -241570023.28664440        1439345378.8143649     
   179795900.62310380       -23086395.284187347        1532988680.9445992     
   148517478.20978242       -45576503.276403382        1507409162.5866015     
   113781953.64758147       -79590285.098216534        1484723159.3090956     
   75589326.936502159       -125127740.74962643        1464930671.1120720     
   33939598.076538399       -182188870.23064828        1448031697.9955504     
   119532939.68886158       -15490228.383598462        1559700206.0805566     
   98201543.940915808       -30627367.967078820        1530959309.0812311     
   74565413.429197252       -53446956.763137281        1505279617.1112211     
   48624548.153707445       -83948994.771763384        1482661130.1705396     
   20378948.114445515       -122133481.99296740        1463103848.2591808     
   59600972.802139387       -7794763.2687685527        1587419847.8351178     
   48695717.859093755       -15435200.201640900        1556862000.8104255     
   36638095.537375867       -26916861.730085857        1529533048.7638710     
   23428105.836993217       -42239747.854082853        1505432991.6954801     
   9065748.7579506449       -61403858.573608786        1484561829.6052387     
  -3.7045824283668080E-002   6.0355749702119404E-002   1616147606.2082899     
  -3.5683544031693958E-002   1.9910446917555127E-002   1585117237.7741780     
  -2.7874360329074043E-002   9.5690396998135072E-004   1557483454.2670498     
  -1.3630625931988908E-002   3.4497816691204533E-003   1533246255.6869085     
   7.0611099385136300E-003   2.7438079281155409E-002   1512405642.0337453     
   49747698.644235983       -241570023.28664440        1439345378.8143649     
   40446033.681605339       -322549221.00194257        1346313465.5424302     
   23379936.853021771       -429409858.27042270        1253163802.5408299     
  -1450591.8415066004       -562151935.09204936        1159896389.8095455     
  -34045552.401979625       -720775451.46682477        1066511227.3486022     
   33939598.076538399       -182188870.23064828        1448031697.9955504     
   29800058.936369732       -242072255.63662368        1347529252.1208322     
   19837195.896124735       -321366720.70952302        1246247157.6139829     
   4051008.9558050931       -420072265.44933152        1144185414.4750125     
  -17558501.884573758       -538188889.85601389        1041344022.7039033     
   20378948.114445515       -122133481.99296740        1463103848.2591808     
   19510395.075423844       -161488397.00600460        1357395495.7418623     
   14759626.102195486       -213784031.79973218        1250245595.6899641     
   6126641.1947706789       -279020386.37411731        1141654148.1034751     
  -6388559.6468453109       -357197460.72913283        1031621152.9823862     
   9065748.7579506449       -61403858.573608786        1484561829.6052387     
   9577042.0987548009       -80797645.110122412        1375912196.4055243     
   8147227.4712330922       -106661791.54105836        1265159116.7687504     
   4776304.8753874600       -138996297.86640114        1152302590.6949348     
  -535725.68877574056       -177801164.08614275        1037342618.1840613     
   7.0611099385136300E-003   2.7438079281155409E-002   1512405642.0337453     
   6.3826233675579533E-003   5.1082123878817068E-002   1403079354.1118135     
   3.2451147995877332E-003   6.6529428486430245E-002   1290987720.8503582     
  -2.3484419537239225E-003   7.3791293588352749E-002   1176130742.2493930     
  -1.0368080020901907E-002   7.2962057641045158E-002   1058508418.3089232     
   7.4462754643608093        23.220964711518469        1562568794.2442150     
   4.3527541461306667        11.117439432420902        1546236275.9509649     
   2.3915136812272246        2.7881843583017289        1536948934.2706771     
   1.5625504553255283       -1.7668132524782951        1534706769.2033496     
   1.8658647886822182       -2.5475516385076413        1539509780.7489851     
  -401123801.41871268       -10131953.361732870        1521031790.6511223     
  -383664815.14932340       -7598065.5846278071        1510025342.2559388     
  -366278955.04957855       -5307931.7063356042        1504818962.9391224     
  -348966221.11947811       -3261551.7268603295        1505412652.7006667     
  -331726613.35902464       -1458925.6462069750        1511806411.5405729     
  -785129667.60607970       -15128547.141144097        1478497522.7553394     
  -753769142.07263422       -11127994.513058394        1472731829.0726502     
  -722554870.01075804       -7614953.4568717182        1471521096.9337237     
  -691486851.42045271       -4589423.9725862145        1474865326.3385618     
  -660565086.30171740       -2051406.0602016449        1482764517.2871597     
  -1152017591.1158268       -14989758.117271066        1434965990.5568702     
  -1110312976.4171824       -10589775.667864382        1434355736.4010956     
  -1068827742.4920310       -6921062.4634358883        1437055336.2544806     
  -1027561889.3403761       -3983618.5039975643        1443064790.1170304     
  -986515416.96221423       -1777443.7895350456        1452384097.9887438     
  -1501787571.9479523       -9715586.2901081443        1390437194.0557137     
  -1453296318.1829672       -5983409.0490412116        1394897064.2412729     
  -1405097572.4933972       -3226258.7260355353        1401421680.9013932     
  -1357191334.8792470       -1444135.3210917115        1410011044.0360780     
  -1309577605.3405182       -637038.83421730995        1420665153.6453254     
   1.8658647886822182       -2.5475516385076413        1539509780.7489851     
   1.3284410659420849       -1.8811890918639369        1532439897.4827476     
  0.77915984104231384       -1.2543508585296368        1530008721.8364928     
  0.21802866288945899      -0.66701281631697718        1532216253.8102238     
 -0.35495718086420769      -0.11919032610702335        1539062493.4039395     
  -331726613.35902464       -1458925.6462069750        1511806411.5405729     
  -319877448.53069180       -1464285.6536652744        1505635912.1321256     
  -308080994.81302214       -1645349.3633339256        1503942684.7713108     
  -296337252.20602381       -2002116.7752399892        1506726729.4581311     
  -284646220.70968789       -2534587.8893536925        1513988046.1925812     
  -660565086.30171740       -2051406.0602016449        1482764517.2871597     
  -637328000.60005605       -2200500.0891967118        1477431905.4545522     
  -614196337.10787570       -2701001.4831288457        1476415130.0972276     
  -591170095.82517242       -3552910.2419861257        1479714191.2151854     
  -568249276.75195122       -4756226.3657802045        1487329088.8084240     
  -986515416.96221423       -1777443.7895350456        1452384097.9887438     
  -952351654.87965751       -2208645.1878029704        1447827877.4500282     
  -918346026.10539532       -3166957.6137167811        1447426057.8142467     
  -884498530.63942337       -4652381.0672678351        1451178639.0813920     
  -850809168.48174679       -6664915.5484679937        1459085621.2514732     
  -1309577605.3405182       -637038.83421730995        1420665153.6453254     
  -1264948411.3694980       -1488720.9494877458        1416823828.1185529     
  -1220530061.8055828       -3043217.7551066875        1416975467.9223609     
  -1176322556.6487744       -5300529.2510825992        1421120073.0567482     
  -1132325895.8990717       -8260655.4374113679        1429257643.5217159     
 -0.35495718086420769      -0.11919032610702335        1539062493.4039395     
 -0.25326503714741588       0.49863750948799279        1532445334.5480351     
 -0.22702956730686336       0.86494309882887810        1531229808.7520511     
 -0.27623937935629478       0.97976441520315027        1535415916.0159836     
 -0.40090119868518603       0.84307904064588957        1545003656.3398349     
  -284646220.70968789       -2534587.8893536925        1513988046.1925812     
  -270759480.70459795       -2539618.6335323155        1507656254.9397371     
  -256906582.67632610       -2657455.9671047479        1506606099.3285124     
  -243087526.62487236       -2888099.8900696784        1510837579.3589077     
  -229302312.55023512       -3231550.4024237394        1520350695.0309193     
  -568249276.75195122       -4756226.3657802045        1487329088.8084240     
  -540818646.61002684       -4869143.4019226134        1481243182.9403744     
  -513455700.34628844       -5207673.3653515279        1480318915.2956464     
  -486160437.96073574       -5771816.2560660243        1484556285.8742414     
  -458932859.45336664       -6561572.0740591586        1493955294.6761558     
  -850809168.48174679       -6664915.5484679937        1459085621.2514732     
  -810177497.96955729       -6988573.8065542579        1453206118.5499563     
  -769647353.23691702       -7650651.3298018873        1452368256.6534615     
  -729218734.28382993       -8651148.1182283759        1456572035.5619934     
  -688891641.11029685       -9990064.1718341708        1465817455.2755477     
  -1132325895.8990717       -8260655.4374113679        1429257643.5217159     
  -1078836034.7831810       -8897909.8473972082        1423545061.7684741     
  -1025481541.3482118       -9986389.8604553342        1422754123.4019551     
  -972262415.59416211       -11526095.476577997        1426884828.4221609     
  -919178657.52102792       -13517026.695752740        1435937176.8290918     
 -0.40090119868518603       0.84307904064588957        1545003656.3398349     
 -0.24473394922341296       0.66442293516860884        1542853944.7703290     
  -9.6334112847989956E-002  0.45987545273682817        1545840672.3186970     
   4.4300048977138143E-002  0.22944377624951168        1553963838.9849372     
  0.17715673250717645       -2.6915603445665605E-002   1567223444.7690587     
  -229302312.55023512       -3231550.4024237394        1520350695.0309193     
  -216227551.51502594       -3902299.4563096389        1518031642.9098239     
  -203194220.56653792       -4711148.7992678285        1520788448.2413242     
  -190202319.70477358       -5658098.4313024282        1528621111.0254190     
  -177251848.92973033       -6743148.3524093032        1541529631.2621109     
  -458932859.45336664       -6561572.0740591586        1493955294.6761558     
  -432956428.01134336       -7954997.1448498517        1491418566.9113579     
  -407062856.73499155       -9624622.7678827196        1493897114.9338799     
  -381252145.62431645       -11570448.943169400        1501390938.7437205     
  -355524294.67931837       -13792475.670709953        1513900038.3408737     
  -688891641.11029685       -9990064.1718341708        1465817455.2755477     
  -650186629.73368323       -12158092.401193440        1463014716.7749388     
  -611605908.60169756       -14740421.445981681        1465166672.3963687     
  -573149477.71433866       -17737051.306190223        1472273322.1398361     
  -534817337.07160890       -21147981.981829673        1484334666.0053427     
  -919178657.52102792       -13517026.695752740        1435937176.8290918     
  -867918156.68205094       -16511585.225352049        1432820092.5005589     
  -816823376.16665041       -20058544.833542168        1434597120.6287861     
  -765894315.97483552       -24157905.520350218        1441268261.2137692     
  -715130976.10659707       -28809667.285745382        1452833514.2555130     
  0.17715673250717645       -2.6915603445665605E-002   1567223444.7690587     
   7.2193075693329514E-002 -0.30072752895962951        1567077506.1783276     
   1.0501169531010462E-002 -0.43029959174577659        1572802881.3116233     
  -7.8954242411398978E-003 -0.41555394656469491        1584399570.1689444     
   1.6979641136339985E-002 -0.25657013144090268        1601867572.7503040     
  -177251848.92973033       -6743148.3524093032        1541529631.2621109     
  -162282914.52449366       -7154288.4657465741        1541010355.8446941     
  -147227470.43777233       -7277062.9741335288        1546229210.1355982     
  -132085516.66956453       -7111471.8775673360        1557186194.1348271     
  -116857053.21987982       -6657515.1760760434        1573881307.8423841     
  -355524294.67931837       -13792475.670709953        1513900038.3408737     
  -325966951.52302974       -14728913.351285458        1513108354.0080009     
  -296236589.04706091       -15088619.966258675        1517921615.3677485     
  -266333207.25141048       -14871595.515627116        1528339822.4201131     
  -236256806.13608167       -14077839.999401323        1544362975.1650972     
  -534817337.07160890       -21147981.981829673        1484334666.0053427     
  -491052110.92343152       -22723874.957401514        1483371500.6682475     
  -447027355.81736934       -23434671.406689793        1487880097.0080669     
  -402743071.75343877       -23280371.329751596        1497860455.0247958     
  -358199258.73162186       -22260974.726523116        1513312574.7184374     
  -715130976.10659707       -28809667.285745382        1452833514.2555130     
  -657538392.72568882       -31139173.284060955        1451799795.8254325     
  -599599770.74870539       -32315217.295454115        1456104655.0565567     
  -541315110.17563748       -32337799.319903463        1465748091.9488866     
  -482684411.00649649       -31206919.357438564        1480730106.5024207     
   1.6979641136339985E-002 -0.25657013144090268        1601867572.7503040     
   3.6581086145585293E-002  -6.6979983830379786E-002   1597949974.7406731     
   3.4110168901878332E-002   4.9037010715749660E-002   1599024114.3137949     
   9.5690396998135141E-003   9.1485244288572104E-002   1605089991.4696646     
  -3.7045824283668080E-002   6.0355749702119404E-002   1616147606.2082899     
  -116857053.21987982       -6657515.1760760434        1573881307.8423841     
  -103359520.94677243       -5766071.5796599537        1569488050.0913253     
  -89317663.466409013       -3060210.6257231273        1570280054.1663375     
  -74731480.778792039        1460067.6857245490        1576257320.0674088     
  -59600972.883927703        7794763.3546620607        1587419847.7945459     
  -236256806.13608167       -14077839.999401323        1544362975.1650972     
  -208708815.19999805       -12129075.073293224        1540129103.7734904     
  -180072173.82733506       -6551475.3585928306        1541274018.4512680     
  -150346882.01810360        2654959.1446718425        1547797719.1984167     
  -119532939.77229753        15490228.436518647        1559700206.0149412     
  -358199258.73162186       -22260974.726523116        1513312574.7184374     
  -316047882.72309160       -19089010.547867730        1509873135.7871678     
  -272263531.04867822       -10473794.149600580        1512006007.1685832     
  -226846203.70836517        3584674.4683309048        1519711188.8626819     
  -179795900.70215061        23086395.305935264        1532988680.8694739     
  -482684411.00649649       -31206919.357438564        1480730106.5024207     
  -425376723.51607519       -26645878.003452569        1478720146.1323583     
  -365891735.13042730       -14827166.998715103        1482476020.3182874     
  -304229445.84957093        4249213.6567204595        1491997729.0602171     
  -240389855.67348859        30583263.962906420        1507285272.3581498     
  -3.7045824283668080E-002   6.0355749702119404E-002   1616147606.2082899     
  -3.5683544031693958E-002   1.9910446917555127E-002   1585117237.7741780     
  -2.7874360329074043E-002   9.5690396998135072E-004   1557483454.2670498     
  -1.3630625931988908E-002   3.4497816691204533E-003   1533246255.6869085     
   7.0611099385136300E-003   2.7438079281155409E-002   1512405642.0337453     
  -59600972.883927703        7794763.3546620607        1587419847.7945459     
  -48695717.928569078        15435200.242665481        1556862000.7837336     
  -36638095.586450651        26916861.753198154        1529533048.7501299     
  -23428105.857559595        42239747.886307642        1505432991.6937549     
  -9065748.7419149391        61403858.641927034        1484561829.6145921     
  -119532939.77229753        15490228.436518647        1559700206.0149412     
  -98201544.005132303        30627368.010317214        1530959309.0377953     
  -74565413.470886230        53446956.807721585        1505279617.0881023     
  -48624548.169560239        83948994.828724012        1482661130.1658604     
  -20378948.101151988        122133482.07333435        1463103848.2710624     
  -179795900.70215061        23086395.305935264        1532988680.8694739     
  -148517478.26537770        45576503.322857618        1507409162.5363739     
  -113781953.68119507        79590285.164476395        1484723159.2809572     
  -75589326.949621722        125127740.83073214        1464930671.1032233     
  -33939598.070644774        182188870.32166660        1448031698.0031648     
  -240389855.67348859        30583263.962906420        1507285272.3581498     
  -199643520.70929617        60282606.180309430        1486211561.2794662     
  -154287716.21738470        105346846.82344195        1467863675.3286951     
  -104322442.19775018        165775985.89231724        1452241614.5058398     
  -49747698.650397822        241570023.38692084        1439345378.8108985     
   7.0611099385136300E-003   2.7438079281155409E-002   1512405642.0337453     
   6.3826233675579533E-003   5.1082123878817068E-002   1403079354.1118135     
   3.2451147995877332E-003   6.6529428486430245E-002   1290987720.8503582     
  -2.3484419537239225E-003   7.3791293588352749E-002   1176130742.2493930     
  -1.0368080020901907E-002   7.2962057641045158E-002   1058508418.3089232     
  -9065748.7419149391        61403858.641927034        1484561829.6145921     
  -9577042.0876780488        80797645.210497811        1375912196.4092824     
  -8147227.4676509574        106661791.66503595        1265159116.7676582     
  -4776304.8818306774        138996298.00555065        1152302590.6897314     
   535725.66977696866        177801164.23202190        1037342618.1755066     
  -20378948.101151988        122133482.07333435        1463103848.2710624     
  -19510395.068549834        161488397.10388681        1357395495.7453256     
  -14759626.101920158        213784031.91452968        1250245595.6864848     
  -6126641.2012623399        279020386.50526834        1141654148.0945463     
   6388559.6334339231        357197460.87613523        1031621152.9694991     
  -33939598.070644774        182188870.32166660        1448031698.0031648     
  -29800058.936234549        242072255.73123690        1347529252.1199498     
  -19837195.899562046        321366720.81501204        1246247157.6068323     
  -4051008.9606111646        420072265.57305264        1144185414.4638283     
   17558501.880603313        538188890.00530243        1041344022.6909137     
  -49747698.650397822        241570023.38692084        1439345378.8108985     
  -40446033.690739498        322549221.09252769        1346313465.5331452     
  -23379936.860578418        429409858.36648202        1253163802.5287023     
   1450591.8400950432        562151935.20880687        1159896389.7975698     
   34045552.411284983        720775451.61952317        1066511227.3397478     
  -1501787571.9479523       -9715586.2901081443        1390437194.0557137     
  -1453296318.1829672       -5983409.0490412116        1394897064.2412729     
  -1405097572.4933972       -3226258.7260355353        1401421680.9013932     
  -1357191334.8792470       -1444135.3210917115        1410011044.0360780     
  -1309577605.3405182       -637038.83421730995        1420665153.6453254     
  -1852426084.6994874       -1753018.4716439247        1345239952.9983573     
  -1796740712.7570517        1466426.2864583731        1342751617.4665079     
  -1741499647.6953552        3204848.1087727547        1343850795.4003525     
  -1686702889.5143940        3462246.9952971935        1348537486.7998941     
  -1632350438.2141683        2238622.9460378885        1356811691.6651282     
  -2223863970.2754493       -30262.500506162643        1299103965.8840261     
  -2156633717.3237605        3981678.6241673231        1289490326.0285623     
  -2089999570.0581295        6006600.7953283787        1284986966.6299295     
  -2023961528.4785509        6044504.0129817724        1285593887.6881227     
  -1958519592.5850248        4095388.2771245241        1291311089.2031441     
  -2616101228.6758380       -4547318.3766973019        1252029232.7127087     
  -2532975331.8830914        1562347.9640880823        1235113189.9274359     
  -2450597339.5817194        5178999.3336447477        1224830194.5901196     
  -2368967251.7717152        6302635.7319632769        1221180246.7007673     
  -2288085068.4530816        4933257.1590492725        1224163346.2593701     
  -3029137859.9006543       -15304186.100216746        1204015753.4844236     
  -2925765556.4350476       -5791565.6937755346        1179620209.1631312     
  -2823292956.2661242        722043.72371172905        1163380479.2809322     
  -2721720059.3938913        4236642.1522397995        1155296563.8378246     
  -2621046865.8183408        4752229.5918200016        1155368462.8338103     
  -1309577605.3405182       -637038.83421730995        1420665153.6453254     
  -1264948411.3694980       -1488720.9494877458        1416823828.1185529     
  -1220530061.8055828       -3043217.7551066875        1416975467.9223609     
  -1176322556.6487744       -5300529.2510825992        1421120073.0567482     
  -1132325895.8990717       -8260655.4374113679        1429257643.5217159     
  -1632350438.2141683        2238622.9460378885        1356811691.6651282     
  -1577460871.8831005        300452.39589142799        1351659735.4499288     
  -1522704370.7658844       -2081268.8671052456        1350658136.1276221     
  -1468080934.8625309       -4906540.8429698348        1353806893.6982040     
  -1413590564.1730351       -8175363.5316969752        1361106008.1616797     
  -1958519592.5850248        4095388.2771245241        1291311089.2031441     
  -1892919963.7158728        1205636.3455129862        1284939244.6916404     
  -1827375620.8673298       -1868402.3214569092        1282875148.6353378     
  -1761886564.0393963       -5126727.7237930298        1285118801.0342405     
  -1696452793.2320716       -8569339.8614929914        1291670201.8883419     
  -2288085068.4530816        4933257.1590492725        1224163346.2593701     
  -2211325686.8678164        1226830.8993864059        1216662355.8436866     
  -2134543812.1099117       -2404618.1181479692        1213626505.4455140     
  -2057739444.1793668       -5961089.8935477734        1215055795.0648556     
  -1980912583.0761840       -9442584.4268192053        1220950224.7017112     
  -2621046865.8183408        4752229.5918200016        1155368462.8338103     
  -2532678041.3389297        364036.05750918388        1146829068.9060669     
  -2444208944.4936309       -3689916.2571743727        1142912206.5581493     
  -2355639575.2824445       -7409627.3522298336        1143617875.7900553     
  -2266969933.7053695       -10795097.227660656        1148946076.6017866     
  -1132325895.8990717       -8260655.4374113679        1429257643.5217159     
  -1078836034.7831810       -8897909.8473972082        1423545061.7684741     
  -1025481541.3482118       -9986389.8604553342        1422754123.4019551     
  -972262415.59416211       -11526095.476577997        1426884828.4221609     
  -919178657.52102792       -13517026.695752740        1435937176.8290918     
  -1413590564.1730351       -8175363.5316969752        1361106008.1616797     
  -1347277003.3354089       -8393268.3046047091        1354604315.0649879     
  -1281157436.0500507       -9257818.2517374158        1352948589.9897380     
  -1215231862.3169594       -10769013.373090744        1356138832.9359260     
  -1149500282.1361356       -12926853.668675363        1364175043.9035494     
  -1696452793.2320716       -8569339.8614929914        1291670201.8883419     
  -1617531748.0021002       -8432759.5961394906        1284311000.5983014     
  -1538863322.1957445       -9138244.0761758685        1281722091.9644125     
  -1460447515.8129990       -10685793.301579654        1283903475.9866774     
  -1382284328.8538768       -13075407.272389591        1290855152.6650941     
  -1980912583.0761840       -9442584.4268192053        1220950224.7017112     
  -1889600268.7832551       -9016383.7220209837        1212665118.3684146     
  -1798599199.7852883       -9627667.3337641954        1209074629.3259847     
  -1707909376.0822883       -11276435.262058377        1210178757.5744188     
  -1617530797.6742487       -13962687.506892264        1215977503.1137199     
  -2266969933.7053695       -10795097.227660656        1148946076.6017866     
  -2163482565.6788716       -10144140.682235956        1139666668.3753285     
  -2060365068.8186893       -10726088.024519801        1135006202.0744481     
  -1957617443.1248083       -12540939.254477978        1134964677.6991496     
  -1855239688.5972500       -15588694.372180462        1139542095.2494304     
  -919178657.52102792       -13517026.695752740        1435937176.8290918     
  -867918156.68205094       -16511585.225352049        1432820092.5005589     
  -816823376.16665041       -20058544.833542168        1434597120.6287861     
  -765894315.97483552       -24157905.520350218        1441268261.2137692     
  -715130976.10659707       -28809667.285745382        1452833514.2555130     
  -1149500282.1361356       -12926853.668675363        1364175043.9035494     
  -1085859115.6660705       -16223503.576590955        1359918341.1550288     
  -1022361330.6980879       -19998091.824791670        1360360828.2917328     
  -959006927.23219252       -24250618.413275719        1365502505.3136678     
  -895795905.26837838       -28981083.342035741        1375343372.2208309     
  -1382284328.8538768       -13075407.272389591        1290855152.6650941     
  -1306819418.3856635       -16841225.048511863        1285484893.4549894     
  -1231475550.5980372       -21010518.426587582        1284618901.5585859     
  -1156252725.4910047       -25583287.406644285        1288257176.9758842     
  -1081150943.0645573       -30559531.988652050        1296399719.7068758     
  -1617530797.6742487       -13962687.506892264        1215977503.1137199     
  -1530799064.8408275       -18364749.641089082        1209519749.4004483     
  -1444166035.8665059       -23095824.638949573        1207371340.4293470     
  -1357631710.7512758       -28155912.500447273        1209532276.2004166     
  -1271196089.4951386       -33545013.225592434        1216002556.7136579     
  -1855239688.5972500       -15588694.372180462        1139542095.2494304     
  -1757798055.0315678       -20794077.354352593        1132022908.9914041     
  -1660432786.5034840       -26254010.461853564        1128618144.9040160     
  -1563143883.0130002       -31968493.694686949        1129327802.9872673     
  -1465931344.5601110       -37937527.052836835        1134151883.2411652     
  -715130976.10659707       -28809667.285745382        1452833514.2555130     
  -657538392.72568882       -31139173.284060955        1451799795.8254325     
  -599599770.74870539       -32315217.295454115        1456104655.0565567     
  -541315110.17563748       -32337799.319903463        1465748091.9488866     
  -482684411.00649649       -31206919.357438564        1480730106.5024207     
  -895795905.26837838       -28981083.342035741        1375343372.2208309     
  -824675503.23286545       -31236230.316005796        1372848885.0419204     
  -753344134.68429434       -32788155.579781234        1375404674.7766516     
  -681801799.62267327       -33636859.133389831        1383010741.4250190     
  -610048498.04800427       -33782340.976839364        1395667084.9870315     
  -1081150943.0645573       -30559531.988652050        1296399719.7068758     
  -997326438.79605031       -32987434.864746511        1292286879.6822736     
  -913426040.09751248       -35162356.307404548        1292936015.8237443     
  -829449746.96895516       -37084296.316660255        1298347128.1312902     
  -745397559.41036725       -38753254.892490029        1308520216.6049154     
  -1271196089.4951386       -33545013.225592434        1216002556.7136579     
  -1175491199.4152482       -36392786.930287719        1210113779.7464938     
  -1079845486.9883587       -39437819.478315890        1208698678.1978397     
  -984258952.21447027       -42680110.869682193        1211757252.0677011     
  -888731595.09359145       -46119661.104415804        1219289501.3560674     
  -1465931344.5601110       -37937527.052836835        1134151883.2411652     
  -1359169785.0904634       -41452286.512654245        1126329585.2345765     
  -1252602475.3568292       -45614545.092507839        1122692661.8989365     
  -1146229415.3592353       -50424302.792499125        1123241113.2342412     
  -1040050605.0976665       -55881559.612576783        1127974939.2404921     
  -482684411.00649649       -31206919.357438564        1480730106.5024207     
  -425376723.51607519       -26645878.003452569        1478720146.1323583     
  -365891735.13042730       -14827166.998715103        1482476020.3182874     
  -304229445.84957093        4249213.6567204595        1491997729.0602171     
  -240389855.67348859        30583263.962906420        1507285272.3581498     
  -610048498.04800427       -33782340.976839364        1395667084.9870315     
  -537996547.75197244       -30153336.638696104        1393439256.4673133     
  -463725965.13481772       -19128891.230144426        1397002419.4764919     
  -387236750.19654697       -709004.75120757520        1406356574.0145626     
  -308528902.93714237        25106322.798180103        1421501720.0815356     
  -745397559.41036725       -38753254.892490029        1308520216.6049154     
  -658529469.24331796       -36034724.450595766        1306122739.9324305     
  -569401415.32923412       -25782981.518589020        1309541411.7617428     
  -478013397.66812557       -7998026.0964965820        1318776232.0928459     
  -384365416.25998497        17320141.815693825        1333827200.9257360     
  -888731595.09359145       -46119661.104415804        1219289501.3560674     
  -786975487.99009764       -44290041.439118207        1216770596.5277123     
  -682918085.71366584       -34789437.864027768        1220092997.1740456     
  -576559388.26430929       -17617850.379190356        1229256703.2950625     
  -467899395.64201349        7224721.0154500902        1244261714.8907769     
  -1040050605.0976665       -55881559.612576783        1127974939.2404921     
  -923334603.99231684       -54919287.604265869        1125382826.2531536     
  -804275976.28812420       -46148260.266484588        1128657175.7133961     
  -682874721.98509526       -29568477.599243999        1137797987.6212242     
  -559130841.08322930       -5179939.6025498211        1152805261.9766347     
  -240389855.67348859        30583263.962906420        1507285272.3581498     
  -199643520.70929617        60282606.180309430        1486211561.2794662     
  -154287716.21738470        105346846.82344195        1467863675.3286951     
  -104322442.19775018        165775985.89231724        1452241614.5058398     
  -49747698.650397822        241570023.38692084        1439345378.8108985     
  -308528902.93714237        25106322.798180103        1421501720.0815356     
  -258965907.75158343        55332343.893133447        1404792266.4551780     
  -202948479.50183818        107073141.86870240        1392017492.7456028     
  -140476618.18789250        180328716.72494069        1383177398.9528060     
  -71550323.809768423        275099068.46177638        1378271985.0767877     
  -384365416.25998497        17320141.815693825        1333827200.9257360     
  -322531890.02773172        49109003.035785854        1323634462.2109308     
  -252398967.19482070        108562519.59140328        1318585258.2017703     
  -173966647.76124811        195680691.48255998        1318679588.8982527     
  -87234931.727011561        310463518.70925677        1323917454.3003819     
  -467899395.64201349        7224721.0154500902        1244261714.8907769     
  -390341467.53774458        41612583.608258888        1242738148.5467298     
  -302639179.29633456        109814979.99153520        1247566971.6971931     
  -204792530.91780210        211831910.16522652        1258748184.3421667     
  -96801522.402127013        347663374.12938225        1276281786.4816542     
  -559130841.08322930       -5179939.6025498211        1152805261.9766347     
  -462394640.28160161        32843085.610615283        1162103325.4625711     
  -353669115.80637228        110830523.06912492        1178962633.2318811     
  -232954267.65754557        228782372.77295491        1203383185.2845688     
  -100250095.83511105        386698634.72214711        1235364981.6206286     
  -49747698.650397822        241570023.38692084        1439345378.8108985     
  -40446033.690739498        322549221.09252769        1346313465.5331452     
  -23379936.860578418        429409858.36648202        1253163802.5287023     
   1450591.8400950432        562151935.20880687        1159896389.7975698     
   34045552.411284983        720775451.61952317        1066511227.3397478     
  -71550323.809768423        275099068.46177638        1378271985.0767877     
  -57380392.316914737        376837950.39116806        1296738601.3478260     
  -34239329.674110532        508480602.82039541        1214277091.3963566     
  -2127135.8813630342        670027025.74943638        1130887455.2224052     
   38956189.061350197        861477219.17835736        1046569692.8259511     
  -87234931.727011561        310463518.70925677        1323917454.3003819     
  -70512095.117541909        432267476.43744624        1255290415.9462049     
  -43611428.078675240        587997535.59695899        1184924874.8737411     
  -6532930.6104127467        777653696.18779171        1112820831.0829813     
   40723397.287238538        1001235958.2099252        1038978284.5739189     
  -96801522.402127013        347663374.12938225        1276281786.4816542     
  -79841142.092615485        488837799.23140377        1221968909.3283007     
  -51496232.074265301        667960656.69621515        1165107152.9608495     
  -11766792.347073317        885031946.52383542        1105696517.3792901     
   39347177.088956594        1140051668.7142484        1043737002.5836552     
  -100250095.83511105        386698634.72214711        1235364981.6206286     
  -85367533.242134720        546548918.77301431        1196774081.4941068     
  -57893741.660860717        748369966.11821282        1154823925.6576896     
  -17828721.091316521        992161776.75763857        1109514514.1113603     
   34827528.466501951        1277924350.6913199        1060845846.8551484     
  -3029137859.9006543       -15304186.100216746        1204015753.4844236     
  -2925765556.4350476       -5791565.6937755346        1179620209.1631312     
  -2823292956.2661242        722043.72371172905        1163380479.2809322     
  -2721720059.3938913        4236642.1522397995        1155296563.8378246     
  -2621046865.8183408        4752229.5918200016        1155368462.8338103     
  -3439748484.1619759       -22303295.062042952        1060669980.6446207     
  -3317462405.9666524       -13706208.800651312        1042968983.5083030     
  -3195662744.9301476       -6730513.0686815977        1031872506.5276939     
  -3074349501.0524721       -1376207.8661375046        1027380549.7027858     
  -2953522674.3336282        2356706.8069792986        1029493113.0335815     
  -3826705495.3021994       -22206320.087544918        914548637.08441281     
  -3689937911.7582626       -15854448.785534143        904024354.29390991     
  -3553243459.2352877       -9746347.5534124374        898553297.37572074     
  -3416622137.7332826       -3882016.3911890984        898135466.32984853     
  -3280073947.2522473        1738544.7011475563        902770861.15629208     
  -4190008893.3213153       -15013261.176712751        765651722.80380428     
  -4043192073.8098750       -12236285.648413181        762786321.51994693     
  -3896035099.1815381       -8325459.7304770947        763422851.82501936     
  -3748537969.4363155       -3280783.4229047298        767561313.71901608     
  -3600700684.5741992        2897743.2743098736        775201707.20194256     
  -4529658678.2193298       -724118.32954859734        613979237.80278850     
  -4377224892.1214962       -2851719.3892984390        619254885.18641543     
  -4224037664.7689114       -2467849.5998749733        626481169.87558126     
  -4070096996.1615734        427491.03871393204        635658091.87028515     
  -3915402886.2994862        5834302.5264787674        646785651.17052913     
  -2621046865.8183408        4752229.5918200016        1155368462.8338103     
  -2532678041.3389297        364036.05750918388        1146829068.9060669     
  -2444208944.4936309       -3689916.2571743727        1142912206.5581493     
  -2355639575.2824445       -7409627.3522298336        1143617875.7900553     
  -2266969933.7053695       -10795097.227660656        1148946076.6017866     
  -2953522674.3336282        2356706.8069792986        1029493113.0335815     
  -2853250482.3027668       -842911.61915171146        1022893415.2817533     
  -2752997022.1413403       -4104969.6100645065        1020553335.9647119     
  -2652762293.8493428       -7429467.1657384634        1022472875.0824583     
  -2552546297.4267774       -10816404.286185265        1028652032.6349945     
  -3280073947.2522473        1738544.7011475563        902770861.15629208     
  -3168935282.3700428       -583567.02684116364        897972021.30583704     
  -3057934353.5925908       -3364799.1040066481        897069886.74513352     
  -2947071160.9198899       -6605151.5303382874        900064457.47418070     
  -2836345704.3519440       -10304624.305845618        906955733.49297774     
  -3600700684.5741992        2897743.2743098736        775201707.20194256     
  -3479732441.5407562        1142069.8344349861        772064886.97832119     
  -3359020938.8473897       -1469404.7390220165        772461858.89941645     
  -3238566176.4940891       -4936680.4460353851        776392622.96522331     
  -3118368154.4808636       -9259757.2866277695        783857179.17574584     
  -3915402886.2994862        5834302.5264787674        646785651.17052913     
  -3785641959.8149118        4333998.9646832943        645172012.29920506     
  -3656256777.9057331        1581213.4849035740        646729252.42755914     
  -3527247340.5719404       -2424053.9128286839        651457371.55558622     
  -3398613647.8135381       -7681803.2285366058        659356369.68329275     
  -2266969933.7053695       -10795097.227660656        1148946076.6017866     
  -2163482565.6788716       -10144140.682235956        1139666668.3753285     
  -2060365068.8186893       -10726088.024519801        1135006202.0744481     
  -1957617443.1248083       -12540939.254477978        1134964677.6991496     
  -1855239688.5972500       -15588694.372180462        1139542095.2494304     
  -2552546297.4267774       -10816404.286185265        1028652032.6349945     
  -2437191998.7822704       -10041147.470625401        1019574764.4922007     
  -2322069054.0247641       -10037070.278399944        1014978277.9138055     
  -2207177463.1542420       -10804172.709455848        1014862572.8998065     
  -2092517226.1707194       -12342454.763844848        1019227649.4502051     
  -2836345704.3519440       -10304624.305845618        906955733.49297774     
  -2709519218.9785237       -9523490.3868889809        898242208.92639017     
  -2582785570.2127767       -9051811.8268549442        893871305.56301844     
  -2456144758.0547075       -8889588.6257368326        893843023.40286064     
  -2329596782.5043187       -9036820.7835500240        898157362.44591641     
  -3118368154.4808636       -9259757.2866277695        783857179.17574584     
  -2980464226.2676191       -8591169.4310011864        775669001.67789865     
  -2842514617.3827338       -7770312.6698963642        771685285.02208316     
  -2704519327.8262086       -6797187.0033313036        771906029.20829833     
  -2566478357.5980401       -5671792.4312875271        776331234.23655069     
  -3398613647.8135381       -7681803.2285366058        659356369.68329275     
  -3250027020.6495619       -7244184.6029576063        651855142.74672461     
  -3101256195.5346308       -6192572.8075200319        648420216.29100347     
  -2952301172.4687400       -4526967.8422219753        649051590.31613350     
  -2803161951.4518938       -2247369.7070714235        653749264.82211125     
  -1855239688.5972500       -15588694.372180462        1139542095.2494304     
  -1757798055.0315678       -20794077.354352593        1132022908.9914041     
  -1660432786.5034840       -26254010.461853564        1128618144.9040160     
  -1563143883.0130002       -31968493.694686949        1129327802.9872673     
  -1465931344.5601110       -37937527.052836835        1134151883.2411652     
  -2092517226.1707194       -12342454.763844848        1019227649.4502051     
  -1984391290.9301798       -16453252.458762884        1011501321.9141984     
  -1876437666.7153676       -21138420.239442706        1007626669.1988407     
  -1768656353.5263007       -26397958.105940223        1007603691.3041409     
  -1661047351.3629646       -32231866.058203042        1011432388.2300901     
  -2329596782.5043187       -9036820.7835500240        898157362.44591641     
  -2211537252.3031645       -12278245.205471516        890111956.64576244     
  -2093745979.1158803       -16413859.673634291        885655478.31627750     
  -1976222962.9424722       -21443664.188048124        884787927.45745659     
  -1858968203.7829349       -27367658.748697639        887509304.06929922     
  -2566478357.5980401       -5671792.4312875271        776331234.23655069     
  -2439235939.1505246       -8269055.5945030451        767854813.18609500     
  -2312357723.7050171       -12080328.764412999        762704572.25631952     
  -2185843711.2615194       -17105611.941022277        760880511.44722235     
  -2059693901.8200333       -23344905.124337435        762382630.75880468     
  -2803161951.4518938       -2247369.7070714235        653749264.82211125     
  -2667487351.4722605       -4425683.6258472204        644729891.53519297     
  -2532272900.4827757       -8137827.5117633343        638773951.01896882     
  -2397518598.4834394       -13383801.364854217        635881443.27343130     
  -2263224445.4742508       -20163605.185099483        636052368.29859304     
  -1465931344.5601110       -37937527.052836835        1134151883.2411652     
  -1359169785.0904634       -41452286.512654245        1126329585.2345765     
  -1252602475.3568292       -45614545.092507839        1122692661.8989365     
  -1146229415.3592353       -50424302.792499125        1123241113.2342412     
  -1040050605.0976665       -55881559.612576783        1127974939.2404921     
  -1661047351.3629646       -32231866.058203042        1011432388.2300901     
  -1543802067.3595757       -35440824.699498832        1002324856.2544611     
  -1426559814.2476242       -38659886.312263846        997025783.67572165     
  -1309320592.0270998       -41889050.896441877        995535170.49387109     
  -1192084400.6980255       -45128318.452119589        997853016.70891273     
  -1858968203.7829349       -27367658.748697639        887509304.06929922     
  -1732316096.0288308       -30593886.806409597        877339626.77665389     
  -1605475800.3215642       -33192821.686916769        870601493.60684288     
  -1478447316.6611443       -35164463.390248537        867294904.55986488     
  -1351230645.0475736       -36508811.916402340        867419859.63572121     
  -2059693901.8200333       -23344905.124337435        762382630.75880468     
  -1924711871.0982242       -26911472.833356977        751373896.80116379     
  -1789350433.5786636       -29213351.216534138        743419791.69229805     
  -1653609589.2613637       -30250540.273912787        738520315.43221033     
  -1517489338.1463075       -30023040.005442679        736675468.02090454     
  -2263224445.4742508       -20163605.185099483        636052368.29859304     
  -2120989392.5677581       -24393582.780339718        624427666.32797575     
  -1978183714.0189242       -26721474.901108146        615480677.93208730     
  -1834807409.8277500       -27147281.547409177        609211403.11091936     
  -1690860479.9942372       -25671002.719248235        605619841.86447382     
  -1040050605.0976665       -55881559.612576783        1127974939.2404921     
  -923334603.99231684       -54919287.604265869        1125382826.2531536     
  -804275976.28812420       -46148260.266484588        1128657175.7133961     
  -682874721.98509526       -29568477.599243999        1137797987.6212242     
  -559130841.08322930       -5179939.6025498211        1152805261.9766347     
  -1192084400.6980255       -45128318.452119589        997853016.70891273     
  -1061846692.2399565       -42264627.337928653        994101763.31908727     
  -930153752.76002383       -34550166.150850415        994446571.80548894     
  -797005582.25823617       -21984934.890921354        998887442.16812110     
  -662402180.73457074       -4568933.5580656528        1007424374.4069703     
  -1351230645.0475736       -36508811.916402340        867419859.63572121     
  -1212529516.5835252       -33261187.900363564        861474171.00360537     
  -1073260552.6745846       -28120779.068022966        857854143.67636609     
  -933423753.32075560       -21087585.419386029        856559777.65399075     
  -793019118.52203131       -12161606.954427212        857591072.93649065     
  -1517489338.1463075       -30023040.005442679        736675468.02090454     
  -1375383077.0230217       -27908969.291600168        727500049.30670190     
  -1233596376.0318134       -26860099.018021584        718879891.32601535     
  -1092129235.1726797       -26876429.184691966        710814994.07884026     
  -950981654.44562483       -27957959.791620374        703305357.56517899     
  -1690860479.9942372       -25671002.719248235        605619841.86447382     
  -1550407373.5584295       -26207971.511573434        592179398.22838485     
  -1411161222.8316765       -30768126.000747383        577523814.75444973     
  -1273122027.8139853       -39351466.186794817        561653091.44267344     
  -1136289788.5053363       -51957992.069648802        544567228.29304862     
  -559130841.08322930       -5179939.6025498211        1152805261.9766347     
  -462394640.28160161        32843085.610615283        1162103325.4625711     
  -353669115.80637228        110830523.06912492        1178962633.2318811     
  -232954267.65754557        228782372.77295491        1203383185.2845688     
  -100250095.83511105        386698634.72214711        1235364981.6206286     
  -662402180.73457074       -4568933.5580656528        1007424374.4069703     
  -547238064.21982670        25714500.641628385        1020907818.3292629     
  -421200023.75801694        92244347.998224944        1042791397.2121431     
  -284288059.34914327        195020608.51169431        1073075111.0556105     
  -136502170.99321109        334043282.18202233        1111758959.8596740     
  -793019118.52203131       -12161606.954427212        857591072.93649065     
  -657030255.78784430        11101285.383718729        873958597.61417210     
  -511282868.83312476        66892591.790285200        899565147.92965972     
  -355776957.65788245        155212312.26527104        934410723.88295090     
  -190512522.26211232        276060446.80868387        978495325.47405303     
  -950981654.44562483       -27957959.791620374        703305357.56517899     
  -791771214.98565972       -10996560.163137764        721255663.31729686     
  -623917651.03170276        34775254.445311427        749283885.38442624     
  -447420962.58375645        109357484.03373078        787390023.76658022     
  -262281149.64182499        212750128.60209531        835574078.46374881     
  -1136289788.5053363       -51957992.069648802        544567228.29304862     
  -951460941.81326532       -40579035.998927951        562799015.43863082     
  -759104370.35374713       -4107664.0367105007        591947609.57644868     
  -559220074.12677121        57456123.817029506        632013010.70650458     
  -351808053.13235146        144112327.56224927        682995218.82879341     
  -100250095.83511105        386698634.72214711        1235364981.6206286     
  -85367533.242134720        546548918.77301431        1196774081.4941068     
  -57893741.660860717        748369966.11821282        1154823925.6576896     
  -17828721.091316521        992161776.75763857        1109514514.1113603     
   34827528.466501951        1277924350.6913199        1060845846.8551484     
  -136502170.99321109        334043282.18202233        1111758959.8596740     
  -127375350.28558949        483054636.72297484        1090191502.4370365     
  -95109441.767842591        709196283.96434927        1070057098.3916981     
  -39704445.439971745        1012468223.9061375        1051355747.7236509     
   38839638.698038459        1392870456.5483732        1034087450.4329104     
  -190512522.26211232        276060446.80868387        978495325.47405303     
  -173449131.76216242        418340565.34299326        986257146.04745340     
  -122698794.63023290        672910505.98387468        1000244329.0853484     
  -38261510.866331160        1039770268.7313313        1020456874.5877438     
   79862719.529544890        1518919853.5854044        1046894782.5546082     
  -262281149.64182499        212750128.60209531        835574078.46374881     
  -223588877.67184424        352406704.63305557        884971012.32535553     
  -140661800.24804267        639512632.17676842        945385617.73864472     
  -13499917.370420933        1074067911.2332230        1016817894.7036136     
   157896770.96104026        1656072541.8024323        1099267843.2202873     
  -351808053.13235146        144112327.56224927        682995218.82879341     
  -277794588.01463783        285253054.59321105        786333101.27074540     
  -148998458.62125301        609002662.54306531        905480964.35158181     
   34580335.047790110        1115361151.4117808        1040438808.0712953     
   272941792.99252176        1804328521.1994689        1191206632.4298882     
  -4529658678.2193298       -724118.32954859734        613979237.80278850     
  -4377224892.1214962       -2851719.3892984390        619254885.18641543     
  -4224037664.7689114       -2467849.5998749733        626481169.87558126     
  -4070096996.1615734        427491.03871393204        635658091.87028515     
  -3915402886.2994862        5834302.5264787674        646785651.17052913     
  -4873913527.3567448        2964279.0221970081        485360860.61406386     
  -4713412421.5132866        2916427.0627088547        482811151.79970068     
  -4552572358.0328159        3998433.8932595253        484036494.15329826     
  -4391393336.9153357        6210299.5138378143        489036887.67485154     
  -4229875358.1608443        9552023.9244558811        497812332.36436617     
  -5244953507.3971777       -1382862.8969664574        356853324.44975501     
  -5071172470.7726116        2212817.5544521809        345994695.21671039     
  -4897466960.1287775        5556744.7367703915        340735531.01403755     
  -4723836975.4656687        8648918.6499876976        341075831.84174621     
  -4550282516.7832947        11489339.294110298        347015597.69982892     
  -5642778618.3406286       -13765544.087024927        228456629.30985743     
  -5450505039.8994808       -4962547.9140596390        208805515.43742937     
  -5258721471.0567923        2207082.9306733608        196578280.45779768     
  -5067427911.8125858        7743348.4471635818        191774924.37096176     
  -4876624362.1668396        11646248.635424137        194395447.17691875     
  -6067388860.1871166       -34183764.548007965        100170775.19437991     
  -5851410128.8938856       -18609669.342831612        71243612.461871281     
  -5636335890.8168716       -6050551.5250444412        51564742.484577760     
  -5422166145.9560623        3493588.9053788185        41134165.262496784     
  -5208900894.3114681        10022751.948439121        39951880.795638599     
  -3915402886.2994862        5834302.5264787674        646785651.17052913     
  -3785641959.8149118        4333998.9646832943        645172012.29920506     
  -3656256777.9057331        1581213.4849035740        646729252.42755914     
  -3527247340.5719404       -2424053.9128286839        651457371.55558622     
  -3398613647.8135381       -7681803.2285366058        659356369.68329275     
  -4229875358.1608443        9552023.9244558811        497812332.36436617     
  -4091994308.7768760        6070665.1986541748        493988547.24282670     
  -3954275516.5850286        2048449.1657698154        493697298.08207196     
  -3816718981.5853071       -2514624.1741960049        496938584.88209808     
  -3679324703.7777138       -7618554.8212473392        503712407.64290828     
  -4550282516.7832947        11489339.294110298        347015597.69982892     
  -4403248038.8967686        6336917.0852570534        341230734.94188541     
  -4256162330.8190937        1355262.1802117825        339340065.10583252     
  -4109025392.5502858       -3455625.4210400581        341343588.19166636     
  -3961837224.0903349       -8095745.7184953690        347241304.19938719     
  -4876624362.1668396        11646248.635424137        194395447.17691875     
  -4719403150.1745844        5132754.6244928837        186898575.39637581     
  -4561917220.6079397       -498347.47179412842        183657553.49883842     
  -4404166573.4668798       -5247057.6533620358        184672381.48428836     
  -4246151208.7514219       -9113375.9202883244        189943059.35272956     
  -5208900894.3114681        10022751.948439121        39951880.795638599     
  -5040459642.6103525        2458177.8163163662        30992068.606312711     
  -4871540185.9515553       -3512379.7902221680        26649763.261086769     
  -4702142524.3350906       -7888920.8711905479        26924964.759960774     
  -4532266657.7609558       -10671445.426601887        31817673.102937285     
  -3398613647.8135381       -7681803.2285366058        659356369.68329275     
  -3250027020.6495619       -7244184.6029576063        651855142.74672461     
  -3101256195.5346308       -6192572.8075200319        648420216.29100347     
  -2952301172.4687400       -4526967.8422219753        649051590.31613350     
  -2803161951.4518938       -2247369.7070714235        653749264.82211125     
  -3679324703.7777138       -7618554.8212473392        503712407.64290828     
  -3519547360.5848484       -6137433.6834168434        495850234.78488725     
  -3359693387.3409729       -4400879.0422160625        492289196.27310336     
  -3199762784.0460868       -2408890.8976379633        493029292.10755968     
  -3039755550.7001972       -161469.24972462654        498070522.28824604     
  -3961837224.0903349       -8095745.7184953690        347241304.19938719     
  -3790198210.9674811       -5369835.8980770111        338892689.53664064     
  -3618590135.6935601       -2747052.2407894135        335080043.08552259     
  -3447012998.2685733       -227394.74661946297        335803364.84602278     
  -3275466798.6925335        2189136.5844120979        341062654.81814831     
  -4246151208.7514219       -9113375.9202883244        189943059.35272956     
  -4061979571.7974539       -4941391.2469291687        180982507.00198546     
  -3877946440.5923882       -1231092.4032330513        176792756.72825629     
  -3694051815.1361966        2017520.6108734608        177373808.53153312     
  -3510295695.4289026        4804447.7953326702        182725662.41182762     
  -4532266657.7609558       -10671445.426601887        31817673.102937285     
  -4334891443.0747919       -4852099.7300171852        22119687.180920646     
  -4137762302.0374532        147000.47046542168        17427337.201297641     
  -3940879234.6489496        4325855.1748304367        17740623.164087329     
  -3744242240.9092975        7684464.3830454350        23059545.069262009     
  -2803161951.4518938       -2247369.7070714235        653749264.82211125     
  -2667487351.4722605       -4425683.6258472204        644729891.53519297     
  -2532272900.4827757       -8137827.5117633343        638773951.01896882     
  -2397518598.4834394       -13383801.364854217        635881443.27343130     
  -2263224445.4742508       -20163605.185099483        636052368.29859304     
  -3039755550.7001972       -161469.24972462654        498070522.28824604     
  -2896011640.6489573       -2951203.5554953814        489096716.99457628     
  -2752448641.2851996       -6343973.4862055779        483407737.53614670     
  -2609066552.6089134       -10339779.041815281        481003583.91295308     
  -2465865374.6201015       -14938620.222351074        481884256.12499380     
  -3275466798.6925335        2189136.5844120979        341062654.81814831     
  -3123021026.9566989       -1022252.6244740486        332460195.53751165     
  -2970476927.6056733       -3905883.1160435677        327363955.15665621     
  -2817834500.6394515       -6461754.8902989626        325773933.67558229     
  -2665093746.0580363       -8689867.9472444057        327690131.09429604     
  -3510295695.4289026        4804447.7953326702        182725662.41182762     
  -3348515510.3954787        1361169.1672544479        174820327.16399777     
  -3186357759.4442000       -823556.40129363537        170642603.88050508     
  -3023822442.5750546       -1749728.9102904797        170192492.56132957     
  -2860909559.7880454       -1417348.3597450256        173469993.20649159     
  -3744242240.9092975        7684464.3830454350        23059545.069262009     
  -3572495090.9653058        4199061.8196489811        16177111.874033239     
  -3400091136.8007941        2903006.6579959393        13243683.707680391     
  -3227030378.4157324        3796298.8981723785        14259260.570192093     
  -3053312815.8101358        6878938.5401297808        19223842.461585797     
  -2263224445.4742508       -20163605.185099483        636052368.29859304     
  -2120989392.5677581       -24393582.780339718        624427666.32797575     
  -1978183714.0189242       -26721474.901108146        615480677.93208730     
  -1834807409.8277500       -27147281.547409177        609211403.11091936     
  -1690860479.9942372       -25671002.719248235        605619841.86447382     
  -2465865374.6201015       -14938620.222351074        481884256.12499380     
  -2316499742.5314455       -17518547.499492168        471831994.18528312     
  -2166841390.3002763       -19122740.968266487        464206298.73757154     
  -2016890317.9266052       -19751200.628685713        459007169.78185135     
  -1866646525.4104288       -19403926.480763555        456234607.31813788     
  -2665093746.0580363       -8689867.9472444057        327690131.09429604     
  -2509315097.8807120       -9835013.8343217373        318886086.10234731     
  -2353521635.0607128       -10930777.579162717        312257460.51966822     
  -2197713357.5980401       -11977159.181755900        307804254.34626460     
  -2041890265.4926996       -12974158.642126083        305526467.58213156     
  -2860909559.7880454       -1417348.3597450256        173469993.20649159     
  -2699435458.6155529       -1342981.7848254442        165589942.07916972     
  -2538224448.3002205       -2145584.7337605953        159634163.27838641     
  -2377276528.8420606       -3825157.2066086531        155602656.80415887     
  -2216591700.2410474       -6381699.2032833099        153495422.65647671     
  -3053312815.8101358        6878938.5401297808        19223842.461585797     
  -2886860824.7359776        7957548.6490092278        11943562.115740864     
  -2720949830.0188079        7232837.5679141283        6336407.0137280114     
  -2555579831.6586456        4704805.2968050241        2402377.1555304308     
  -2390750829.6554747        373451.83571577072        141472.54115884996     
  -1690860479.9942372       -25671002.719248235        605619841.86447382     
  -1550407373.5584295       -26207971.511573434        592179398.22838485     
  -1411161222.8316765       -30768126.000747383        577523814.75444973     
  -1273122027.8139853       -39351466.186794817        561653091.44267344     
  -1136289788.5053363       -51957992.069648802        544567228.29304862     
  -1866646525.4104288       -19403926.480763555        456234607.31813788     
  -1729118840.2685628       -22597022.675254941        442611175.93358350     
  -1591702911.3989322       -26162639.777180672        428565512.79203081     
  -1454398738.8015492       -30100777.786587536        414097617.89348137     
  -1317206322.4764059       -34411436.703476667        399207491.23792779     
  -2041890265.4926996       -12974158.642126083        305526467.58213156     
  -1905022549.9852087       -18143746.740835309        292997781.12540108     
  -1767171391.3131607       -20035190.957694173        280839770.99251622     
  -1628336789.4765315       -18648491.292619705        269052437.18347573     
  -1488518744.4753368       -13983647.745646238        257635779.69827312     
  -2216591700.2410474       -6381699.2032833099        153495422.65647671     
  -2078118502.7083993       -12848143.708439946        143339213.80384323     
  -1937566662.5743473       -12385779.542257428        134346589.35589835     
  -1794936179.8389294       -4994606.7048561573        126517549.31264913     
  -1650227054.5021272        9325374.8038346767        119852093.67407987     
  -2390750829.6554747        373451.83571577072        141472.54115884996     
  -2248406698.4380941       -6710213.5779492855       -6364526.0310919182     
  -2102888725.1825297       -3214405.5309996605       -10914032.117810450     
  -1954196909.8887522        10860875.976648092       -13507045.718988419     
  -1802331252.5567949        35515630.944919109       -14143566.834655929     
  -1136289788.5053363       -51957992.069648802        544567228.29304862     
  -951460941.81326532       -40579035.998927951        562799015.43863082     
  -759104370.35374713       -4107664.0367105007        591947609.57644868     
  -559220074.12677121        57456123.817029506        632013010.70650458     
  -351808053.13235146        144112327.56224927        682995218.82879341     
  -1317206322.4764059       -34411436.703476667        399207491.23792779     
  -1117630836.4407239       -14656328.214023530        421103597.64102346     
  -914415563.47796988        17231403.365686119        441493507.52725381     
  -707560503.58813071        61251758.035685390        460377220.89662510     
  -497065656.77120006        117404735.79596192        477754737.74913818     
  -1488518744.4753368       -13983647.745646238        257635779.69827312     
  -1309690914.8363247        3499324.4404365420        278660277.87844205     
  -1131111236.1105936        20155126.915596664        285755576.03266263     
  -952779708.29816103        35983759.679753482        278921674.16091734     
  -774696331.39899755        50985222.733003289        258158572.26322848     
  -1650227054.5021272        9325374.8038346767        119852093.67407987     
  -1527641177.0000634        13887921.964456201        135469056.15089938     
  -1409191388.2516313        4663506.6129559278        124733815.09266886     
  -1294877688.2568781       -18347871.250791132        87646370.499389932     
  -1184700077.0157533       -55146211.626649499        24206722.371063728     
  -1802331252.5567949        35515630.944919109       -14143566.834655929     
  -1771481622.9319291        16509464.358044267       -8470067.5416258760     
  -1748656019.9010844       -29243457.542222738       -41571775.292719841     
  -1733854443.4642670       -101743134.75591898       -113448690.08798395     
  -1727076893.6214657       -200989567.28300261       -224100811.92736694     
  -351808053.13235146        144112327.56224927        682995218.82879341     
  -277794588.01463783        285253054.59321105        786333101.27074540     
  -148998458.62125301        609002662.54306531        905480964.35158181     
   34580335.047790110        1115361151.4117808        1040438808.0712953     
   272941792.99252176        1804328521.1994689        1191206632.4298882     
  -497065656.77120006        117404735.79596192        477754737.74913818     
  -388243225.35174805        223078160.97310904        597043613.24686790     
  -230298709.18720502        492491868.63391507        735483397.99639273     
  -23232108.277555466        925645858.77833474        893074091.99771321     
   232956577.37715995        1522540131.4064124        1069815695.2508352     
  -774696331.39899755        50985222.733003289        258158572.26322848     
  -621519423.35519385        124054999.15309969        386794431.36438239     
  -424881010.09684443        341996459.62165356        537922128.33025777     
  -184781091.62399426        704809604.13855767        711541663.16084170     
   98780332.063368201        1212494432.7038136        907653035.85616052     
  -1184700077.0157533       -55146211.626649499        24206722.371063728     
  -977623182.02493358       -11816430.866714537        155585555.62329713     
  -732745361.35019505        157516435.50626126        312797155.35317421     
  -450066614.99150491        452852387.49243391        495841521.56068861     
  -129586942.94888568        874191425.09167600        704718654.24584305     
  -1727076893.6214657       -200989567.28300261       -224100811.92736694     
  -1456554501.3610375       -184536129.08654457       -96583013.976392344     
  -1153891762.9472327       -60948203.712187290        60108479.065152250     
  -819088678.38008487        169774208.83999193        245973667.19725084     
  -452145247.65958261        507631108.57001889        461012550.41989511     
 </DataArray>
 <DataArray  type="Float64" Name="VM" NumberOfComponents="1" format="ascii">
   6052856540.3459673     
   5843430572.4681835     
   5634021002.0752010     
   5424381695.6387577     
   5214378675.8832808     
   5649782411.5237789     
   5460016536.7706051     
   5270834073.6204786     
   5082170530.6914167     
   4894053938.1204367     
   5280560481.2353830     
   5107558482.5717783     
   4935658978.3737698     
   4764930723.5410385     
   4595513266.6388540     
   4947344237.7869291     
   4788458134.4022074     
   4631091468.3758116     
   4475390159.8888578     
   4321549720.1644125     
   4652465996.3336678     
   4505336074.6803913     
   4359989904.4394093     
   4216587871.8311710     
   4075322373.2810125     
   5214378675.8832808     
   5041974943.7379675     
   4870003702.2383471     
   4698434483.2880459     
   4527275803.6391859     
   4894053938.1204367     
   4733054954.9934902     
   4572745985.3716402     
   4413152330.3337994     
   4254341485.1833105     
   4595513266.6388540     
   4445880306.2000713     
   4297225019.8715687     
   4149632357.2109113     
   4003233103.3169470     
   4321549720.1644125     
   4183463808.6651955     
   4046678915.4711876     
   3911342015.5193906     
   3777649501.3324618     
   4075322373.2810125     
   3949208977.9862919     
   3824757980.9454484     
   3702177677.6575933     
   3581728455.4020653     
   4527275803.6391859     
   4332636828.3741436     
   4137945900.9528537     
   3943163668.0743880     
   3748303179.5583615     
   4254341485.1833105     
   4071596079.8050814     
   3889403944.2112551     
   3707810690.2747345     
   3526929257.6242356     
   4003233103.3169470     
   3832730533.4220672     
   3663481618.9292545     
   3495626772.8763189     
   3329388712.0574074     
   3777649501.3324618     
   3619841526.3210196     
   3464075545.7963090     
   3310591103.6428871     
   3159722417.0585718     
   3581728455.4020653     
   3437139756.6591921     
   3295446847.4009948     
   3156982997.3978596     
   3022182415.3203535     
   3748303179.5583615     
   3574706285.2862797     
   3401620912.8924289     
   3229024655.3200932     
   3056939431.9086995     
   3526929257.6242356     
   3362856273.1119332     
   3199626384.4516621     
   3037286751.5368590     
   2875939173.4692254     
   3329388712.0574074     
   3175162706.6741648     
   3022192512.0056005     
   2870611579.8381596     
   2720621867.2169156     
   3159722417.0585718     
   3015956269.0407233     
   2873952232.8027868     
   2733944286.7567110     
   2596250352.5525742     
   3022182415.3203535     
   2889763452.4251957     
   2759703164.4503841     
   2632341596.0959301     
   2508115736.1566195     
   3056939431.9086995     
   2890921829.8369946     
   2724595553.7121072     
   2557938864.2425790     
   2390937590.5916781     
   2875939173.4692254     
   2713961752.5386086     
   2552173814.1286316     
   2390606917.0544500     
   2229317475.3839135     
   2720621867.2169156     
   2564594480.3279924     
   2409558447.7755604     
   2255658544.5782175     
   2103100483.7670515     
   2596250352.5525742     
   2448218237.7727909     
   2302301849.8345571     
   2158810646.0588288     
   2018161426.2387953     
   2508115736.1566195     
   2370059546.3401175     
   2235512078.4598684     
   2104960991.1554186     
   1979037204.8111782     
   2390937590.5916781     
   2245086177.1693268     
   2101368395.8883262     
   1959789563.4225860     
   1820513761.8251576     
   2229317475.3839135     
   2086547390.4736774     
   1945370588.0630860     
   1805789552.1993179     
   1667878548.6734502     
   2103100483.7670515     
   1962757999.5193892     
   1823322091.7614679     
   1684823457.8296266     
   1547319378.3449497     
   2018161426.2387953     
   1881223966.2400920     
   1744581522.5072126     
   1608363679.9219685     
   1472748975.4216568     
   1979037204.8111782     
   1848200792.3732042     
   1717412343.7317712     
   1587026024.7001226     
   1457557950.6472661     
   1820513761.8251576     
   1779854247.3104472     
   1735713382.2315812     
   1696704725.7209718     
   1681288341.4318745     
   1667878548.6734502     
   1552466359.4484429     
   1427966898.9221880     
   1294732513.5779464     
   1158870809.1368759     
   1547319378.3449497     
   1397440597.2322545     
   1244019813.3533795     
   1084785923.8698103     
   917708836.81930518     
   1472748975.4216568     
   1328502107.7632301     
   1198732229.9844298     
   1087922113.7416883     
   1001980423.7855616     
   1457557950.6472661     
   1348533800.0428300     
   1274497583.3576262     
   1243575591.8267996     
   1262808201.4227705     
   1681288341.4318745     
   1383763890.5392442     
   1129465511.5129488     
   1010098417.0948308     
   1152929041.8695028     
   1158870809.1368759     
   1008442012.5748508     
   985227288.84987867     
   1161475538.8834646     
   1544076540.4456782     
   917708836.81930518     
   963124303.71600831     
   1144934015.9243245     
   1476485940.7403915     
   1957455440.4032238     
   1001980423.7855616     
   1164683854.5706475     
   1425416943.9175174     
   1808758881.9345479     
   2334786574.0095949     
   1262808201.4227705     
   1446630613.4168200     
   1715666801.0420442     
   2110496499.7420740     
   2663558089.5634832     
   4652465996.3336678     
   4505336074.6803913     
   4359989904.4394093     
   4216587871.8311710     
   4075322373.2810125     
   4387728571.6525288     
   4247776736.2842917     
   4110372963.9014425     
   3975764157.3009853     
   3844255551.8262143     
   4131390660.1763926     
   4001146262.3751001     
   3874686704.2250223     
   3752332670.6407385     
   3634498084.6369023     
   3889821579.7433128     
   3771422523.2601275     
   3658562545.2198758     
   3551609241.0848875     
   3451062229.3278050     
   3671309556.7380447     
   3566189071.4394536     
   3468916929.5582070     
   3379857905.2617950     
   3299544500.2526565     
   4075322373.2810125     
   3949208977.9862919     
   3824757980.9454484     
   3702177677.6575933     
   3581728455.4020653     
   3844255551.8262143     
   3728373078.2530804     
   3614993778.8815594     
   3504383539.8896866     
   3396870117.5094457     
   3634498084.6369023     
   3529782303.1965346     
   3428540160.0768514     
   3331089053.5108962     
   3237814351.6107564     
   3451062229.3278050     
   3358208865.5634274     
   3269907614.6816092     
   3186510114.7461829     
   3108436140.4512477     
   3299544500.2526565     
   3218855527.4064155     
   3143866565.4446197     
   3074934769.1994796     
   3012478766.3009310     
   3581728455.4020653     
   3437139756.6591921     
   3295446847.4009948     
   3156982997.3978596     
   3022182415.3203535     
   3396870117.5094457     
   3265367107.6112380     
   3137571839.4270110     
   3013901895.8206801     
   2894884689.3305564     
   3237814351.6107564     
   3120304187.0740471     
   3007407868.9595933     
   2899613429.9667840     
   2797518657.6072097     
   3108436140.4512477     
   3005683211.4310465     
   2908494694.3979235     
   2817399597.8722754     
   2733025593.5856819     
   3012478766.3009310     
   2924950152.6491508     
   2843912244.4372621     
   2769893037.1992264     
   2703498681.0691051     
   3022182415.3203535     
   2889763452.4251957     
   2759703164.4503841     
   2632341596.0959301     
   2508115736.1566195     
   2894884689.3305564     
   2774630285.0605021     
   2657887306.9503837     
   2545119368.7636743     
   2436900167.2946553     
   2797518657.6072097     
   2690871953.9967775     
   2588982826.0518360     
   2492406187.5420537     
   2401802336.1646824     
   2733025593.5856819     
   2640991214.8216281     
   2554943197.6369042     
   2475469417.0417986     
   2403240514.9522414     
   2703498681.0691051     
   2626435268.0287080     
   2556456541.9885969     
   2494115733.9189630     
   2440016729.4297447     
   2508115736.1566195     
   2370059546.3401175     
   2235512078.4598684     
   2104960991.1554186     
   1979037204.8111782     
   2436900167.2946553     
   2312386512.5347548     
   2192800591.1649928     
   2078834758.9198632     
   1971341641.3497465     
   2401802336.1646824     
   2293039734.5811515     
   2190708771.1963730     
   2095627723.6377821     
   2008750099.6119876     
   2403240514.9522414     
   2311673119.5647321     
   2227913394.0858727     
   2152788827.5389900     
   2087207931.1388035     
   2440016729.4297447     
   2366130830.6694746     
   2301146061.5553527     
   2245795729.7355194     
   2200838647.0567355     
   1979037204.8111782     
   1848200792.3732042     
   1717412343.7317712     
   1587026024.7001226     
   1457557950.6472661     
   1971341641.3497465     
   1855219922.4336369     
   1743476945.0540290     
   1637036939.9027953     
   1537034653.5410509     
   2008750099.6119876     
   1912437503.6144900     
   1824894316.1312318     
   1747319345.4264455     
   1681002732.2544434     
   2087207931.1388035     
   2012247770.3737009     
   1949619117.6245658     
   1900396665.5482085     
   1865605173.5621738     
   2200838647.0567355     
   2145766426.5282669     
   2105581779.9070842     
   2081046226.5675910     
   2072833274.0254900     
   1457557950.6472661     
   1348533800.0428300     
   1274497583.3576262     
   1243575591.8267996     
   1262808201.4227705     
   1537034653.5410509     
   1476125000.6016245     
   1447915215.6282456     
   1456373082.9233415     
   1504794500.5855432     
   1681002732.2544434     
   1652427537.7111712     
   1651586568.5733075     
   1680850758.6156993     
   1742830074.7952163     
   1865605173.5621738     
   1854982751.6913958     
   1867354678.6897416     
   1904931849.4384327     
   1970745885.4568784     
   2072833274.0254900     
   2069184949.6968050     
   2084807246.1377382     
   2122333189.5089016     
   2185573701.5186076     
   1262808201.4227705     
   1446630613.4168200     
   1715666801.0420442     
   2110496499.7420740     
   2663558089.5634832     
   1504794500.5855432     
   1613225889.1376269     
   1788848525.0744684     
   2066412312.8620028     
   2476123688.4503026     
   1742830074.7952163     
   1787669911.4517937     
   1884647183.1413407     
   2060671258.3638313     
   2340973421.9824638     
   1970745885.4568784     
   1968920529.5307918     
   2003627465.1967845     
   2093541153.5316236     
   2257323327.8036461     
   2185573701.5186076     
   2156261921.9212413     
   2146529787.0902054     
   2166900828.6395121     
   2228447528.7354116     
   3671309556.7380447     
   3566189071.4394536     
   3468916929.5582070     
   3379857905.2617950     
   3299544500.2526565     
   3396298250.8978667     
   3316087715.3487391     
   3243265770.9585881     
   3178178709.1573596     
   3121277464.2620568     
   3163624050.1777105     
   3106127470.1450586     
   3055202553.5981584     
   3011136928.2587705     
   2974271278.5188212     
   2976113212.4045110     
   2939363865.4382939     
   2907957611.3222947     
   2882096196.3679891     
   2861999487.6205816     
   2835633342.6983509     
   2817911260.2138562     
   2803876713.2620420     
   2793636319.6119142     
   2787297629.7725196     
   3299544500.2526565     
   3218855527.4064155     
   3143866565.4446197     
   3074934769.1994796     
   3012478766.3009310     
   3121277464.2620568     
   3055074070.0780611     
   2994965472.4010792     
   2941282464.2802773     
   2894401015.8259344     
   2974271278.5188212     
   2922094487.1710410     
   2876316534.9478922     
   2837222026.0301056     
   2805124552.6310754     
   2861999487.6205816     
   2823085006.4340205     
   2790751863.9462023     
   2765223645.8209691     
   2746739373.6608982     
   2787297629.7725196     
   2760504086.0819082     
   2740337017.6970434     
   2726953335.3184667     
   2720516244.7611060     
   3012478766.3009310     
   2924950152.6491508     
   2843912244.4372621     
   2769893037.1992264     
   2703498681.0691051     
   2894401015.8259344     
   2822286870.3460622     
   2757411801.0560145     
   2700263014.6385331     
   2651380703.4742813     
   2805124552.6310754     
   2747945422.5688486     
   2698621108.2400684     
   2657562699.5739880     
   2625210102.6372900     
   2746739373.6608982     
   2703474848.4238281     
   2668520005.0399790     
   2642187579.3000979     
   2624800798.8791513     
   2720516244.7611060     
   2689574054.3531771     
   2667238110.8441520     
   2653718448.1719670     
   2649225222.1793480     
   2703498681.0691051     
   2626435268.0287080     
   2556456541.9885969     
   2494115733.9189630     
   2440016729.4297447     
   2651380703.4742813     
   2589282599.3701434     
   2534961817.7567143     
   2488902618.3045926     
   2451613577.3810010     
   2625210102.6372900     
   2577492273.0344934     
   2538077363.6327772     
   2507351947.4484200     
   2485706837.3560977     
   2624800798.8791513     
   2590341766.4561520     
   2564551050.1011443     
   2547708214.1548710     
   2540086070.6903090     
   2649225222.1793480     
   2626431819.9665918     
   2612551469.0316262     
   2607764925.3802304     
   2612243343.2794333     
   2440016729.4297447     
   2366130830.6694746     
   2301146061.5553527     
   2245795729.7355194     
   2200838647.0567355     
   2451613577.3810010     
   2394462502.4362559     
   2346889931.5471892     
   2309468750.4879203     
   2282757879.1809440     
   2485706837.3560977     
   2443944576.8160534     
   2412160014.0528865     
   2390756859.7603378     
   2380106767.6412416     
   2540086070.6903090     
   2511861424.8097439     
   2493815498.7005682     
   2486203449.6134710     
   2489247152.2069321     
   2612243343.2794333     
   2595384196.0224314     
   2588804793.7018771     
   2592646379.2589145     
   2607025117.1345654     
   2200838647.0567355     
   2145766426.5282669     
   2105581779.9070842     
   2081046226.5675910     
   2072833274.0254900     
   2282757879.1809440     
   2242326671.7589073     
   2215786507.2469697     
   2203585602.5663824     
   2206110634.0236669     
   2380106767.6412416     
   2351403723.2939324     
   2335572305.6431522     
   2332863018.7596703     
   2343497179.4963737     
   2489247152.2069321     
   2469644914.0408783     
   2461987896.2559457     
   2466413325.1739526     
   2483056152.9508619     
   2607025117.1345654     
   2594255313.8917427     
   2592658273.0132875     
   2602313973.7607102     
   2623318738.2685413     
   2072833274.0254900     
   2069184949.6968050     
   2084807246.1377382     
   2122333189.5089016     
   2185573701.5186076     
   2206110634.0236669     
   2191696946.0542331     
   2192294269.7284460     
   2209872237.7037001     
   2247349615.9095621     
   2343497179.4963737     
   2319116707.4715881     
   2306272615.4715405     
   2306370485.4720654     
   2321498023.0906644     
   2483056152.9508619     
   2450464881.6838326     
   2426421475.1280489     
   2411871316.1578021     
   2408190891.1817360     
   2623318738.2685413     
   2584956667.8631616     
   2552455227.8498240     
   2526395876.7248416     
   2507587250.9114923     
   2185573701.5186076     
   2156261921.9212413     
   2146529787.0902054     
   2166900828.6395121     
   2228447528.7354116     
   2247349615.9095621     
   2182656733.5149527     
   2134395650.1731710     
   2112233026.0777700     
   2127103425.8497572     
   2321498023.0906644     
   2224762750.8037271     
   2141361097.0734494     
   2079658364.7797613     
   2049825782.0175502     
   2408190891.1817360     
   2282874385.6044178     
   2168073212.3730240     
   2070527779.9461455     
   1999006023.0103202     
   2507587250.9114923     
   2357201637.6985569     
   2215002837.7393289     
   2085972280.4038758     
   1976986531.7837782     
   2835633342.6983509     
   2817911260.2138562     
   2803876713.2620420     
   2793636319.6119142     
   2787297629.7725196     
   2736326564.4724264     
   2719058350.1096315     
   2707476204.1731319     
   2701687228.1499586     
   2701799593.4080529     
   2676311730.6052437     
   2658330493.6712418     
   2648162452.1150517     
   2645880725.9472771     
   2651559387.7327332     
   2664123117.2572064     
   2642890645.2041297     
   2631669551.5765791     
   2630485063.3058491     
   2639362912.3577003     
   2706448541.9526196     
   2678159790.4531622     
   2662073642.7956514     
   2658190098.9800839     
   2666509159.0064650     
   2787297629.7725196     
   2760504086.0819082     
   2740337017.6970434     
   2726953335.3184667     
   2720516244.7611060     
   2701799593.4080529     
   2682068571.5760140     
   2669379639.1722274     
   2663832312.1540117     
   2665528583.2942142     
   2651559387.7327332     
   2636892959.5270352     
   2629636931.5866294     
   2629839650.1838517     
   2637550110.5356517     
   2639362912.3577003     
   2627294012.7657638     
   2622964067.3264437     
   2626385878.1237979     
   2637572338.5233755     
   2666509159.0064650     
   2654263761.9857602     
   2650052842.2443233     
   2653876399.7821579     
   2665734434.5992632     
   2720516244.7611060     
   2689574054.3531771     
   2667238110.8441520     
   2653718448.1719670     
   2649225222.1793480     
   2665528583.2942142     
   2643141784.3464561     
   2629571814.7862711     
   2624944286.2289443     
   2629382410.0347452     
   2637550110.5356517     
   2621472732.4874563     
   2614387544.7820501     
   2616352681.0082259     
   2627424284.2285438     
   2637572338.5233755     
   2625206975.7161727     
   2622005177.1796451     
   2627981810.7625823     
   2643151092.6872344     
   2665734434.5992632     
   2654273179.2590828     
   2652167826.8225279     
   2659418377.2895918     
   2676024830.6602793     
   2649225222.1793480     
   2626431819.9665918     
   2612551469.0316262     
   2607764925.3802304     
   2612243343.2794333     
   2629382410.0347452     
   2614616917.7954321     
   2608716901.3555269     
   2611783901.8924518     
   2623912101.5793009     
   2627424284.2285438     
   2618598557.9988546     
   2618599004.4460382     
   2627470279.3068776     
   2645253140.2413745     
   2643151092.6872344     
   2638026914.9052520     
   2641731500.5516891     
   2654275844.1405687     
   2675669872.3341918     
   2676024830.6602793     
   2672301421.0002761     
   2677474584.8624153     
   2691544322.2466931     
   2714510633.1531258     
   2612243343.2794333     
   2595384196.0224314     
   2588804793.7018771     
   2592646379.2589145     
   2607025117.1345654     
   2623912101.5793009     
   2613745008.7294369     
   2613669499.0408354     
   2623761760.5303478     
   2644082683.8707218     
   2645253140.2413745     
   2640106234.4079676     
   2644952187.2544889     
   2659823599.2578096     
   2684745886.2032967     
   2675669872.3341918     
   2673829587.0181942     
   2682001456.1755204     
   2700193393.6775494     
   2728411447.7017651     
   2714510633.1531258     
   2714257860.0991945     
   2724174500.7224545     
   2744260555.0229020     
   2774516023.0005612     
   2607025117.1345654     
   2594255313.8917427     
   2592658273.0132875     
   2602313973.7607102     
   2623318738.2685413     
   2644082683.8707218     
   2633128988.4899888     
   2632465003.5455823     
   2642130108.9212880     
   2662174538.6944747     
   2684745886.2032967     
   2675288396.8958826     
   2675418840.1757321     
   2685152460.7004604     
   2704509911.5966229     
   2728411447.7017651     
   2720293858.5752578     
   2721222523.8163495     
   2731200735.2460938     
   2750233250.0479960     
   2774516023.0005612     
   2767730544.2042499     
   2769591008.5193172     
   2780097415.9457550     
   2799249766.4835763     
   2623318738.2685413     
   2584956667.8631616     
   2552455227.8498240     
   2526395876.7248416     
   2507587250.9114923     
   2662174538.6944747     
   2616820726.8873134     
   2577119606.0629520     
   2543402176.8196168     
   2516131056.4004402     
   2704509911.5966229     
   2654260434.0775652     
   2609598062.8376846     
   2570670310.0749464     
   2537683875.7447748     
   2750233250.0479960     
   2697187241.4052978     
   2649805104.4981294     
   2608123491.5511093     
   2572193766.2947221     
   2799249766.4835763     
   2745503591.7781134     
   2697640474.7384081     
   2655660415.3644671     
   2619563413.6562748     
   2507587250.9114923     
   2357201637.6985569     
   2215002837.7393289     
   2085972280.4038758     
   1976986531.7837782     
   2516131056.4004402     
   2348234665.4264421     
   2183904996.0327072     
   2026242735.5760670     
   1879813265.2951272     
   2537683875.7447748     
   2357366635.8651428     
   2176790982.1151104     
   1997428835.0736418     
   1821558528.3499007     
   2572193766.2947221     
   2384700588.8144164     
   2194127363.0301514     
   2000852431.8826621     
   1805479828.4124348     
   2619563413.6562748     
   2430204728.3725858     
   2236056324.4603672     
   2037118201.9196441     
   1833390360.7504256     
   2706448541.9526196     
   2678159790.4531622     
   2662073642.7956514     
   2658190098.9800839     
   2666509159.0064650     
   2664123104.7775078     
   2642890635.8988199     
   2631669545.5614991     
   2630485060.6978822     
   2639362913.2683673     
   2676311710.3742924     
   2658330478.7058969     
   2648162442.5533895     
   2645880721.9287853     
   2651559389.3903060     
   2736326541.2255969     
   2719058333.1822600     
   2707476193.6220655     
   2701687224.0345101     
   2701799595.7844701     
   2835633320.6129088     
   2817911244.6586437     
   2803876704.0955057     
   2793636316.6964111     
   2787297632.9741230     
   2666509159.0064650     
   2654263761.9857602     
   2650052842.2443233     
   2653876399.7821579     
   2665734434.5992632     
   2639362913.2683673     
   2627294013.6113391     
   2622964068.1683488     
   2626385879.0215154     
   2637572339.5346723     
   2651559389.3903060     
   2636892961.0419431     
   2629636933.0856915     
   2629839651.7909126     
   2637550112.3719006     
   2701799595.7844701     
   2682068573.6815724     
   2669379641.2020097     
   2663832314.3008242     
   2665528585.7488885     
   2787297632.9741230     
   2760504088.8014979     
   2740337020.1988106     
   2726953337.8672390     
   2720516247.6226373     
   2665734434.5992632     
   2654273179.2590828     
   2652167826.8225279     
   2659418377.2895918     
   2676024830.6602793     
   2637572339.5346723     
   2625206976.4893899     
   2622005177.7151680     
   2627981811.0618463     
   2643151092.7530212     
   2637550112.3719006     
   2621472733.8951640     
   2614387545.7650180     
   2616352681.5718780     
   2627424284.3805089     
   2665528585.7488885     
   2643141786.2294450     
   2629571816.1076503     
   2624944287.0005879     
   2629382410.2711101     
   2720516247.6226373     
   2689574056.5422158     
   2667238112.3802094     
   2653718449.0762243     
   2649225222.4755602     
   2676024830.6602793     
   2672301421.0002761     
   2677474584.8624153     
   2691544322.2466931     
   2714510633.1531258     
   2643151092.7530212     
   2638026914.9394612     
   2641731500.5312662     
   2654275844.0429549     
   2675669872.1372442     
   2627424284.3805089     
   2618598558.1167321     
   2618599004.4833312     
   2627470279.2175827     
   2645253139.9798279     
   2629382410.2711101     
   2614616918.0346713     
   2608716901.5269589     
   2611783901.9250674     
   2623912101.4016242     
   2649225222.4755602     
   2626431820.3509998     
   2612551469.4088635     
   2607764925.6526713     
   2612243343.3470550     
   2714510633.1531258     
   2714257860.0991945     
   2724174500.7224545     
   2744260555.0229020     
   2774516023.0005612     
   2675669872.1372442     
   2673829586.9161553     
   2682001456.1802168     
   2700193393.8000116     
   2728411447.9523191     
   2645253139.9798279     
   2640106234.2822051     
   2644952187.2866430     
   2659823599.4691091     
   2684745886.6141295     
   2623912101.4016242     
   2613745008.6711884     
   2613669499.1329393     
   2623761760.8035617     
   2644082684.3555427     
   2612243343.3470550     
   2595384196.1346288     
   2588804793.8963699     
   2592646379.5749373     
   2607025117.6126227     
   2774516023.0005612     
   2767730544.2042499     
   2769591008.5193172     
   2780097415.9457550     
   2799249766.4835763     
   2728411447.9523191     
   2720293858.7391620     
   2721222523.8982711     
   2731200735.2509809     
   2750233249.9808049     
   2684745886.6141295     
   2675288397.1614547     
   2675418840.3062119     
   2685152460.7063518     
   2704509911.4885001     
   2644082684.3555427     
   2633128988.7975178     
   2632465003.6925430     
   2642130108.9245944     
   2662174538.5712981     
   2607025117.6126227     
   2594255314.1849084     
   2592658273.1463041     
   2602313973.7582116     
   2623318738.1556892     
   2799249766.4835763     
   2745503591.7781134     
   2697640474.7384081     
   2655660415.3644671     
   2619563413.6562748     
   2750233249.9808049     
   2697187241.3611345     
   2649805104.4756565     
   2608123491.5491400     
   2572193766.3124208     
   2704509911.4885001     
   2654260434.0064502     
   2609598062.8008466     
   2570670310.0698075     
   2537683875.7690892     
   2662174538.5712981     
   2616820726.8062797     
   2577119606.0198312     
   2543402176.8102350     
   2516131056.4204979     
   2623318738.1556892     
   2584956667.7889800     
   2552455227.8084536     
   2526395876.7101965     
   2507587250.9165974     
   2619563413.6562748     
   2430204728.3725858     
   2236056324.4603672     
   2037118201.9196441     
   1833390360.7504256     
   2572193766.3124208     
   2384700588.8242922     
   2194127363.0344186     
   2000852431.8837440     
   1805479828.4129639     
   2537683875.7690892     
   2357366635.8779435     
   2176790982.1207643     
   1997428835.0773268     
   1821558528.3578417     
   2516131056.4204979     
   2348234665.4352679     
   2183904996.0367517     
   2026242735.5834012     
   1879813265.3161151     
   2507587250.9165974     
   2357201637.6966014     
   2215002837.7386866     
   2085972280.4155123     
   1976986531.8222687     
   2835633320.6129088     
   2817911244.6586437     
   2803876704.0955057     
   2793636316.6964111     
   2787297632.9741230     
   2976113191.5023108     
   2939363850.5164137     
   2907957602.2908711     
   2882096193.1509795     
   2861999490.1528554     
   3163624029.8188710     
   3106127455.4658151     
   3055202544.5790644     
   3011136924.9096246     
   2974271280.8722701     
   3396298230.4698615     
   3316087700.5155411     
   3243265761.7788334     
   3178178705.7415934     
   3121277466.7631545     
   3671309535.6807718     
   3566189056.0692935     
   3468916920.0089121     
   3379857901.7497897     
   3299544503.0659027     
   2787297632.9741230     
   2760504088.8014979     
   2740337020.1988106     
   2726953337.8672390     
   2720516247.6226373     
   2861999490.1528554     
   2823085008.6035190     
   2790751865.9479871     
   2765223647.8550048     
   2746739375.9332705     
   2974271280.8722701     
   2922094489.1202049     
   2876316536.6095772     
   2837222027.5298715     
   2805124554.1054296     
   3121277466.7631545     
   3055074072.0280519     
   2994965473.8310590     
   2941282465.2321548     
   2894401016.3555169     
   3299544503.0659027     
   3218855529.4693832     
   3143866566.6982889     
   3074934769.5951242     
   3012478765.8036141     
   2720516247.6226373     
   2689574056.5422158     
   2667238112.3802094     
   2653718449.0762243     
   2649225222.4755602     
   2746739375.9332705     
   2703474849.9806151     
   2668520005.9051404     
   2642187579.4979286     
   2624800798.4350557     
   2805124554.1054296     
   2747945423.3358679     
   2698621108.3356829     
   2657562699.0332851     
   2625210101.4948149     
   2894401016.3555169     
   2822286870.2134147     
   2757411800.3162971     
   2700263013.3455977     
   2651380701.6802468     
   3012478765.8036141     
   2924950151.5571108     
   2843912242.8310170     
   2769893035.1586437     
   2703498678.6722045     
   2649225222.4755602     
   2626431820.3509998     
   2612551469.4088635     
   2607764925.6526713     
   2612243343.3470550     
   2624800798.4350557     
   2590341766.2011809     
   2564551049.9628758     
   2547708214.0579743     
   2540086070.5563769     
   2625210101.4948149     
   2577492272.1729226     
   2538077363.0018301     
   2507351946.9947929     
   2485706837.0231843     
   2651380701.6802468     
   2589282597.9292965     
   2534961816.6399879     
   2488902617.4806647     
   2451613576.8159018     
   2703498678.6722045     
   2626435266.0288825     
   2556456540.3762951     
   2494115732.6840754     
   2440016728.5613623     
   2612243343.3470550     
   2595384196.1346288     
   2588804793.8963699     
   2592646379.5749373     
   2607025117.6126227     
   2540086070.5563769     
   2511861424.7693515     
   2493815498.7706704     
   2486203449.8128304     
   2489247152.5558944     
   2485706837.0231843     
   2443944576.6299071     
   2412160014.0101552     
   2390756859.8592572     
   2380106767.8814216     
   2451613576.8159018     
   2394462502.0829921     
   2346889931.3827276     
   2309468750.4898572     
   2282757879.3272982     
   2440016728.5613623     
   2366130830.0964994     
   2301146061.2364573     
   2245795729.6281943     
   2200838647.1169734     
   2607025117.6126227     
   2594255314.1849084     
   2592658273.1463041     
   2602313973.7582116     
   2623318738.1556892     
   2489247152.5558944     
   2469644914.2500634     
   2461987896.3434758     
   2466413325.1579552     
   2483056152.8499599     
   2380106767.8814216     
   2351403723.4314179     
   2335572305.6894741     
   2332863018.7264857     
   2343497179.3957953     
   2282757879.3272982     
   2242326671.8336325     
   2215786507.2547026     
   2203585602.5119777     
   2206110633.9124370     
   2200838647.1169734     
   2145766426.5445089     
   2105581779.8765340     
   2081046226.4876227     
   2072833273.8937407     
   2623318738.1556892     
   2584956667.7889800     
   2552455227.8084536     
   2526395876.7101965     
   2507587250.9165974     
   2483056152.8499599     
   2450464881.6090889     
   2426421475.0757427     
   2411871316.1241426     
   2408190891.1621919     
   2343497179.3957953     
   2319116707.3883538     
   2306272615.4041443     
   2306370485.4189835     
   2321498023.0499206     
   2206110633.9124370     
   2191696945.9548512     
   2192294269.6417141     
   2209872237.6304836     
   2247349615.8506331     
   2072833273.8937407     
   2069184949.5740430     
   2084807246.0274129     
   2122333189.4145818     
   2185573701.4442525     
   2507587250.9165974     
   2357201637.6966014     
   2215002837.7386866     
   2085972280.4155123     
   1976986531.8222687     
   2408190891.1621919     
   2282874385.5909715     
   2168073212.3717527     
   2070527779.9652607     
   1999006023.0605905     
   2321498023.0499206     
   2224762750.7798285     
   2141361097.0700240     
   2079658364.8016980     
   2049825782.0710518     
   2247349615.8506331     
   2182656733.4814062     
   2134395650.1659203     
   2112233026.0980327     
   2127103425.8988187     
   2185573701.4442525     
   2156261921.8786469     
   2146529787.0774529     
   2166900828.6539574     
   2228447528.7734799     
   3671309535.6807718     
   3566189056.0692935     
   3468916920.0089121     
   3379857901.7497897     
   3299544503.0659027     
   3889821560.0983210     
   3771422509.4012308     
   3658562537.1798739     
   3551609238.9684238     
   3451062233.3148003     
   4131390643.6086750     
   4001146251.2638812     
   3874686698.4141736     
   3752332670.0331130     
   3634498089.2029099     
   4387728559.0806541     
   4247776728.6137729     
   4110372960.7023983     
   3975764158.1926780     
   3844255556.4825730     
   4652465988.0538864     
   4505336070.6940680     
   4359989903.9600105     
   4216587874.1211028     
   4075322377.6482139     
   3299544503.0659027     
   3218855529.4693832     
   3143866566.6982889     
   3074934769.5951242     
   3012478765.8036141     
   3451062233.3148003     
   3358208868.4829292     
   3269907616.4668941     
   3186510115.3344383     
   3108436139.7862072     
   3634498089.2029099     
   3529782306.5174236     
   3428540162.0947137     
   3331089054.1666331     
   3237814350.8453846     
   3844255556.4825730     
   3728373081.6004224     
   3614993780.8857288     
   3504383540.5122452     
   3396870116.7075291     
   4075322377.6482139     
   3949208981.0689216     
   3824757982.7455382     
   3702177678.1718774     
   3581728454.6205840     
   3012478765.8036141     
   2924950151.5571108     
   2843912242.8310170     
   2769893035.1586437     
   2703498678.6722045     
   3108436139.7862072     
   3005683210.2643189     
   2908494692.8030167     
   2817399595.9235244     
   2733025591.3576059     
   3237814350.8453846     
   3120304185.8669786     
   3007407867.3756261     
   2899613428.0726261     
   2797518655.4713697     
   3396870116.7075291     
   3265367106.4053874     
   3137571837.8718476     
   3013901893.9732752     
   2894884687.2506971     
   3581728454.6205840     
   3437139755.4997234     
   3295446845.9070773     
   3156982995.6155181     
   3022182413.2985148     
   2703498678.6722045     
   2626435266.0288825     
   2556456540.3762951     
   2494115732.6840754     
   2440016728.5613623     
   2733025591.3576059     
   2640991212.9448452     
   2554943196.1138654     
   2475469415.8737073     
   2403240514.1384668     
   2797518655.4713697     
   2690871952.1850877     
   2588982824.5808740     
   2492406186.4271383     
   2401802335.4190164     
   2894884687.2506971     
   2774630283.2871590     
   2657887305.5154357     
   2545119367.6983809     
   2436900166.6286783     
   3022182413.2985148     
   2889763450.6934009     
   2759703163.0558333     
   2632341595.0861754     
   2508115735.5786495     
   2440016728.5613623     
   2366130830.0964994     
   2301146061.2364573     
   2245795729.6281943     
   2200838647.1169734     
   2403240514.1384668     
   2311673119.0191326     
   2227913393.7705021     
   2152788827.4149885     
   2087207931.1660864     
   2401802335.4190164     
   2293039734.0764637     
   2190708770.8954768     
   2095627723.5027778     
   2008750099.6039481     
   2436900166.6286783     
   2312386512.0839739     
   2192800590.8908634     
   2078834758.7831495     
   1971341641.3101368     
   2508115735.5786495     
   2370059545.9543605     
   2235512078.2250056     
   2104960991.0294037     
   1979037204.7505834     
   2200838647.1169734     
   2145766426.5445089     
   2105581779.8765340     
   2081046226.4876227     
   2072833273.8937407     
   2087207931.1660864     
   2012247770.3577590     
   1949619117.5657823     
   1900396665.4471941     
   1865605173.4199026     
   2008750099.6039481     
   1912437503.5645077     
   1824894316.0431771     
   1747319345.3045592     
   1681002732.1035044     
   1971341641.3101368     
   1855219922.3518417     
   1743476944.9374158     
   1637036939.7594049     
   1537034653.3796630     
   1979037204.7505834     
   1848200792.2668853     
   1717412343.5900688     
   1587026024.5340638     
   1457557950.4684362     
   2072833273.8937407     
   2069184949.5740430     
   2084807246.0274129     
   2122333189.4145818     
   2185573701.4442525     
   1865605173.4199026     
   1854982751.5654318     
   1867354678.5811012     
   1904931849.3480771     
   1970745885.3858187     
   1681002732.1035044     
   1652427537.5834913     
   1651586568.4674249     
   1680850758.5297973     
   1742830074.7270024     
   1537034653.3796630     
   1476125000.4711933     
   1447915215.5249104     
   1456373082.8421266     
   1504794500.5200803     
   1457557950.4684362     
   1348533799.9047153     
   1274497583.2545156     
   1243575591.7503874     
   1262808201.3612380     
   2185573701.4442525     
   2156261921.8786469     
   2146529787.0774529     
   2166900828.6539574     
   2228447528.7734799     
   1970745885.3858187     
   1968920529.4875104     
   2003627465.1814122     
   2093541153.5429156     
   2257323327.8381872     
   1742830074.7270024     
   1787669911.4067957     
   1884647183.1214521     
   2060671258.3687651     
   2340973422.0088859     
   1504794500.5200803     
   1613225889.0900295     
   1788848525.0482399     
   2066412312.8577809     
   2476123688.4652171     
   1262808201.3612380     
   1446630613.3660462     
   1715666801.0078239     
   2110496499.7265396     
   2663558089.5649662     
   4652465988.0538864     
   4505336070.6940680     
   4359989903.9600105     
   4216587874.1211028     
   4075322377.6482139     
   4947344236.4337664     
   4788458134.8564405     
   4631091470.1863308     
   4475390162.6282692     
   4321549723.4346561     
   5280560485.4956999     
   5107558486.3712349     
   4935658981.6361446     
   4764930726.2001905     
   4595513268.6481733     
   5649782420.8007298     
   5460016543.4059248     
   5270834077.9053125     
   5082170532.9285192     
   4894053938.6340151     
   6052856554.6254835     
   5843430581.9079294     
   5634021007.2883854     
   5424381697.2685108     
   5214378674.6112375     
   4075322377.6482139     
   3949208981.0689216     
   3824757982.7455382     
   3702177678.1718774     
   3581728454.6205840     
   4321549723.4346561     
   4183463810.9947739     
   4046678916.8392849     
   3911342015.9000392     
   3777649500.6929736     
   4595513268.6481733     
   4445880307.6220608     
   4297225020.6635551     
   4149632357.3259563     
   4003233102.7019296     
   4894053938.6340151     
   4733054955.2955027     
   4572745985.3995371     
   4413152330.0221872     
   4254341484.4615979     
   5214378674.6112375     
   5041974942.6637239     
   4870003701.2821589     
   4698434482.3691349     
   4527275802.6728516     
   3581728454.6205840     
   3437139755.4997234     
   3295446845.9070773     
   3156982995.6155181     
   3022182413.2985148     
   3777649500.6929736     
   3619841525.3957515     
   3464075544.6098514     
   3310591102.2210031     
   3159722415.4273930     
   4003233102.7019296     
   3832730532.6892891     
   3663481618.0945392     
   3495626771.9565353     
   3329388711.0685883     
   4254341484.4615979     
   4071596079.2136750     
   3889403943.7660947     
   3707810689.9940372     
   3526929257.5258288     
   4527275802.6728516     
   4332636827.8678961     
   4137945900.9298654     
   3943163668.5625443     
   3748303180.5872502     
   3022182413.2985148     
   2889763450.6934009     
   2759703163.0558333     
   2632341595.0861754     
   2508115735.5786495     
   3159722415.4273930     
   3015956267.6290035     
   2873952231.6557956     
   2733944285.9219246     
   2596250352.0802846     
   3329388711.0685883     
   3175162705.7874579     
   3022192511.2556701     
   2870611579.2620006     
   2720621866.8554654     
   3526929257.5258288     
   3362856272.9588370     
   3199626384.2616320     
   3037286751.3287554     
   2875939173.2650113     
   3748303180.5872502     
   3574706286.0708551     
   3401620913.4295583     
   3229024655.6056647     
   3056939431.9394965     
   2508115735.5786495     
   2370059545.9543605     
   2235512078.2250056     
   2104960991.0294037     
   1979037204.7505834     
   2596250352.0802846     
   2448218237.4317102     
   2302301849.6012745     
   2158810645.9090781     
   2018161426.1473899     
   2720621866.8554654     
   2564594480.0252342     
   2409558447.5225573     
   2255658544.3652754     
   2103100483.5840938     
   2875939173.2650113     
   2713961752.2975802     
   2552173813.8521147     
   2390606916.7427230     
   2229317475.0367560     
   3056939431.9394965     
   2890921829.7040796     
   2724595553.4227762     
   2557938863.8022017     
   2390937590.0039983     
   1979037204.7505834     
   1848200792.2668853     
   1717412343.5900688     
   1587026024.5340638     
   1457557950.4684362     
   2018161426.1473899     
   1881223966.1315331     
   1744581522.3820343     
   1608363679.7802613     
   1472748975.2629058     
   2103100483.5840938     
   1962757999.3592322     
   1823322091.6189921     
   1684823457.6991527     
   1547319378.2200830     
   2229317475.0367560     
   2086547390.2050483     
   1945370587.8669951     
   1805789552.0698223     
   1667878548.6044362     
   2390937590.0039983     
   2245086176.7348132     
   2101368395.6043081     
   1959789563.2873809     
   1820513761.8373230     
   1457557950.4684362     
   1348533799.9047153     
   1274497583.2545156     
   1243575591.7503874     
   1262808201.3612380     
   1472748975.2629058     
   1328502107.6376052     
   1198732229.8899727     
   1087922113.6750734     
   1001980423.7411110     
   1547319378.2200830     
   1397440597.1295969     
   1244019813.2736318     
   1084785923.8148108     
   917708836.79192257     
   1667878548.6044362     
   1552466359.3848801     
   1427966898.8660896     
   1294732513.5333562     
   1158870809.1070952     
   1820513761.8373230     
   1779854247.3040133     
   1735713382.2075469     
   1696704725.6815927     
   1681288341.3751028     
   1262808201.3612380     
   1446630613.3660462     
   1715666801.0078239     
   2110496499.7265396     
   2663558089.5649662     
   1001980423.7411110     
   1164683854.5343692     
   1425416943.8940890     
   1808758881.9239922     
   2334786574.0083418     
   917708836.79192257     
   963124303.69298625     
   1144934015.9110985     
   1476485940.7351608     
   1957455440.3994839     
   1158870809.1070952     
   1008442012.5533839     
   985227288.84231055     
   1161475538.8848732     
   1544076540.4417715     
   1681288341.3751028     
   1383763890.5011542     
   1129465511.5008469     
   1010098417.1073849     
   1152929041.8786581     
 </DataArray>
 <DataArray  type="Float64" Name="strain" NumberOfComponents="3" format="ascii">
  0.10095222866284081       -2.9767214565723510E-002   4.3407338205638801E-003
   9.7430453668251094E-002  -2.8946889326279757E-002   3.0872233844925212E-003
   9.3908678673661039E-002  -2.8080836877869164E-002   2.2344722826387331E-003
   9.0386903679071151E-002  -2.7169057220491885E-002   1.7824805150036815E-003
   8.6865128684481263E-002  -2.6211550354147795E-002   1.7312480815865339E-003
   9.3977482448862837E-002  -2.7984467207225805E-002   9.8997873785133805E-003
   9.0816937822335408E-002  -2.7169815982806378E-002   9.0482390939013446E-003
   8.7656393195808091E-002  -2.6330392030442351E-002   8.5183922111964905E-003
   8.4495848569280663E-002  -2.5466195350133572E-002   8.3102467303986516E-003
   8.1335303942753290E-002  -2.4577225941880276E-002   8.4238026515077169E-003
   8.7408977384044240E-002  -2.6201719848728100E-002   1.5463644161949508E-002
   8.4530605193268271E-002  -2.5392742639333110E-002   1.4993103547775111E-002
   8.1652233002492164E-002  -2.4579947183015399E-002   1.4765206403196562E-002
   7.8773860811716126E-002  -2.3763333479775321E-002   1.4779952728213627E-002
   7.5895488620940199E-002  -2.2942901529612647E-002   1.5037342522826680E-002
   8.1246713468385176E-002  -2.4418972490230367E-002   2.1032304170872332E-002
   7.8571455781049335E-002  -2.3615669295859759E-002   2.0921816746113445E-002
   7.5896198093713507E-002  -2.2829502335588683E-002   2.0974914858639039E-002
   7.3220940406377708E-002  -2.2060471609417039E-002   2.1191598508449403E-002
   7.0545682719041880E-002  -2.1308577117345073E-002   2.1571867695544283E-002
   7.5490690701885632E-002  -2.2636225131732635E-002   2.6605767405281755E-002
   7.2939489585678807E-002  -2.1838595952386464E-002   2.6834378688916194E-002
   7.0388288469472038E-002  -2.1079057488161884E-002   2.7147517577524038E-002
   6.7837087353265269E-002  -2.0357609739058903E-002   2.7545184071105344E-002
   6.5285886237058471E-002  -1.9674252705077444E-002   2.8027378169660278E-002
   8.6865128684481263E-002  -2.6211550354147795E-002   1.7312480815865339E-003
   8.4019951618552413E-002  -2.5243267845104000E-002   1.3429895676397297E-003
   8.1174774552623563E-002  -2.4299161259628277E-002   1.1548230218051958E-003
   7.8329597486694713E-002  -2.3379230597719874E-002   1.1667484440818776E-003
   7.5484420420765863E-002  -2.2483475859378710E-002   1.3787658344703857E-003
   8.1335303942753290E-002  -2.4577225941880276E-002   8.4238026515077169E-003
   7.8682382943738055E-002  -2.3682561643688843E-002   8.0989382204597338E-003
   7.6029461944722904E-002  -2.2801280293565623E-002   7.9584939551273770E-003
   7.3376540945707738E-002  -2.1933381891510860E-002   8.0024698555109519E-003
   7.0723619946692462E-002  -2.1078866437524435E-002   8.2308659216098756E-003
   7.5895488620940199E-002  -2.2942901529612647E-002   1.5037342522826680E-002
   7.3419151886442560E-002  -2.2121855442273075E-002   1.4786665150177014E-002
   7.0942815151944894E-002  -2.1303399327502970E-002   1.4704736140846913E-002
   6.8466478417447227E-002  -2.0487533185301623E-002   1.4791555494836107E-002
   6.5990141682949588E-002  -1.9674257015669550E-002   1.5047123212144797E-002
   7.0545682719041880E-002  -2.1308577117345073E-002   2.1571867695544283E-002
   6.8230258446665637E-002  -2.0561149240857779E-002   2.1406170356791841E-002
   6.5914834174289422E-002  -1.9805518361440261E-002   2.1393549578962862E-002
   6.3599409901913165E-002  -1.9041684479092720E-002   2.1534005362057188E-002
   6.1283985629536950E-002  -1.8269647593814969E-002   2.1827537706074693E-002
   6.5285886237058471E-002  -1.9674252705077444E-002   2.8027378169660278E-002
   6.3115702624407521E-002  -1.9000443039442233E-002   2.7957453840304319E-002
   6.0945519011756530E-002  -1.8307637395377524E-002   2.8024934269475693E-002
   5.8775335399105559E-002  -1.7595835772883615E-002   2.8229819457174232E-002
   5.6605151786454588E-002  -1.6865038171960334E-002   2.8572109403400048E-002
   7.5484420420765863E-002  -2.2483475859378710E-002   1.3787658344703857E-003
   7.2223930228371536E-002  -2.1593588886726245E-002   9.5851975860927752E-004
   6.8963440035977097E-002  -2.0691261521881998E-002   7.5518458055506832E-004
   6.5702949843582659E-002  -1.9776493764846928E-002   7.6876030030753606E-004
   6.2442459651188331E-002  -1.8849285615620937E-002   9.9924691786645869E-004
   7.0723619946692462E-002  -2.1078866437524435E-002   8.2308659216098756E-003
   6.7674952584186210E-002  -2.0227541338797228E-002   7.8425753030312295E-003
   6.4626285221679930E-002  -1.9369214002520507E-002   7.6610194464218351E-003
   6.1577617859173608E-002  -1.8503884428694259E-002   7.6861983517814980E-003
   5.8528950496667398E-002  -1.7631552617318969E-002   7.9181120191116339E-003
   6.5990141682949588E-002  -1.9674257015669550E-002   1.5047123212144797E-002
   6.3143121014494194E-002  -1.8861493790868211E-002   1.4685349896206151E-002
   6.0296100346038745E-002  -1.8047166483158877E-002   1.4520135206399942E-002
   5.7449079677583295E-002  -1.7231275092541583E-002   1.4551479142725879E-002
   5.4602059009127901E-002  -1.6413819619016723E-002   1.4779381705184530E-002
   6.1283985629536950E-002  -1.8269647593814969E-002   2.1827537706074693E-002
   5.8628435519295183E-002  -1.7495446242939083E-002   2.1486843538135014E-002
   5.5972885409053492E-002  -1.6725118963797095E-002   2.1332531860490341E-002
   5.3317335298811788E-002  -1.5958665756388910E-002   2.1364602673140980E-002
   5.0661785188570022E-002  -1.5196086620714505E-002   2.1583055976086500E-002
   5.6605151786454588E-002  -1.6865038171960334E-002   2.8572109403400048E-002
   5.4130896098589398E-002  -1.6129398695010150E-002   2.8247056228817125E-002
   5.1656640410724208E-002  -1.5403071444435326E-002   2.8098209408692426E-002
   4.9182384722858949E-002  -1.4686056420236075E-002   2.8125568943025703E-002
   4.6708129034993773E-002  -1.3978353622412398E-002   2.8329134831816649E-002
   6.2442459651188331E-002  -1.8849285615620937E-002   9.9924691786645869E-004
   5.9562580143906363E-002  -1.7932459821694891E-002   7.0100815461704435E-004
   5.6682700636624450E-002  -1.7048839130559240E-002   5.7389293845605538E-004
   5.3802821129342537E-002  -1.6198423542214409E-002   6.1790126938215950E-004
   5.0922941622060569E-002  -1.5381213056660181E-002   8.3303314739713308E-004
   5.8528950496667398E-002  -1.7631552617318969E-002   7.9181120191116339E-003
   5.5815397687241364E-002  -1.6765263714333456E-002   7.5755474950511270E-003
   5.3101844877815385E-002  -1.5918062865676735E-002   7.3945128196153953E-003
   5.0388292068389379E-002  -1.5089950071349827E-002   7.3750079928032453E-003
   4.7674739258963372E-002  -1.4280925331351724E-002   7.5170330146151487E-003
   5.4602059009127901E-002  -1.6413819619016723E-002   1.4779381705184530E-002
   5.2045239199093762E-002  -1.5598067606971744E-002   1.4406608468775645E-002
   4.9488419389059624E-002  -1.4787286600794550E-002   1.4185771382526788E-002
   4.6931599579025540E-002  -1.3981476600485130E-002   1.4116870446437314E-002
   4.4374779768991374E-002  -1.3180637606043377E-002   1.4199905660507883E-002
   5.0661785188570022E-002  -1.5196086620714505E-002   2.1583055976086500E-002
   4.8252104679463649E-002  -1.4430871499610171E-002   2.1194191075789993E-002
   4.5842424170357263E-002  -1.3656510335912093E-002   2.0947668627189272E-002
   4.3432743661250883E-002  -1.2873003129620602E-002   2.0843488630284283E-002
   4.1023063152144504E-002  -1.2080349880735197E-002   2.0881651085074809E-002
   4.6708129034993773E-002  -1.3978353622412398E-002   2.8329134831816649E-002
   4.4435994128351058E-002  -1.3263675392248431E-002   2.7938295316094264E-002
   4.2163859221708233E-002  -1.2525734071029998E-002   2.7680204553603482E-002
   3.9891724315065491E-002  -1.1764529658755858E-002   2.7554862544344083E-002
   3.7619589408422693E-002  -1.0980062155426795E-002   2.7562269288316399E-002
   5.0922941622060569E-002  -1.5381213056660181E-002   8.3303314739713308E-004
   4.8154134824093253E-002  -1.4566929936701833E-002   5.1755434534439537E-004
   4.5385328026125715E-002  -1.3725296445143642E-002   2.7457763434490801E-004
   4.2616521228158288E-002  -1.2856312581986634E-002   1.0410301439733871E-004
   3.9847714430190861E-002  -1.1959978347230393E-002   6.1304855025756666E-006
   4.7674739258963372E-002  -1.4280925331351724E-002   7.5170330146151487E-003
   4.4983876072540230E-002  -1.3474794266557621E-002   7.1755641439398277E-003
   4.2293012886116976E-002  -1.2655362497842243E-002   6.9174804053003802E-003
   3.9602149699693723E-002  -1.1822630025205165E-002   6.7427817986970007E-003
   3.6911286513270636E-002  -1.0976596848646381E-002   6.6514683241295502E-003
   4.4374779768991374E-002  -1.3180637606043377E-002   1.4199905660507883E-002
   4.1772743235095666E-002  -1.2382658596413798E-002   1.3818397053532133E-002
   3.9170706701199959E-002  -1.1585428550540400E-002   1.3531156619575241E-002
   3.6568670167304251E-002  -1.0788947468423474E-002   1.3338184358637539E-002
   3.3966633633408544E-002  -9.9932153500625898E-003   1.3239480270719195E-002
   4.1023063152144504E-002  -1.2080349880735197E-002   2.0881651085074809E-002
   3.8520736311759604E-002  -1.1290522926270002E-002   2.0446053074120514E-002
   3.6018409471374684E-002  -1.0515494603238446E-002   2.0115606277168741E-002
   3.3516082630989735E-002  -9.7552649116417825E-003   1.9890310694219600E-002
   3.1013755790604856E-002  -9.0098338514786880E-003   1.9770166325272606E-002
   3.7619589408422693E-002  -1.0980062155426795E-002   2.7562269288316399E-002
   3.5227855302531919E-002  -1.0198387256126040E-002   2.7058532205705976E-002
   3.2836121196641060E-002  -9.4455606559371019E-003   2.6670829378081184E-002
   3.0444387090750216E-002  -8.7215823548600219E-003   2.6399160805442218E-002
   2.8052652984859427E-002  -8.0264523528945642E-003   2.6243526487789159E-002
   3.9847714430190861E-002  -1.1959978347230393E-002   6.1304855025756666E-006
   3.7439893913546851E-002  -1.1130196600474429E-002  -2.7579612463268788E-004
   3.5032073396902952E-002  -1.0460870201319750E-002  -4.7294139189457685E-004
   3.2624252880259025E-002  -9.9519991497655641E-003  -5.8530531628292470E-004
   3.0216432363615042E-002  -9.6035834458119140E-003  -6.1288789779845310E-004
   3.6911286513270636E-002  -1.0976596848646381E-002   6.6514683241295502E-003
   3.4571067664167565E-002  -1.0176456785870647E-002   6.2113659361762164E-003
   3.2230848815064467E-002  -9.4814036545807223E-003   5.8216855404320533E-003
   2.9890629965961438E-002  -8.8914374547781061E-003   5.4824271368963118E-003
   2.7550411116858409E-002  -8.4065581864622985E-003   5.1935907255690195E-003
   3.3966633633408544E-002  -9.9932153500625898E-003   1.3239480270719195E-002
   3.1659657101181654E-002  -9.2227169712660872E-003   1.2696570521062767E-002
   2.9352680568954778E-002  -8.5019371078421668E-003   1.2169723412949890E-002
   2.7045704036727951E-002  -7.8308757597910991E-003   1.1658938946380856E-002
   2.4738727504501096E-002  -7.2095329271122388E-003   1.1164217121355569E-002
   3.1013755790604856E-002  -9.0098338514786880E-003   1.9770166325272606E-002
   2.8705662224589430E-002  -8.2689771566615833E-003   1.9179817630026338E-002
   2.6397568658574035E-002  -7.5224705611032644E-003   1.8571172225659439E-002
   2.4089475092558585E-002  -6.7703140648036446E-003   1.7944230112171413E-002
   2.1781381526543214E-002  -6.0125076677621792E-003   1.7298991289562485E-002
   2.8052652984859427E-002  -8.0264523528945642E-003   2.6243526487789159E-002
   2.5709083034390734E-002  -7.3152373420575234E-003   2.5661107263067695E-002
   2.3365513083922068E-002  -6.5430040143645285E-003   2.5026031978560237E-002
   2.1021943133453430E-002  -5.7097523698160652E-003   2.4338300634267340E-002
   1.8678373182984709E-002  -4.8154824084120085E-003   2.3597913230188672E-002
   3.0216432363615042E-002  -9.6035834458119140E-003  -6.1288789779845310E-004
   2.9607241037301057E-002  -9.1325658545162725E-003  -3.6703626026124425E-004
   2.8998049710986962E-002  -8.2558891409358348E-003  -1.8014435952755647E-003
   2.8388858384672921E-002  -6.9735533050698101E-003  -4.9161099028404709E-003
   2.7779667058358881E-002  -5.2855583469193501E-003  -9.7110351829561292E-003
   2.7550411116858409E-002  -8.4065581864622985E-003   5.1935907255690195E-003
   2.5530125894132838E-002  -7.8696712515041733E-003   5.8703257671720577E-003
   2.3509840671407212E-002  -7.1236820517768251E-003   5.4051319885031202E-003
   2.1489555448681558E-002  -6.1685905872789215E-003   3.7980093895621514E-003
   1.9469270225956015E-002  -5.0043968580113507E-003   1.0489579703489849E-003
   2.4738727504501096E-002  -7.2095329271122388E-003   1.1164217121355569E-002
   2.1845678537642715E-002  -6.6067766484920742E-003   1.2075278709510029E-002
   1.8952629570784335E-002  -5.9914749626176211E-003   1.2382741629671207E-002
   1.6059580603925996E-002  -5.3636278694880399E-003   1.2086605881838741E-002
   1.3166531637067630E-002  -4.7232353691034623E-003   1.1186871466012993E-002
   2.1781381526543214E-002  -6.0125076677621792E-003   1.7298991289562485E-002
   1.8553898967830849E-002  -5.3438820454796421E-003   1.8247822566752947E-002
   1.5326416409118415E-002  -4.8592678734585143E-003   1.9131385328228563E-002
   1.2098933850406040E-002  -4.5586651516967107E-003   1.9949679573989704E-002
   8.8714512916936092E-003  -4.4420738801959625E-003   2.0702705304036298E-002
   1.8678373182984709E-002  -4.8154824084120085E-003   2.3597913230188672E-002
   1.5654787184697094E-002  -4.0809874424678760E-003   2.4387957338900090E-002
   1.2631201186409424E-002  -3.7270607842993519E-003   2.5651063084175529E-002
   9.6076151881217958E-003  -3.7537024339061448E-003   2.7387230466015156E-002
   6.5840291898341397E-003  -4.1609123912881296E-003   2.9596459484418580E-002
   2.7779667058358881E-002  -5.2855583469193501E-003  -9.7110351829561292E-003
   2.3353227711239821E-002  -4.2071703554340534E-003  -4.1852639390040913E-003
   1.8926788364120817E-002  -4.7536554195664604E-003   2.6047007591826210E-003
   1.4500349017001674E-002  -6.9250135393146978E-003   1.0658858911604063E-002
   1.0073909669882752E-002  -1.0721244714680722E-002   1.9977210518261401E-002
   1.9469270225956015E-002  -5.0043968580113507E-003   1.0489579703489849E-003
   1.6234637546410802E-002  -4.6911753956279112E-003   6.7420407440766938E-003
   1.3000004866865589E-002  -6.2890007317821794E-003   1.3554543398716867E-002
   9.7653721873204036E-003  -9.7978728664753212E-003   2.1486465934269783E-002
   6.5307395077751629E-003  -1.5217791799706504E-002   3.0537808350735496E-002
   1.3166531637067630E-002  -4.7232353691034623E-003   1.1186871466012993E-002
   1.0978932051773971E-002  -5.1751804358214359E-003   1.6761092026595092E-002
   8.7913324664802700E-003  -7.8243460439989809E-003   2.3309958894767752E-002
   6.6037328811865345E-003  -1.2670732193635605E-002   3.0833472070530596E-002
   4.4161332958928545E-003  -1.9714338884731397E-002   3.9331631553883639E-002
   8.8714512916936092E-003  -4.4420738801959625E-003   2.0702705304036298E-002
   7.5861112273291342E-003  -5.6591854760151272E-003   2.5871889908551632E-002
   6.3007711629646627E-003  -9.3596913562152412E-003   3.1870947247335156E-002
   5.0154310986000993E-003  -1.5543591520795614E-002   3.8699877320386725E-002
   3.7300910342358273E-003  -2.4210885969756513E-002   4.6358680127706609E-002
   6.5840291898341397E-003  -4.1609123912881296E-003   2.9596459484418580E-002
   6.0561750730764863E-003  -6.1431905162090406E-003   3.4074434389946395E-002
   5.5283209563189162E-003  -1.0895036668431640E-002   3.9237508456419656E-002
   5.0004668395612767E-003  -1.8416450847955991E-002   4.5085681683839113E-002
   4.4726127228036372E-003  -2.8707433054782072E-002   5.1618954072203849E-002
   7.5490690701885632E-002  -2.2636225131732635E-002   2.6605767405281755E-002
   7.2939489585678807E-002  -2.1838595952386464E-002   2.6834378688916194E-002
   7.0388288469472038E-002  -2.1079057488161884E-002   2.7147517577524038E-002
   6.7837087353265269E-002  -2.0357609739058903E-002   2.7545184071105344E-002
   6.5285886237058471E-002  -1.9674252705077444E-002   2.8027378169660278E-002
   6.9758415269935925E-002  -2.0699823704483089E-002   3.3178242007264824E-002
   6.7325353137176858E-002  -2.0012022374791300E-002   3.3054074441746017E-002
   6.4892291004417763E-002  -1.9341417825113894E-002   3.3081657238149015E-002
   6.2459228871658654E-002  -1.8688010055450538E-002   3.3260990396474149E-002
   6.0026166738899628E-002  -1.8051799065801483E-002   3.3592073916721005E-002
   6.3667393357926733E-002  -1.8763422277233432E-002   3.9630441792039645E-002
   6.1419692965563849E-002  -1.8185448797196246E-002   3.9174389312474883E-002
   5.9171992573200854E-002  -1.7603778162065889E-002   3.8937309951780796E-002
   5.6924292180837950E-002  -1.7018410371842280E-002   3.8919203709956850E-002
   5.4676591788474956E-002  -1.6429345426525493E-002   3.9120070587003355E-002
   5.7217624965858020E-002  -1.6827020849983831E-002   4.5962366759606237E-002
   5.5222509070839733E-002  -1.6358875219601138E-002   4.5195323301103138E-002
   5.3227393175821328E-002  -1.5866138499017864E-002   4.4714475718418967E-002
   5.1232277280803019E-002  -1.5348810688233969E-002   4.4519824011553549E-002
   4.9237161385784649E-002  -1.4806891787249463E-002   4.4611368180506962E-002
   5.0409110093729836E-002  -1.4890619422734230E-002   5.2174016909964538E-002
   4.8733801453004488E-002  -1.4532301642006057E-002   5.1116876407630518E-002
   4.7058492812279196E-002  -1.4128498835969935E-002   5.0413154538063748E-002
   4.5383184171553889E-002  -1.3679211004625724E-002   5.0062851301264269E-002
   4.3707875530828610E-002  -1.3184438147973543E-002   5.0065966697232012E-002
   6.5285886237058471E-002  -1.9674252705077444E-002   2.8027378169660278E-002
   6.3115702624407521E-002  -1.9000443039442233E-002   2.7957453840304319E-002
   6.0945519011756530E-002  -1.8307637395377524E-002   2.8024934269475693E-002
   5.8775335399105559E-002  -1.7595835772883615E-002   2.8229819457174232E-002
   5.6605151786454588E-002  -1.6865038171960334E-002   2.8572109403400048E-002
   6.0026166738899628E-002  -1.8051799065801483E-002   3.3592073916721005E-002
   5.8001251002305826E-002  -1.7417696641336661E-002   3.3456145066666776E-002
   5.5976335265711955E-002  -1.6770614567226179E-002   3.3473347210199705E-002
   5.3951419529118097E-002  -1.6110552843470030E-002   3.3643680347319634E-002
   5.1926503792524281E-002  -1.5437511470068277E-002   3.3967144478026540E-002
   5.4676591788474956E-002  -1.6429345426525493E-002   3.9120070587003355E-002
   5.2812670162998135E-002  -1.5834950243231102E-002   3.8912120887467143E-002
   5.0948748537521280E-002  -1.5233591739074723E-002   3.8873028416577776E-002
   4.9084826912044445E-002  -1.4625269914056448E-002   3.9002793174335422E-002
   4.7220905286567597E-002  -1.4009984768176137E-002   3.9301415160739886E-002
   4.9237161385784649E-002  -1.4806891787249463E-002   4.4611368180506962E-002
   4.7549960106484615E-002  -1.4252203845125648E-002   4.4325381302705066E-002
   4.5862758827184560E-002  -1.3696568910923405E-002   4.4223977888609878E-002
   4.4175557547884513E-002  -1.3139986984642823E-002   4.4307157938221355E-002
   4.2488356268584465E-002  -1.2582458066284039E-002   4.4574921451539642E-002
   4.3707875530828610E-002  -1.3184438147973543E-002   5.0065966697232012E-002
   4.2213120832765197E-002  -1.2669457447019944E-002   4.9695926312380845E-002
   4.0718366134701783E-002  -1.2159546082771810E-002   4.9526195626296177E-002
   3.9223611436638370E-002  -1.1654704055229254E-002   4.9556774638977882E-002
   3.7728856738574956E-002  -1.1154931364391940E-002   4.9787663350426337E-002
   5.6605151786454588E-002  -1.6865038171960334E-002   2.8572109403400048E-002
   5.4130896098589398E-002  -1.6129398695010150E-002   2.8247056228817125E-002
   5.1656640410724208E-002  -1.5403071444435326E-002   2.8098209408692426E-002
   4.9182384722858949E-002  -1.4686056420236075E-002   2.8125568943025703E-002
   4.6708129034993773E-002  -1.3978353622412398E-002   2.8329134831816649E-002
   5.1926503792524281E-002  -1.5437511470068277E-002   3.3967144478026540E-002
   4.9631447933467535E-002  -1.4759134975665916E-002   3.3612323448758114E-002
   4.7336392074410830E-002  -1.4083067888907966E-002   3.3439695722648696E-002
   4.5041336215354090E-002  -1.3409310209794707E-002   3.3449261299698087E-002
   4.2746280356297378E-002  -1.2737861938325989E-002   3.3641020179906833E-002
   4.7220905286567597E-002  -1.4009984768176137E-002   3.9301415160739886E-002
   4.5111036205020452E-002  -1.3388871256321530E-002   3.8923829095516421E-002
   4.3001167123473343E-002  -1.2763064333380710E-002   3.8734423282153145E-002
   4.0891298041926219E-002  -1.2132563999353281E-002   3.8733197720650134E-002
   3.8781428960379075E-002  -1.1497370254239636E-002   3.8920152411007131E-002
   4.2488356268584465E-002  -1.2582458066284039E-002   4.4574921451539642E-002
   4.0569660913248047E-002  -1.2018607536977276E-002   4.4181573169092409E-002
   3.8650965557911691E-002  -1.1443060777853401E-002   4.3982392087206473E-002
   3.6732270202575301E-002  -1.0855817788911995E-002   4.3977378205881670E-002
   3.4813574847238911E-002  -1.0256878570153422E-002   4.4166531525118256E-002
   3.7728856738574956E-002  -1.1154931364391940E-002   4.9787663350426337E-002
   3.6007322058150437E-002  -1.0648343817632966E-002   4.9385555669486048E-002
   3.4285787377725890E-002  -1.0123057222326093E-002   4.9183602137808147E-002
   3.2564252697301344E-002  -9.5790715784705438E-003   4.9181802755392662E-002
   3.0842718016876824E-002  -9.0163868860669849E-003   4.9380157522239565E-002
   4.6708129034993773E-002  -1.3978353622412398E-002   2.8329134831816649E-002
   4.4435994128351058E-002  -1.3263675392248431E-002   2.7938295316094264E-002
   4.2163859221708233E-002  -1.2525734071029998E-002   2.7680204553603482E-002
   3.9891724315065491E-002  -1.1764529658755858E-002   2.7554862544344083E-002
   3.7619589408422693E-002  -1.0980062155426795E-002   2.7562269288316399E-002
   4.2746280356297378E-002  -1.2737861938325989E-002   3.3641020179906833E-002
   4.0612587062172550E-002  -1.2058362126966149E-002   3.3273708595489698E-002
   3.8478893768047764E-002  -1.1360449828179769E-002   3.3050531482877094E-002
   3.6345200473923013E-002  -1.0644125041966775E-002   3.2971488842068630E-002
   3.4211507179798095E-002  -9.9093877683272269E-003   3.3036580673064697E-002
   3.8781428960379075E-002  -1.1497370254239636E-002   3.8920152411007131E-002
   3.6797562997345011E-002  -1.0853048861683506E-002   3.8571518154267043E-002
   3.4813697034310989E-002  -1.0195165585329805E-002   3.8378404087903939E-002
   3.2829831071276960E-002  -9.5237204251776876E-003   3.8340810211918104E-002
   3.0845965108242904E-002  -8.8387133812277696E-003   3.8458736526309406E-002
   3.4813574847238911E-002  -1.0256878570153422E-002   4.4166531525118256E-002
   3.2990921933868392E-002  -9.6477355964011552E-003   4.3831723992426290E-002
   3.1168269020497925E-002  -9.0298813424795413E-003   4.3663822368684213E-002
   2.9345616107127472E-002  -8.4033158083886023E-003   4.3662826653892178E-002
   2.7522963193756942E-002  -7.7680389941282013E-003   4.3828736848050193E-002
   3.0842718016876824E-002  -9.0163868860669849E-003   4.9380157522239565E-002
   2.9192663871742713E-002  -8.4424223311186375E-003   4.9054326109967239E-002
   2.7542609726608561E-002  -7.8645970996295556E-003   4.8906786325217610E-002
   2.5892555581474443E-002  -7.2829111915994477E-003   4.8937538167991013E-002
   2.4242501436340325E-002  -6.6973646070287440E-003   4.9146581638286890E-002
   3.7619589408422693E-002  -1.0980062155426795E-002   2.7562269288316399E-002
   3.5227855302531919E-002  -1.0198387256126040E-002   2.7058532205705976E-002
   3.2836121196641060E-002  -9.4455606559371019E-003   2.6670829378081184E-002
   3.0444387090750216E-002  -8.7215823548600219E-003   2.6399160805442218E-002
   2.8052652984859427E-002  -8.0264523528945642E-003   2.6243526487789159E-002
   3.4211507179798095E-002  -9.9093877683272269E-003   3.3036580673064697E-002
   3.1943973826664335E-002  -9.1750348128322168E-003   3.2559535533881578E-002
   2.9676440473530602E-002  -8.4598629810530707E-003   3.2214857645225997E-002
   2.7408907120396828E-002  -7.7638722729895283E-003   3.2002547007099216E-002
   2.5141373767263081E-002  -7.0870626886418986E-003   3.1922603619500833E-002
   3.0845965108242904E-002  -8.8387133812277696E-003   3.8458736526309406E-002
   2.8718965503408841E-002  -8.1516823695385876E-003   3.8018050505948683E-002
   2.6591965898574800E-002  -7.4741653061691504E-003   3.7726064731659043E-002
   2.4464966293740748E-002  -6.8061621911195899E-003   3.7582779203440386E-002
   2.2337966688906682E-002  -6.1476730243895661E-003   3.7588193921292812E-002
   2.7522963193756942E-002  -7.7680389941282013E-003   4.3828736848050193E-002
   2.5552830332765241E-002  -7.1283299262449723E-003   4.3434077121908513E-002
   2.3582697471773509E-002  -6.4884676312853412E-003   4.3204450637380161E-002
   2.1612564610781766E-002  -5.8484521092494295E-003   4.3139857394465797E-002
   1.9642431749790079E-002  -5.2082833601370671E-003   4.3240297393164942E-002
   2.4242501436340325E-002  -6.6973646070287440E-003   4.9146581638286890E-002
   2.2445568314733599E-002  -6.1049774829511350E-003   4.8807615381760094E-002
   2.0648635193126846E-002  -5.5027699564011712E-003   4.8650015362389554E-002
   1.8851702071520135E-002  -4.8907420273792065E-003   4.8673781580175435E-002
   1.7054768949913424E-002  -4.2688936958845680E-003   4.8878914035117682E-002
   2.8052652984859427E-002  -8.0264523528945642E-003   2.6243526487789159E-002
   2.5709083034390734E-002  -7.3152373420575234E-003   2.5661107263067695E-002
   2.3365513083922068E-002  -6.5430040143645285E-003   2.5026031978560237E-002
   2.1021943133453430E-002  -5.7097523698160652E-003   2.4338300634267340E-002
   1.8678373182984709E-002  -4.8154824084120085E-003   2.3597913230188672E-002
   2.5141373767263081E-002  -7.0870626886418986E-003   3.1922603619500833E-002
   2.2783506436096557E-002  -6.4117658959645940E-003   3.1525002141722269E-002
   2.0425639104930116E-002  -5.7203135629118607E-003   3.1151461962333760E-002
   1.8067771773763647E-002  -5.0127056894837124E-003   3.0801983081335305E-002
   1.5709904442597095E-002  -4.2889422756802187E-003   3.0476565498726460E-002
   2.2337966688906682E-002  -6.1476730243895661E-003   3.7588193921292812E-002
   2.0042519335217973E-002  -5.5082944498719977E-003   3.7330547413977261E-002
   1.7747071981529278E-002  -4.8976231114592206E-003   3.7173679563227230E-002
   1.5451624627840603E-002  -4.3156590091515887E-003   3.7117590369042844E-002
   1.3156177274151887E-002  -3.7624021429487065E-003   3.7162279831424117E-002
   1.9642431749790079E-002  -5.2082833601370671E-003   4.3240297393164942E-002
   1.7486121731754810E-002  -4.6048230037792348E-003   4.3077743079831782E-002
   1.5329811713719596E-002  -4.0749326600064556E-003   4.3092684781240266E-002
   1.3173501695684361E-002  -3.6186123288191839E-003   4.3285122497389888E-002
   1.1017191677649116E-002  -3.2358620102168889E-003   4.3655056228280198E-002
   1.7054768949913424E-002  -4.2688936958845680E-003   4.8878914035117682E-002
   1.5114313625707199E-002  -3.7013515576865275E-003   4.8766589139286998E-002
   1.3173858301501029E-002  -3.2522422085539959E-003   4.8908477616373236E-002
   1.1233402977294860E-002  -2.9215656484870220E-003   4.9304579466376480E-002
   9.2929476530886346E-003  -2.7093218774854044E-003   4.9954894689296370E-002
   1.8678373182984709E-002  -4.8154824084120085E-003   2.3597913230188672E-002
   1.5654787184697094E-002  -4.0809874424678760E-003   2.4387957338900090E-002
   1.2631201186409424E-002  -3.7270607842993519E-003   2.5651063084175529E-002
   9.6076151881217958E-003  -3.7537024339061448E-003   2.7387230466015156E-002
   6.5840291898341397E-003  -4.1609123912881296E-003   2.9596459484418580E-002
   1.5709904442597095E-002  -4.2889422756802187E-003   3.0476565498726460E-002
   1.3141204116164235E-002  -3.7755800719777577E-003   3.1254412080495064E-002
   1.0572503789731416E-002  -3.6991758288512089E-003   3.2468968369408879E-002
   8.0038034632985908E-003  -4.0597295463013633E-003   3.4120234365468710E-002
   5.4351031368657376E-003  -4.8572412243277352E-003   3.6208210068673363E-002
   1.3156177274151887E-002  -3.7624021429487065E-003   3.7162279831424117E-002
   1.1006010690155207E-002  -3.4701727014869732E-003   3.7871539233448714E-002
   8.8558441061585627E-003  -3.6712908734028715E-003   3.8981156413199963E-002
   6.7056775221618729E-003  -4.3657566586962557E-003   4.0491131370678085E-002
   4.5555109381651832E-003  -5.5535700573670632E-003   4.2401464105883163E-002
   1.1017191677649116E-002  -3.2358620102168889E-003   4.3655056228280198E-002
   9.2492069066699122E-003  -3.1647653309966883E-003   4.4239338797760194E-002
   7.4812221356907547E-003  -3.6434059179547978E-003   4.5187627215547900E-002
   5.7132373647115998E-003  -4.6717837710913111E-003   4.6499921481644002E-002
   3.9452525937323894E-003  -6.2498988904064190E-003   4.8176221596048070E-002
   9.2929476530886346E-003  -2.7093218774854044E-003   4.9954894689296370E-002
   7.8707927657083454E-003  -2.8593579605060149E-003   5.0357810773430156E-002
   6.4486378783280562E-003  -3.6155209625064744E-003   5.1088380776453390E-002
   5.0264829909477393E-003  -4.9778108834863874E-003   5.2146604698366211E-002
   3.6043281035674224E-003  -6.9462277234458858E-003   5.3532482539168202E-002
   6.5840291898341397E-003  -4.1609123912881296E-003   2.9596459484418580E-002
   6.0561750730764863E-003  -6.1431905162090406E-003   3.4074434389946395E-002
   5.5283209563189162E-003  -1.0895036668431640E-002   3.9237508456419656E-002
   5.0004668395612767E-003  -1.8416450847955991E-002   4.5085681683839113E-002
   4.4726127228036372E-003  -2.8707433054782072E-002   5.1618954072203849E-002
   5.4351031368657376E-003  -4.8572412243277352E-003   3.6208210068673363E-002
   5.4885148175179699E-003  -6.9913894649614727E-003   3.8348743868963253E-002
   5.5419264981702854E-003  -1.1361852870232392E-002   4.0966710103127357E-002
   5.5953381788225315E-003  -1.7968631440141380E-002   4.4062108771165509E-002
   5.6487498594748331E-003  -2.6811725174688217E-002   4.7634939873077986E-002
   4.5555109381651832E-003  -5.5535700573670632E-003   4.2401464105883163E-002
   4.9825216891556390E-003  -7.8395884137135718E-003   4.2737809663599607E-002
   5.4095324401461850E-003  -1.1828669072033129E-002   4.3343920928118437E-002
   5.8365431911366998E-003  -1.7520812032326877E-002   4.4219797899439646E-002
   6.2635539421271869E-003  -2.4916017294593917E-002   4.5365440577563088E-002
   3.9452525937323894E-003  -6.2498988904064190E-003   4.8176221596048070E-002
   4.5381956879895213E-003  -8.6877873624655044E-003   4.7241631773855139E-002
   5.1311387822467382E-003  -1.2295485273834096E-002   4.6369140931392896E-002
   5.7240818765038710E-003  -1.7072992624512097E-002   4.5558749068660906E-002
   6.3170249707611426E-003  -2.3020309414499951E-002   4.4810456185660513E-002
   3.6043281035674224E-003  -6.9462277234458858E-003   5.3532482539168202E-002
   4.1555368140195614E-003  -9.5359863112178811E-003   5.1860210199729417E-002
   4.7067455244717282E-003  -1.2762301475634535E-002   5.0042370112950152E-002
   5.2579542349238950E-003  -1.6625173216697910E-002   4.8078962278829823E-002
   5.8091629453761451E-003  -2.1124601534405762E-002   4.5969986697368626E-002
   5.0409110093729836E-002  -1.4890619422734230E-002   5.2174016909964538E-002
   4.8733801453004488E-002  -1.4532301642006057E-002   5.1116876407630518E-002
   4.7058492812279196E-002  -1.4128498835969935E-002   5.0413154538063748E-002
   4.5383184171553889E-002  -1.3679211004625724E-002   5.0062851301264269E-002
   4.3707875530828610E-002  -1.3184438147973543E-002   5.0065966697232012E-002
   4.3578950562222857E-002  -1.3004717442265168E-002   5.4254600892856886E-002
   4.2224067269263518E-002  -1.2690915769107997E-002   5.3521572151018659E-002
   4.0869183976304152E-002  -1.2339303352869230E-002   5.3075975471944759E-002
   3.9514300683344786E-002  -1.1949880193548791E-002   5.2917810855635558E-002
   3.8159417390385433E-002  -1.1522646291146521E-002   5.3047078302091072E-002
   3.7064248192018062E-002  -1.1118815461796133E-002   5.6294505909291373E-002
   3.5963803676821976E-002  -1.0849529896210033E-002   5.5877914645722448E-002
   3.4863359161625890E-002  -1.0550107869768587E-002   5.5682768874915335E-002
   3.3762914646429790E-002  -1.0220549382471833E-002   5.5709068596870123E-002
   3.2662470131233690E-002  -9.8608544343196103E-003   5.5956813811587014E-002
   3.0865002983115473E-002  -9.2329134813270847E-003   5.8293731959268000E-002
   2.9953010675679990E-002  -9.0081440233119939E-003   5.8185903891741962E-002
   2.9041018368244458E-002  -8.7609123866678844E-003   5.8233534746975339E-002
   2.8129026060808946E-002  -8.4912185713948603E-003   5.8436624524967840E-002
   2.7217033753373473E-002  -8.1990625774926162E-003   5.8795173225719560E-002
   2.4981214935515028E-002  -7.3470115008580361E-003   6.0252279042786849E-002
   2.4191688265837424E-002  -7.1667581504140376E-003   6.0445539889077471E-002
   2.3402161596159848E-002  -6.9717169035672932E-003   6.0728273088124785E-002
   2.2612634926482245E-002  -6.7618877603179833E-003   6.1100478639928651E-002
   2.1823108256804655E-002  -6.5372707206657332E-003   6.1562156544489044E-002
   4.3707875530828610E-002  -1.3184438147973543E-002   5.0065966697232012E-002
   4.2213120832765197E-002  -1.2669457447019944E-002   4.9695926312380845E-002
   4.0718366134701783E-002  -1.2159546082771810E-002   4.9526195626296177E-002
   3.9223611436638370E-002  -1.1654704055229254E-002   4.9556774638977882E-002
   3.7728856738574956E-002  -1.1154931364391940E-002   4.9787663350426337E-002
   3.8159417390385433E-002  -1.1522646291146521E-002   5.3047078302091072E-002
   3.6861562240029525E-002  -1.1077075598519726E-002   5.2722035397803291E-002
   3.5563707089673581E-002  -1.0632642068525239E-002   5.2590481890163951E-002
   3.4265851939317693E-002  -1.0189345701163151E-002   5.2652417779173129E-002
   3.2967996788961715E-002  -9.7471864964336352E-003   5.2907843064830706E-002
   3.2662470131233690E-002  -9.8608544343196103E-003   5.5956813811587014E-002
   3.1554694226467159E-002  -9.4846937500194101E-003   5.5680700561935748E-002
   3.0446918321700593E-002  -9.1057380542786670E-003   5.5591256406814754E-002
   2.9339142416934017E-002  -8.7239873470973256E-003   5.5688481346224020E-002
   2.8231366512167469E-002  -8.3394416284752748E-003   5.5972375380163614E-002
   2.7217033753373473E-002  -8.1990625774926162E-003   5.8795173225719560E-002
   2.6292516792078106E-002  -7.8923119015191986E-003   5.8571921804777945E-002
   2.5367999830782785E-002  -7.5788340400320953E-003   5.8528519176248323E-002
   2.4443482869487467E-002  -7.2586289930313061E-003   5.8664965340130916E-002
   2.3518965908192097E-002  -6.9316967605169699E-003   5.8981260296425655E-002
   2.1823108256804655E-002  -6.5372707206657332E-003   6.1562156544489044E-002
   2.1075029936862430E-002  -6.2999300530188485E-003   6.1395699126329861E-002
   2.0326951616920184E-002  -6.0519300257854541E-003   6.1402270198464698E-002
   1.9578873296977949E-002  -5.7932706389654080E-003   6.1581869760893596E-002
   1.8830794977035700E-002  -5.5239518925586650E-003   6.1934497813616429E-002
   3.7728856738574956E-002  -1.1154931364391940E-002   4.9787663350426337E-002
   3.6007322058150437E-002  -1.0648343817632966E-002   4.9385555669486048E-002
   3.4285787377725890E-002  -1.0123057222326093E-002   4.9183602137808147E-002
   3.2564252697301344E-002  -9.5790715784705438E-003   4.9181802755392662E-002
   3.0842718016876824E-002  -9.0163868860669849E-003   4.9380157522239565E-002
   3.2967996788961715E-002  -9.7471864964336352E-003   5.2907843064830706E-002
   3.1448255890661983E-002  -9.2977282815919216E-003   5.2548821805273926E-002
   2.9928514992362272E-002  -8.8325348838936280E-003   5.2393233960704721E-002
   2.8408774094062551E-002  -8.3516063033389626E-003   5.2441079531122384E-002
   2.6889033195762788E-002  -7.8549425399275230E-003   5.2692358516527371E-002
   2.8231366512167469E-002  -8.3394416284752748E-003   5.5972375380163614E-002
   2.6916698661717309E-002  -7.9471127455506274E-003   5.5653476676299052E-002
   2.5602030811267107E-002  -7.5420125454612186E-003   5.5541290653146336E-002
   2.4287362960816909E-002  -7.1241410282070483E-003   5.5635817310705590E-002
   2.2972695110366752E-002  -6.6934981937882276E-003   5.5937056648976802E-002
   2.3518965908192097E-002  -6.9316967605169699E-003   5.8981260296425655E-002
   2.2412650371316255E-002  -6.5964972095092916E-003   5.8699520282561160E-002
   2.1306334834440402E-002  -6.2514902070287814E-003   5.8627772215133378E-002
   2.0200019297564559E-002  -5.8966757530752451E-003   5.8766016094142282E-002
   1.9093703760688710E-002  -5.5320538476490155E-003   5.9114251919587926E-002
   1.8830794977035700E-002  -5.5239518925586650E-003   6.1934497813616429E-002
   1.7936111019458925E-002  -5.2458816734682612E-003   6.1686952624060265E-002
   1.7041427061882143E-002  -4.9609678685963721E-003   6.1652678646665737E-002
   1.6146743104305378E-002  -4.6692104779434765E-003   6.1831675881432430E-002
   1.5252059146728586E-002  -4.3706095015095259E-003   6.2223944328360814E-002
   3.0842718016876824E-002  -9.0163868860669849E-003   4.9380157522239565E-002
   2.9192663871742713E-002  -8.4424223311186375E-003   4.9054326109967239E-002
   2.7542609726608561E-002  -7.8645970996295556E-003   4.8906786325217610E-002
   2.5892555581474443E-002  -7.2829111915994477E-003   4.8937538167991013E-002
   2.4242501436340325E-002  -6.6973646070287440E-003   4.9146581638286890E-002
   2.6889033195762788E-002  -7.8549425399275230E-003   5.2692358516527371E-002
   2.5421494000858025E-002  -7.3479161709087137E-003   5.2412522515129206E-002
   2.3953954805953283E-002  -6.8358997735318422E-003   5.2319424786667040E-002
   2.2486415611048503E-002  -6.3188933477962318E-003   5.2413065331140665E-002
   2.1018876416143778E-002  -5.7968968937024412E-003   5.2693444148550705E-002
   2.2972695110366752E-002  -6.6934981937882276E-003   5.5937056648976802E-002
   2.1696117511104562E-002  -6.2534100106991508E-003   5.5704345410270403E-002
   2.0419539911842356E-002  -5.8072024474339068E-003   5.5666819089913250E-002
   1.9142962312580163E-002  -5.3548755039930160E-003   5.5824477687905105E-002
   1.7866384713317959E-002  -4.8964291803762494E-003   5.6177321204246289E-002
   1.9093703760688710E-002  -5.5320538476490155E-003   5.9114251919587926E-002
   1.8016534402482222E-002  -5.1589038504892409E-003   5.8929794795390691E-002
   1.6939365044275803E-002  -4.7785051213361934E-003   5.8948969234955774E-002
   1.5862195686069350E-002  -4.3908576601896891E-003   5.9171775238283375E-002
   1.4785026327862928E-002  -3.9959614670500576E-003   5.9598212805373300E-002
   1.5252059146728586E-002  -4.3706095015095259E-003   6.2223944328360814E-002
   1.4382744674991108E-002  -4.0643976902794421E-003   6.2088870670490348E-002
   1.3513430203253615E-002  -3.7498077952383552E-003   6.2165875221795425E-002
   1.2644115731516130E-002  -3.4268398163866086E-003   6.2454957982275947E-002
   1.1774801259778644E-002  -3.0954937537238658E-003   6.2956118951932205E-002
   2.4242501436340325E-002  -6.6973646070287440E-003   4.9146581638286890E-002
   2.2445568314733599E-002  -6.1049774829511350E-003   4.8807615381760094E-002
   2.0648635193126846E-002  -5.5027699564011712E-003   4.8650015362389554E-002
   1.8851702071520135E-002  -4.8907420273792065E-003   4.8673781580175435E-002
   1.7054768949913424E-002  -4.2688936958845680E-003   4.8878914035117682E-002
   2.1018876416143778E-002  -5.7968968937024412E-003   5.2693444148550705E-002
   1.9409556047595575E-002  -5.2709095462867839E-003   5.2438263805675678E-002
   1.7800235679047441E-002  -4.7419304405856011E-003   5.2376942731761689E-002
   1.6190915310499279E-002  -4.2099595765993994E-003   5.2509480926808572E-002
   1.4581594941951131E-002  -3.6749969543277139E-003   5.2835878390816104E-002
   1.7866384713317959E-002  -4.8964291803762494E-003   5.6177321204246289E-002
   1.6457170129632923E-002  -4.4368416096223218E-003   5.5999098130836089E-002
   1.5047955545947879E-002  -3.9810909247701559E-003   5.6027227358191309E-002
   1.3638740962262825E-002  -3.5291771258198178E-003   5.6261708886311858E-002
   1.2229526378577799E-002  -3.0811002127711928E-003   5.6702542715198062E-002
   1.4785026327862928E-002  -3.9959614670500576E-003   5.9598212805373300E-002
   1.3588410560845528E-002  -3.6027736729578042E-003   5.9490118357240766E-002
   1.2391794793828169E-002  -3.2202514089546483E-003   5.9600869241678386E-002
   1.1195179026810775E-002  -2.8483946750401789E-003   5.9930465458686022E-002
   9.9985632597934110E-003  -2.4872034712147273E-003   6.0478907008263368E-002
   1.1774801259778644E-002  -3.0954937537238658E-003   6.2956118951932205E-002
   1.0803277341233486E-002  -2.7687057362935086E-003   6.2911324484890563E-002
   9.8317534226883274E-003  -2.4594118931392239E-003   6.3097868382223199E-002
   8.8602295041431689E-003  -2.1676122242605053E-003   6.3515750643930530E-002
   7.8887055855980104E-003  -1.8933067296578177E-003   6.4164971270012305E-002
   1.7054768949913424E-002  -4.2688936958845680E-003   4.8878914035117682E-002
   1.5114313625707199E-002  -3.7013515576865275E-003   4.8766589139286998E-002
   1.3173858301501029E-002  -3.2522422085539959E-003   4.8908477616373236E-002
   1.1233402977294860E-002  -2.9215656484870220E-003   4.9304579466376480E-002
   9.2929476530886346E-003  -2.7093218774854044E-003   4.9954894689296370E-002
   1.4581594941951131E-002  -3.6749969543277139E-003   5.2835878390816104E-002
   1.2894807922815318E-002  -3.1967100807571702E-003   5.2726725849352063E-002
   1.1208020903679505E-002  -2.8347664628725622E-003   5.2870696545111479E-002
   9.5212338845437061E-003  -2.5891661006751526E-003   5.3267790478094920E-002
   7.8344468654078792E-003  -2.4599089941639285E-003   5.3918007648302624E-002
   1.2229526378577799E-002  -3.0811002127711928E-003   5.6702542715198062E-002
   1.0795317528819341E-002  -2.6920686038274522E-003   5.6598652061479210E-002
   9.3611086790609255E-003  -2.4172907171914754E-003   5.6746794509291001E-002
   7.9268998293025028E-003  -2.2567665528630647E-003   5.7146970058633638E-002
   6.4926909795440524E-003  -2.2104961108424526E-003   5.7799178709507376E-002
   9.9985632597934110E-003  -2.4872034712147273E-003   6.0478907008263368E-002
   8.8158424437193572E-003  -2.1874271268978035E-003   6.0382367775668494E-002
   7.6331216276452722E-003  -1.9998149715102151E-003   6.0536771508911749E-002
   6.4504008115712150E-003  -1.9243670050510305E-003   6.0942118207992634E-002
   5.2676799954971334E-003  -1.9610832275209766E-003   6.1598407872911355E-002
   7.8887055855980104E-003  -1.8933067296578177E-003   6.4164971270012305E-002
   6.9563826675152901E-003  -1.6827856499683214E-003   6.4077872991920581E-002
   6.0240597494325698E-003  -1.5823392258290103E-003   6.4240627543973472E-002
   5.0917368313498634E-003  -1.5919674572391768E-003   6.4653234926171144E-002
   4.1594139132671570E-003  -1.7116703441996117E-003   6.5315695138513985E-002
   9.2929476530886346E-003  -2.7093218774854044E-003   4.9954894689296370E-002
   7.8707927657083454E-003  -2.8593579605060149E-003   5.0357810773430156E-002
   6.4486378783280562E-003  -3.6155209625064744E-003   5.1088380776453390E-002
   5.0264829909477393E-003  -4.9778108834863874E-003   5.2146604698366211E-002
   3.6043281035674224E-003  -6.9462277234458858E-003   5.3532482539168202E-002
   7.8344468654078792E-003  -2.4599089941639285E-003   5.3918007648302624E-002
   6.7137540431857767E-003  -2.6452503967520635E-003   5.3851986439776345E-002
   5.5930612209635910E-003  -3.3434455618511216E-003   5.4061235442676797E-002
   4.4723683987414470E-003  -4.5544944894618938E-003   5.4545754657003995E-002
   3.3516755765193029E-003  -6.2783971795841165E-003   5.5305544082758118E-002
   6.4926909795440524E-003  -2.2104961108424526E-003   5.7799178709507376E-002
   5.6210765150173092E-003  -2.4311428329973628E-003   5.7357493364789486E-002
   4.7494620504905730E-003  -3.0713701611957828E-003   5.7138694524035374E-002
   3.8778475859638506E-003  -4.1311780954371817E-003   5.7142782187245507E-002
   3.0062331214370935E-003  -5.6105666357221806E-003   5.7369756354419460E-002
   5.2676799954971334E-003  -1.9610832275209766E-003   6.1598407872911355E-002
   4.5927601812030608E-003  -2.2170352692430367E-003   6.0874331548469468E-002
   3.9178403669089899E-003  -2.7992947605404370E-003   6.0320758020529316E-002
   3.2429205526149051E-003  -3.7078617014128009E-003   5.9937687289090151E-002
   2.5680007383208463E-003  -4.9427360918605501E-003   5.9725119354152138E-002
   4.1594139132671570E-003  -1.7116703441996117E-003   6.5315695138513985E-002
   3.6288050417429690E-003  -2.0029277054887107E-003   6.4402500990816791E-002
   3.0981961702188088E-003  -2.5272193598850912E-003   6.3607425932158068E-002
   2.5675872986946416E-003  -3.2845453073881981E-003   6.2930469962537594E-002
   2.0369784271704883E-003  -4.2749055479985865E-003   6.2371633081955813E-002
   3.6043281035674224E-003  -6.9462277234458858E-003   5.3532482539168202E-002
   4.1555368140195614E-003  -9.5359863112178811E-003   5.1860210199729417E-002
   4.7067455244717282E-003  -1.2762301475634535E-002   5.0042370112950152E-002
   5.2579542349238950E-003  -1.6625173216697910E-002   4.8078962278829823E-002
   5.8091629453761451E-003  -2.1124601534405762E-002   4.5969986697368626E-002
   3.3516755765193029E-003  -6.2783971795841165E-003   5.5305544082758118E-002
   3.7748746970125840E-003  -8.5465023630233450E-003   5.2951986072283352E-002
   4.1980738175058374E-003  -1.1390158770585801E-002   5.0487976629230935E-002
   4.6212729379990700E-003  -1.4809366402271484E-002   4.7913515753601699E-002
   5.0444720584923997E-003  -1.8804125258080395E-002   4.5228603445395921E-002
   3.0062331214370935E-003  -5.6105666357221806E-003   5.7369756354419460E-002
   3.3365389667352405E-003  -7.5570184148291419E-003   5.4395918025430257E-002
   3.6668448120334082E-003  -1.0018016065536720E-002   5.1346744578627521E-002
   3.9971506573316315E-003  -1.2993559587845500E-002   4.8222236014011856E-002
   4.3274565026297229E-003  -1.6483648981754806E-002   4.5022392331582783E-002
   2.5680007383208463E-003  -4.9427360918605501E-003   5.9725119354152138E-002
   2.8405296231876747E-003  -6.5675344666348834E-003   5.6192006059171073E-002
   3.1130585080545291E-003  -8.6458733604880336E-003   5.2618673961140519E-002
   3.3855873929213975E-003  -1.1177752773419628E-002   4.9005123060060267E-002
   3.6581162777882120E-003  -1.4163172705429328E-002   4.5351353355931240E-002
   2.0369784271704883E-003  -4.2749055479985865E-003   6.2371633081955813E-002
   2.2868466663698017E-003  -5.5780505184404028E-003   5.8340250173505304E-002
   2.5367149055691429E-003  -7.2737306554388204E-003   5.4303764776769292E-002
   2.7865831447684702E-003  -9.3619459589932910E-003   5.0262176891746974E-002
   3.0364513839677976E-003  -1.1842696429103849E-002   4.6215486518439430E-002
   2.4981214935515028E-002  -7.3470115008580361E-003   6.0252279042786849E-002
   2.4191688265837424E-002  -7.1667581504140376E-003   6.0445539889077471E-002
   2.3402161596159848E-002  -6.9717169035672932E-003   6.0728273088124785E-002
   2.2612634926482245E-002  -6.7618877603179833E-003   6.1100478639928651E-002
   2.1823108256804655E-002  -6.5372707206657332E-003   6.1562156544489044E-002
   1.9125344402333294E-002  -5.5102585381973657E-003   6.2181860242823073E-002
   1.8452267414637930E-002  -5.3750685719288482E-003   6.2155415702382533E-002
   1.7779190426942551E-002  -5.2287876690474550E-003   6.2272398173149751E-002
   1.7106113439247179E-002  -5.0714158295532587E-003   6.2532807655124825E-002
   1.6433036451551801E-002  -4.9029530534463461E-003   6.2936644148307769E-002
   1.3009851736686832E-002  -3.6735055755366675E-003   6.4068226538579021E-002
   1.2507179089424968E-002  -3.5833789934435895E-003   6.3818379651617227E-002
   1.2004506442163082E-002  -3.4858584345275612E-003   6.3765914434314411E-002
   1.1501833794901200E-002  -3.3809438987887561E-003   6.3910830886670753E-002
   1.0999161147639328E-002  -3.2686353862270978E-003   6.4253129008686363E-002
   6.6347369385756708E-003  -1.8367526128759692E-003   6.5911377930054540E-002
   6.3564232901985648E-003  -1.7916894149583099E-003   6.5434431736781429E-002
   6.0781096418214466E-003  -1.7429292000077506E-003   6.5208821871618639E-002
   5.7997959934443337E-003  -1.6904719680241702E-003   6.5234548334566420E-002
   5.5214823450672234E-003  -1.6343177190077801E-003   6.5511611125624550E-002
   7.9997675150877967E-012   3.4978470120350380E-010   6.7711314417249313E-002
   1.6958705273406594E-011   1.6352688647636171E-010   6.7003571957875152E-002
   2.5917639562278438E-011   3.4512170898892691E-011   6.6601120485062670E-002
   3.4876573851150283E-011  -3.7259639817932566E-011   6.6503959998811812E-002
   4.3835504670575176E-011  -5.1788517918538446E-011   6.6712090499122689E-002
   2.1823108256804655E-002  -6.5372707206657332E-003   6.1562156544489044E-002
   2.1075029936862430E-002  -6.2999300530188485E-003   6.1395699126329861E-002
   2.0326951616920184E-002  -6.0519300257854541E-003   6.1402270198464698E-002
   1.9578873296977949E-002  -5.7932706389654080E-003   6.1581869760893596E-002
   1.8830794977035700E-002  -5.5239518925586650E-003   6.1934497813616429E-002
   1.6433036451551801E-002  -4.9029530534463461E-003   6.2936644148307769E-002
   1.5861484393558417E-002  -4.7249475492630449E-003   6.2739207942707195E-002
   1.5289932335565030E-002  -4.5389475255394329E-003   6.2721795770710312E-002
   1.4718380277571655E-002  -4.3449529822756419E-003   6.2884407632316980E-002
   1.4146828219578265E-002  -4.1429639194719425E-003   6.3227043527527643E-002
   1.0999161147639328E-002  -3.2686353862270978E-003   6.4253129008686363E-002
   1.0611130894904449E-002  -3.1499650455071165E-003   6.4022049175597839E-002
   1.0223100642169579E-002  -3.0259650252935297E-003   6.3977988919422690E-002
   9.8350703894347080E-003  -2.8966353255862106E-003   6.4120948240160791E-002
   9.4470401366998392E-003  -2.7619759463851923E-003   6.4450927137812336E-002
   5.5214823450672234E-003  -1.6343177190077801E-003   6.5511611125624550E-002
   5.3239694409005249E-003  -1.5749825417513061E-003   6.5244222825001696E-002
   5.1264565367338186E-003  -1.5129825250475674E-003   6.5170849644601930E-002
   4.9289436325671201E-003  -1.4483176688965564E-003   6.5291491584425057E-002
   4.7314307284004173E-003  -1.3809879732984004E-003   6.5606148644471202E-002
   4.3835504670575176E-011  -5.1788517918538446E-011   6.6712090499122689E-002
   3.1546629891687772E-011  -3.7995356860776042E-011   6.6405728890919058E-002
   1.9257751643353416E-011  -2.4801646847372183E-011   6.6300377946248018E-002
   6.9688751297425355E-012  -1.2207023586396915E-011   6.6396037665109695E-002
  -5.3200013838683446E-012  -2.1171953079601735E-013   6.6692708047504046E-002
   1.8830794977035700E-002  -5.5239518925586650E-003   6.1934497813616429E-002
   1.7936111019458925E-002  -5.2458816734682612E-003   6.1686952624060265E-002
   1.7041427061882143E-002  -4.9609678685963721E-003   6.1652678646665737E-002
   1.6146743104305378E-002  -4.6692104779434765E-003   6.1831675881432430E-002
   1.5252059146728586E-002  -4.3706095015095259E-003   6.2223944328360814E-002
   1.4146828219578265E-002  -4.1429639194719425E-003   6.3227043527527643E-002
   1.3468015418383980E-002  -3.9344112527068265E-003   6.2972265093853119E-002
   1.2789202617189719E-002  -3.7207258975595625E-003   6.2935957760782271E-002
   1.2110389815995446E-002  -3.5019078540299009E-003   6.3118121528315030E-002
   1.1431577014801172E-002  -3.2779571221181469E-003   6.3518756396451215E-002
   9.4470401366998392E-003  -2.7619759463851923E-003   6.4450927137812336E-002
   8.9892983803301525E-003  -2.6229408319456277E-003   6.4187204562620864E-002
   8.5315566239604606E-003  -2.4804839265227391E-003   6.4147152976474955E-002
   8.0738148675907687E-003  -2.3346052301164884E-003   6.4330772379374734E-002
   7.6160731112210750E-003  -2.1853047427268513E-003   6.4738062771320173E-002
   4.7314307284004173E-003  -1.3809879732984004E-003   6.5606148644471202E-002
   4.4999599052973922E-003  -1.3114704111844497E-003   6.5331771030363639E-002
   4.2684890821943714E-003  -1.2402419554859226E-003   6.5286264293743901E-002
   4.0370182590913489E-003  -1.1673026062028833E-003   6.5469628434611724E-002
   3.8055474359883334E-003  -1.0926523633355140E-003   6.5881863452967315E-002
  -5.3200013838683446E-012  -2.1171953079601735E-013   6.6692708047504046E-002
  -6.7142714998968955E-012   9.5769503438702941E-012   6.6405964497081527E-002
  -8.1085416159254464E-012   1.5550866150348952E-011   6.6353291712588885E-002
  -9.5028117319539973E-012   1.7710603816833981E-011   6.6534689694025956E-002
  -1.0897081847982548E-011   1.6055823337524089E-011   6.6950158441392849E-002
   1.5252059146728586E-002  -4.3706095015095259E-003   6.2223944328360814E-002
   1.4382744674991108E-002  -4.0643976902794421E-003   6.2088870670490348E-002
   1.3513430203253615E-002  -3.7498077952383552E-003   6.2165875221795425E-002
   1.2644115731516130E-002  -3.4268398163866086E-003   6.2454957982275947E-002
   1.1774801259778644E-002  -3.0954937537238658E-003   6.2956118951932205E-002
   1.1431577014801172E-002  -3.2779571221181469E-003   6.3518756396451215E-002
   1.0775653354647440E-002  -3.0482982646352907E-003   6.3397304392621728E-002
   1.0119729694493720E-002  -2.8123558443922808E-003   6.3490555802784343E-002
   9.4638060343399770E-003  -2.5701298613892594E-003   6.3798510626938920E-002
   8.8078823741862544E-003  -2.3216203156264381E-003   6.4321168865085265E-002
   7.6160731112210750E-003  -2.1853047427268513E-003   6.4738062771320173E-002
   7.1761654674675317E-003  -2.0321988389909729E-003   6.4628137900480734E-002
   6.7362578237139814E-003  -1.8749038935461024E-003   6.4735541648449801E-002
   6.2963501799604329E-003  -1.7134199063920785E-003   6.5060274015227237E-002
   5.8564425362068878E-003  -1.5477468775290659E-003   6.5602335000812945E-002
   3.8055474359883334E-003  -1.0926523633355140E-003   6.5881863452967315E-002
   3.5842810134513754E-003  -1.0160994133469048E-003   6.5781371194067129E-002
   3.3630145909144303E-003  -9.3745194269980944E-004   6.5900832758791730E-002
   3.1417481683774780E-003  -8.5670995139486891E-004   6.6240248147141120E-002
   2.9204817458405273E-003  -7.7387343943183251E-004   6.6799617359115326E-002
  -1.0897081847982548E-011   1.6055823337524089E-011   6.6950158441392849E-002
  -7.4010138295665939E-012   1.2297385332260546E-011   6.6857004273380927E-002
  -3.9049458111506397E-012   8.1462614431870861E-012   6.6986429133810199E-002
  -4.0888473162858929E-013   3.6025626926061705E-012   6.7338433022680610E-002
   3.0871902256812689E-012  -1.3343770532969756E-012   6.7913015939992549E-002
   1.1774801259778644E-002  -3.0954937537238658E-003   6.2956118951932205E-002
   1.0803277341233486E-002  -2.7687057362935086E-003   6.2911324484890563E-002
   9.8317534226883274E-003  -2.4594118931392239E-003   6.3097868382223199E-002
   8.8602295041431689E-003  -2.1676122242605053E-003   6.3515750643930530E-002
   7.8887055855980104E-003  -1.8933067296578177E-003   6.4164971270012305E-002
   8.8078823741862544E-003  -2.3216203156264381E-003   6.4321168865085265E-002
   8.0705824738072779E-003  -2.0765293035631682E-003   6.4279431697230272E-002
   7.3332825734282805E-003  -1.8445589216603553E-003   6.4474804201333336E-002
   6.5959826730492797E-003  -1.6257091699170001E-003   6.4907286377394013E-002
   5.8586827726702928E-003  -1.4199800483336578E-003   6.5576878225412860E-002
   5.8564425362068878E-003  -1.5477468775290659E-003   6.5602335000812945E-002
   5.3591379615774218E-003  -1.3843528708332720E-003   6.5568028676260853E-002
   4.8618333869479523E-003  -1.2297059501816116E-003   6.5776603331250003E-002
   4.3645288123185001E-003  -1.0838061155734983E-003   6.6228058965780295E-002
   3.8672242376890167E-003  -9.4665336700949787E-004   6.6922395579851829E-002
   2.9204817458405273E-003  -7.7387343943183251E-004   6.6799617359115326E-002
   2.6689438045439523E-003  -6.9217643810337570E-004   6.6777115421982156E-002
   2.4174058632473712E-003  -6.1485297870286088E-004   6.7003265771973464E-002
   2.1658679219507902E-003  -5.4190306123005037E-004   6.7478068409089403E-002
   1.9143299806542152E-003  -4.7332668568533798E-004   6.8201523333329767E-002
   3.0871902256812689E-012  -1.3343770532969756E-012   6.7913015939992549E-002
   2.7068555730203059E-012  -5.3730908611271389E-012   6.7906691934394192E-002
   2.3265174509123909E-012  -7.2241657100846624E-012   6.8154791523503677E-002
   1.9461793288044760E-012  -6.8864219882058819E-012   6.8657314707320921E-002
   1.5658446761435130E-012  -4.3610670630300774E-012   6.9414261485846507E-002
   7.8887055855980104E-003  -1.8933067296578177E-003   6.4164971270012305E-002
   6.9563826675152901E-003  -1.6827856499683214E-003   6.4077872991920581E-002
   6.0240597494325698E-003  -1.5823392258290103E-003   6.4240627543973472E-002
   5.0917368313498634E-003  -1.5919674572391768E-003   6.4653234926171144E-002
   4.1594139132671570E-003  -1.7116703441996117E-003   6.5315695138513985E-002
   5.8586827726702928E-003  -1.4199800483336578E-003   6.5576878225412860E-002
   5.1720196595375634E-003  -1.2620892378010229E-003   6.5427835876326723E-002
   4.4853565464048131E-003  -1.1867544192101231E-003   6.5520260306995676E-002
   3.7986934332720733E-003  -1.1939755925602369E-003   6.5854151517419815E-002
   3.1120303201393335E-003  -1.2837527578519747E-003   6.6429509507599294E-002
   3.8672242376890167E-003  -9.4665336700949787E-004   6.6922395579851829E-002
   3.4178348791165276E-003  -8.4139282563375217E-004   6.6738927823380145E-002
   2.9684455205440247E-003  -7.9116961259109719E-004   6.6788540796273943E-002
   2.5190561619715252E-003  -7.9598372788117905E-004   6.7071234498532903E-002
   2.0696668033990187E-003  -8.5583517150428223E-004   6.7587008930157455E-002
   1.9143299806542152E-003  -4.7332668568533798E-004   6.8201523333329767E-002
   1.6938283262521994E-003  -4.2069641346652309E-004   6.8011148833081125E-002
   1.4733266718501836E-003  -3.9558480597225165E-004   6.8045469011808024E-002
   1.2528250174481739E-003  -3.9799186320240224E-004   6.8304483869510310E-002
   1.0323233630461660E-003  -4.2791758515683953E-004   6.8788193406188441E-002
   1.5658446761435130E-012  -4.3610670630300774E-012   6.9414261485846507E-002
   9.4458468824498709E-013  -1.2992384945675894E-012   6.9244498905429164E-002
   3.2331776145255731E-013   6.4673266741976931E-013   6.9291044953597780E-002
  -2.9794222644596857E-013   1.4769088729771340E-012   6.9553899630352134E-002
  -9.1920915323839836E-013   1.1911582831203305E-012   7.0033062935692558E-002
   4.1594139132671570E-003  -1.7116703441996117E-003   6.5315695138513985E-002
   3.6288050417429690E-003  -2.0029277054887107E-003   6.4402500990816791E-002
   3.0981961702188088E-003  -2.5272193598850912E-003   6.3607425932158068E-002
   2.5675872986946416E-003  -3.2845453073881981E-003   6.2930469962537594E-002
   2.0369784271704883E-003  -4.2749055479985865E-003   6.2371633081955813E-002
   3.1120303201393335E-003  -1.2837527578519747E-003   6.6429509507599294E-002
   2.7031738198783906E-003  -1.5021957789889684E-003   6.5321063712086069E-002
   2.2943173196174407E-003  -1.8954145198748495E-003   6.4338003570060809E-002
   1.8854608193565013E-003  -2.4634089805096182E-003   6.3480329081523124E-002
   1.4766043190955480E-003  -3.2061791608934964E-003   6.2748040246473846E-002
   2.0696668033990187E-003  -8.5583517150428223E-004   6.7587008930157455E-002
   1.7898292388506577E-003  -1.0014638524892261E-003   6.6341570060186678E-002
   1.5099916743023072E-003  -1.2636096798649410E-003   6.5228783408152913E-002
   1.2301541097539410E-003  -1.6422726536312604E-003   6.4248648974056716E-002
   9.5031654520559561E-004  -2.1374527737883509E-003   6.3401166757897837E-002
   1.0323233630461660E-003  -4.2791758515683953E-004   6.8788193406188441E-002
   8.8877129865976706E-004  -5.0073192598948379E-004   6.7464020035118435E-002
   7.4521923427336035E-004  -6.3180483985497693E-004   6.6279765446434408E-002
   6.0166716988696795E-004  -8.2113632675301362E-004   6.5235429640137468E-002
   4.5811510550055473E-004  -1.0687263866832331E-003   6.4331012616227007E-002
  -9.1920915323839836E-013   1.1911582831203305E-012   7.0033062935692558E-002
  -6.9427796844934164E-013   5.1025850211772195E-013   6.8688413636881052E-002
  -4.6935719200114079E-013   1.5532020114505940E-013   6.7490949684905488E-002
  -2.4442600721208407E-013   1.2564949081195209E-013   6.6440671079766034E-002
  -1.9505230763883219E-014   4.2199577166002200E-013   6.5537577821462301E-002
   2.0369784271704883E-003  -4.2749055479985865E-003   6.2371633081955813E-002
   2.2868466663698017E-003  -5.5780505184404028E-003   5.8340250173505304E-002
   2.5367149055691429E-003  -7.2737306554388204E-003   5.4303764776769292E-002
   2.7865831447684702E-003  -9.3619459589932910E-003   5.0262176891746974E-002
   3.0364513839677976E-003  -1.1842696429103849E-002   4.6215486518439430E-002
   1.4766043190955480E-003  -3.2061791608934964E-003   6.2748040246473846E-002
   1.7070289271226141E-003  -4.1835378886255770E-003   5.8392934258569396E-002
   1.9374535351496941E-003  -5.4552979913060073E-003   5.4004043496605925E-002
   2.1678781431767429E-003  -7.0214594689345516E-003   4.9581367960583878E-002
   2.3983027512038402E-003  -8.8820223215106964E-003   4.5124907650502477E-002
   9.5031654520559561E-004  -2.1374527737883509E-003   6.3401166757897837E-002
   1.1326152362870871E-003  -2.7890252588105291E-003   5.8820471482147363E-002
   1.3149139273685856E-003  -3.6368653271731805E-003   5.4177309146565114E-002
   1.4972126184500979E-003  -4.6809729788758088E-003   4.9471679751150584E-002
   1.6795113095315756E-003  -5.9213482139179874E-003   4.4703583295903404E-002
   4.5811510550055473E-004  -1.0687263866832331E-003   6.4331012616227007E-002
   5.6360559386319214E-004  -1.3945126289958143E-003   5.9622861844239386E-002
   6.6909608222584342E-004  -1.8184326630404715E-003   5.4823561726645847E-002
   7.7458657058846348E-004  -2.3404864888169567E-003   4.9933112263447176E-002
   8.8007705895111824E-004  -2.9606741063251674E-003   4.4951513454642655E-002
  -1.9505230763883219E-014   4.2199577166002200E-013   6.5537577821462301E-002
  -1.4903356326811945E-013   8.1945561447582804E-013   6.0800105344845257E-002
  -2.7856189577235568E-013   1.0925982341092322E-012   5.5942801236848860E-002
  -4.0809716717049582E-013   1.2415971029078321E-012   5.0965665497473694E-002
  -5.3761162188692424E-013   1.2678746941219288E-012   4.5868698126720009E-002
   7.9997675150877967E-012   3.4978470120350380E-010   6.7711314417249313E-002
   1.6958705273406594E-011   1.6352688647636171E-010   6.7003571957875152E-002
   2.5917639562278438E-011   3.4512170898892691E-011   6.6601120485062670E-002
   3.4876573851150283E-011  -3.7259639817932566E-011   6.6503959998811812E-002
   4.3835504670575176E-011  -5.1788517918538446E-011   6.6712090499122689E-002
  -6.6347369235032136E-003   1.8367531177313490E-003   6.5911377594881970E-002
  -6.3564232578989174E-003   1.7916896493361534E-003   6.5434431497757350E-002
  -6.0781095922946317E-003   1.7429292468089663E-003   6.5208821727361976E-002
  -5.7997959266903338E-003   1.6904719101497184E-003   6.5234548283695556E-002
  -5.5214822610860428E-003   1.6343176393583403E-003   6.5511611166758160E-002
  -1.3009851724395607E-002   3.6735058856779967E-003   6.4068225986064709E-002
  -1.2507179061978612E-002   3.5833791351455313E-003   6.3818379259814845E-002
  -1.2004506399561608E-002   3.4858584591059283E-003   6.3765914200461363E-002
  -1.1501833737144614E-002   3.3809438575591599E-003   6.3910830808004346E-002
  -1.0999161074727615E-002   3.2686353305052263E-003   6.4253129082443586E-002
  -1.9125344394677425E-002   5.5102586536246168E-003   6.2181859590797708E-002
  -1.8452267395280386E-002   5.3750686209548398E-003   6.2155415244047482E-002
  -1.7779190395883337E-002   5.2287876714028902E-003   6.2272397904360829E-002
  -1.7106113396486280E-002   5.0714158049685876E-003   6.2532807571737986E-002
  -1.6433036397089231E-002   4.9029530216521539E-003   6.2936644246178897E-002
  -2.4981214934348663E-002   7.3470114215712923E-003   6.0252278409080928E-002
  -2.4191688257804246E-002   7.1667581067641484E-003   6.0445539450455166E-002
  -2.3402161581259778E-002   6.9717168836997273E-003   6.0728272839060377E-002
  -2.2612634904715323E-002   6.7618877523780395E-003   6.1100478574896713E-002
  -2.1823108228170886E-002   6.5372707127989704E-003   6.1562156657964107E-002
   4.3835504670575176E-011  -5.1788517918538446E-011   6.6712090499122689E-002
   3.1546629891687772E-011  -3.7995356860776042E-011   6.6405728890919058E-002
   1.9257751643353416E-011  -2.4801646847372183E-011   6.6300377946248018E-002
   6.9688751297425355E-012  -1.2207023586396915E-011   6.6396037665109695E-002
  -5.3200013838683446E-012  -2.1171953079601735E-013   6.6692708047504046E-002
  -5.5214822610860428E-003   1.6343176393583403E-003   6.5511611166758160E-002
  -5.3239693805765377E-003   1.5749824817590380E-003   6.5244222859058773E-002
  -5.1264565000670326E-003   1.5129824846762119E-003   6.5170849673423473E-002
  -4.9289436195575301E-003   1.4483176481094526E-003   6.5291491609852342E-002
  -4.7314307390480294E-003   1.3809879720592111E-003   6.5606148668345188E-002
  -1.0999161074727615E-002   3.2686353305052263E-003   6.4253129082443586E-002
  -1.0611130842888285E-002   3.1499650015136688E-003   6.4022049236363926E-002
  -1.0223100611048950E-002   3.0259649941538971E-003   6.3977988970879862E-002
  -9.8350703792096112E-003   2.8966353084260935E-003   6.4120948285991367E-002
  -9.4470401473702864E-003   2.7619759443300862E-003   6.4450927181698370E-002
  -1.6433036397089231E-002   4.9029530216521539E-003   6.2936644246178897E-002
  -1.5861484355388610E-002   4.7249475212682371E-003   6.2739208022834558E-002
  -1.5289932313688005E-002   4.5389475036316969E-003   6.2721795838617353E-002
  -1.4718380271987382E-002   4.3449529687426521E-003   6.2884407693526989E-002
  -1.4146828230286772E-002   4.1429639166009335E-003   6.3227043587563841E-002
  -2.1823108228170886E-002   6.5372707127989704E-003   6.1562156657964107E-002
  -2.1075029918077529E-002   6.2999300410226944E-003   6.1395699218470628E-002
  -2.0326951607984180E-002   6.0519300131094689E-003   6.1402270276635640E-002
  -1.9578873297890827E-002   5.7932706290591621E-003   6.1581869832459085E-002
  -1.8830794987797474E-002   5.5239518888718364E-003   6.1934497885941020E-002
  -5.3200013838683446E-012  -2.1171953079601735E-013   6.6692708047504046E-002
  -6.7142714998968955E-012   9.5769503438702941E-012   6.6405964497081527E-002
  -8.1085416159254464E-012   1.5550866150348952E-011   6.6353291712588885E-002
  -9.5028117319539973E-012   1.7710603816833981E-011   6.6534689694025956E-002
  -1.0897081847982548E-011   1.6055823337524089E-011   6.6950158441392849E-002
  -4.7314307390480294E-003   1.3809879720592111E-003   6.5606148668345188E-002
  -4.4999599185756370E-003   1.3114704262974508E-003   6.5331771047388604E-002
  -4.2684890981032446E-003   1.2402419805965514E-003   6.5286264304235536E-002
  -4.0370182776308574E-003   1.1673026349565338E-003   6.5469628438885999E-002
  -3.8055474571584667E-003   1.0926523893774465E-003   6.5881863451339839E-002
  -9.4470401473702864E-003   2.7619759443300862E-003   6.4450927181698370E-002
  -8.9892983931574993E-003   2.6229408430180901E-003   6.4187204594082892E-002
  -8.5315566389447175E-003   2.4804839456422506E-003   6.4147152996144680E-002
  -8.0738148847319322E-003   2.3346052522025783E-003   6.4330772387883789E-002
  -7.6160731305191486E-003   2.1853047626991806E-003   6.4738062769300081E-002
  -1.4146828230286772E-002   4.1429639166009335E-003   6.3227043587563841E-002
  -1.3468015430459850E-002   3.9344112597385489E-003   6.2972265137164779E-002
  -1.2789202630632941E-002   3.7207259106878873E-003   6.2935957788316663E-002
  -1.2110389830806024E-002   3.5019078694486765E-003   6.3118121541019714E-002
  -1.1431577030979110E-002   3.2779571360209148E-003   6.3518756395273740E-002
  -1.8830794987797474E-002   5.5239518888718364E-003   6.1934497885941020E-002
  -1.7936111030482697E-002   5.2458816764592853E-003   6.1686952676633877E-002
  -1.7041427073167918E-002   4.9609678757334685E-003   6.1652678680751388E-002
  -1.6146743115853145E-002   4.6692104866945111E-003   6.1831675898293637E-002
  -1.5252059158538368E-002   4.3706095093425934E-003   6.2223944329260650E-002
  -1.0897081847982548E-011   1.6055823337524089E-011   6.6950158441392849E-002
  -7.4010138295665939E-012   1.2297385332260546E-011   6.6857004273380927E-002
  -3.9049458111506397E-012   8.1462614431870861E-012   6.6986429133810199E-002
  -4.0888473162858929E-013   3.6025626926061705E-012   6.7338433022680610E-002
   3.0871902256812689E-012  -1.3343770532969756E-012   6.7913015939992549E-002
  -3.8055474571584667E-003   1.0926523893774465E-003   6.5881863451339839E-002
  -3.5842810279688841E-003   1.0160994333033024E-003   6.5781371192759036E-002
  -3.3630145987792927E-003   9.3745195617822574E-004   6.5900832757124050E-002
  -3.1417481695897144E-003   8.5670995800216088E-004   6.6240248144434827E-002
  -2.9204817404001257E-003   7.7387343877516335E-004   6.6799617354691476E-002
  -7.6160731305191486E-003   2.1853047626991806E-003   6.4738062769300081E-002
  -7.1761654811314740E-003   2.0321988543092195E-003   6.4628137899492177E-002
  -6.7362578317437787E-003   1.8749039042102456E-003   6.4735541647134798E-002
  -6.2963501823560938E-003   1.7134199124020921E-003   6.5060274012227887E-002
  -5.8564425329684228E-003   1.5477468788847593E-003   6.5602334994771194E-002
  -1.1431577030979110E-002   3.2779571360209148E-003   6.3518756395273740E-002
  -1.0775653366888753E-002   3.0482982753151922E-003   6.3397304393580683E-002
  -1.0119729702798385E-002   2.8123558522421266E-003   6.3490555803842649E-002
  -9.4638060387080281E-003   2.5701298668018568E-003   6.3798510626059568E-002
  -8.8078823746176663E-003   2.3216203189942164E-003   6.4321168860231523E-002
  -1.5252059158538368E-002   4.3706095093425934E-003   6.2223944329260650E-002
  -1.4382744685240756E-002   4.0643976963210537E-003   6.2088870675024221E-002
  -1.3513430211943130E-002   3.7498078002742158E-003   6.2165875227247397E-002
  -1.2644115738645507E-002   3.4268398212016736E-003   6.2454957985929996E-002
  -1.1774801265347891E-002   3.0954937591038956E-003   6.2956118951072226E-002
   3.0871902256812689E-012  -1.3343770532969756E-012   6.7913015939992549E-002
   2.7068555730203059E-012  -5.3730908611271389E-012   6.7906691934394192E-002
   2.3265174509123909E-012  -7.2241657100846624E-012   6.8154791523503677E-002
   1.9461793288044760E-012  -6.8864219882058819E-012   6.8657314707320921E-002
   1.5658446761435130E-012  -4.3610670630300774E-012   6.9414261485846507E-002
  -2.9204817404001257E-003   7.7387343877516335E-004   6.6799617354691476E-002
  -2.6689437997461617E-003   6.9217643152669206E-004   6.6777115419936750E-002
  -2.4174058590922046E-003   6.1485296928663613E-004   6.7003265772542592E-002
  -2.1658679184382388E-003   5.4190305205503372E-004   6.7478068412509182E-002
  -1.9143299777842834E-003   4.7332667983146504E-004   6.8201523339836645E-002
  -5.8564425329684228E-003   1.5477468788847593E-003   6.5602334994771194E-002
  -5.3591379586274022E-003   1.3843528684270578E-003   6.5568028673680043E-002
  -4.8618333842863886E-003   1.2297059457976600E-003   6.5776603332602435E-002
  -4.3645288099453724E-003   1.0838061109966005E-003   6.6228058971538231E-002
  -3.8672242356043544E-003   9.4665336402371958E-004   6.6922395590487543E-002
  -8.8078823746176663E-003   2.3216203189942164E-003   6.4321168860231523E-002
  -8.0705824739368513E-003   2.0765293053271322E-003   6.4279431695624056E-002
  -7.3332825732560407E-003   1.8445589223086839E-003   6.4474804203682901E-002
  -6.5959826725752214E-003   1.6257091699380007E-003   6.4907286384407820E-002
  -5.8586827718944160E-003   1.4199800482160574E-003   6.5576878237798952E-002
  -1.1774801265347891E-002   3.0954937591038956E-003   6.2956118951072226E-002
  -1.0803277345674510E-002   2.7687057422274286E-003   6.2911324485768749E-002
  -9.8317534260011531E-003   2.4594118988192915E-003   6.3097868385784128E-002
  -8.8602295063277738E-003   2.1676122288797964E-003   6.3515750651118419E-002
  -7.8887055866544153E-003   1.8933067324085062E-003   6.4164971281771566E-002
   1.5658446761435130E-012  -4.3610670630300774E-012   6.9414261485846507E-002
   9.4458468824498709E-013  -1.2992384945675894E-012   6.9244498905429164E-002
   3.2331776145255731E-013   6.4673266741976931E-013   6.9291044953597780E-002
  -2.9794222644596857E-013   1.4769088729771340E-012   6.9553899630352134E-002
  -9.1920915323839836E-013   1.1911582831203305E-012   7.0033062935692558E-002
  -1.9143299777842834E-003   4.7332667983146504E-004   6.8201523339836645E-002
  -1.6938283245479073E-003   4.2069641173952954E-004   6.8011148837290758E-002
  -1.4733266713115346E-003   3.9558480690332631E-004   6.8045469013874621E-002
  -1.2528250180751568E-003   3.9799186532270270E-004   6.8304483869587720E-002
  -1.0323233648387720E-003   4.2791758699733951E-004   6.8788193404430320E-002
  -3.8672242356043544E-003   9.4665336402371958E-004   6.6922395590487543E-002
  -3.4178348779668345E-003   8.4139282477843635E-004   6.6738927830184591E-002
  -2.9684455203292867E-003   7.9116961316012813E-004   6.6788540799554943E-002
  -2.5190561626917529E-003   7.9598372916838203E-004   6.7071234498598059E-002
  -2.0696668050542190E-003   8.5583517280346522E-004   6.7587008927314118E-002
  -5.8586827718944160E-003   1.4199800482160574E-003   6.5576878237798952E-002
  -5.1720196593121881E-003   1.2620892378176624E-003   6.5427835884110608E-002
  -4.4853565467299680E-003   1.1867544194167148E-003   6.5520260310638609E-002
  -3.7986934341477404E-003   1.1939755930140076E-003   6.5854151517382886E-002
  -3.1120303215655199E-003   1.2837527586096742E-003   6.6429509504343870E-002
  -7.8887055866544153E-003   1.8933067324085062E-003   6.4164971281771566E-002
  -6.9563826685839908E-003   1.6827856508561667E-003   6.4077872999068863E-002
  -6.0240597505135454E-003   1.5823392256735513E-003   6.4240627547125784E-002
  -5.0917368324431174E-003   1.5919674568598621E-003   6.4653234925942743E-002
  -4.1594139143726755E-003   1.7116703444158832E-003   6.5315695135519825E-002
  -9.1920915323839836E-013   1.1911582831203305E-012   7.0033062935692558E-002
  -6.9427796844934164E-013   5.1025850211772195E-013   6.8688413636881052E-002
  -4.6935719200114079E-013   1.5532020114505940E-013   6.7490949684905488E-002
  -2.4442600721208407E-013   1.2564949081195209E-013   6.6440671079766034E-002
  -1.9505230763883219E-014   4.2199577166002200E-013   6.5537577821462301E-002
  -1.0323233648387720E-003   4.2791758699733951E-004   6.8788193404430320E-002
  -8.8877130002281216E-004   5.0073192702060343E-004   6.7464020033961791E-002
  -7.4521923520683500E-004   6.3180484048555585E-004   6.6279765445838967E-002
  -6.0166717039086479E-004   8.2113632739292536E-004   6.5235429640062709E-002
  -4.5811510557488416E-004   1.0687263877416919E-003   6.4331012616632322E-002
  -2.0696668050542190E-003   8.5583517280346522E-004   6.7587008927314118E-002
  -1.7898292401371243E-003   1.0014638535309484E-003   6.6341570058304461E-002
  -1.5099916752200453E-003   1.2636096808164576E-003   6.5228783407151103E-002
  -1.2301541103029575E-003   1.6422726546598682E-003   6.4248648973853947E-002
  -9.5031654538587154E-004   2.1374527750613326E-003   6.3401166758412703E-002
  -3.1120303215655199E-003   1.2837527586096742E-003   6.6429509504343870E-002
  -2.7031738210372500E-003   1.5021957800411823E-003   6.5321063709909533E-002
  -2.2943173205089663E-003   1.8954145211472484E-003   6.4338003568841479E-002
  -1.8854608199806893E-003   2.4634089819269775E-003   6.3480329081139680E-002
  -1.4766043194524127E-003   3.2061791623810010E-003   6.2748040246803805E-002
  -4.1594139143726755E-003   1.7116703444158832E-003   6.5315695135519825E-002
  -3.6288050427231502E-003   2.0029277065516382E-003   6.4402500988776867E-002
  -3.0981961710736215E-003   2.5272193614776228E-003   6.3607425930910122E-002
  -2.5675872994240893E-003   3.2845453091940383E-003   6.2930469961919727E-002
  -2.0369784277745676E-003   4.2749055497006694E-003   6.2371633081805600E-002
  -1.9505230763883219E-014   4.2199577166002200E-013   6.5537577821462301E-002
  -1.4903356326811945E-013   8.1945561447582804E-013   6.0800105344845257E-002
  -2.7856189577235568E-013   1.0925982341092322E-012   5.5942801236848860E-002
  -4.0809716717049582E-013   1.2415971029078321E-012   5.0965665497473694E-002
  -5.3761162188692424E-013   1.2678746941219288E-012   4.5868698126720009E-002
  -4.5811510557488416E-004   1.0687263877416919E-003   6.4331012616632322E-002
  -5.6360559418045658E-004   1.3945126306133537E-003   5.9622861844402242E-002
  -6.6909608278602900E-004   1.8184326650888538E-003   5.4823561726598524E-002
  -7.7458657139159795E-004   2.3404864911683310E-003   4.9933112263221696E-002
  -8.8007705999715996E-004   2.9606741088514799E-003   4.4951513454271952E-002
  -9.5031654538587154E-004   2.1374527750613326E-003   6.3401166758412703E-002
  -1.1326152366619314E-003   2.7890252604075294E-003   5.8820471482297437E-002
  -1.3149139279379843E-003   3.6368653290850955E-003   5.4177309146414346E-002
  -1.4972126192140476E-003   4.6809729810941177E-003   4.9471679750763671E-002
  -1.6795113104901109E-003   5.9213482164350850E-003   4.4703583295344962E-002
  -1.4766043194524127E-003   3.2061791623810010E-003   6.2748040246803805E-002
  -1.7070289275934272E-003   4.1835378902017883E-003   5.8392934258531162E-002
  -1.9374535357344277E-003   5.4552979930813442E-003   5.4004043496296061E-002
  -2.1678781438754491E-003   7.0214594710206000E-003   4.9581367960099230E-002
  -2.3983027520164566E-003   8.8820223240186902E-003   4.5124907649939594E-002
  -2.0369784277745676E-003   4.2749055497006694E-003   6.2371633081805600E-002
  -2.2868466669749635E-003   5.5780505199958252E-003   5.8340250173102959E-002
  -2.5367149061753837E-003   7.2737306570775928E-003   5.4303764776243768E-002
  -2.7865831453757831E-003   9.3619459609463052E-003   5.0262176891228028E-002
  -3.0364513845761998E-003   1.1842696431602295E-002   4.6215486518055737E-002
  -2.4981214934348663E-002   7.3470114215712923E-003   6.0252278409080928E-002
  -2.4191688257804246E-002   7.1667581067641484E-003   6.0445539450455166E-002
  -2.3402161581259778E-002   6.9717168836997273E-003   6.0728272839060377E-002
  -2.2612634904715323E-002   6.7618877523780395E-003   6.1100478574896713E-002
  -2.1823108228170886E-002   6.5372707127989704E-003   6.1562156657964107E-002
  -3.0865002985966571E-002   9.2329134489700371E-003   5.8293731296595486E-002
  -2.9953010677383155E-002   9.0081440018928982E-003   5.8185903423548679E-002
  -2.9041018368799784E-002   8.7609123736229894E-003   5.8233534467348608E-002
  -2.8129026060216389E-002   8.4912185641602585E-003   5.8436624427995409E-002
  -2.7217033751632994E-002   8.1990625735048062E-003   5.8795173305488890E-002
  -3.7064248192088291E-002   1.1118815476368810E-002   5.6294505188307795E-002
  -3.5963803681850183E-002   1.0849529897021593E-002   5.5877914127904368E-002
  -3.4863359171612131E-002   1.0550107863546120E-002   5.5682768553963612E-002
  -3.3762914661374092E-002   1.0220549375942451E-002   5.5709068466485323E-002
  -3.2662470151136033E-002   9.8608544342105309E-003   5.5956813865469579E-002
  -4.3578950552713817E-002   1.3004717503767568E-002   5.4254600084217383E-002
  -4.2224067271205298E-002   1.2690915792150259E-002   5.3521571563522219E-002
  -4.0869183989696883E-002   1.2339303353469343E-002   5.3075975098905187E-002
  -3.9514300708188406E-002   1.1949880187724631E-002   5.2917810690366586E-002
  -3.8159417426679935E-002   1.1522646294916228E-002   5.3047078337906041E-002
  -5.0409110067843155E-002   1.4890619531166327E-002   5.2174015984325028E-002
  -4.8733801445448588E-002   1.4532301687278981E-002   5.1116875730402356E-002
  -4.7058492823053966E-002   1.4128498843392484E-002   5.0413154102173729E-002
  -4.5383184200659385E-002   1.3679210999506787E-002   5.0062851099639066E-002
  -4.3707875578264777E-002   1.3184438155622036E-002   5.0065966722798450E-002
  -2.1823108228170886E-002   6.5372707127989704E-003   6.1562156657964107E-002
  -2.1075029918077529E-002   6.2999300410226944E-003   6.1395699218470628E-002
  -2.0326951607984180E-002   6.0519300131094689E-003   6.1402270276635640E-002
  -1.9578873297890827E-002   5.7932706290591621E-003   6.1581869832459085E-002
  -1.8830794987797474E-002   5.5239518888718364E-003   6.1934497885941020E-002
  -2.7217033751632994E-002   8.1990625735048062E-003   5.8795173305488890E-002
  -2.6292516793364466E-002   7.8923118993470265E-003   5.8571921869496918E-002
  -2.5367999835095880E-002   7.5788340393776674E-003   5.8528519232196957E-002
  -2.4443482876827335E-002   7.2586289935964911E-003   5.8664965393588842E-002
  -2.3518965918558767E-002   6.9316967620035586E-003   5.8981260353672793E-002
  -3.2662470151136033E-002   9.8608544342105309E-003   5.5956813865469579E-002
  -3.1554694243658775E-002   9.4846937576712476E-003   5.5680700603304413E-002
  -3.0446918336181544E-002   9.1057380656456993E-003   5.5591256440864642E-002
  -2.9339142428704307E-002   8.7239873581337647E-003   5.5688481378150419E-002
  -2.8231366521227062E-002   8.3394416351354750E-003   5.5972375415161479E-002
  -3.8159417426679935E-002   1.1522646294916228E-002   5.3047078337906041E-002
  -3.6861562268960542E-002   1.1077075615995524E-002   5.2722035419893086E-002
  -3.5563707111241120E-002   1.0632642091913759E-002   5.2590481902638944E-002
  -3.4265851953521706E-002   1.0189345722671038E-002   5.2652417786143747E-002
  -3.2967996795802305E-002   9.7471865082672665E-003   5.2907843070407481E-002
  -4.3707875578264777E-002   1.3184438155622036E-002   5.0065966722798450E-002
  -4.2213120869269705E-002   1.2669457474319801E-002   4.9695926319262895E-002
  -4.0718366160274647E-002   1.2159546118181916E-002   4.9526195617519808E-002
  -3.9223611451279589E-002   1.1654704087208392E-002   4.9556774617569063E-002
  -3.7728856742284517E-002   1.1154931381399169E-002   4.9787663319410758E-002
  -1.8830794987797474E-002   5.5239518888718364E-003   6.1934497885941020E-002
  -1.7936111030482697E-002   5.2458816764592853E-003   6.1686952676633877E-002
  -1.7041427073167918E-002   4.9609678757334685E-003   6.1652678680751388E-002
  -1.6146743115853145E-002   4.6692104866945111E-003   6.1831675898293637E-002
  -1.5252059158538368E-002   4.3706095093425934E-003   6.2223944329260650E-002
  -2.3518965918558767E-002   6.9316967620035586E-003   5.8981260353672793E-002
  -2.2412650380733791E-002   6.5964972116002996E-003   5.8699520319482806E-002
  -2.1306334842908826E-002   6.2514902093879637E-003   5.8627772232888647E-002
  -2.0200019305083868E-002   5.8966757553666170E-003   5.8766016093890122E-002
  -1.9093703767258885E-002   5.5320538495360894E-003   5.9114251902487147E-002
  -2.8231366521227062E-002   8.3394416351354750E-003   5.5972375415161479E-002
  -2.6916698668720970E-002   7.9471127467415081E-003   5.5653476692593060E-002
  -2.5602030816214864E-002   7.5420125430424589E-003   5.5541290651791211E-002
  -2.4287362963708752E-002   7.1241410240386674E-003   5.5635817292756018E-002
  -2.2972695111202666E-002   6.6934981897295576E-003   5.5937056615487410E-002
  -3.2967996795802305E-002   9.7471865082672665E-003   5.2907843070407481E-002
  -3.1448255894444145E-002   9.2977282818825918E-003   5.2548821795964637E-002
  -2.9928514993085981E-002   8.8325348766970374E-003   5.2393233937459337E-002
  -2.8408774091727845E-002   8.3516062927104680E-003   5.2441079494891477E-002
  -2.6889033190369685E-002   7.8549425299230397E-003   5.2692358468261202E-002
  -3.7728856742284517E-002   1.1154931381399169E-002   4.9787663319410758E-002
  -3.6007322057903343E-002   1.0648343817023759E-002   4.9385555629597566E-002
  -3.4285787373522225E-002   1.0123057210351449E-002   4.9183602089892753E-002
  -3.2564252689141079E-002   9.5790715613827404E-003   4.9181802700296484E-002
  -3.0842718004759934E-002   9.0163868701165772E-003   4.9380157460808649E-002
  -1.5252059158538368E-002   4.3706095093425934E-003   6.2223944329260650E-002
  -1.4382744685240756E-002   4.0643976963210537E-003   6.2088870675024221E-002
  -1.3513430211943130E-002   3.7498078002742158E-003   6.2165875227247397E-002
  -1.2644115738645507E-002   3.4268398212016736E-003   6.2454957985929996E-002
  -1.1774801265347891E-002   3.0954937591038956E-003   6.2956118951072226E-002
  -1.9093703767258885E-002   5.5320538495360894E-003   5.9114251902487147E-002
  -1.8016534409884887E-002   5.1589038520538366E-003   5.8929794783384587E-002
  -1.6939365052510841E-002   4.7785051230772452E-003   5.8948969225975090E-002
  -1.5862195695136829E-002   4.3908576626063671E-003   5.9171775230258933E-002
  -1.4785026337762793E-002   3.9959614706412960E-003   5.9598212796236005E-002
  -2.2972695111202666E-002   6.6934981897295576E-003   5.5937056615487410E-002
  -2.1696117514518498E-002   6.2534100077864530E-003   5.5704345383049539E-002
  -2.0419539917834347E-002   5.8072024458803925E-003   5.5666819067538724E-002
  -1.9142962321150189E-002   5.3548755040109513E-003   5.5824477668954986E-002
  -1.7866384724466028E-002   4.8964291821785855E-003   5.6177321187297957E-002
  -2.6889033190369685E-002   7.8549425299230397E-003   5.2692358468261202E-002
  -2.5421493999141679E-002   7.3479161635193191E-003   5.2412522474019424E-002
  -2.3953954807913683E-002   6.8358997686833699E-003   5.2319424751938376E-002
  -2.2486415616685691E-002   6.3188933454155901E-003   5.2413065302018051E-002
  -2.1018876425457682E-002   5.7968968937158194E-003   5.2693444124258505E-002
  -3.0842718004759934E-002   9.0163868701165772E-003   4.9380157460808649E-002
  -2.9192663863754367E-002   8.4424223192519632E-003   4.9054326056294173E-002
  -2.7542609722748801E-002   7.8645970914865276E-003   4.8906786279174025E-002
  -2.5892555581743235E-002   7.2829111868202186E-003   4.8937538129448246E-002
  -2.4242501440737668E-002   6.6973646052532754E-003   4.9146581607117157E-002
  -1.1774801265347891E-002   3.0954937591038956E-003   6.2956118951072226E-002
  -1.0803277345674510E-002   2.7687057422274286E-003   6.2911324485768749E-002
  -9.8317534260011531E-003   2.4594118988192915E-003   6.3097868385784128E-002
  -8.8602295063277738E-003   2.1676122288797964E-003   6.3515750651118419E-002
  -7.8887055866544153E-003   1.8933067324085062E-003   6.4164971281771566E-002
  -1.4785026337762793E-002   3.9959614706412960E-003   5.9598212796236005E-002
  -1.3588410568967729E-002   3.6027736775642305E-003   5.9490118351816557E-002
  -1.2391794800172667E-002   3.2202514137584515E-003   5.9600869240321569E-002
  -1.1195179031377605E-002   2.8483946792235357E-003   5.9930465461750820E-002
  -9.9985632625825410E-003   2.4872034739593651E-003   6.0478907016104699E-002
  -1.7866384724466028E-002   4.8964291821785855E-003   5.6177321187297957E-002
  -1.6457170138943773E-002   4.4368416129011434E-003   5.5999098119565188E-002
  -1.5047955553421519E-002   3.9810909286974866E-003   5.6027227352362249E-002
  -1.3638740967899285E-002   3.5291771295671050E-003   5.6261708885689245E-002
  -1.2229526382377003E-002   3.0811002155103351E-003   5.6702542719546334E-002
  -2.1018876425457682E-002   5.7968968937158194E-003   5.2693444124258505E-002
  -1.9409556055602697E-002   5.2709095482381119E-003   5.2438263789014734E-002
  -1.7800235685747730E-002   4.7419304436365287E-003   5.2376942721906392E-002
  -1.6190915315892760E-002   4.2099595799109813E-003   5.2509480922933720E-002
  -1.4581594946037779E-002   3.6749969570610275E-003   5.2835878392096254E-002
  -2.4242501440737668E-002   6.6973646052532754E-003   4.9146581607117157E-002
  -2.2445568318944453E-002   6.1049774835747472E-003   4.8807615360164980E-002
  -2.0648635197151280E-002   5.5027699585756817E-003   4.8650015348953912E-002
  -1.8851702075358093E-002   4.8907420302545246E-003   4.8673781573483788E-002
  -1.7054768953564892E-002   4.2688936986120529E-003   4.8878914033754661E-002
  -7.8887055866544153E-003   1.8933067324085062E-003   6.4164971281771566E-002
  -6.9563826685839908E-003   1.6827856508561667E-003   6.4077872999068863E-002
  -6.0240597505135454E-003   1.5823392256735513E-003   6.4240627547125784E-002
  -5.0917368324431174E-003   1.5919674568598621E-003   6.4653234925942743E-002
  -4.1594139143726755E-003   1.7116703444158832E-003   6.5315695135519825E-002
  -9.9985632625825410E-003   2.4872034739593651E-003   6.0478907016104699E-002
  -8.8158424460060593E-003   2.1874271281149271E-003   6.0382367780250246E-002
  -7.6331216294295741E-003   1.9998149718383484E-003   6.0536771510647985E-002
  -6.4504008128530785E-003   1.9243670051292752E-003   6.0942118207297710E-002
  -5.2676799962766072E-003   1.9610832279887136E-003   6.1598407870199878E-002
  -1.2229526382377003E-002   3.0811002155103351E-003   5.6702542719546334E-002
  -1.0795317531802320E-002   2.6920686053733267E-003   5.6598652063738653E-002
  -9.3611086812276246E-003   2.4172907180030206E-003   5.6746794509675527E-002
  -7.9268998306529434E-003   2.2567665533990179E-003   5.7146970057356659E-002
  -6.4926909800782188E-003   2.2104961115614885E-003   5.7799178706781890E-002
  -1.4581594946037779E-002   3.6749969570610275E-003   5.2835878392096254E-002
  -1.2894807925972702E-002   3.1967100826318512E-003   5.2726725849534202E-002
  -1.1208020905907626E-002   2.8347664641678663E-003   5.2870696544208645E-002
  -9.5212338858425370E-003   2.5891661016683738E-003   5.3267790476119375E-002
  -7.8344468657774759E-003   2.4599089951342357E-003   5.3918007645267003E-002
  -1.7054768953564892E-002   4.2688936986120529E-003   4.8878914033754661E-002
  -1.5114313628517284E-002   3.7013515598904867E-003   4.8766589137636651E-002
  -1.3173858303469649E-002   3.2522422103325455E-003   4.8908477614247159E-002
  -1.1233402978422034E-002   2.9215656499380765E-003   4.9304579463586379E-002
  -9.2929476533744060E-003   2.7093218787069828E-003   4.9954894685654172E-002
  -4.1594139143726755E-003   1.7116703444158832E-003   6.5315695135519825E-002
  -3.6288050427231502E-003   2.0029277065516382E-003   6.4402500988776867E-002
  -3.0981961710736215E-003   2.5272193614776228E-003   6.3607425930910122E-002
  -2.5675872994240893E-003   3.2845453091940383E-003   6.2930469961919727E-002
  -2.0369784277745676E-003   4.2749055497006694E-003   6.2371633081805600E-002
  -5.2676799962766072E-003   1.9610832279887136E-003   6.1598407870199878E-002
  -4.5927601819920581E-003   2.2170352703101415E-003   6.0874331546391047E-002
  -3.9178403677074813E-003   2.7992947619875641E-003   6.0320758018976128E-002
  -3.2429205534229115E-003   3.7078617030218072E-003   5.9937687287954927E-002
  -2.5680007391383555E-003   4.9427360934117814E-003   5.9725119353327472E-002
  -6.4926909800782188E-003   2.2104961115614885E-003   5.7799178706781890E-002
  -5.6210765156411244E-003   2.4311428340684227E-003   5.7357493362473672E-002
  -4.7494620512040283E-003   3.0713701624974915E-003   5.7138694522076719E-002
  -3.8778475867669348E-003   4.1311780968489066E-003   5.7142782185590955E-002
  -3.0062331223298100E-003   5.6105666371226715E-003   5.7369756353016554E-002
  -7.8344468657774759E-003   2.4599089951342357E-003   5.3918007645267003E-002
  -6.7137540436703709E-003   2.6452503978263708E-003   5.3851986437024955E-002
  -5.5930612215632520E-003   3.3434455630072593E-003   5.4061235440211700E-002
  -4.4723683994561678E-003   4.5544944906761187E-003   5.4545754654827222E-002
  -3.3516755773490281E-003   6.2783971808336725E-003   5.5305544080871682E-002
  -9.2929476533744060E-003   2.7093218787069828E-003   4.9954894685654172E-002
  -7.8707927660797705E-003   2.8593579615849296E-003   5.0357810770044753E-002
  -6.4486378787851628E-003   3.6155209635172769E-003   5.1088380773381514E-002
  -5.0264829914905343E-003   4.9778108845036431E-003   5.2146604695664650E-002
  -3.6043281041959196E-003   6.9462277245446735E-003   5.3532482536893911E-002
  -2.0369784277745676E-003   4.2749055497006694E-003   6.2371633081805600E-002
  -2.2868466669749635E-003   5.5780505199958252E-003   5.8340250173102959E-002
  -2.5367149061753837E-003   7.2737306570775928E-003   5.4303764776243768E-002
  -2.7865831453757831E-003   9.3619459609463052E-003   5.0262176891228028E-002
  -3.0364513845761998E-003   1.1842696431602295E-002   4.6215486518055737E-002
  -2.5680007391383555E-003   4.9427360934117814E-003   5.9725119353327472E-002
  -2.8405296239044191E-003   6.5675344681040415E-003   5.6192006058405797E-002
  -3.1130585086704861E-003   8.6458733620438100E-003   5.2618673960508788E-002
  -3.3855873934365652E-003   1.1177752775230754E-002   4.9005123059637556E-002
  -3.6581162782026166E-003   1.4163172707665872E-002   4.5351353355791213E-002
  -3.0062331223298100E-003   5.6105666371226715E-003   5.7369756353016554E-002
  -3.3365389674795964E-003   7.5570184162118137E-003   5.4395918024335549E-002
  -3.6668448126293829E-003   1.0018016067009361E-002   5.1346744577862119E-002
  -3.9971506577791711E-003   1.2993559589515258E-002   4.8222236013595862E-002
  -4.3274565029289835E-003   1.6483648983729227E-002   4.5022392331536487E-002
  -3.3516755773490281E-003   6.2783971808336725E-003   5.5305544080871682E-002
  -3.7748746977006105E-003   8.5465023643198079E-003   5.2951986070893034E-002
  -4.1980738180521643E-003   1.1390158771974912E-002   5.0487976628303483E-002
  -4.6212729384037324E-003   1.4809366403799290E-002   4.7913515753102570E-002
  -5.0444720587552996E-003   1.8804125259792692E-002   4.5228603445291726E-002
  -3.6043281041959196E-003   6.9462277245446735E-003   5.3532482536893911E-002
  -4.1555368145673177E-003   9.5359863124275801E-003   5.1860210198077961E-002
  -4.7067455249387435E-003   1.2762301476941185E-002   5.0042370111833212E-002
  -5.2579542353101347E-003   1.6625173218083891E-002   4.8078962278158943E-002
  -5.8091629456815674E-003   2.1124601535856158E-002   4.5969986697056431E-002
  -5.0409110067843155E-002   1.4890619531166327E-002   5.2174015984325028E-002
  -4.8733801445448588E-002   1.4532301687278981E-002   5.1116875730402356E-002
  -4.7058492823053966E-002   1.4128498843392484E-002   5.0413154102173729E-002
  -4.5383184200659385E-002   1.3679210999506787E-002   5.0062851099639066E-002
  -4.3707875578264777E-002   1.3184438155622036E-002   5.0065966722798450E-002
  -5.7217624927389382E-002   1.6827020836442497E-002   4.5962365827933560E-002
  -5.5222509055440946E-002   1.6358875216489072E-002   4.5195322618693134E-002
  -5.3227393183492386E-002   1.5866138506839378E-002   4.4714475282866734E-002
  -5.1232277311543846E-002   1.5348810707493402E-002   4.4519823820454052E-002
  -4.9237161439595369E-002   1.4806891818451129E-002   4.4611368231455201E-002
  -6.3667393321265600E-002   1.8763422141718583E-002   3.9630440940324557E-002
  -6.1419692952043373E-002   1.8185448745699079E-002   3.9174388686069428E-002
  -5.9171992582821069E-002   1.7603778170286230E-002   3.8937309552947899E-002
  -5.6924292213598765E-002   1.7018410415479929E-002   3.8919203540960103E-002
  -5.4676591844376524E-002   1.6429345481280361E-002   3.9120070650105990E-002
  -6.9758415249471697E-002   2.0699823446994697E-002   3.3178241321498186E-002
  -6.7325353135255853E-002   2.0012022274909155E-002   3.3054073932531035E-002
  -6.4892291021039925E-002   1.9341417833733075E-002   3.3081656912417504E-002
  -6.2459228906824066E-002   1.8688010123466499E-002   3.3260990261157364E-002
  -6.0026166792608200E-002   1.8051799144109495E-002   3.3592073978750844E-002
  -7.5490690712007757E-002   2.2636224752270839E-002   2.6605766971454170E-002
  -7.2939489605078456E-002   2.1838595804119176E-002   2.6834378358078004E-002
  -7.0388288498149154E-002   2.1079057497179976E-002   2.7147517361275186E-002
  -6.7837087391219797E-002   2.0357609831453100E-002   2.7545183981045690E-002
  -6.5285886284290495E-002   1.9674252806938741E-002   2.8027378217389598E-002
  -4.3707875578264777E-002   1.3184438155622036E-002   5.0065966722798450E-002
  -4.2213120869269705E-002   1.2669457474319801E-002   4.9695926319262895E-002
  -4.0718366160274647E-002   1.2159546118181916E-002   4.9526195617519808E-002
  -3.9223611451279589E-002   1.1654704087208392E-002   4.9556774617569063E-002
  -3.7728856742284517E-002   1.1154931381399169E-002   4.9787663319410758E-002
  -4.9237161439595369E-002   1.4806891818451129E-002   4.4611368231455201E-002
  -4.7549960146950350E-002   1.4252203884527970E-002   4.4325381328875979E-002
  -4.5862758854305352E-002   1.3696568950538959E-002   4.4223977891804184E-002
  -4.4175557561660354E-002   1.3139987016484406E-002   4.4307157920239856E-002
  -4.2488356269015370E-002   1.2582458082364134E-002   4.4574921414183094E-002
  -5.4676591844376524E-002   1.6429345481280361E-002   3.9120070650105990E-002
  -5.2812670204366509E-002   1.5834950294736194E-002   3.8912120923252941E-002
  -5.0948748564356480E-002   1.5233591782896176E-002   3.8873028425622451E-002
  -4.9084826924346472E-002   1.4625269945760478E-002   3.9002793157214499E-002
  -4.7220905284336506E-002   1.4009984783328960E-002   3.9301415118029037E-002
  -6.0026166792608200E-002   1.8051799144109495E-002   3.3592073978750844E-002
  -5.8001251041518112E-002   1.7417696704944363E-002   3.3456145102393919E-002
  -5.5976335290428059E-002   1.6770614615253251E-002   3.3473347218974714E-002
  -5.3951419539337978E-002   1.6110552875036523E-002   3.3643680328493013E-002
  -5.1926503788247924E-002   1.5437511484293856E-002   3.3967144430948989E-002
  -6.5285886284290495E-002   1.9674252806938741E-002   2.8027378217389598E-002
  -6.3115702658405284E-002   1.9000443115152615E-002   2.7957453866298887E-002
  -6.0945519032520074E-002   1.8307637447610395E-002   2.8024934271860896E-002
  -5.8775335406634863E-002   1.7595835804312555E-002   2.8229819434075404E-002
  -5.6605151780749624E-002   1.6865038185258752E-002   2.8572109352942687E-002
  -3.7728856742284517E-002   1.1154931381399169E-002   4.9787663319410758E-002
  -3.6007322057903343E-002   1.0648343817023759E-002   4.9385555629597566E-002
  -3.4285787373522225E-002   1.0123057210351449E-002   4.9183602089892753E-002
  -3.2564252689141079E-002   9.5790715613827404E-003   4.9181802700296484E-002
  -3.0842718004759934E-002   9.0163868701165772E-003   4.9380157460808649E-002
  -4.2488356269015370E-002   1.2582458082364134E-002   4.4574921414183094E-002
  -4.0569660909018042E-002   1.2018607536067594E-002   4.4181573127995366E-002
  -3.8650965549020734E-002   1.1443060765483820E-002   4.3982392042931570E-002
  -3.6732270189023419E-002   1.0855817770613611E-002   4.3977378158991616E-002
  -3.4813574829026098E-002   1.0256878551456183E-002   4.4166531476175552E-002
  -4.7220905284336506E-002   1.4009984783328960E-002   3.9301415118029037E-002
  -4.5111036197707621E-002   1.3388871255111137E-002   3.8923829053476910E-002
  -4.3001167111078674E-002   1.2763064320616302E-002   3.8734423241064131E-002
  -4.0891298024449782E-002   1.2132563979844593E-002   3.8733197680790629E-002
  -3.8781428937820897E-002   1.1497370232795762E-002   3.8920152372656378E-002
  -5.1926503788247924E-002   1.5437511484293856E-002   3.3967144430948989E-002
  -4.9631447923971984E-002   1.4759134974154743E-002   3.3612323406042276E-002
  -4.7336392059696079E-002   1.4083067875748728E-002   3.3439695684290269E-002
  -4.5041336195420154E-002   1.3409310189075520E-002   3.3449261265692927E-002
  -4.2746280331144235E-002   1.2737861914135409E-002   3.3641020150250528E-002
  -5.6605151780749624E-002   1.6865038185258752E-002   2.8572109352942687E-002
  -5.4130896087811242E-002   1.6129398693198516E-002   2.8247056185691399E-002
  -5.1656640394872916E-002   1.5403071430881154E-002   2.8098209372610150E-002
  -4.9182384701934562E-002   1.4686056398306668E-002   2.8125568913699120E-002
  -4.6708129008996208E-002   1.3978353595474946E-002   2.8329134808958156E-002
  -3.0842718004759934E-002   9.0163868701165772E-003   4.9380157460808649E-002
  -2.9192663863754367E-002   8.4424223192519632E-003   4.9054326056294173E-002
  -2.7542609722748801E-002   7.8645970914865276E-003   4.8906786279174025E-002
  -2.5892555581743235E-002   7.2829111868202186E-003   4.8937538129448246E-002
  -2.4242501440737668E-002   6.6973646052532754E-003   4.9146581607117157E-002
  -3.4813574829026098E-002   1.0256878551456183E-002   4.4166531476175552E-002
  -3.2990921919875849E-002   9.6477355803381848E-003   4.3831723949615264E-002
  -3.1168269010725579E-002   9.0298813295861258E-003   4.3663822331949764E-002
  -2.9345616101575312E-002   8.4033157991991667E-003   4.3662826623179440E-002
  -2.7522963192425060E-002   7.7680389891781054E-003   4.3828736823303904E-002
  -3.8781428937820897E-002   1.1497370232795762E-002   3.8920152372656378E-002
  -3.6797562979025381E-002   1.0853048841424628E-002   3.8571518121316373E-002
  -3.4813697020229829E-002   1.0195165567685495E-002   3.8378404060372025E-002
  -3.2829831061434292E-002   9.5237204115782240E-003   3.8340810189823119E-002
  -3.0845965102638762E-002   8.8387133731030465E-003   3.8458736509669633E-002
  -4.2746280331144235E-002   1.2737861914135409E-002   3.3641020150250528E-002
  -4.0612587041202894E-002   1.2058362102510906E-002   3.3273708571397449E-002
  -3.8478893751261553E-002   1.1360449805784868E-002   3.3050531464440515E-002
  -3.6345200461320212E-002   1.0644125023957226E-002   3.2971488829379635E-002
  -3.4211507171378872E-002   9.9093877570278766E-003   3.3036580666214871E-002
  -4.6708129008996208E-002   1.3978353595474946E-002   2.8329134808958156E-002
  -4.4435994106408444E-002   1.3263675363597183E-002   2.7938295299858362E-002
  -4.2163859203820778E-002   1.2525734043884490E-002   2.7680204544155318E-002
  -3.9891724301233049E-002   1.1764529636336292E-002   2.7554862541848690E-002
  -3.7619589398645348E-002   1.0980062140952929E-002   2.7562269292939034E-002
  -2.4242501440737668E-002   6.6973646052532754E-003   4.9146581607117157E-002
  -2.2445568318944453E-002   6.1049774835747472E-003   4.8807615360164980E-002
  -2.0648635197151280E-002   5.5027699585756817E-003   4.8650015348953912E-002
  -1.8851702075358093E-002   4.8907420302545246E-003   4.8673781573483788E-002
  -1.7054768953564892E-002   4.2688936986120529E-003   4.8878914033754661E-002
  -2.7522963192425060E-002   7.7680389891781054E-003   4.3828736823303904E-002
  -2.5552830332495433E-002   7.1283299251395649E-003   4.3434077104359980E-002
  -2.3582697472565750E-002   6.4884676327003898E-003   4.3204450625947938E-002
  -2.1612564612636123E-002   5.8484521118614685E-003   4.3139857388067748E-002
  -1.9642431752706496E-002   5.2082833626214686E-003   4.3240297390719551E-002
  -3.0845965102638762E-002   8.8387133731030465E-003   3.8458736509669633E-002
  -2.8718965499781798E-002   8.1516823667039939E-003   3.8018050493655003E-002
  -2.6591965896924821E-002   7.4741653068258751E-003   3.7726064722963193E-002
  -2.4464966294067830E-002   6.8061621934682459E-003   3.7582779197594146E-002
  -2.2337966691210881E-002   6.1476730266311619E-003   3.7588193917547918E-002
  -3.4211507171378872E-002   9.9093877570278766E-003   3.3036580666214871E-002
  -3.1943973820803620E-002   9.1750348082685063E-003   3.2559535528050430E-002
  -2.9676440470228389E-002   8.4598629809510828E-003   3.2214857639999581E-002
  -2.7408907119653166E-002   7.7638722750749400E-003   3.2002547002062447E-002
  -2.5141373769077914E-002   7.0870626906408274E-003   3.1922603614239195E-002
  -3.7619589398645348E-002   1.0980062140952929E-002   2.7562269292939034E-002
  -3.5227855295560939E-002   1.0198387249833130E-002   2.7058532207545616E-002
  -3.2836121192476531E-002   9.4455606550761517E-003   2.6670829377057115E-002
  -3.0444387089392122E-002   8.7215823566819325E-003   2.6399160801473170E-002
  -2.8052652986307713E-002   8.0264523546503819E-003   2.6243526480793866E-002
  -1.7054768953564892E-002   4.2688936986120529E-003   4.8878914033754661E-002
  -1.5114313628517284E-002   3.7013515598904867E-003   4.8766589137636651E-002
  -1.3173858303469649E-002   3.2522422103325455E-003   4.8908477614247159E-002
  -1.1233402978422034E-002   2.9215656499380765E-003   4.9304579463586379E-002
  -9.2929476533744060E-003   2.7093218787069828E-003   4.9954894685654172E-002
  -1.9642431752706496E-002   5.2082833626214686E-003   4.3240297390719551E-002
  -1.7486121733976297E-002   4.6048230055676376E-003   4.3077743077160446E-002
  -1.5329811715246146E-002   4.0749326612859460E-003   4.3092684778237855E-002
  -1.3173501696515995E-002   3.6186123297758249E-003   4.3285122493951916E-002
  -1.1017191677785851E-002   3.2358620110384262E-003   4.3655056224302047E-002
  -2.2337966691210881E-002   6.1476730266311619E-003   3.7588193917547918E-002
  -2.0042519336890267E-002   5.5082944512448995E-003   3.7330547410156234E-002
  -1.7747071982569630E-002   4.8976231122392078E-003   3.7173679559309197E-002
  -1.5451624628248997E-002   4.3156590096140104E-003   3.7117590365006267E-002
  -1.3156177273928385E-002   3.7624021433697030E-003   3.7162279827247929E-002
  -2.5141373769077914E-002   7.0870626906408274E-003   3.1922603614239195E-002
  -2.2783506437259030E-002   6.4117658969217728E-003   3.1525002136623750E-002
  -2.0425639105440114E-002   5.7203135631920393E-003   3.1151461957460665E-002
  -1.8067771773621202E-002   5.0127056894518664E-003   3.0801983076749747E-002
  -1.5709904441802314E-002   4.2889422757011186E-003   3.0476565494491091E-002
  -2.8052652986307713E-002   8.0264523546503819E-003   2.6243526480793866E-002
  -2.5709083035082625E-002   7.3152373425992567E-003   2.5661107256563342E-002
  -2.3365513083857536E-002   6.5430040141459256E-003   2.5026031972692819E-002
  -2.1021943132632448E-002   5.7097523692900137E-003   2.4338300629182519E-002
  -1.8678373181407359E-002   4.8154824080325342E-003   2.3597913226032108E-002
  -9.2929476533744060E-003   2.7093218787069828E-003   4.9954894685654172E-002
  -7.8707927660797705E-003   2.8593579615849296E-003   5.0357810770044753E-002
  -6.4486378787851628E-003   3.6155209635172769E-003   5.1088380773381514E-002
  -5.0264829914905343E-003   4.9778108845036431E-003   5.2146604695664650E-002
  -3.6043281041959196E-003   6.9462277245446735E-003   5.3532482536893911E-002
  -1.1017191677785851E-002   3.2358620110384262E-003   4.3655056224302047E-002
  -9.2492069068719207E-003   3.1647653317929403E-003   4.4239338794268057E-002
  -7.4812221359580738E-003   3.6434059187605006E-003   4.5187627212526199E-002
  -5.7132373650441923E-003   4.6717837719406213E-003   4.6499921479076459E-002
  -3.9452525941302968E-003   6.2498988913330944E-003   4.8176221593919211E-002
  -1.3156177273928385E-002   3.7624021433697030E-003   3.7162279827247929E-002
  -1.1006010690049334E-002   3.4701727020012008E-003   3.7871539229947460E-002
  -8.8558441061701715E-003   3.6712908740037103E-003   3.8981156410285253E-002
  -6.7056775222910630E-003   4.3657566593772630E-003   4.0491131368261206E-002
  -4.5555109384119580E-003   5.5535700581219594E-003   4.2401464103875630E-002
  -1.5709904441802314E-002   4.2889422757011186E-003   3.0476565494491091E-002
  -1.3141204115611975E-002   3.7755800722093363E-003   3.1254412077082863E-002
  -1.0572503789421605E-002   3.6991758292470381E-003   3.2468968366658468E-002
  -8.0038034632312609E-003   4.0597295468142950E-003   3.4120234363218475E-002
  -5.4351031370408927E-003   4.8572412249107133E-003   3.6208210066762447E-002
  -1.8678373181407359E-002   4.8154824080325342E-003   2.3597913226032108E-002
  -1.5654787183559782E-002   4.0809874424175274E-003   2.4387957335674004E-002
  -1.2631201185712232E-002   3.7270607844902270E-003   2.5651063081646108E-002
  -9.6076151878646682E-003   3.7537024342510147E-003   2.7387230463948531E-002
  -6.5840291900171044E-003   4.1609123916992452E-003   2.9596459482581050E-002
  -3.6043281041959196E-003   6.9462277245446735E-003   5.3532482536893911E-002
  -4.1555368145673177E-003   9.5359863124275801E-003   5.1860210198077961E-002
  -4.7067455249387435E-003   1.2762301476941185E-002   5.0042370111833212E-002
  -5.2579542353101347E-003   1.6625173218083891E-002   4.8078962278158943E-002
  -5.8091629456815674E-003   2.1124601535856158E-002   4.5969986697056431E-002
  -3.9452525941302968E-003   6.2498988913330944E-003   4.8176221593919211E-002
  -4.5381956883746993E-003   8.6877873634775282E-003   4.7241631772271586E-002
  -5.1311387826191227E-003   1.2295485274911699E-002   4.6369140930306918E-002
  -5.7240818768635494E-003   1.7072992625635483E-002   4.5558749068024873E-002
  -6.3170249711078930E-003   2.3020309415649365E-002   4.4810456185426117E-002
  -4.5555109384119580E-003   5.5535700581219594E-003   4.2401464103875630E-002
  -4.9825216894176724E-003   7.8395884145273653E-003   4.2737809662056314E-002
  -5.4095324404232550E-003   1.1828669072882408E-002   4.3343920927031765E-002
  -5.8365431914288429E-003   1.7520812033187179E-002   4.4219797898802232E-002
  -6.2635539424346076E-003   2.4916017295442350E-002   4.5365440577366356E-002
  -5.4351031370408927E-003   4.8572412249107133E-003   3.6208210066762447E-002
  -5.4885148176960150E-003   6.9913894655768138E-003   3.8348743867432075E-002
  -5.5419264983512196E-003   1.1361852870853020E-002   4.0966710102007940E-002
  -5.5953381790064642E-003   1.7968631440739156E-002   4.4062108770489924E-002
  -5.6487498596614893E-003   2.6811725175235335E-002   4.7634939872879117E-002
  -6.5840291900171044E-003   4.1609123916992452E-003   2.9596459482581050E-002
  -6.0561750732100184E-003   6.1431905166267065E-003   3.4074434388398966E-002
  -5.5283209564028768E-003   1.0895036668824021E-002   3.9237508455235215E-002
  -5.0004668395957352E-003   1.8416450848290730E-002   4.5085681683089462E-002
  -4.4726127227886492E-003   2.8707433055028542E-002   5.1618954071961820E-002
  -7.5490690712007757E-002   2.2636224752270839E-002   2.6605766971454170E-002
  -7.2939489605078456E-002   2.1838595804119176E-002   2.6834378358078004E-002
  -7.0388288498149154E-002   2.1079057497179976E-002   2.7147517361275186E-002
  -6.7837087391219797E-002   2.0357609831453100E-002   2.7545183981045690E-002
  -6.5285886284290495E-002   1.9674252806938741E-002   2.8027378217389598E-002
  -8.1246713517723390E-002   2.4418972287153673E-002   2.1032303959942766E-002
  -7.8571455827201653E-002   2.3615669225278246E-002   2.0921816577987029E-002
  -7.5896198136679902E-002   2.2829502355051740E-002   2.0974914746642925E-002
  -7.3220940446158123E-002   2.2060471676473979E-002   2.1191598465910233E-002
  -7.0545682755636344E-002   2.1308577189545153E-002   2.1571867735789202E-002
  -8.7408977475468136E-002   2.6201719822036451E-002   1.5463644059489384E-002
  -8.4530605267315789E-002   2.5392742646437261E-002   1.4993103459390783E-002
  -8.1652233059163470E-002   2.4579947212923392E-002   1.4765206343941628E-002
  -7.8773860851011082E-002   2.3763333521494803E-002   1.4779952713142336E-002
  -7.5895488642858805E-002   2.2942901572151647E-002   1.5037342566992587E-002
  -9.3977482585242023E-002   2.7984467356919396E-002   9.8997872700938225E-003
  -9.0816937925421060E-002   2.7169816067596414E-002   9.0482390022886064E-003
  -8.7656393265599902E-002   2.6330392070795183E-002   8.5183921531712323E-003
  -8.4495848605778912E-002   2.5466195366515655E-002   8.3102467227416758E-003
  -8.1335303945957782E-002   2.4577225954757934E-002   8.4238027109998122E-003
 -0.10095222884704524        2.9767214891802118E-002   4.3407335917564627E-003
  -9.7430453801517269E-002   2.8946889488755567E-002   3.0872232066810890E-003
  -9.3908678755989294E-002   2.8080836928666947E-002   2.2344721743317031E-003
  -9.0386903710461264E-002   2.7169057211536625E-002   1.7824804947081940E-003
  -8.6865128664933344E-002   2.6211550337364664E-002   1.7312481678110059E-003
  -6.5285886284290495E-002   1.9674252806938741E-002   2.8027378217389598E-002
  -6.3115702658405284E-002   1.9000443115152615E-002   2.7957453866298887E-002
  -6.0945519032520074E-002   1.8307637447610395E-002   2.8024934271860896E-002
  -5.8775335406634863E-002   1.7595835804312555E-002   2.8229819434075404E-002
  -5.6605151780749624E-002   1.6865038185258752E-002   2.8572109352942687E-002
  -7.0545682755636344E-002   2.1308577189545153E-002   2.1571867735789202E-002
  -6.8230258472274541E-002   2.0561149297195283E-002   2.1406170380522491E-002
  -6.5914834188912669E-002   1.9805518402354644E-002   2.1393549583556451E-002
  -6.3599409905550811E-002   1.9041684505023269E-002   2.1534005344890916E-002
  -6.1283985622188994E-002   1.8269647605201111E-002   2.1827537664526026E-002
  -7.5895488642858805E-002   2.2942901572151647E-002   1.5037342566992587E-002
  -7.3419151900372431E-002   2.2121855479238131E-002   1.4786665180815034E-002
  -7.0942815157885947E-002   2.1303399357098997E-002   1.4704736154586076E-002
  -6.8466478415399559E-002   2.0487533205734092E-002   1.4791555488305543E-002
  -6.5990141672913102E-002   1.9674257025143416E-002   1.5047123181973446E-002
  -8.1335303945957782E-002   2.4577225954757934E-002   8.4238027109998122E-003
  -7.8682382942698872E-002   2.3682561661281139E-002   8.0989382671762845E-003
  -7.6029461939440032E-002   2.2801280311843131E-002   7.9584939849496657E-003
  -7.3376540936181178E-002   2.1933381906445028E-002   8.0024698643191630E-003
  -7.0723619932922255E-002   2.1078866445085637E-002   8.2308659052849481E-003
  -8.6865128664933344E-002   2.6211550337364664E-002   1.7312481678110059E-003
  -8.4019951599254128E-002   2.5243267843323702E-002   1.3429896396068841E-003
  -8.1174774533574801E-002   2.4299161266587405E-002   1.1548230746470933E-003
  -7.8329597467895556E-002   2.3379230607155611E-002   1.1667484729316335E-003
  -7.5484420402216257E-002   2.2483475865028080E-002   1.3787658344606157E-003
  -5.6605151780749624E-002   1.6865038185258752E-002   2.8572109352942687E-002
  -5.4130896087811242E-002   1.6129398693198516E-002   2.8247056185691399E-002
  -5.1656640394872916E-002   1.5403071430881154E-002   2.8098209372610150E-002
  -4.9182384701934562E-002   1.4686056398306668E-002   2.8125568913699120E-002
  -4.6708129008996208E-002   1.3978353595474946E-002   2.8329134808958156E-002
  -6.1283985622188994E-002   1.8269647605201111E-002   2.1827537664526026E-002
  -5.8628435507997054E-002   1.7495446241533957E-002   2.1486843507345116E-002
  -5.5972885393805134E-002   1.6725118952667928E-002   2.1332531838501145E-002
  -5.3317335279613257E-002   1.5958665738603134E-002   2.1364602657994253E-002
  -5.0661785165421330E-002   1.5196086599338909E-002   2.1583055965823994E-002
  -6.5990141672913102E-002   1.9674257025143416E-002   1.5047123181973446E-002
  -6.3143121003300967E-002   1.8861493789869455E-002   1.4685349879921095E-002
  -6.0296100333688728E-002   1.8047166474454646E-002   1.4520135200372646E-002
  -5.7449079664076461E-002   1.7231275078899211E-002   1.4551479143327654E-002
  -5.4602058994464291E-002   1.6413819603202873E-002   1.4779381708786427E-002
  -7.0723619932922255E-002   2.1078866445085637E-002   8.2308659052849481E-003
  -6.7674952573722927E-002   2.0227541338205118E-002   7.8425753034193704E-003
  -6.4626285214523640E-002   1.9369213996241391E-002   7.6610194582244391E-003
  -6.1577617855324306E-002   1.8503884419195538E-002   7.6861983696997691E-003
  -5.8528950496125040E-002   1.7631552607066725E-002   7.9181120378458633E-003
  -7.5484420402216257E-002   2.2483475865028080E-002   1.3787658344606157E-003
  -7.2223930219263099E-002   2.1593588886540338E-002   9.5851977783989462E-004
  -6.8963440036309887E-002   2.0691261518028359E-002   7.5518461205623111E-004
  -6.5702949853356646E-002   1.9776493759491920E-002   7.6876033711045094E-004
  -6.2442459670403516E-002   1.8849285610930577E-002   9.9924695300135369E-004
  -4.6708129008996208E-002   1.3978353595474946E-002   2.8329134808958156E-002
  -4.4435994106408444E-002   1.3263675363597183E-002   2.7938295299858362E-002
  -4.2163859203820778E-002   1.2525734043884490E-002   2.7680204544155318E-002
  -3.9891724301233049E-002   1.1764529636336292E-002   2.7554862541848690E-002
  -3.7619589398645348E-002   1.0980062140952929E-002   2.7562269292939034E-002
  -5.0661785165421330E-002   1.5196086599338909E-002   2.1583055965823994E-002
  -4.8252104659705142E-002   1.4430871477319862E-002   2.1194191069764973E-002
  -4.5842424153988967E-002   1.3656510314989240E-002   2.0947668626566357E-002
  -4.3432743648272813E-002   1.2873003112347646E-002   2.0843488636227966E-002
  -4.1023063142556604E-002   1.2080349869394658E-002   2.0881651098749732E-002
  -5.4602058994464291E-002   1.6413819603202873E-002   1.4779381708786427E-002
  -5.2045239186155952E-002   1.5598067591042264E-002   1.4406608473292171E-002
  -4.9488419377847676E-002   1.4787286586094309E-002   1.4185771390121768E-002
  -4.6931599569539365E-002   1.3981476588358941E-002   1.4116870459275233E-002
  -4.4374779761231053E-002   1.3180637597836109E-002   1.4199905680752828E-002
  -5.8528950496125040E-002   1.7631552607066725E-002   7.9181120378458633E-003
  -5.5815397685760923E-002   1.6765263704764971E-002   7.5755475104399041E-003
  -5.3101844875396868E-002   1.5918062857199440E-002   7.3945128348218876E-003
  -5.0388292065032793E-002   1.5089950064370432E-002   7.3750080109909483E-003
  -4.7674739254668697E-002   1.4280925326277810E-002   7.5170330389479692E-003
  -6.2442459670403516E-002   1.8849285610930577E-002   9.9924695300135369E-004
  -5.9562580158520007E-002   1.7932459818487345E-002   7.0100818120810704E-004
  -5.6682700646636552E-002   1.7048839128303905E-002   5.7389296066615025E-004
  -5.3802821134753070E-002   1.6198423540381535E-002   6.1790129137499067E-004
  -5.0922941622869589E-002   1.5381213054719511E-002   8.3303317333538462E-004
  -3.7619589398645348E-002   1.0980062140952929E-002   2.7562269292939034E-002
  -3.5227855295560939E-002   1.0198387249833130E-002   2.7058532207545616E-002
  -3.2836121192476531E-002   9.4455606550761517E-003   2.6670829377057115E-002
  -3.0444387089392122E-002   8.7215823566819325E-003   2.6399160801473170E-002
  -2.8052652986307713E-002   8.0264523546503819E-003   2.6243526480793866E-002
  -4.1023063142556604E-002   1.2080349869394658E-002   2.0881651098749732E-002
  -3.8520736304693298E-002   1.1290522920999024E-002   2.0446053081362270E-002
  -3.6018409466829937E-002   1.0515494602030273E-002   2.0115606278628101E-002
  -3.3516082628966659E-002   9.7552649124882651E-003   1.9890310690546892E-002
  -3.1013755791103326E-002   9.0098338523727506E-003   1.9770166317119309E-002
  -4.4374779761231053E-002   1.3180637597836109E-002   1.4199905680752828E-002
  -4.1772743228840253E-002   1.2382658592164864E-002   1.3818397064435051E-002
  -3.9170706696449398E-002   1.1585428548984186E-002   1.3531156622518956E-002
  -3.6568670164058556E-002   1.0788947468294268E-002   1.3338184355004799E-002
  -3.3966633631667700E-002   9.9932153500947307E-003   1.3239480261892367E-002
  -4.7674739254668697E-002   1.4280925326277810E-002   7.5170330389479692E-003
  -4.4983876068001756E-002   1.3474794263330675E-002   7.1755641567640208E-003
  -4.2293012881334871E-002   1.2655362495938426E-002   6.9174804087300777E-003
  -3.9602149694667965E-002   1.1822630024100158E-002   6.7427817948468843E-003
  -3.6911286508001045E-002   1.0976596847817183E-002   6.6514683151139911E-003
  -5.0922941622869589E-002   1.5381213054719511E-002   8.3303317333538462E-004
  -4.8154134822178007E-002   1.4566929934496708E-002   5.1755435834877073E-004
  -4.5385328021486371E-002   1.3725296442892609E-002   2.7457763726154716E-004
  -4.2616521220794790E-002   1.2856312579906645E-002   1.0410301007298534E-004
  -3.9847714420103153E-002   1.1959978345539302E-002   6.1304767835501650E-006
  -2.8052652986307713E-002   8.0264523546503819E-003   2.6243526480793866E-002
  -2.5709083035082625E-002   7.3152373425992567E-003   2.5661107256563342E-002
  -2.3365513083857536E-002   6.5430040141459256E-003   2.5026031972692819E-002
  -2.1021943132632448E-002   5.7097523692900137E-003   2.4338300629182519E-002
  -1.8678373181407359E-002   4.8154824080325342E-003   2.3597913226032108E-002
  -3.1013755791103326E-002   9.0098338523727506E-003   1.9770166317119309E-002
  -2.8705662224433104E-002   8.2689771567552306E-003   1.9179817623788620E-002
  -2.6397568657762965E-002   7.5224705607083164E-003   1.8571172220988003E-002
  -2.4089475091092882E-002   6.7703140642312865E-003   1.7944230108717527E-002
  -2.1781381524422716E-002   6.0125076673240851E-003   1.7298991286976872E-002
  -3.3966633631667700E-002   9.9932153500947307E-003   1.3239480261892367E-002
  -3.1659657099382635E-002   9.2227169709121204E-003   1.2696570515434047E-002
  -2.9352680567097542E-002   8.5019371072709016E-003   1.2169723409675703E-002
  -2.7045704034812428E-002   7.8308757591723302E-003   1.1658938944617281E-002
  -2.4738727502527383E-002   7.2095329266159136E-003   1.1164217120258502E-002
  -3.6911286508001045E-002   1.0976596847817183E-002   6.6514683151139911E-003
  -3.4571067659931121E-002   1.0176456785067997E-002   6.2113659314998737E-003
  -3.2230848811861168E-002   9.4814036538341112E-003   5.8216855387555957E-003
  -2.9890629963791208E-002   8.8914374541137105E-003   5.4824271368814625E-003
  -2.7550411115721294E-002   8.4065581859078808E-003   5.1935907258767941E-003
  -3.9847714420103153E-002   1.1959978345539302E-002   6.1304767835501650E-006
  -3.7439893906078492E-002   1.1130196599224651E-002  -2.7579612801398312E-004
  -3.5032073392053831E-002   1.0460870200395989E-002  -4.7294139177178618E-004
  -3.2624252878029114E-002   9.9519991490545634E-003  -5.8530531448949819E-004
  -3.0216432364004508E-002   9.6035834451992930E-003  -6.1288789616842365E-004
  -1.8678373181407359E-002   4.8154824080325342E-003   2.3597913226032108E-002
  -1.5654787183559782E-002   4.0809874424175274E-003   2.4387957335674004E-002
  -1.2631201185712232E-002   3.7270607844902270E-003   2.5651063081646108E-002
  -9.6076151878646682E-003   3.7537024342510147E-003   2.7387230463948531E-002
  -6.5840291900171044E-003   4.1609123916992452E-003   2.9596459482581050E-002
  -2.1781381524422716E-002   6.0125076673240851E-003   1.7298991286976872E-002
  -1.8553898966275281E-002   5.3438820453032276E-003   1.8247822564444349E-002
  -1.5326416408127930E-002   4.8592678734846184E-003   1.9131385326181000E-002
  -1.2098933849980606E-002   4.5586651518687432E-003   1.9949679572187087E-002
  -8.8714512918331434E-003   4.4420738804553661E-003   2.0702705302462654E-002
  -2.4738727502527383E-002   7.2095329266159136E-003   1.1164217120258502E-002
  -2.1845678536140931E-002   6.6067766481889001E-003   1.2075278708065823E-002
  -1.8952629569754541E-002   5.9914749624795788E-003   1.2382741628082047E-002
  -1.6059580603368120E-002   5.3636278694866972E-003   1.2086605880306418E-002
  -1.3166531636981643E-002   4.7232353692117091E-003   1.1186871464739900E-002
  -2.7550411115721294E-002   8.4065581859078808E-003   5.1935907258767941E-003
  -2.5530125893156671E-002   7.8696712510745864E-003   5.8703257665389738E-003
  -2.3509840670591968E-002   7.1236820514740881E-003   5.4051319873489843E-003
  -2.1489555448027348E-002   6.1685905871045384E-003   3.7980093883068968E-003
  -1.9469270225462638E-002   5.0043968579679410E-003   1.0489579694127615E-003
  -3.0216432364004508E-002   9.6035834451992930E-003  -6.1288789616842365E-004
  -2.9607241037322374E-002   9.1325658539603838E-003  -3.6703626013712132E-004
  -2.8998049710640295E-002   8.2558891404683754E-003  -1.8014435960178599E-003
  -2.8388858383958188E-002   6.9735533047226850E-003  -4.9161099038126377E-003
  -2.7779667057276081E-002   5.2855583467239509E-003  -9.7110351835192343E-003
  -6.5840291900171044E-003   4.1609123916992452E-003   2.9596459482581050E-002
  -6.0561750732100184E-003   6.1431905166267065E-003   3.4074434388398966E-002
  -5.5283209564028768E-003   1.0895036668824021E-002   3.9237508455235215E-002
  -5.0004668395957352E-003   1.8416450848290730E-002   4.5085681683089462E-002
  -4.4726127227886492E-003   2.8707433055028542E-002   5.1618954071961820E-002
  -8.8714512918331434E-003   4.4420738804553661E-003   2.0702705302462654E-002
  -7.5861112273946790E-003   5.6591854763105576E-003   2.5871889907364276E-002
  -6.3007711629563257E-003   9.3596913565012763E-003   3.1870947246510350E-002
  -5.0154310985175976E-003   1.5543591521026690E-002   3.8699877319900905E-002
  -3.7300910340793969E-003   2.4210885969887741E-002   4.6358680127536189E-002
  -1.3166531636981643E-002   4.7232353692117091E-003   1.1186871464739900E-002
  -1.0978932051685396E-002   5.1751804359942977E-003   1.6761092025789903E-002
  -8.7913324663890097E-003   7.8243460441784485E-003   2.3309958894311172E-002
  -6.6037328810926929E-003   1.2670732193762600E-002   3.0833472070303139E-002
  -4.4161332957962651E-003   1.9714338884746718E-002   3.9331631553766955E-002
  -1.9469270225462638E-002   5.0043968579679410E-003   1.0489579694127615E-003
  -1.6234637546081988E-002   4.6911753956794255E-003   6.7420407436762086E-003
  -1.3000004866701224E-002   6.2890007318553293E-003   1.3554543398637549E-002
  -9.7653721873205857E-003   9.7978728664980912E-003   2.1486465934296508E-002
  -6.5307395079398090E-003   1.5217791799605696E-002   3.0537808350653201E-002
  -2.7779667057276081E-002   5.2855583467239509E-003  -9.7110351835192343E-003
  -2.3353227710584568E-002   4.2071703553627771E-003  -4.1852639389770019E-003
  -1.8926788363892944E-002   4.7536554195330427E-003   2.6047007594899307E-003
  -1.4500349017201375E-002   6.9250135392336237E-003   1.0658858911880870E-002
  -1.0073909670509806E-002   1.0721244714464895E-002   1.9977210518195454E-002
 </DataArray>
 </PointData>
 </Piece>
 </UnstructuredGrid>
 </VTKFile>
