 <VTKFile type="UnstructuredGrid"  version="0.1"   >
 <UnstructuredGrid>
 <Piece  NumberOfPoints="          1600 "  NumberOfCells="         1024 ">
 <Points>
 <DataArray  type="Float64" NumberOfComponents="3"  format="ascii" >
   0.0000000000000000        0.0000000000000000        0.0000000000000000     
   3.1250000000000000E-002   0.0000000000000000        0.0000000000000000     
   6.2500000000000000E-002   0.0000000000000000        0.0000000000000000     
   9.3750000000000000E-002   0.0000000000000000        0.0000000000000000     
  0.12500000000000000        0.0000000000000000        0.0000000000000000     
   0.0000000000000000        3.1250000000000000E-002   0.0000000000000000     
   3.1250000000000000E-002   3.1250000000000000E-002   0.0000000000000000     
   6.2500000000000000E-002   3.1250000000000000E-002   0.0000000000000000     
   9.3750000000000000E-002   3.1250000000000000E-002   0.0000000000000000     
  0.12500000000000000        3.1250000000000000E-002   0.0000000000000000     
   0.0000000000000000        6.2500000000000000E-002   0.0000000000000000     
   3.1250000000000000E-002   6.2500000000000000E-002   0.0000000000000000     
   6.2500000000000000E-002   6.2500000000000000E-002   0.0000000000000000     
   9.3750000000000000E-002   6.2500000000000000E-002   0.0000000000000000     
  0.12500000000000000        6.2500000000000000E-002   0.0000000000000000     
   0.0000000000000000        9.3750000000000000E-002   0.0000000000000000     
   3.1250000000000000E-002   9.3750000000000000E-002   0.0000000000000000     
   6.2500000000000000E-002   9.3750000000000000E-002   0.0000000000000000     
   9.3750000000000000E-002   9.3750000000000000E-002   0.0000000000000000     
  0.12500000000000000        9.3750000000000000E-002   0.0000000000000000     
   0.0000000000000000       0.12500000000000000        0.0000000000000000     
   3.1250000000000000E-002  0.12500000000000000        0.0000000000000000     
   6.2500000000000000E-002  0.12500000000000000        0.0000000000000000     
   9.3750000000000000E-002  0.12500000000000000        0.0000000000000000     
  0.12500000000000000       0.12500000000000000        0.0000000000000000     
  0.12500000000000000        0.0000000000000000        0.0000000000000000     
  0.15625000000000000        0.0000000000000000        0.0000000000000000     
  0.18750000000000000        0.0000000000000000        0.0000000000000000     
  0.21875000000000000        0.0000000000000000        0.0000000000000000     
  0.25000000000000000        0.0000000000000000        0.0000000000000000     
  0.12500000000000000        3.1250000000000000E-002   0.0000000000000000     
  0.15625000000000000        3.1250000000000000E-002   0.0000000000000000     
  0.18750000000000000        3.1250000000000000E-002   0.0000000000000000     
  0.21875000000000000        3.1250000000000000E-002   0.0000000000000000     
  0.25000000000000000        3.1250000000000000E-002   0.0000000000000000     
  0.12500000000000000        6.2500000000000000E-002   0.0000000000000000     
  0.15625000000000000        6.2500000000000000E-002   0.0000000000000000     
  0.18750000000000000        6.2500000000000000E-002   0.0000000000000000     
  0.21875000000000000        6.2500000000000000E-002   0.0000000000000000     
  0.25000000000000000        6.2500000000000000E-002   0.0000000000000000     
  0.12500000000000000        9.3750000000000000E-002   0.0000000000000000     
  0.15625000000000000        9.3750000000000000E-002   0.0000000000000000     
  0.18750000000000000        9.3750000000000000E-002   0.0000000000000000     
  0.21875000000000000        9.3750000000000000E-002   0.0000000000000000     
  0.25000000000000000        9.3750000000000000E-002   0.0000000000000000     
  0.12500000000000000       0.12500000000000000        0.0000000000000000     
  0.15625000000000000       0.12500000000000000        0.0000000000000000     
  0.18750000000000000       0.12500000000000000        0.0000000000000000     
  0.21875000000000000       0.12500000000000000        0.0000000000000000     
  0.25000000000000000       0.12500000000000000        0.0000000000000000     
  0.25000000000000000        0.0000000000000000        0.0000000000000000     
  0.28125000000000000        0.0000000000000000        0.0000000000000000     
  0.31250000000000000        0.0000000000000000        0.0000000000000000     
  0.34375000000000000        0.0000000000000000        0.0000000000000000     
  0.37500000000000000        0.0000000000000000        0.0000000000000000     
  0.25000000000000000        3.1250000000000000E-002   0.0000000000000000     
  0.28125000000000000        3.1250000000000000E-002   0.0000000000000000     
  0.31250000000000000        3.1250000000000000E-002   0.0000000000000000     
  0.34375000000000000        3.1250000000000000E-002   0.0000000000000000     
  0.37500000000000000        3.1250000000000000E-002   0.0000000000000000     
  0.25000000000000000        6.2500000000000000E-002   0.0000000000000000     
  0.28125000000000000        6.2500000000000000E-002   0.0000000000000000     
  0.31250000000000000        6.2500000000000000E-002   0.0000000000000000     
  0.34375000000000000        6.2500000000000000E-002   0.0000000000000000     
  0.37500000000000000        6.2500000000000000E-002   0.0000000000000000     
  0.25000000000000000        9.3750000000000000E-002   0.0000000000000000     
  0.28125000000000000        9.3750000000000000E-002   0.0000000000000000     
  0.31250000000000000        9.3750000000000000E-002   0.0000000000000000     
  0.34375000000000000        9.3750000000000000E-002   0.0000000000000000     
  0.37500000000000000        9.3750000000000000E-002   0.0000000000000000     
  0.25000000000000000       0.12500000000000000        0.0000000000000000     
  0.28125000000000000       0.12500000000000000        0.0000000000000000     
  0.31250000000000000       0.12500000000000000        0.0000000000000000     
  0.34375000000000000       0.12500000000000000        0.0000000000000000     
  0.37500000000000000       0.12500000000000000        0.0000000000000000     
  0.37500000000000000        0.0000000000000000        0.0000000000000000     
  0.40625000000000000        0.0000000000000000        0.0000000000000000     
  0.43750000000000000        0.0000000000000000        0.0000000000000000     
  0.46875000000000000        0.0000000000000000        0.0000000000000000     
  0.50000000000000000        0.0000000000000000        0.0000000000000000     
  0.37500000000000000        3.1250000000000000E-002   0.0000000000000000     
  0.40625000000000000        3.1250000000000000E-002   0.0000000000000000     
  0.43750000000000000        3.1250000000000000E-002   0.0000000000000000     
  0.46875000000000000        3.1250000000000000E-002   0.0000000000000000     
  0.50000000000000000        3.1250000000000000E-002   0.0000000000000000     
  0.37500000000000000        6.2500000000000000E-002   0.0000000000000000     
  0.40625000000000000        6.2500000000000000E-002   0.0000000000000000     
  0.43750000000000000        6.2500000000000000E-002   0.0000000000000000     
  0.46875000000000000        6.2500000000000000E-002   0.0000000000000000     
  0.50000000000000000        6.2500000000000000E-002   0.0000000000000000     
  0.37500000000000000        9.3750000000000000E-002   0.0000000000000000     
  0.40625000000000000        9.3750000000000000E-002   0.0000000000000000     
  0.43750000000000000        9.3750000000000000E-002   0.0000000000000000     
  0.46875000000000000        9.3750000000000000E-002   0.0000000000000000     
  0.50000000000000000        9.3750000000000000E-002   0.0000000000000000     
  0.37500000000000000       0.12500000000000000        0.0000000000000000     
  0.40625000000000000       0.12500000000000000        0.0000000000000000     
  0.43750000000000000       0.12500000000000000        0.0000000000000000     
  0.46875000000000000       0.12500000000000000        0.0000000000000000     
  0.50000000000000000       0.12500000000000000        0.0000000000000000     
  0.50000000000000000        0.0000000000000000        0.0000000000000000     
  0.53125000000000000        0.0000000000000000        0.0000000000000000     
  0.56250000000000000        0.0000000000000000        0.0000000000000000     
  0.59375000000000000        0.0000000000000000        0.0000000000000000     
  0.62500000000000000        0.0000000000000000        0.0000000000000000     
  0.50000000000000000        3.1250000000000000E-002   0.0000000000000000     
  0.53125000000000000        3.1250000000000000E-002   0.0000000000000000     
  0.56250000000000000        3.1250000000000000E-002   0.0000000000000000     
  0.59375000000000000        3.1250000000000000E-002   0.0000000000000000     
  0.62500000000000000        3.1250000000000000E-002   0.0000000000000000     
  0.50000000000000000        6.2500000000000000E-002   0.0000000000000000     
  0.53125000000000000        6.2500000000000000E-002   0.0000000000000000     
  0.56250000000000000        6.2500000000000000E-002   0.0000000000000000     
  0.59375000000000000        6.2500000000000000E-002   0.0000000000000000     
  0.62500000000000000        6.2500000000000000E-002   0.0000000000000000     
  0.50000000000000000        9.3750000000000000E-002   0.0000000000000000     
  0.53125000000000000        9.3750000000000000E-002   0.0000000000000000     
  0.56250000000000000        9.3750000000000000E-002   0.0000000000000000     
  0.59375000000000000        9.3750000000000000E-002   0.0000000000000000     
  0.62500000000000000        9.3750000000000000E-002   0.0000000000000000     
  0.50000000000000000       0.12500000000000000        0.0000000000000000     
  0.53125000000000000       0.12500000000000000        0.0000000000000000     
  0.56250000000000000       0.12500000000000000        0.0000000000000000     
  0.59375000000000000       0.12500000000000000        0.0000000000000000     
  0.62500000000000000       0.12500000000000000        0.0000000000000000     
  0.62500000000000000        0.0000000000000000        0.0000000000000000     
  0.65625000000000000        0.0000000000000000        0.0000000000000000     
  0.68750000000000000        0.0000000000000000        0.0000000000000000     
  0.71875000000000000        0.0000000000000000        0.0000000000000000     
  0.75000000000000000        0.0000000000000000        0.0000000000000000     
  0.62500000000000000        3.1250000000000000E-002   0.0000000000000000     
  0.65625000000000000        3.1250000000000000E-002   0.0000000000000000     
  0.68750000000000000        3.1250000000000000E-002   0.0000000000000000     
  0.71875000000000000        3.1250000000000000E-002   0.0000000000000000     
  0.75000000000000000        3.1250000000000000E-002   0.0000000000000000     
  0.62500000000000000        6.2500000000000000E-002   0.0000000000000000     
  0.65625000000000000        6.2500000000000000E-002   0.0000000000000000     
  0.68750000000000000        6.2500000000000000E-002   0.0000000000000000     
  0.71875000000000000        6.2500000000000000E-002   0.0000000000000000     
  0.75000000000000000        6.2500000000000000E-002   0.0000000000000000     
  0.62500000000000000        9.3750000000000000E-002   0.0000000000000000     
  0.65625000000000000        9.3750000000000000E-002   0.0000000000000000     
  0.68750000000000000        9.3750000000000000E-002   0.0000000000000000     
  0.71875000000000000        9.3750000000000000E-002   0.0000000000000000     
  0.75000000000000000        9.3750000000000000E-002   0.0000000000000000     
  0.62500000000000000       0.12500000000000000        0.0000000000000000     
  0.65625000000000000       0.12500000000000000        0.0000000000000000     
  0.68750000000000000       0.12500000000000000        0.0000000000000000     
  0.71875000000000000       0.12500000000000000        0.0000000000000000     
  0.75000000000000000       0.12500000000000000        0.0000000000000000     
  0.75000000000000000        0.0000000000000000        0.0000000000000000     
  0.78125000000000000        0.0000000000000000        0.0000000000000000     
  0.81250000000000000        0.0000000000000000        0.0000000000000000     
  0.84375000000000000        0.0000000000000000        0.0000000000000000     
  0.87500000000000000        0.0000000000000000        0.0000000000000000     
  0.75000000000000000        3.1250000000000000E-002   0.0000000000000000     
  0.78125000000000000        3.1250000000000000E-002   0.0000000000000000     
  0.81250000000000000        3.1250000000000000E-002   0.0000000000000000     
  0.84375000000000000        3.1250000000000000E-002   0.0000000000000000     
  0.87500000000000000        3.1250000000000000E-002   0.0000000000000000     
  0.75000000000000000        6.2500000000000000E-002   0.0000000000000000     
  0.78125000000000000        6.2500000000000000E-002   0.0000000000000000     
  0.81250000000000000        6.2500000000000000E-002   0.0000000000000000     
  0.84375000000000000        6.2500000000000000E-002   0.0000000000000000     
  0.87500000000000000        6.2500000000000000E-002   0.0000000000000000     
  0.75000000000000000        9.3750000000000000E-002   0.0000000000000000     
  0.78125000000000000        9.3750000000000000E-002   0.0000000000000000     
  0.81250000000000000        9.3750000000000000E-002   0.0000000000000000     
  0.84375000000000000        9.3750000000000000E-002   0.0000000000000000     
  0.87500000000000000        9.3750000000000000E-002   0.0000000000000000     
  0.75000000000000000       0.12500000000000000        0.0000000000000000     
  0.78125000000000000       0.12500000000000000        0.0000000000000000     
  0.81250000000000000       0.12500000000000000        0.0000000000000000     
  0.84375000000000000       0.12500000000000000        0.0000000000000000     
  0.87500000000000000       0.12500000000000000        0.0000000000000000     
  0.87500000000000000        0.0000000000000000        0.0000000000000000     
  0.90625000000000000        0.0000000000000000        0.0000000000000000     
  0.93750000000000000        0.0000000000000000        0.0000000000000000     
  0.96875000000000000        0.0000000000000000        0.0000000000000000     
   1.0000000000000000        0.0000000000000000        0.0000000000000000     
  0.87500000000000000        3.1250000000000000E-002   0.0000000000000000     
  0.90625000000000000        3.1250000000000000E-002   0.0000000000000000     
  0.93750000000000000        3.1250000000000000E-002   0.0000000000000000     
  0.96875000000000000        3.1250000000000000E-002   0.0000000000000000     
   1.0000000000000000        3.1250000000000000E-002   0.0000000000000000     
  0.87500000000000000        6.2500000000000000E-002   0.0000000000000000     
  0.90625000000000000        6.2500000000000000E-002   0.0000000000000000     
  0.93750000000000000        6.2500000000000000E-002   0.0000000000000000     
  0.96875000000000000        6.2500000000000000E-002   0.0000000000000000     
   1.0000000000000000        6.2500000000000000E-002   0.0000000000000000     
  0.87500000000000000        9.3750000000000000E-002   0.0000000000000000     
  0.90625000000000000        9.3750000000000000E-002   0.0000000000000000     
  0.93750000000000000        9.3750000000000000E-002   0.0000000000000000     
  0.96875000000000000        9.3750000000000000E-002   0.0000000000000000     
   1.0000000000000000        9.3750000000000000E-002   0.0000000000000000     
  0.87500000000000000       0.12500000000000000        0.0000000000000000     
  0.90625000000000000       0.12500000000000000        0.0000000000000000     
  0.93750000000000000       0.12500000000000000        0.0000000000000000     
  0.96875000000000000       0.12500000000000000        0.0000000000000000     
   1.0000000000000000       0.12500000000000000        0.0000000000000000     
   0.0000000000000000       0.12500000000000000        0.0000000000000000     
   3.1250000000000000E-002  0.12500000000000000        0.0000000000000000     
   6.2500000000000000E-002  0.12500000000000000        0.0000000000000000     
   9.3750000000000000E-002  0.12500000000000000        0.0000000000000000     
  0.12500000000000000       0.12500000000000000        0.0000000000000000     
   0.0000000000000000       0.15625000000000000        0.0000000000000000     
   3.1250000000000000E-002  0.15625000000000000        0.0000000000000000     
   6.2500000000000000E-002  0.15625000000000000        0.0000000000000000     
   9.3750000000000000E-002  0.15625000000000000        0.0000000000000000     
  0.12500000000000000       0.15625000000000000        0.0000000000000000     
   0.0000000000000000       0.18750000000000000        0.0000000000000000     
   3.1250000000000000E-002  0.18750000000000000        0.0000000000000000     
   6.2500000000000000E-002  0.18750000000000000        0.0000000000000000     
   9.3750000000000000E-002  0.18750000000000000        0.0000000000000000     
  0.12500000000000000       0.18750000000000000        0.0000000000000000     
   0.0000000000000000       0.21875000000000000        0.0000000000000000     
   3.1250000000000000E-002  0.21875000000000000        0.0000000000000000     
   6.2500000000000000E-002  0.21875000000000000        0.0000000000000000     
   9.3750000000000000E-002  0.21875000000000000        0.0000000000000000     
  0.12500000000000000       0.21875000000000000        0.0000000000000000     
   0.0000000000000000       0.25000000000000000        0.0000000000000000     
   3.1250000000000000E-002  0.25000000000000000        0.0000000000000000     
   6.2500000000000000E-002  0.25000000000000000        0.0000000000000000     
   9.3750000000000000E-002  0.25000000000000000        0.0000000000000000     
  0.12500000000000000       0.25000000000000000        0.0000000000000000     
  0.12500000000000000       0.12500000000000000        0.0000000000000000     
  0.15625000000000000       0.12500000000000000        0.0000000000000000     
  0.18750000000000000       0.12500000000000000        0.0000000000000000     
  0.21875000000000000       0.12500000000000000        0.0000000000000000     
  0.25000000000000000       0.12500000000000000        0.0000000000000000     
  0.12500000000000000       0.15625000000000000        0.0000000000000000     
  0.15625000000000000       0.15625000000000000        0.0000000000000000     
  0.18750000000000000       0.15625000000000000        0.0000000000000000     
  0.21875000000000000       0.15625000000000000        0.0000000000000000     
  0.25000000000000000       0.15625000000000000        0.0000000000000000     
  0.12500000000000000       0.18750000000000000        0.0000000000000000     
  0.15625000000000000       0.18750000000000000        0.0000000000000000     
  0.18750000000000000       0.18750000000000000        0.0000000000000000     
  0.21875000000000000       0.18750000000000000        0.0000000000000000     
  0.25000000000000000       0.18750000000000000        0.0000000000000000     
  0.12500000000000000       0.21875000000000000        0.0000000000000000     
  0.15625000000000000       0.21875000000000000        0.0000000000000000     
  0.18750000000000000       0.21875000000000000        0.0000000000000000     
  0.21875000000000000       0.21875000000000000        0.0000000000000000     
  0.25000000000000000       0.21875000000000000        0.0000000000000000     
  0.12500000000000000       0.25000000000000000        0.0000000000000000     
  0.15625000000000000       0.25000000000000000        0.0000000000000000     
  0.18750000000000000       0.25000000000000000        0.0000000000000000     
  0.21875000000000000       0.25000000000000000        0.0000000000000000     
  0.25000000000000000       0.25000000000000000        0.0000000000000000     
  0.25000000000000000       0.12500000000000000        0.0000000000000000     
  0.28125000000000000       0.12500000000000000        0.0000000000000000     
  0.31250000000000000       0.12500000000000000        0.0000000000000000     
  0.34375000000000000       0.12500000000000000        0.0000000000000000     
  0.37500000000000000       0.12500000000000000        0.0000000000000000     
  0.25000000000000000       0.15625000000000000        0.0000000000000000     
  0.28125000000000000       0.15625000000000000        0.0000000000000000     
  0.31250000000000000       0.15625000000000000        0.0000000000000000     
  0.34375000000000000       0.15625000000000000        0.0000000000000000     
  0.37500000000000000       0.15625000000000000        0.0000000000000000     
  0.25000000000000000       0.18750000000000000        0.0000000000000000     
  0.28125000000000000       0.18750000000000000        0.0000000000000000     
  0.31250000000000000       0.18750000000000000        0.0000000000000000     
  0.34375000000000000       0.18750000000000000        0.0000000000000000     
  0.37500000000000000       0.18750000000000000        0.0000000000000000     
  0.25000000000000000       0.21875000000000000        0.0000000000000000     
  0.28125000000000000       0.21875000000000000        0.0000000000000000     
  0.31250000000000000       0.21875000000000000        0.0000000000000000     
  0.34375000000000000       0.21875000000000000        0.0000000000000000     
  0.37500000000000000       0.21875000000000000        0.0000000000000000     
  0.25000000000000000       0.25000000000000000        0.0000000000000000     
  0.28125000000000000       0.25000000000000000        0.0000000000000000     
  0.31250000000000000       0.25000000000000000        0.0000000000000000     
  0.34375000000000000       0.25000000000000000        0.0000000000000000     
  0.37500000000000000       0.25000000000000000        0.0000000000000000     
  0.37500000000000000       0.12500000000000000        0.0000000000000000     
  0.40625000000000000       0.12500000000000000        0.0000000000000000     
  0.43750000000000000       0.12500000000000000        0.0000000000000000     
  0.46875000000000000       0.12500000000000000        0.0000000000000000     
  0.50000000000000000       0.12500000000000000        0.0000000000000000     
  0.37500000000000000       0.15625000000000000        0.0000000000000000     
  0.40625000000000000       0.15625000000000000        0.0000000000000000     
  0.43750000000000000       0.15625000000000000        0.0000000000000000     
  0.46875000000000000       0.15625000000000000        0.0000000000000000     
  0.50000000000000000       0.15625000000000000        0.0000000000000000     
  0.37500000000000000       0.18750000000000000        0.0000000000000000     
  0.40625000000000000       0.18750000000000000        0.0000000000000000     
  0.43750000000000000       0.18750000000000000        0.0000000000000000     
  0.46875000000000000       0.18750000000000000        0.0000000000000000     
  0.50000000000000000       0.18750000000000000        0.0000000000000000     
  0.37500000000000000       0.21875000000000000        0.0000000000000000     
  0.40625000000000000       0.21875000000000000        0.0000000000000000     
  0.43750000000000000       0.21875000000000000        0.0000000000000000     
  0.46875000000000000       0.21875000000000000        0.0000000000000000     
  0.50000000000000000       0.21875000000000000        0.0000000000000000     
  0.37500000000000000       0.25000000000000000        0.0000000000000000     
  0.40625000000000000       0.25000000000000000        0.0000000000000000     
  0.43750000000000000       0.25000000000000000        0.0000000000000000     
  0.46875000000000000       0.25000000000000000        0.0000000000000000     
  0.50000000000000000       0.25000000000000000        0.0000000000000000     
  0.50000000000000000       0.12500000000000000        0.0000000000000000     
  0.53125000000000000       0.12500000000000000        0.0000000000000000     
  0.56250000000000000       0.12500000000000000        0.0000000000000000     
  0.59375000000000000       0.12500000000000000        0.0000000000000000     
  0.62500000000000000       0.12500000000000000        0.0000000000000000     
  0.50000000000000000       0.15625000000000000        0.0000000000000000     
  0.53125000000000000       0.15625000000000000        0.0000000000000000     
  0.56250000000000000       0.15625000000000000        0.0000000000000000     
  0.59375000000000000       0.15625000000000000        0.0000000000000000     
  0.62500000000000000       0.15625000000000000        0.0000000000000000     
  0.50000000000000000       0.18750000000000000        0.0000000000000000     
  0.53125000000000000       0.18750000000000000        0.0000000000000000     
  0.56250000000000000       0.18750000000000000        0.0000000000000000     
  0.59375000000000000       0.18750000000000000        0.0000000000000000     
  0.62500000000000000       0.18750000000000000        0.0000000000000000     
  0.50000000000000000       0.21875000000000000        0.0000000000000000     
  0.53125000000000000       0.21875000000000000        0.0000000000000000     
  0.56250000000000000       0.21875000000000000        0.0000000000000000     
  0.59375000000000000       0.21875000000000000        0.0000000000000000     
  0.62500000000000000       0.21875000000000000        0.0000000000000000     
  0.50000000000000000       0.25000000000000000        0.0000000000000000     
  0.53125000000000000       0.25000000000000000        0.0000000000000000     
  0.56250000000000000       0.25000000000000000        0.0000000000000000     
  0.59375000000000000       0.25000000000000000        0.0000000000000000     
  0.62500000000000000       0.25000000000000000        0.0000000000000000     
  0.62500000000000000       0.12500000000000000        0.0000000000000000     
  0.65625000000000000       0.12500000000000000        0.0000000000000000     
  0.68750000000000000       0.12500000000000000        0.0000000000000000     
  0.71875000000000000       0.12500000000000000        0.0000000000000000     
  0.75000000000000000       0.12500000000000000        0.0000000000000000     
  0.62500000000000000       0.15625000000000000        0.0000000000000000     
  0.65625000000000000       0.15625000000000000        0.0000000000000000     
  0.68750000000000000       0.15625000000000000        0.0000000000000000     
  0.71875000000000000       0.15625000000000000        0.0000000000000000     
  0.75000000000000000       0.15625000000000000        0.0000000000000000     
  0.62500000000000000       0.18750000000000000        0.0000000000000000     
  0.65625000000000000       0.18750000000000000        0.0000000000000000     
  0.68750000000000000       0.18750000000000000        0.0000000000000000     
  0.71875000000000000       0.18750000000000000        0.0000000000000000     
  0.75000000000000000       0.18750000000000000        0.0000000000000000     
  0.62500000000000000       0.21875000000000000        0.0000000000000000     
  0.65625000000000000       0.21875000000000000        0.0000000000000000     
  0.68750000000000000       0.21875000000000000        0.0000000000000000     
  0.71875000000000000       0.21875000000000000        0.0000000000000000     
  0.75000000000000000       0.21875000000000000        0.0000000000000000     
  0.62500000000000000       0.25000000000000000        0.0000000000000000     
  0.65625000000000000       0.25000000000000000        0.0000000000000000     
  0.68750000000000000       0.25000000000000000        0.0000000000000000     
  0.71875000000000000       0.25000000000000000        0.0000000000000000     
  0.75000000000000000       0.25000000000000000        0.0000000000000000     
  0.75000000000000000       0.12500000000000000        0.0000000000000000     
  0.78125000000000000       0.12500000000000000        0.0000000000000000     
  0.81250000000000000       0.12500000000000000        0.0000000000000000     
  0.84375000000000000       0.12500000000000000        0.0000000000000000     
  0.87500000000000000       0.12500000000000000        0.0000000000000000     
  0.75000000000000000       0.15625000000000000        0.0000000000000000     
  0.78125000000000000       0.15625000000000000        0.0000000000000000     
  0.81250000000000000       0.15625000000000000        0.0000000000000000     
  0.84375000000000000       0.15625000000000000        0.0000000000000000     
  0.87500000000000000       0.15625000000000000        0.0000000000000000     
  0.75000000000000000       0.18750000000000000        0.0000000000000000     
  0.78125000000000000       0.18750000000000000        0.0000000000000000     
  0.81250000000000000       0.18750000000000000        0.0000000000000000     
  0.84375000000000000       0.18750000000000000        0.0000000000000000     
  0.87500000000000000       0.18750000000000000        0.0000000000000000     
  0.75000000000000000       0.21875000000000000        0.0000000000000000     
  0.78125000000000000       0.21875000000000000        0.0000000000000000     
  0.81250000000000000       0.21875000000000000        0.0000000000000000     
  0.84375000000000000       0.21875000000000000        0.0000000000000000     
  0.87500000000000000       0.21875000000000000        0.0000000000000000     
  0.75000000000000000       0.25000000000000000        0.0000000000000000     
  0.78125000000000000       0.25000000000000000        0.0000000000000000     
  0.81250000000000000       0.25000000000000000        0.0000000000000000     
  0.84375000000000000       0.25000000000000000        0.0000000000000000     
  0.87500000000000000       0.25000000000000000        0.0000000000000000     
  0.87500000000000000       0.12500000000000000        0.0000000000000000     
  0.90625000000000000       0.12500000000000000        0.0000000000000000     
  0.93750000000000000       0.12500000000000000        0.0000000000000000     
  0.96875000000000000       0.12500000000000000        0.0000000000000000     
   1.0000000000000000       0.12500000000000000        0.0000000000000000     
  0.87500000000000000       0.15625000000000000        0.0000000000000000     
  0.90625000000000000       0.15625000000000000        0.0000000000000000     
  0.93750000000000000       0.15625000000000000        0.0000000000000000     
  0.96875000000000000       0.15625000000000000        0.0000000000000000     
   1.0000000000000000       0.15625000000000000        0.0000000000000000     
  0.87500000000000000       0.18750000000000000        0.0000000000000000     
  0.90625000000000000       0.18750000000000000        0.0000000000000000     
  0.93750000000000000       0.18750000000000000        0.0000000000000000     
  0.96875000000000000       0.18750000000000000        0.0000000000000000     
   1.0000000000000000       0.18750000000000000        0.0000000000000000     
  0.87500000000000000       0.21875000000000000        0.0000000000000000     
  0.90625000000000000       0.21875000000000000        0.0000000000000000     
  0.93750000000000000       0.21875000000000000        0.0000000000000000     
  0.96875000000000000       0.21875000000000000        0.0000000000000000     
   1.0000000000000000       0.21875000000000000        0.0000000000000000     
  0.87500000000000000       0.25000000000000000        0.0000000000000000     
  0.90625000000000000       0.25000000000000000        0.0000000000000000     
  0.93750000000000000       0.25000000000000000        0.0000000000000000     
  0.96875000000000000       0.25000000000000000        0.0000000000000000     
   1.0000000000000000       0.25000000000000000        0.0000000000000000     
   0.0000000000000000       0.25000000000000000        0.0000000000000000     
   3.1250000000000000E-002  0.25000000000000000        0.0000000000000000     
   6.2500000000000000E-002  0.25000000000000000        0.0000000000000000     
   9.3750000000000000E-002  0.25000000000000000        0.0000000000000000     
  0.12500000000000000       0.25000000000000000        0.0000000000000000     
   0.0000000000000000       0.28125000000000000        0.0000000000000000     
   3.1250000000000000E-002  0.28125000000000000        0.0000000000000000     
   6.2500000000000000E-002  0.28125000000000000        0.0000000000000000     
   9.3750000000000000E-002  0.28125000000000000        0.0000000000000000     
  0.12500000000000000       0.28125000000000000        0.0000000000000000     
   0.0000000000000000       0.31250000000000000        0.0000000000000000     
   3.1250000000000000E-002  0.31250000000000000        0.0000000000000000     
   6.2500000000000000E-002  0.31250000000000000        0.0000000000000000     
   9.3750000000000000E-002  0.31250000000000000        0.0000000000000000     
  0.12500000000000000       0.31250000000000000        0.0000000000000000     
   0.0000000000000000       0.34375000000000000        0.0000000000000000     
   3.1250000000000000E-002  0.34375000000000000        0.0000000000000000     
   6.2500000000000000E-002  0.34375000000000000        0.0000000000000000     
   9.3750000000000000E-002  0.34375000000000000        0.0000000000000000     
  0.12500000000000000       0.34375000000000000        0.0000000000000000     
   0.0000000000000000       0.37500000000000000        0.0000000000000000     
   3.1250000000000000E-002  0.37500000000000000        0.0000000000000000     
   6.2500000000000000E-002  0.37500000000000000        0.0000000000000000     
   9.3750000000000000E-002  0.37500000000000000        0.0000000000000000     
  0.12500000000000000       0.37500000000000000        0.0000000000000000     
  0.12500000000000000       0.25000000000000000        0.0000000000000000     
  0.15625000000000000       0.25000000000000000        0.0000000000000000     
  0.18750000000000000       0.25000000000000000        0.0000000000000000     
  0.21875000000000000       0.25000000000000000        0.0000000000000000     
  0.25000000000000000       0.25000000000000000        0.0000000000000000     
  0.12500000000000000       0.28125000000000000        0.0000000000000000     
  0.15625000000000000       0.28125000000000000        0.0000000000000000     
  0.18750000000000000       0.28125000000000000        0.0000000000000000     
  0.21875000000000000       0.28125000000000000        0.0000000000000000     
  0.25000000000000000       0.28125000000000000        0.0000000000000000     
  0.12500000000000000       0.31250000000000000        0.0000000000000000     
  0.15625000000000000       0.31250000000000000        0.0000000000000000     
  0.18750000000000000       0.31250000000000000        0.0000000000000000     
  0.21875000000000000       0.31250000000000000        0.0000000000000000     
  0.25000000000000000       0.31250000000000000        0.0000000000000000     
  0.12500000000000000       0.34375000000000000        0.0000000000000000     
  0.15625000000000000       0.34375000000000000        0.0000000000000000     
  0.18750000000000000       0.34375000000000000        0.0000000000000000     
  0.21875000000000000       0.34375000000000000        0.0000000000000000     
  0.25000000000000000       0.34375000000000000        0.0000000000000000     
  0.12500000000000000       0.37500000000000000        0.0000000000000000     
  0.15625000000000000       0.37500000000000000        0.0000000000000000     
  0.18750000000000000       0.37500000000000000        0.0000000000000000     
  0.21875000000000000       0.37500000000000000        0.0000000000000000     
  0.25000000000000000       0.37500000000000000        0.0000000000000000     
  0.25000000000000000       0.25000000000000000        0.0000000000000000     
  0.28125000000000000       0.25000000000000000        0.0000000000000000     
  0.31250000000000000       0.25000000000000000        0.0000000000000000     
  0.34375000000000000       0.25000000000000000        0.0000000000000000     
  0.37500000000000000       0.25000000000000000        0.0000000000000000     
  0.25000000000000000       0.28125000000000000        0.0000000000000000     
  0.28125000000000000       0.28125000000000000        0.0000000000000000     
  0.31250000000000000       0.28125000000000000        0.0000000000000000     
  0.34375000000000000       0.28125000000000000        0.0000000000000000     
  0.37500000000000000       0.28125000000000000        0.0000000000000000     
  0.25000000000000000       0.31250000000000000        0.0000000000000000     
  0.28125000000000000       0.31250000000000000        0.0000000000000000     
  0.31250000000000000       0.31250000000000000        0.0000000000000000     
  0.34375000000000000       0.31250000000000000        0.0000000000000000     
  0.37500000000000000       0.31250000000000000        0.0000000000000000     
  0.25000000000000000       0.34375000000000000        0.0000000000000000     
  0.28125000000000000       0.34375000000000000        0.0000000000000000     
  0.31250000000000000       0.34375000000000000        0.0000000000000000     
  0.34375000000000000       0.34375000000000000        0.0000000000000000     
  0.37500000000000000       0.34375000000000000        0.0000000000000000     
  0.25000000000000000       0.37500000000000000        0.0000000000000000     
  0.28125000000000000       0.37500000000000000        0.0000000000000000     
  0.31250000000000000       0.37500000000000000        0.0000000000000000     
  0.34375000000000000       0.37500000000000000        0.0000000000000000     
  0.37500000000000000       0.37500000000000000        0.0000000000000000     
  0.37500000000000000       0.25000000000000000        0.0000000000000000     
  0.40625000000000000       0.25000000000000000        0.0000000000000000     
  0.43750000000000000       0.25000000000000000        0.0000000000000000     
  0.46875000000000000       0.25000000000000000        0.0000000000000000     
  0.50000000000000000       0.25000000000000000        0.0000000000000000     
  0.37500000000000000       0.28125000000000000        0.0000000000000000     
  0.40625000000000000       0.28125000000000000        0.0000000000000000     
  0.43750000000000000       0.28125000000000000        0.0000000000000000     
  0.46875000000000000       0.28125000000000000        0.0000000000000000     
  0.50000000000000000       0.28125000000000000        0.0000000000000000     
  0.37500000000000000       0.31250000000000000        0.0000000000000000     
  0.40625000000000000       0.31250000000000000        0.0000000000000000     
  0.43750000000000000       0.31250000000000000        0.0000000000000000     
  0.46875000000000000       0.31250000000000000        0.0000000000000000     
  0.50000000000000000       0.31250000000000000        0.0000000000000000     
  0.37500000000000000       0.34375000000000000        0.0000000000000000     
  0.40625000000000000       0.34375000000000000        0.0000000000000000     
  0.43750000000000000       0.34375000000000000        0.0000000000000000     
  0.46875000000000000       0.34375000000000000        0.0000000000000000     
  0.50000000000000000       0.34375000000000000        0.0000000000000000     
  0.37500000000000000       0.37500000000000000        0.0000000000000000     
  0.40625000000000000       0.37500000000000000        0.0000000000000000     
  0.43750000000000000       0.37500000000000000        0.0000000000000000     
  0.46875000000000000       0.37500000000000000        0.0000000000000000     
  0.50000000000000000       0.37500000000000000        0.0000000000000000     
  0.50000000000000000       0.25000000000000000        0.0000000000000000     
  0.53125000000000000       0.25000000000000000        0.0000000000000000     
  0.56250000000000000       0.25000000000000000        0.0000000000000000     
  0.59375000000000000       0.25000000000000000        0.0000000000000000     
  0.62500000000000000       0.25000000000000000        0.0000000000000000     
  0.50000000000000000       0.28125000000000000        0.0000000000000000     
  0.53125000000000000       0.28125000000000000        0.0000000000000000     
  0.56250000000000000       0.28125000000000000        0.0000000000000000     
  0.59375000000000000       0.28125000000000000        0.0000000000000000     
  0.62500000000000000       0.28125000000000000        0.0000000000000000     
  0.50000000000000000       0.31250000000000000        0.0000000000000000     
  0.53125000000000000       0.31250000000000000        0.0000000000000000     
  0.56250000000000000       0.31250000000000000        0.0000000000000000     
  0.59375000000000000       0.31250000000000000        0.0000000000000000     
  0.62500000000000000       0.31250000000000000        0.0000000000000000     
  0.50000000000000000       0.34375000000000000        0.0000000000000000     
  0.53125000000000000       0.34375000000000000        0.0000000000000000     
  0.56250000000000000       0.34375000000000000        0.0000000000000000     
  0.59375000000000000       0.34375000000000000        0.0000000000000000     
  0.62500000000000000       0.34375000000000000        0.0000000000000000     
  0.50000000000000000       0.37500000000000000        0.0000000000000000     
  0.53125000000000000       0.37500000000000000        0.0000000000000000     
  0.56250000000000000       0.37500000000000000        0.0000000000000000     
  0.59375000000000000       0.37500000000000000        0.0000000000000000     
  0.62500000000000000       0.37500000000000000        0.0000000000000000     
  0.62500000000000000       0.25000000000000000        0.0000000000000000     
  0.65625000000000000       0.25000000000000000        0.0000000000000000     
  0.68750000000000000       0.25000000000000000        0.0000000000000000     
  0.71875000000000000       0.25000000000000000        0.0000000000000000     
  0.75000000000000000       0.25000000000000000        0.0000000000000000     
  0.62500000000000000       0.28125000000000000        0.0000000000000000     
  0.65625000000000000       0.28125000000000000        0.0000000000000000     
  0.68750000000000000       0.28125000000000000        0.0000000000000000     
  0.71875000000000000       0.28125000000000000        0.0000000000000000     
  0.75000000000000000       0.28125000000000000        0.0000000000000000     
  0.62500000000000000       0.31250000000000000        0.0000000000000000     
  0.65625000000000000       0.31250000000000000        0.0000000000000000     
  0.68750000000000000       0.31250000000000000        0.0000000000000000     
  0.71875000000000000       0.31250000000000000        0.0000000000000000     
  0.75000000000000000       0.31250000000000000        0.0000000000000000     
  0.62500000000000000       0.34375000000000000        0.0000000000000000     
  0.65625000000000000       0.34375000000000000        0.0000000000000000     
  0.68750000000000000       0.34375000000000000        0.0000000000000000     
  0.71875000000000000       0.34375000000000000        0.0000000000000000     
  0.75000000000000000       0.34375000000000000        0.0000000000000000     
  0.62500000000000000       0.37500000000000000        0.0000000000000000     
  0.65625000000000000       0.37500000000000000        0.0000000000000000     
  0.68750000000000000       0.37500000000000000        0.0000000000000000     
  0.71875000000000000       0.37500000000000000        0.0000000000000000     
  0.75000000000000000       0.37500000000000000        0.0000000000000000     
  0.75000000000000000       0.25000000000000000        0.0000000000000000     
  0.78125000000000000       0.25000000000000000        0.0000000000000000     
  0.81250000000000000       0.25000000000000000        0.0000000000000000     
  0.84375000000000000       0.25000000000000000        0.0000000000000000     
  0.87500000000000000       0.25000000000000000        0.0000000000000000     
  0.75000000000000000       0.28125000000000000        0.0000000000000000     
  0.78125000000000000       0.28125000000000000        0.0000000000000000     
  0.81250000000000000       0.28125000000000000        0.0000000000000000     
  0.84375000000000000       0.28125000000000000        0.0000000000000000     
  0.87500000000000000       0.28125000000000000        0.0000000000000000     
  0.75000000000000000       0.31250000000000000        0.0000000000000000     
  0.78125000000000000       0.31250000000000000        0.0000000000000000     
  0.81250000000000000       0.31250000000000000        0.0000000000000000     
  0.84375000000000000       0.31250000000000000        0.0000000000000000     
  0.87500000000000000       0.31250000000000000        0.0000000000000000     
  0.75000000000000000       0.34375000000000000        0.0000000000000000     
  0.78125000000000000       0.34375000000000000        0.0000000000000000     
  0.81250000000000000       0.34375000000000000        0.0000000000000000     
  0.84375000000000000       0.34375000000000000        0.0000000000000000     
  0.87500000000000000       0.34375000000000000        0.0000000000000000     
  0.75000000000000000       0.37500000000000000        0.0000000000000000     
  0.78125000000000000       0.37500000000000000        0.0000000000000000     
  0.81250000000000000       0.37500000000000000        0.0000000000000000     
  0.84375000000000000       0.37500000000000000        0.0000000000000000     
  0.87500000000000000       0.37500000000000000        0.0000000000000000     
  0.87500000000000000       0.25000000000000000        0.0000000000000000     
  0.90625000000000000       0.25000000000000000        0.0000000000000000     
  0.93750000000000000       0.25000000000000000        0.0000000000000000     
  0.96875000000000000       0.25000000000000000        0.0000000000000000     
   1.0000000000000000       0.25000000000000000        0.0000000000000000     
  0.87500000000000000       0.28125000000000000        0.0000000000000000     
  0.90625000000000000       0.28125000000000000        0.0000000000000000     
  0.93750000000000000       0.28125000000000000        0.0000000000000000     
  0.96875000000000000       0.28125000000000000        0.0000000000000000     
   1.0000000000000000       0.28125000000000000        0.0000000000000000     
  0.87500000000000000       0.31250000000000000        0.0000000000000000     
  0.90625000000000000       0.31250000000000000        0.0000000000000000     
  0.93750000000000000       0.31250000000000000        0.0000000000000000     
  0.96875000000000000       0.31250000000000000        0.0000000000000000     
   1.0000000000000000       0.31250000000000000        0.0000000000000000     
  0.87500000000000000       0.34375000000000000        0.0000000000000000     
  0.90625000000000000       0.34375000000000000        0.0000000000000000     
  0.93750000000000000       0.34375000000000000        0.0000000000000000     
  0.96875000000000000       0.34375000000000000        0.0000000000000000     
   1.0000000000000000       0.34375000000000000        0.0000000000000000     
  0.87500000000000000       0.37500000000000000        0.0000000000000000     
  0.90625000000000000       0.37500000000000000        0.0000000000000000     
  0.93750000000000000       0.37500000000000000        0.0000000000000000     
  0.96875000000000000       0.37500000000000000        0.0000000000000000     
   1.0000000000000000       0.37500000000000000        0.0000000000000000     
   0.0000000000000000       0.37500000000000000        0.0000000000000000     
   3.1250000000000000E-002  0.37500000000000000        0.0000000000000000     
   6.2500000000000000E-002  0.37500000000000000        0.0000000000000000     
   9.3750000000000000E-002  0.37500000000000000        0.0000000000000000     
  0.12500000000000000       0.37500000000000000        0.0000000000000000     
   0.0000000000000000       0.40625000000000000        0.0000000000000000     
   3.1250000000000000E-002  0.40625000000000000        0.0000000000000000     
   6.2500000000000000E-002  0.40625000000000000        0.0000000000000000     
   9.3750000000000000E-002  0.40625000000000000        0.0000000000000000     
  0.12500000000000000       0.40625000000000000        0.0000000000000000     
   0.0000000000000000       0.43750000000000000        0.0000000000000000     
   3.1250000000000000E-002  0.43750000000000000        0.0000000000000000     
   6.2500000000000000E-002  0.43750000000000000        0.0000000000000000     
   9.3750000000000000E-002  0.43750000000000000        0.0000000000000000     
  0.12500000000000000       0.43750000000000000        0.0000000000000000     
   0.0000000000000000       0.46875000000000000        0.0000000000000000     
   3.1250000000000000E-002  0.46875000000000000        0.0000000000000000     
   6.2500000000000000E-002  0.46875000000000000        0.0000000000000000     
   9.3750000000000000E-002  0.46875000000000000        0.0000000000000000     
  0.12500000000000000       0.46875000000000000        0.0000000000000000     
   0.0000000000000000       0.50000000000000000        0.0000000000000000     
   3.1250000000000000E-002  0.50000000000000000        0.0000000000000000     
   6.2500000000000000E-002  0.50000000000000000        0.0000000000000000     
   9.3750000000000000E-002  0.50000000000000000        0.0000000000000000     
  0.12500000000000000       0.50000000000000000        0.0000000000000000     
  0.12500000000000000       0.37500000000000000        0.0000000000000000     
  0.15625000000000000       0.37500000000000000        0.0000000000000000     
  0.18750000000000000       0.37500000000000000        0.0000000000000000     
  0.21875000000000000       0.37500000000000000        0.0000000000000000     
  0.25000000000000000       0.37500000000000000        0.0000000000000000     
  0.12500000000000000       0.40625000000000000        0.0000000000000000     
  0.15625000000000000       0.40625000000000000        0.0000000000000000     
  0.18750000000000000       0.40625000000000000        0.0000000000000000     
  0.21875000000000000       0.40625000000000000        0.0000000000000000     
  0.25000000000000000       0.40625000000000000        0.0000000000000000     
  0.12500000000000000       0.43750000000000000        0.0000000000000000     
  0.15625000000000000       0.43750000000000000        0.0000000000000000     
  0.18750000000000000       0.43750000000000000        0.0000000000000000     
  0.21875000000000000       0.43750000000000000        0.0000000000000000     
  0.25000000000000000       0.43750000000000000        0.0000000000000000     
  0.12500000000000000       0.46875000000000000        0.0000000000000000     
  0.15625000000000000       0.46875000000000000        0.0000000000000000     
  0.18750000000000000       0.46875000000000000        0.0000000000000000     
  0.21875000000000000       0.46875000000000000        0.0000000000000000     
  0.25000000000000000       0.46875000000000000        0.0000000000000000     
  0.12500000000000000       0.50000000000000000        0.0000000000000000     
  0.15625000000000000       0.50000000000000000        0.0000000000000000     
  0.18750000000000000       0.50000000000000000        0.0000000000000000     
  0.21875000000000000       0.50000000000000000        0.0000000000000000     
  0.25000000000000000       0.50000000000000000        0.0000000000000000     
  0.25000000000000000       0.37500000000000000        0.0000000000000000     
  0.28125000000000000       0.37500000000000000        0.0000000000000000     
  0.31250000000000000       0.37500000000000000        0.0000000000000000     
  0.34375000000000000       0.37500000000000000        0.0000000000000000     
  0.37500000000000000       0.37500000000000000        0.0000000000000000     
  0.25000000000000000       0.40625000000000000        0.0000000000000000     
  0.28125000000000000       0.40625000000000000        0.0000000000000000     
  0.31250000000000000       0.40625000000000000        0.0000000000000000     
  0.34375000000000000       0.40625000000000000        0.0000000000000000     
  0.37500000000000000       0.40625000000000000        0.0000000000000000     
  0.25000000000000000       0.43750000000000000        0.0000000000000000     
  0.28125000000000000       0.43750000000000000        0.0000000000000000     
  0.31250000000000000       0.43750000000000000        0.0000000000000000     
  0.34375000000000000       0.43750000000000000        0.0000000000000000     
  0.37500000000000000       0.43750000000000000        0.0000000000000000     
  0.25000000000000000       0.46875000000000000        0.0000000000000000     
  0.28125000000000000       0.46875000000000000        0.0000000000000000     
  0.31250000000000000       0.46875000000000000        0.0000000000000000     
  0.34375000000000000       0.46875000000000000        0.0000000000000000     
  0.37500000000000000       0.46875000000000000        0.0000000000000000     
  0.25000000000000000       0.50000000000000000        0.0000000000000000     
  0.28125000000000000       0.50000000000000000        0.0000000000000000     
  0.31250000000000000       0.50000000000000000        0.0000000000000000     
  0.34375000000000000       0.50000000000000000        0.0000000000000000     
  0.37500000000000000       0.50000000000000000        0.0000000000000000     
  0.37500000000000000       0.37500000000000000        0.0000000000000000     
  0.40625000000000000       0.37500000000000000        0.0000000000000000     
  0.43750000000000000       0.37500000000000000        0.0000000000000000     
  0.46875000000000000       0.37500000000000000        0.0000000000000000     
  0.50000000000000000       0.37500000000000000        0.0000000000000000     
  0.37500000000000000       0.40625000000000000        0.0000000000000000     
  0.40625000000000000       0.40625000000000000        0.0000000000000000     
  0.43750000000000000       0.40625000000000000        0.0000000000000000     
  0.46875000000000000       0.40625000000000000        0.0000000000000000     
  0.50000000000000000       0.40625000000000000        0.0000000000000000     
  0.37500000000000000       0.43750000000000000        0.0000000000000000     
  0.40625000000000000       0.43750000000000000        0.0000000000000000     
  0.43750000000000000       0.43750000000000000        0.0000000000000000     
  0.46875000000000000       0.43750000000000000        0.0000000000000000     
  0.50000000000000000       0.43750000000000000        0.0000000000000000     
  0.37500000000000000       0.46875000000000000        0.0000000000000000     
  0.40625000000000000       0.46875000000000000        0.0000000000000000     
  0.43750000000000000       0.46875000000000000        0.0000000000000000     
  0.46875000000000000       0.46875000000000000        0.0000000000000000     
  0.50000000000000000       0.46875000000000000        0.0000000000000000     
  0.37500000000000000       0.50000000000000000        0.0000000000000000     
  0.40625000000000000       0.50000000000000000        0.0000000000000000     
  0.43750000000000000       0.50000000000000000        0.0000000000000000     
  0.46875000000000000       0.50000000000000000        0.0000000000000000     
  0.50000000000000000       0.50000000000000000        0.0000000000000000     
  0.50000000000000000       0.37500000000000000        0.0000000000000000     
  0.53125000000000000       0.37500000000000000        0.0000000000000000     
  0.56250000000000000       0.37500000000000000        0.0000000000000000     
  0.59375000000000000       0.37500000000000000        0.0000000000000000     
  0.62500000000000000       0.37500000000000000        0.0000000000000000     
  0.50000000000000000       0.40625000000000000        0.0000000000000000     
  0.53125000000000000       0.40625000000000000        0.0000000000000000     
  0.56250000000000000       0.40625000000000000        0.0000000000000000     
  0.59375000000000000       0.40625000000000000        0.0000000000000000     
  0.62500000000000000       0.40625000000000000        0.0000000000000000     
  0.50000000000000000       0.43750000000000000        0.0000000000000000     
  0.53125000000000000       0.43750000000000000        0.0000000000000000     
  0.56250000000000000       0.43750000000000000        0.0000000000000000     
  0.59375000000000000       0.43750000000000000        0.0000000000000000     
  0.62500000000000000       0.43750000000000000        0.0000000000000000     
  0.50000000000000000       0.46875000000000000        0.0000000000000000     
  0.53125000000000000       0.46875000000000000        0.0000000000000000     
  0.56250000000000000       0.46875000000000000        0.0000000000000000     
  0.59375000000000000       0.46875000000000000        0.0000000000000000     
  0.62500000000000000       0.46875000000000000        0.0000000000000000     
  0.50000000000000000       0.50000000000000000        0.0000000000000000     
  0.53125000000000000       0.50000000000000000        0.0000000000000000     
  0.56250000000000000       0.50000000000000000        0.0000000000000000     
  0.59375000000000000       0.50000000000000000        0.0000000000000000     
  0.62500000000000000       0.50000000000000000        0.0000000000000000     
  0.62500000000000000       0.37500000000000000        0.0000000000000000     
  0.65625000000000000       0.37500000000000000        0.0000000000000000     
  0.68750000000000000       0.37500000000000000        0.0000000000000000     
  0.71875000000000000       0.37500000000000000        0.0000000000000000     
  0.75000000000000000       0.37500000000000000        0.0000000000000000     
  0.62500000000000000       0.40625000000000000        0.0000000000000000     
  0.65625000000000000       0.40625000000000000        0.0000000000000000     
  0.68750000000000000       0.40625000000000000        0.0000000000000000     
  0.71875000000000000       0.40625000000000000        0.0000000000000000     
  0.75000000000000000       0.40625000000000000        0.0000000000000000     
  0.62500000000000000       0.43750000000000000        0.0000000000000000     
  0.65625000000000000       0.43750000000000000        0.0000000000000000     
  0.68750000000000000       0.43750000000000000        0.0000000000000000     
  0.71875000000000000       0.43750000000000000        0.0000000000000000     
  0.75000000000000000       0.43750000000000000        0.0000000000000000     
  0.62500000000000000       0.46875000000000000        0.0000000000000000     
  0.65625000000000000       0.46875000000000000        0.0000000000000000     
  0.68750000000000000       0.46875000000000000        0.0000000000000000     
  0.71875000000000000       0.46875000000000000        0.0000000000000000     
  0.75000000000000000       0.46875000000000000        0.0000000000000000     
  0.62500000000000000       0.50000000000000000        0.0000000000000000     
  0.65625000000000000       0.50000000000000000        0.0000000000000000     
  0.68750000000000000       0.50000000000000000        0.0000000000000000     
  0.71875000000000000       0.50000000000000000        0.0000000000000000     
  0.75000000000000000       0.50000000000000000        0.0000000000000000     
  0.75000000000000000       0.37500000000000000        0.0000000000000000     
  0.78125000000000000       0.37500000000000000        0.0000000000000000     
  0.81250000000000000       0.37500000000000000        0.0000000000000000     
  0.84375000000000000       0.37500000000000000        0.0000000000000000     
  0.87500000000000000       0.37500000000000000        0.0000000000000000     
  0.75000000000000000       0.40625000000000000        0.0000000000000000     
  0.78125000000000000       0.40625000000000000        0.0000000000000000     
  0.81250000000000000       0.40625000000000000        0.0000000000000000     
  0.84375000000000000       0.40625000000000000        0.0000000000000000     
  0.87500000000000000       0.40625000000000000        0.0000000000000000     
  0.75000000000000000       0.43750000000000000        0.0000000000000000     
  0.78125000000000000       0.43750000000000000        0.0000000000000000     
  0.81250000000000000       0.43750000000000000        0.0000000000000000     
  0.84375000000000000       0.43750000000000000        0.0000000000000000     
  0.87500000000000000       0.43750000000000000        0.0000000000000000     
  0.75000000000000000       0.46875000000000000        0.0000000000000000     
  0.78125000000000000       0.46875000000000000        0.0000000000000000     
  0.81250000000000000       0.46875000000000000        0.0000000000000000     
  0.84375000000000000       0.46875000000000000        0.0000000000000000     
  0.87500000000000000       0.46875000000000000        0.0000000000000000     
  0.75000000000000000       0.50000000000000000        0.0000000000000000     
  0.78125000000000000       0.50000000000000000        0.0000000000000000     
  0.81250000000000000       0.50000000000000000        0.0000000000000000     
  0.84375000000000000       0.50000000000000000        0.0000000000000000     
  0.87500000000000000       0.50000000000000000        0.0000000000000000     
  0.87500000000000000       0.37500000000000000        0.0000000000000000     
  0.90625000000000000       0.37500000000000000        0.0000000000000000     
  0.93750000000000000       0.37500000000000000        0.0000000000000000     
  0.96875000000000000       0.37500000000000000        0.0000000000000000     
   1.0000000000000000       0.37500000000000000        0.0000000000000000     
  0.87500000000000000       0.40625000000000000        0.0000000000000000     
  0.90625000000000000       0.40625000000000000        0.0000000000000000     
  0.93750000000000000       0.40625000000000000        0.0000000000000000     
  0.96875000000000000       0.40625000000000000        0.0000000000000000     
   1.0000000000000000       0.40625000000000000        0.0000000000000000     
  0.87500000000000000       0.43750000000000000        0.0000000000000000     
  0.90625000000000000       0.43750000000000000        0.0000000000000000     
  0.93750000000000000       0.43750000000000000        0.0000000000000000     
  0.96875000000000000       0.43750000000000000        0.0000000000000000     
   1.0000000000000000       0.43750000000000000        0.0000000000000000     
  0.87500000000000000       0.46875000000000000        0.0000000000000000     
  0.90625000000000000       0.46875000000000000        0.0000000000000000     
  0.93750000000000000       0.46875000000000000        0.0000000000000000     
  0.96875000000000000       0.46875000000000000        0.0000000000000000     
   1.0000000000000000       0.46875000000000000        0.0000000000000000     
  0.87500000000000000       0.50000000000000000        0.0000000000000000     
  0.90625000000000000       0.50000000000000000        0.0000000000000000     
  0.93750000000000000       0.50000000000000000        0.0000000000000000     
  0.96875000000000000       0.50000000000000000        0.0000000000000000     
   1.0000000000000000       0.50000000000000000        0.0000000000000000     
   0.0000000000000000       0.50000000000000000        0.0000000000000000     
   3.1250000000000000E-002  0.50000000000000000        0.0000000000000000     
   6.2500000000000000E-002  0.50000000000000000        0.0000000000000000     
   9.3750000000000000E-002  0.50000000000000000        0.0000000000000000     
  0.12500000000000000       0.50000000000000000        0.0000000000000000     
   0.0000000000000000       0.53125000000000000        0.0000000000000000     
   3.1250000000000000E-002  0.53125000000000000        0.0000000000000000     
   6.2500000000000000E-002  0.53125000000000000        0.0000000000000000     
   9.3750000000000000E-002  0.53125000000000000        0.0000000000000000     
  0.12500000000000000       0.53125000000000000        0.0000000000000000     
   0.0000000000000000       0.56250000000000000        0.0000000000000000     
   3.1250000000000000E-002  0.56250000000000000        0.0000000000000000     
   6.2500000000000000E-002  0.56250000000000000        0.0000000000000000     
   9.3750000000000000E-002  0.56250000000000000        0.0000000000000000     
  0.12500000000000000       0.56250000000000000        0.0000000000000000     
   0.0000000000000000       0.59375000000000000        0.0000000000000000     
   3.1250000000000000E-002  0.59375000000000000        0.0000000000000000     
   6.2500000000000000E-002  0.59375000000000000        0.0000000000000000     
   9.3750000000000000E-002  0.59375000000000000        0.0000000000000000     
  0.12500000000000000       0.59375000000000000        0.0000000000000000     
   0.0000000000000000       0.62500000000000000        0.0000000000000000     
   3.1250000000000000E-002  0.62500000000000000        0.0000000000000000     
   6.2500000000000000E-002  0.62500000000000000        0.0000000000000000     
   9.3750000000000000E-002  0.62500000000000000        0.0000000000000000     
  0.12500000000000000       0.62500000000000000        0.0000000000000000     
  0.12500000000000000       0.50000000000000000        0.0000000000000000     
  0.15625000000000000       0.50000000000000000        0.0000000000000000     
  0.18750000000000000       0.50000000000000000        0.0000000000000000     
  0.21875000000000000       0.50000000000000000        0.0000000000000000     
  0.25000000000000000       0.50000000000000000        0.0000000000000000     
  0.12500000000000000       0.53125000000000000        0.0000000000000000     
  0.15625000000000000       0.53125000000000000        0.0000000000000000     
  0.18750000000000000       0.53125000000000000        0.0000000000000000     
  0.21875000000000000       0.53125000000000000        0.0000000000000000     
  0.25000000000000000       0.53125000000000000        0.0000000000000000     
  0.12500000000000000       0.56250000000000000        0.0000000000000000     
  0.15625000000000000       0.56250000000000000        0.0000000000000000     
  0.18750000000000000       0.56250000000000000        0.0000000000000000     
  0.21875000000000000       0.56250000000000000        0.0000000000000000     
  0.25000000000000000       0.56250000000000000        0.0000000000000000     
  0.12500000000000000       0.59375000000000000        0.0000000000000000     
  0.15625000000000000       0.59375000000000000        0.0000000000000000     
  0.18750000000000000       0.59375000000000000        0.0000000000000000     
  0.21875000000000000       0.59375000000000000        0.0000000000000000     
  0.25000000000000000       0.59375000000000000        0.0000000000000000     
  0.12500000000000000       0.62500000000000000        0.0000000000000000     
  0.15625000000000000       0.62500000000000000        0.0000000000000000     
  0.18750000000000000       0.62500000000000000        0.0000000000000000     
  0.21875000000000000       0.62500000000000000        0.0000000000000000     
  0.25000000000000000       0.62500000000000000        0.0000000000000000     
  0.25000000000000000       0.50000000000000000        0.0000000000000000     
  0.28125000000000000       0.50000000000000000        0.0000000000000000     
  0.31250000000000000       0.50000000000000000        0.0000000000000000     
  0.34375000000000000       0.50000000000000000        0.0000000000000000     
  0.37500000000000000       0.50000000000000000        0.0000000000000000     
  0.25000000000000000       0.53125000000000000        0.0000000000000000     
  0.28125000000000000       0.53125000000000000        0.0000000000000000     
  0.31250000000000000       0.53125000000000000        0.0000000000000000     
  0.34375000000000000       0.53125000000000000        0.0000000000000000     
  0.37500000000000000       0.53125000000000000        0.0000000000000000     
  0.25000000000000000       0.56250000000000000        0.0000000000000000     
  0.28125000000000000       0.56250000000000000        0.0000000000000000     
  0.31250000000000000       0.56250000000000000        0.0000000000000000     
  0.34375000000000000       0.56250000000000000        0.0000000000000000     
  0.37500000000000000       0.56250000000000000        0.0000000000000000     
  0.25000000000000000       0.59375000000000000        0.0000000000000000     
  0.28125000000000000       0.59375000000000000        0.0000000000000000     
  0.31250000000000000       0.59375000000000000        0.0000000000000000     
  0.34375000000000000       0.59375000000000000        0.0000000000000000     
  0.37500000000000000       0.59375000000000000        0.0000000000000000     
  0.25000000000000000       0.62500000000000000        0.0000000000000000     
  0.28125000000000000       0.62500000000000000        0.0000000000000000     
  0.31250000000000000       0.62500000000000000        0.0000000000000000     
  0.34375000000000000       0.62500000000000000        0.0000000000000000     
  0.37500000000000000       0.62500000000000000        0.0000000000000000     
  0.37500000000000000       0.50000000000000000        0.0000000000000000     
  0.40625000000000000       0.50000000000000000        0.0000000000000000     
  0.43750000000000000       0.50000000000000000        0.0000000000000000     
  0.46875000000000000       0.50000000000000000        0.0000000000000000     
  0.50000000000000000       0.50000000000000000        0.0000000000000000     
  0.37500000000000000       0.53125000000000000        0.0000000000000000     
  0.40625000000000000       0.53125000000000000        0.0000000000000000     
  0.43750000000000000       0.53125000000000000        0.0000000000000000     
  0.46875000000000000       0.53125000000000000        0.0000000000000000     
  0.50000000000000000       0.53125000000000000        0.0000000000000000     
  0.37500000000000000       0.56250000000000000        0.0000000000000000     
  0.40625000000000000       0.56250000000000000        0.0000000000000000     
  0.43750000000000000       0.56250000000000000        0.0000000000000000     
  0.46875000000000000       0.56250000000000000        0.0000000000000000     
  0.50000000000000000       0.56250000000000000        0.0000000000000000     
  0.37500000000000000       0.59375000000000000        0.0000000000000000     
  0.40625000000000000       0.59375000000000000        0.0000000000000000     
  0.43750000000000000       0.59375000000000000        0.0000000000000000     
  0.46875000000000000       0.59375000000000000        0.0000000000000000     
  0.50000000000000000       0.59375000000000000        0.0000000000000000     
  0.37500000000000000       0.62500000000000000        0.0000000000000000     
  0.40625000000000000       0.62500000000000000        0.0000000000000000     
  0.43750000000000000       0.62500000000000000        0.0000000000000000     
  0.46875000000000000       0.62500000000000000        0.0000000000000000     
  0.50000000000000000       0.62500000000000000        0.0000000000000000     
  0.50000000000000000       0.50000000000000000        0.0000000000000000     
  0.53125000000000000       0.50000000000000000        0.0000000000000000     
  0.56250000000000000       0.50000000000000000        0.0000000000000000     
  0.59375000000000000       0.50000000000000000        0.0000000000000000     
  0.62500000000000000       0.50000000000000000        0.0000000000000000     
  0.50000000000000000       0.53125000000000000        0.0000000000000000     
  0.53125000000000000       0.53125000000000000        0.0000000000000000     
  0.56250000000000000       0.53125000000000000        0.0000000000000000     
  0.59375000000000000       0.53125000000000000        0.0000000000000000     
  0.62500000000000000       0.53125000000000000        0.0000000000000000     
  0.50000000000000000       0.56250000000000000        0.0000000000000000     
  0.53125000000000000       0.56250000000000000        0.0000000000000000     
  0.56250000000000000       0.56250000000000000        0.0000000000000000     
  0.59375000000000000       0.56250000000000000        0.0000000000000000     
  0.62500000000000000       0.56250000000000000        0.0000000000000000     
  0.50000000000000000       0.59375000000000000        0.0000000000000000     
  0.53125000000000000       0.59375000000000000        0.0000000000000000     
  0.56250000000000000       0.59375000000000000        0.0000000000000000     
  0.59375000000000000       0.59375000000000000        0.0000000000000000     
  0.62500000000000000       0.59375000000000000        0.0000000000000000     
  0.50000000000000000       0.62500000000000000        0.0000000000000000     
  0.53125000000000000       0.62500000000000000        0.0000000000000000     
  0.56250000000000000       0.62500000000000000        0.0000000000000000     
  0.59375000000000000       0.62500000000000000        0.0000000000000000     
  0.62500000000000000       0.62500000000000000        0.0000000000000000     
  0.62500000000000000       0.50000000000000000        0.0000000000000000     
  0.65625000000000000       0.50000000000000000        0.0000000000000000     
  0.68750000000000000       0.50000000000000000        0.0000000000000000     
  0.71875000000000000       0.50000000000000000        0.0000000000000000     
  0.75000000000000000       0.50000000000000000        0.0000000000000000     
  0.62500000000000000       0.53125000000000000        0.0000000000000000     
  0.65625000000000000       0.53125000000000000        0.0000000000000000     
  0.68750000000000000       0.53125000000000000        0.0000000000000000     
  0.71875000000000000       0.53125000000000000        0.0000000000000000     
  0.75000000000000000       0.53125000000000000        0.0000000000000000     
  0.62500000000000000       0.56250000000000000        0.0000000000000000     
  0.65625000000000000       0.56250000000000000        0.0000000000000000     
  0.68750000000000000       0.56250000000000000        0.0000000000000000     
  0.71875000000000000       0.56250000000000000        0.0000000000000000     
  0.75000000000000000       0.56250000000000000        0.0000000000000000     
  0.62500000000000000       0.59375000000000000        0.0000000000000000     
  0.65625000000000000       0.59375000000000000        0.0000000000000000     
  0.68750000000000000       0.59375000000000000        0.0000000000000000     
  0.71875000000000000       0.59375000000000000        0.0000000000000000     
  0.75000000000000000       0.59375000000000000        0.0000000000000000     
  0.62500000000000000       0.62500000000000000        0.0000000000000000     
  0.65625000000000000       0.62500000000000000        0.0000000000000000     
  0.68750000000000000       0.62500000000000000        0.0000000000000000     
  0.71875000000000000       0.62500000000000000        0.0000000000000000     
  0.75000000000000000       0.62500000000000000        0.0000000000000000     
  0.75000000000000000       0.50000000000000000        0.0000000000000000     
  0.78125000000000000       0.50000000000000000        0.0000000000000000     
  0.81250000000000000       0.50000000000000000        0.0000000000000000     
  0.84375000000000000       0.50000000000000000        0.0000000000000000     
  0.87500000000000000       0.50000000000000000        0.0000000000000000     
  0.75000000000000000       0.53125000000000000        0.0000000000000000     
  0.78125000000000000       0.53125000000000000        0.0000000000000000     
  0.81250000000000000       0.53125000000000000        0.0000000000000000     
  0.84375000000000000       0.53125000000000000        0.0000000000000000     
  0.87500000000000000       0.53125000000000000        0.0000000000000000     
  0.75000000000000000       0.56250000000000000        0.0000000000000000     
  0.78125000000000000       0.56250000000000000        0.0000000000000000     
  0.81250000000000000       0.56250000000000000        0.0000000000000000     
  0.84375000000000000       0.56250000000000000        0.0000000000000000     
  0.87500000000000000       0.56250000000000000        0.0000000000000000     
  0.75000000000000000       0.59375000000000000        0.0000000000000000     
  0.78125000000000000       0.59375000000000000        0.0000000000000000     
  0.81250000000000000       0.59375000000000000        0.0000000000000000     
  0.84375000000000000       0.59375000000000000        0.0000000000000000     
  0.87500000000000000       0.59375000000000000        0.0000000000000000     
  0.75000000000000000       0.62500000000000000        0.0000000000000000     
  0.78125000000000000       0.62500000000000000        0.0000000000000000     
  0.81250000000000000       0.62500000000000000        0.0000000000000000     
  0.84375000000000000       0.62500000000000000        0.0000000000000000     
  0.87500000000000000       0.62500000000000000        0.0000000000000000     
  0.87500000000000000       0.50000000000000000        0.0000000000000000     
  0.90625000000000000       0.50000000000000000        0.0000000000000000     
  0.93750000000000000       0.50000000000000000        0.0000000000000000     
  0.96875000000000000       0.50000000000000000        0.0000000000000000     
   1.0000000000000000       0.50000000000000000        0.0000000000000000     
  0.87500000000000000       0.53125000000000000        0.0000000000000000     
  0.90625000000000000       0.53125000000000000        0.0000000000000000     
  0.93750000000000000       0.53125000000000000        0.0000000000000000     
  0.96875000000000000       0.53125000000000000        0.0000000000000000     
   1.0000000000000000       0.53125000000000000        0.0000000000000000     
  0.87500000000000000       0.56250000000000000        0.0000000000000000     
  0.90625000000000000       0.56250000000000000        0.0000000000000000     
  0.93750000000000000       0.56250000000000000        0.0000000000000000     
  0.96875000000000000       0.56250000000000000        0.0000000000000000     
   1.0000000000000000       0.56250000000000000        0.0000000000000000     
  0.87500000000000000       0.59375000000000000        0.0000000000000000     
  0.90625000000000000       0.59375000000000000        0.0000000000000000     
  0.93750000000000000       0.59375000000000000        0.0000000000000000     
  0.96875000000000000       0.59375000000000000        0.0000000000000000     
   1.0000000000000000       0.59375000000000000        0.0000000000000000     
  0.87500000000000000       0.62500000000000000        0.0000000000000000     
  0.90625000000000000       0.62500000000000000        0.0000000000000000     
  0.93750000000000000       0.62500000000000000        0.0000000000000000     
  0.96875000000000000       0.62500000000000000        0.0000000000000000     
   1.0000000000000000       0.62500000000000000        0.0000000000000000     
   0.0000000000000000       0.62500000000000000        0.0000000000000000     
   3.1250000000000000E-002  0.62500000000000000        0.0000000000000000     
   6.2500000000000000E-002  0.62500000000000000        0.0000000000000000     
   9.3750000000000000E-002  0.62500000000000000        0.0000000000000000     
  0.12500000000000000       0.62500000000000000        0.0000000000000000     
   0.0000000000000000       0.65625000000000000        0.0000000000000000     
   3.1250000000000000E-002  0.65625000000000000        0.0000000000000000     
   6.2500000000000000E-002  0.65625000000000000        0.0000000000000000     
   9.3750000000000000E-002  0.65625000000000000        0.0000000000000000     
  0.12500000000000000       0.65625000000000000        0.0000000000000000     
   0.0000000000000000       0.68750000000000000        0.0000000000000000     
   3.1250000000000000E-002  0.68750000000000000        0.0000000000000000     
   6.2500000000000000E-002  0.68750000000000000        0.0000000000000000     
   9.3750000000000000E-002  0.68750000000000000        0.0000000000000000     
  0.12500000000000000       0.68750000000000000        0.0000000000000000     
   0.0000000000000000       0.71875000000000000        0.0000000000000000     
   3.1250000000000000E-002  0.71875000000000000        0.0000000000000000     
   6.2500000000000000E-002  0.71875000000000000        0.0000000000000000     
   9.3750000000000000E-002  0.71875000000000000        0.0000000000000000     
  0.12500000000000000       0.71875000000000000        0.0000000000000000     
   0.0000000000000000       0.75000000000000000        0.0000000000000000     
   3.1250000000000000E-002  0.75000000000000000        0.0000000000000000     
   6.2500000000000000E-002  0.75000000000000000        0.0000000000000000     
   9.3750000000000000E-002  0.75000000000000000        0.0000000000000000     
  0.12500000000000000       0.75000000000000000        0.0000000000000000     
  0.12500000000000000       0.62500000000000000        0.0000000000000000     
  0.15625000000000000       0.62500000000000000        0.0000000000000000     
  0.18750000000000000       0.62500000000000000        0.0000000000000000     
  0.21875000000000000       0.62500000000000000        0.0000000000000000     
  0.25000000000000000       0.62500000000000000        0.0000000000000000     
  0.12500000000000000       0.65625000000000000        0.0000000000000000     
  0.15625000000000000       0.65625000000000000        0.0000000000000000     
  0.18750000000000000       0.65625000000000000        0.0000000000000000     
  0.21875000000000000       0.65625000000000000        0.0000000000000000     
  0.25000000000000000       0.65625000000000000        0.0000000000000000     
  0.12500000000000000       0.68750000000000000        0.0000000000000000     
  0.15625000000000000       0.68750000000000000        0.0000000000000000     
  0.18750000000000000       0.68750000000000000        0.0000000000000000     
  0.21875000000000000       0.68750000000000000        0.0000000000000000     
  0.25000000000000000       0.68750000000000000        0.0000000000000000     
  0.12500000000000000       0.71875000000000000        0.0000000000000000     
  0.15625000000000000       0.71875000000000000        0.0000000000000000     
  0.18750000000000000       0.71875000000000000        0.0000000000000000     
  0.21875000000000000       0.71875000000000000        0.0000000000000000     
  0.25000000000000000       0.71875000000000000        0.0000000000000000     
  0.12500000000000000       0.75000000000000000        0.0000000000000000     
  0.15625000000000000       0.75000000000000000        0.0000000000000000     
  0.18750000000000000       0.75000000000000000        0.0000000000000000     
  0.21875000000000000       0.75000000000000000        0.0000000000000000     
  0.25000000000000000       0.75000000000000000        0.0000000000000000     
  0.25000000000000000       0.62500000000000000        0.0000000000000000     
  0.28125000000000000       0.62500000000000000        0.0000000000000000     
  0.31250000000000000       0.62500000000000000        0.0000000000000000     
  0.34375000000000000       0.62500000000000000        0.0000000000000000     
  0.37500000000000000       0.62500000000000000        0.0000000000000000     
  0.25000000000000000       0.65625000000000000        0.0000000000000000     
  0.28125000000000000       0.65625000000000000        0.0000000000000000     
  0.31250000000000000       0.65625000000000000        0.0000000000000000     
  0.34375000000000000       0.65625000000000000        0.0000000000000000     
  0.37500000000000000       0.65625000000000000        0.0000000000000000     
  0.25000000000000000       0.68750000000000000        0.0000000000000000     
  0.28125000000000000       0.68750000000000000        0.0000000000000000     
  0.31250000000000000       0.68750000000000000        0.0000000000000000     
  0.34375000000000000       0.68750000000000000        0.0000000000000000     
  0.37500000000000000       0.68750000000000000        0.0000000000000000     
  0.25000000000000000       0.71875000000000000        0.0000000000000000     
  0.28125000000000000       0.71875000000000000        0.0000000000000000     
  0.31250000000000000       0.71875000000000000        0.0000000000000000     
  0.34375000000000000       0.71875000000000000        0.0000000000000000     
  0.37500000000000000       0.71875000000000000        0.0000000000000000     
  0.25000000000000000       0.75000000000000000        0.0000000000000000     
  0.28125000000000000       0.75000000000000000        0.0000000000000000     
  0.31250000000000000       0.75000000000000000        0.0000000000000000     
  0.34375000000000000       0.75000000000000000        0.0000000000000000     
  0.37500000000000000       0.75000000000000000        0.0000000000000000     
  0.37500000000000000       0.62500000000000000        0.0000000000000000     
  0.40625000000000000       0.62500000000000000        0.0000000000000000     
  0.43750000000000000       0.62500000000000000        0.0000000000000000     
  0.46875000000000000       0.62500000000000000        0.0000000000000000     
  0.50000000000000000       0.62500000000000000        0.0000000000000000     
  0.37500000000000000       0.65625000000000000        0.0000000000000000     
  0.40625000000000000       0.65625000000000000        0.0000000000000000     
  0.43750000000000000       0.65625000000000000        0.0000000000000000     
  0.46875000000000000       0.65625000000000000        0.0000000000000000     
  0.50000000000000000       0.65625000000000000        0.0000000000000000     
  0.37500000000000000       0.68750000000000000        0.0000000000000000     
  0.40625000000000000       0.68750000000000000        0.0000000000000000     
  0.43750000000000000       0.68750000000000000        0.0000000000000000     
  0.46875000000000000       0.68750000000000000        0.0000000000000000     
  0.50000000000000000       0.68750000000000000        0.0000000000000000     
  0.37500000000000000       0.71875000000000000        0.0000000000000000     
  0.40625000000000000       0.71875000000000000        0.0000000000000000     
  0.43750000000000000       0.71875000000000000        0.0000000000000000     
  0.46875000000000000       0.71875000000000000        0.0000000000000000     
  0.50000000000000000       0.71875000000000000        0.0000000000000000     
  0.37500000000000000       0.75000000000000000        0.0000000000000000     
  0.40625000000000000       0.75000000000000000        0.0000000000000000     
  0.43750000000000000       0.75000000000000000        0.0000000000000000     
  0.46875000000000000       0.75000000000000000        0.0000000000000000     
  0.50000000000000000       0.75000000000000000        0.0000000000000000     
  0.50000000000000000       0.62500000000000000        0.0000000000000000     
  0.53125000000000000       0.62500000000000000        0.0000000000000000     
  0.56250000000000000       0.62500000000000000        0.0000000000000000     
  0.59375000000000000       0.62500000000000000        0.0000000000000000     
  0.62500000000000000       0.62500000000000000        0.0000000000000000     
  0.50000000000000000       0.65625000000000000        0.0000000000000000     
  0.53125000000000000       0.65625000000000000        0.0000000000000000     
  0.56250000000000000       0.65625000000000000        0.0000000000000000     
  0.59375000000000000       0.65625000000000000        0.0000000000000000     
  0.62500000000000000       0.65625000000000000        0.0000000000000000     
  0.50000000000000000       0.68750000000000000        0.0000000000000000     
  0.53125000000000000       0.68750000000000000        0.0000000000000000     
  0.56250000000000000       0.68750000000000000        0.0000000000000000     
  0.59375000000000000       0.68750000000000000        0.0000000000000000     
  0.62500000000000000       0.68750000000000000        0.0000000000000000     
  0.50000000000000000       0.71875000000000000        0.0000000000000000     
  0.53125000000000000       0.71875000000000000        0.0000000000000000     
  0.56250000000000000       0.71875000000000000        0.0000000000000000     
  0.59375000000000000       0.71875000000000000        0.0000000000000000     
  0.62500000000000000       0.71875000000000000        0.0000000000000000     
  0.50000000000000000       0.75000000000000000        0.0000000000000000     
  0.53125000000000000       0.75000000000000000        0.0000000000000000     
  0.56250000000000000       0.75000000000000000        0.0000000000000000     
  0.59375000000000000       0.75000000000000000        0.0000000000000000     
  0.62500000000000000       0.75000000000000000        0.0000000000000000     
  0.62500000000000000       0.62500000000000000        0.0000000000000000     
  0.65625000000000000       0.62500000000000000        0.0000000000000000     
  0.68750000000000000       0.62500000000000000        0.0000000000000000     
  0.71875000000000000       0.62500000000000000        0.0000000000000000     
  0.75000000000000000       0.62500000000000000        0.0000000000000000     
  0.62500000000000000       0.65625000000000000        0.0000000000000000     
  0.65625000000000000       0.65625000000000000        0.0000000000000000     
  0.68750000000000000       0.65625000000000000        0.0000000000000000     
  0.71875000000000000       0.65625000000000000        0.0000000000000000     
  0.75000000000000000       0.65625000000000000        0.0000000000000000     
  0.62500000000000000       0.68750000000000000        0.0000000000000000     
  0.65625000000000000       0.68750000000000000        0.0000000000000000     
  0.68750000000000000       0.68750000000000000        0.0000000000000000     
  0.71875000000000000       0.68750000000000000        0.0000000000000000     
  0.75000000000000000       0.68750000000000000        0.0000000000000000     
  0.62500000000000000       0.71875000000000000        0.0000000000000000     
  0.65625000000000000       0.71875000000000000        0.0000000000000000     
  0.68750000000000000       0.71875000000000000        0.0000000000000000     
  0.71875000000000000       0.71875000000000000        0.0000000000000000     
  0.75000000000000000       0.71875000000000000        0.0000000000000000     
  0.62500000000000000       0.75000000000000000        0.0000000000000000     
  0.65625000000000000       0.75000000000000000        0.0000000000000000     
  0.68750000000000000       0.75000000000000000        0.0000000000000000     
  0.71875000000000000       0.75000000000000000        0.0000000000000000     
  0.75000000000000000       0.75000000000000000        0.0000000000000000     
  0.75000000000000000       0.62500000000000000        0.0000000000000000     
  0.78125000000000000       0.62500000000000000        0.0000000000000000     
  0.81250000000000000       0.62500000000000000        0.0000000000000000     
  0.84375000000000000       0.62500000000000000        0.0000000000000000     
  0.87500000000000000       0.62500000000000000        0.0000000000000000     
  0.75000000000000000       0.65625000000000000        0.0000000000000000     
  0.78125000000000000       0.65625000000000000        0.0000000000000000     
  0.81250000000000000       0.65625000000000000        0.0000000000000000     
  0.84375000000000000       0.65625000000000000        0.0000000000000000     
  0.87500000000000000       0.65625000000000000        0.0000000000000000     
  0.75000000000000000       0.68750000000000000        0.0000000000000000     
  0.78125000000000000       0.68750000000000000        0.0000000000000000     
  0.81250000000000000       0.68750000000000000        0.0000000000000000     
  0.84375000000000000       0.68750000000000000        0.0000000000000000     
  0.87500000000000000       0.68750000000000000        0.0000000000000000     
  0.75000000000000000       0.71875000000000000        0.0000000000000000     
  0.78125000000000000       0.71875000000000000        0.0000000000000000     
  0.81250000000000000       0.71875000000000000        0.0000000000000000     
  0.84375000000000000       0.71875000000000000        0.0000000000000000     
  0.87500000000000000       0.71875000000000000        0.0000000000000000     
  0.75000000000000000       0.75000000000000000        0.0000000000000000     
  0.78125000000000000       0.75000000000000000        0.0000000000000000     
  0.81250000000000000       0.75000000000000000        0.0000000000000000     
  0.84375000000000000       0.75000000000000000        0.0000000000000000     
  0.87500000000000000       0.75000000000000000        0.0000000000000000     
  0.87500000000000000       0.62500000000000000        0.0000000000000000     
  0.90625000000000000       0.62500000000000000        0.0000000000000000     
  0.93750000000000000       0.62500000000000000        0.0000000000000000     
  0.96875000000000000       0.62500000000000000        0.0000000000000000     
   1.0000000000000000       0.62500000000000000        0.0000000000000000     
  0.87500000000000000       0.65625000000000000        0.0000000000000000     
  0.90625000000000000       0.65625000000000000        0.0000000000000000     
  0.93750000000000000       0.65625000000000000        0.0000000000000000     
  0.96875000000000000       0.65625000000000000        0.0000000000000000     
   1.0000000000000000       0.65625000000000000        0.0000000000000000     
  0.87500000000000000       0.68750000000000000        0.0000000000000000     
  0.90625000000000000       0.68750000000000000        0.0000000000000000     
  0.93750000000000000       0.68750000000000000        0.0000000000000000     
  0.96875000000000000       0.68750000000000000        0.0000000000000000     
   1.0000000000000000       0.68750000000000000        0.0000000000000000     
  0.87500000000000000       0.71875000000000000        0.0000000000000000     
  0.90625000000000000       0.71875000000000000        0.0000000000000000     
  0.93750000000000000       0.71875000000000000        0.0000000000000000     
  0.96875000000000000       0.71875000000000000        0.0000000000000000     
   1.0000000000000000       0.71875000000000000        0.0000000000000000     
  0.87500000000000000       0.75000000000000000        0.0000000000000000     
  0.90625000000000000       0.75000000000000000        0.0000000000000000     
  0.93750000000000000       0.75000000000000000        0.0000000000000000     
  0.96875000000000000       0.75000000000000000        0.0000000000000000     
   1.0000000000000000       0.75000000000000000        0.0000000000000000     
   0.0000000000000000       0.75000000000000000        0.0000000000000000     
   3.1250000000000000E-002  0.75000000000000000        0.0000000000000000     
   6.2500000000000000E-002  0.75000000000000000        0.0000000000000000     
   9.3750000000000000E-002  0.75000000000000000        0.0000000000000000     
  0.12500000000000000       0.75000000000000000        0.0000000000000000     
   0.0000000000000000       0.78125000000000000        0.0000000000000000     
   3.1250000000000000E-002  0.78125000000000000        0.0000000000000000     
   6.2500000000000000E-002  0.78125000000000000        0.0000000000000000     
   9.3750000000000000E-002  0.78125000000000000        0.0000000000000000     
  0.12500000000000000       0.78125000000000000        0.0000000000000000     
   0.0000000000000000       0.81250000000000000        0.0000000000000000     
   3.1250000000000000E-002  0.81250000000000000        0.0000000000000000     
   6.2500000000000000E-002  0.81250000000000000        0.0000000000000000     
   9.3750000000000000E-002  0.81250000000000000        0.0000000000000000     
  0.12500000000000000       0.81250000000000000        0.0000000000000000     
   0.0000000000000000       0.84375000000000000        0.0000000000000000     
   3.1250000000000000E-002  0.84375000000000000        0.0000000000000000     
   6.2500000000000000E-002  0.84375000000000000        0.0000000000000000     
   9.3750000000000000E-002  0.84375000000000000        0.0000000000000000     
  0.12500000000000000       0.84375000000000000        0.0000000000000000     
   0.0000000000000000       0.87500000000000000        0.0000000000000000     
   3.1250000000000000E-002  0.87500000000000000        0.0000000000000000     
   6.2500000000000000E-002  0.87500000000000000        0.0000000000000000     
   9.3750000000000000E-002  0.87500000000000000        0.0000000000000000     
  0.12500000000000000       0.87500000000000000        0.0000000000000000     
  0.12500000000000000       0.75000000000000000        0.0000000000000000     
  0.15625000000000000       0.75000000000000000        0.0000000000000000     
  0.18750000000000000       0.75000000000000000        0.0000000000000000     
  0.21875000000000000       0.75000000000000000        0.0000000000000000     
  0.25000000000000000       0.75000000000000000        0.0000000000000000     
  0.12500000000000000       0.78125000000000000        0.0000000000000000     
  0.15625000000000000       0.78125000000000000        0.0000000000000000     
  0.18750000000000000       0.78125000000000000        0.0000000000000000     
  0.21875000000000000       0.78125000000000000        0.0000000000000000     
  0.25000000000000000       0.78125000000000000        0.0000000000000000     
  0.12500000000000000       0.81250000000000000        0.0000000000000000     
  0.15625000000000000       0.81250000000000000        0.0000000000000000     
  0.18750000000000000       0.81250000000000000        0.0000000000000000     
  0.21875000000000000       0.81250000000000000        0.0000000000000000     
  0.25000000000000000       0.81250000000000000        0.0000000000000000     
  0.12500000000000000       0.84375000000000000        0.0000000000000000     
  0.15625000000000000       0.84375000000000000        0.0000000000000000     
  0.18750000000000000       0.84375000000000000        0.0000000000000000     
  0.21875000000000000       0.84375000000000000        0.0000000000000000     
  0.25000000000000000       0.84375000000000000        0.0000000000000000     
  0.12500000000000000       0.87500000000000000        0.0000000000000000     
  0.15625000000000000       0.87500000000000000        0.0000000000000000     
  0.18750000000000000       0.87500000000000000        0.0000000000000000     
  0.21875000000000000       0.87500000000000000        0.0000000000000000     
  0.25000000000000000       0.87500000000000000        0.0000000000000000     
  0.25000000000000000       0.75000000000000000        0.0000000000000000     
  0.28125000000000000       0.75000000000000000        0.0000000000000000     
  0.31250000000000000       0.75000000000000000        0.0000000000000000     
  0.34375000000000000       0.75000000000000000        0.0000000000000000     
  0.37500000000000000       0.75000000000000000        0.0000000000000000     
  0.25000000000000000       0.78125000000000000        0.0000000000000000     
  0.28125000000000000       0.78125000000000000        0.0000000000000000     
  0.31250000000000000       0.78125000000000000        0.0000000000000000     
  0.34375000000000000       0.78125000000000000        0.0000000000000000     
  0.37500000000000000       0.78125000000000000        0.0000000000000000     
  0.25000000000000000       0.81250000000000000        0.0000000000000000     
  0.28125000000000000       0.81250000000000000        0.0000000000000000     
  0.31250000000000000       0.81250000000000000        0.0000000000000000     
  0.34375000000000000       0.81250000000000000        0.0000000000000000     
  0.37500000000000000       0.81250000000000000        0.0000000000000000     
  0.25000000000000000       0.84375000000000000        0.0000000000000000     
  0.28125000000000000       0.84375000000000000        0.0000000000000000     
  0.31250000000000000       0.84375000000000000        0.0000000000000000     
  0.34375000000000000       0.84375000000000000        0.0000000000000000     
  0.37500000000000000       0.84375000000000000        0.0000000000000000     
  0.25000000000000000       0.87500000000000000        0.0000000000000000     
  0.28125000000000000       0.87500000000000000        0.0000000000000000     
  0.31250000000000000       0.87500000000000000        0.0000000000000000     
  0.34375000000000000       0.87500000000000000        0.0000000000000000     
  0.37500000000000000       0.87500000000000000        0.0000000000000000     
  0.37500000000000000       0.75000000000000000        0.0000000000000000     
  0.40625000000000000       0.75000000000000000        0.0000000000000000     
  0.43750000000000000       0.75000000000000000        0.0000000000000000     
  0.46875000000000000       0.75000000000000000        0.0000000000000000     
  0.50000000000000000       0.75000000000000000        0.0000000000000000     
  0.37500000000000000       0.78125000000000000        0.0000000000000000     
  0.40625000000000000       0.78125000000000000        0.0000000000000000     
  0.43750000000000000       0.78125000000000000        0.0000000000000000     
  0.46875000000000000       0.78125000000000000        0.0000000000000000     
  0.50000000000000000       0.78125000000000000        0.0000000000000000     
  0.37500000000000000       0.81250000000000000        0.0000000000000000     
  0.40625000000000000       0.81250000000000000        0.0000000000000000     
  0.43750000000000000       0.81250000000000000        0.0000000000000000     
  0.46875000000000000       0.81250000000000000        0.0000000000000000     
  0.50000000000000000       0.81250000000000000        0.0000000000000000     
  0.37500000000000000       0.84375000000000000        0.0000000000000000     
  0.40625000000000000       0.84375000000000000        0.0000000000000000     
  0.43750000000000000       0.84375000000000000        0.0000000000000000     
  0.46875000000000000       0.84375000000000000        0.0000000000000000     
  0.50000000000000000       0.84375000000000000        0.0000000000000000     
  0.37500000000000000       0.87500000000000000        0.0000000000000000     
  0.40625000000000000       0.87500000000000000        0.0000000000000000     
  0.43750000000000000       0.87500000000000000        0.0000000000000000     
  0.46875000000000000       0.87500000000000000        0.0000000000000000     
  0.50000000000000000       0.87500000000000000        0.0000000000000000     
  0.50000000000000000       0.75000000000000000        0.0000000000000000     
  0.53125000000000000       0.75000000000000000        0.0000000000000000     
  0.56250000000000000       0.75000000000000000        0.0000000000000000     
  0.59375000000000000       0.75000000000000000        0.0000000000000000     
  0.62500000000000000       0.75000000000000000        0.0000000000000000     
  0.50000000000000000       0.78125000000000000        0.0000000000000000     
  0.53125000000000000       0.78125000000000000        0.0000000000000000     
  0.56250000000000000       0.78125000000000000        0.0000000000000000     
  0.59375000000000000       0.78125000000000000        0.0000000000000000     
  0.62500000000000000       0.78125000000000000        0.0000000000000000     
  0.50000000000000000       0.81250000000000000        0.0000000000000000     
  0.53125000000000000       0.81250000000000000        0.0000000000000000     
  0.56250000000000000       0.81250000000000000        0.0000000000000000     
  0.59375000000000000       0.81250000000000000        0.0000000000000000     
  0.62500000000000000       0.81250000000000000        0.0000000000000000     
  0.50000000000000000       0.84375000000000000        0.0000000000000000     
  0.53125000000000000       0.84375000000000000        0.0000000000000000     
  0.56250000000000000       0.84375000000000000        0.0000000000000000     
  0.59375000000000000       0.84375000000000000        0.0000000000000000     
  0.62500000000000000       0.84375000000000000        0.0000000000000000     
  0.50000000000000000       0.87500000000000000        0.0000000000000000     
  0.53125000000000000       0.87500000000000000        0.0000000000000000     
  0.56250000000000000       0.87500000000000000        0.0000000000000000     
  0.59375000000000000       0.87500000000000000        0.0000000000000000     
  0.62500000000000000       0.87500000000000000        0.0000000000000000     
  0.62500000000000000       0.75000000000000000        0.0000000000000000     
  0.65625000000000000       0.75000000000000000        0.0000000000000000     
  0.68750000000000000       0.75000000000000000        0.0000000000000000     
  0.71875000000000000       0.75000000000000000        0.0000000000000000     
  0.75000000000000000       0.75000000000000000        0.0000000000000000     
  0.62500000000000000       0.78125000000000000        0.0000000000000000     
  0.65625000000000000       0.78125000000000000        0.0000000000000000     
  0.68750000000000000       0.78125000000000000        0.0000000000000000     
  0.71875000000000000       0.78125000000000000        0.0000000000000000     
  0.75000000000000000       0.78125000000000000        0.0000000000000000     
  0.62500000000000000       0.81250000000000000        0.0000000000000000     
  0.65625000000000000       0.81250000000000000        0.0000000000000000     
  0.68750000000000000       0.81250000000000000        0.0000000000000000     
  0.71875000000000000       0.81250000000000000        0.0000000000000000     
  0.75000000000000000       0.81250000000000000        0.0000000000000000     
  0.62500000000000000       0.84375000000000000        0.0000000000000000     
  0.65625000000000000       0.84375000000000000        0.0000000000000000     
  0.68750000000000000       0.84375000000000000        0.0000000000000000     
  0.71875000000000000       0.84375000000000000        0.0000000000000000     
  0.75000000000000000       0.84375000000000000        0.0000000000000000     
  0.62500000000000000       0.87500000000000000        0.0000000000000000     
  0.65625000000000000       0.87500000000000000        0.0000000000000000     
  0.68750000000000000       0.87500000000000000        0.0000000000000000     
  0.71875000000000000       0.87500000000000000        0.0000000000000000     
  0.75000000000000000       0.87500000000000000        0.0000000000000000     
  0.75000000000000000       0.75000000000000000        0.0000000000000000     
  0.78125000000000000       0.75000000000000000        0.0000000000000000     
  0.81250000000000000       0.75000000000000000        0.0000000000000000     
  0.84375000000000000       0.75000000000000000        0.0000000000000000     
  0.87500000000000000       0.75000000000000000        0.0000000000000000     
  0.75000000000000000       0.78125000000000000        0.0000000000000000     
  0.78125000000000000       0.78125000000000000        0.0000000000000000     
  0.81250000000000000       0.78125000000000000        0.0000000000000000     
  0.84375000000000000       0.78125000000000000        0.0000000000000000     
  0.87500000000000000       0.78125000000000000        0.0000000000000000     
  0.75000000000000000       0.81250000000000000        0.0000000000000000     
  0.78125000000000000       0.81250000000000000        0.0000000000000000     
  0.81250000000000000       0.81250000000000000        0.0000000000000000     
  0.84375000000000000       0.81250000000000000        0.0000000000000000     
  0.87500000000000000       0.81250000000000000        0.0000000000000000     
  0.75000000000000000       0.84375000000000000        0.0000000000000000     
  0.78125000000000000       0.84375000000000000        0.0000000000000000     
  0.81250000000000000       0.84375000000000000        0.0000000000000000     
  0.84375000000000000       0.84375000000000000        0.0000000000000000     
  0.87500000000000000       0.84375000000000000        0.0000000000000000     
  0.75000000000000000       0.87500000000000000        0.0000000000000000     
  0.78125000000000000       0.87500000000000000        0.0000000000000000     
  0.81250000000000000       0.87500000000000000        0.0000000000000000     
  0.84375000000000000       0.87500000000000000        0.0000000000000000     
  0.87500000000000000       0.87500000000000000        0.0000000000000000     
  0.87500000000000000       0.75000000000000000        0.0000000000000000     
  0.90625000000000000       0.75000000000000000        0.0000000000000000     
  0.93750000000000000       0.75000000000000000        0.0000000000000000     
  0.96875000000000000       0.75000000000000000        0.0000000000000000     
   1.0000000000000000       0.75000000000000000        0.0000000000000000     
  0.87500000000000000       0.78125000000000000        0.0000000000000000     
  0.90625000000000000       0.78125000000000000        0.0000000000000000     
  0.93750000000000000       0.78125000000000000        0.0000000000000000     
  0.96875000000000000       0.78125000000000000        0.0000000000000000     
   1.0000000000000000       0.78125000000000000        0.0000000000000000     
  0.87500000000000000       0.81250000000000000        0.0000000000000000     
  0.90625000000000000       0.81250000000000000        0.0000000000000000     
  0.93750000000000000       0.81250000000000000        0.0000000000000000     
  0.96875000000000000       0.81250000000000000        0.0000000000000000     
   1.0000000000000000       0.81250000000000000        0.0000000000000000     
  0.87500000000000000       0.84375000000000000        0.0000000000000000     
  0.90625000000000000       0.84375000000000000        0.0000000000000000     
  0.93750000000000000       0.84375000000000000        0.0000000000000000     
  0.96875000000000000       0.84375000000000000        0.0000000000000000     
   1.0000000000000000       0.84375000000000000        0.0000000000000000     
  0.87500000000000000       0.87500000000000000        0.0000000000000000     
  0.90625000000000000       0.87500000000000000        0.0000000000000000     
  0.93750000000000000       0.87500000000000000        0.0000000000000000     
  0.96875000000000000       0.87500000000000000        0.0000000000000000     
   1.0000000000000000       0.87500000000000000        0.0000000000000000     
   0.0000000000000000       0.87500000000000000        0.0000000000000000     
   3.1250000000000000E-002  0.87500000000000000        0.0000000000000000     
   6.2500000000000000E-002  0.87500000000000000        0.0000000000000000     
   9.3750000000000000E-002  0.87500000000000000        0.0000000000000000     
  0.12500000000000000       0.87500000000000000        0.0000000000000000     
   0.0000000000000000       0.90625000000000000        0.0000000000000000     
   3.1250000000000000E-002  0.90625000000000000        0.0000000000000000     
   6.2500000000000000E-002  0.90625000000000000        0.0000000000000000     
   9.3750000000000000E-002  0.90625000000000000        0.0000000000000000     
  0.12500000000000000       0.90625000000000000        0.0000000000000000     
   0.0000000000000000       0.93750000000000000        0.0000000000000000     
   3.1250000000000000E-002  0.93750000000000000        0.0000000000000000     
   6.2500000000000000E-002  0.93750000000000000        0.0000000000000000     
   9.3750000000000000E-002  0.93750000000000000        0.0000000000000000     
  0.12500000000000000       0.93750000000000000        0.0000000000000000     
   0.0000000000000000       0.96875000000000000        0.0000000000000000     
   3.1250000000000000E-002  0.96875000000000000        0.0000000000000000     
   6.2500000000000000E-002  0.96875000000000000        0.0000000000000000     
   9.3750000000000000E-002  0.96875000000000000        0.0000000000000000     
  0.12500000000000000       0.96875000000000000        0.0000000000000000     
   0.0000000000000000        1.0000000000000000        0.0000000000000000     
   3.1250000000000000E-002   1.0000000000000000        0.0000000000000000     
   6.2500000000000000E-002   1.0000000000000000        0.0000000000000000     
   9.3750000000000000E-002   1.0000000000000000        0.0000000000000000     
  0.12500000000000000        1.0000000000000000        0.0000000000000000     
  0.12500000000000000       0.87500000000000000        0.0000000000000000     
  0.15625000000000000       0.87500000000000000        0.0000000000000000     
  0.18750000000000000       0.87500000000000000        0.0000000000000000     
  0.21875000000000000       0.87500000000000000        0.0000000000000000     
  0.25000000000000000       0.87500000000000000        0.0000000000000000     
  0.12500000000000000       0.90625000000000000        0.0000000000000000     
  0.15625000000000000       0.90625000000000000        0.0000000000000000     
  0.18750000000000000       0.90625000000000000        0.0000000000000000     
  0.21875000000000000       0.90625000000000000        0.0000000000000000     
  0.25000000000000000       0.90625000000000000        0.0000000000000000     
  0.12500000000000000       0.93750000000000000        0.0000000000000000     
  0.15625000000000000       0.93750000000000000        0.0000000000000000     
  0.18750000000000000       0.93750000000000000        0.0000000000000000     
  0.21875000000000000       0.93750000000000000        0.0000000000000000     
  0.25000000000000000       0.93750000000000000        0.0000000000000000     
  0.12500000000000000       0.96875000000000000        0.0000000000000000     
  0.15625000000000000       0.96875000000000000        0.0000000000000000     
  0.18750000000000000       0.96875000000000000        0.0000000000000000     
  0.21875000000000000       0.96875000000000000        0.0000000000000000     
  0.25000000000000000       0.96875000000000000        0.0000000000000000     
  0.12500000000000000        1.0000000000000000        0.0000000000000000     
  0.15625000000000000        1.0000000000000000        0.0000000000000000     
  0.18750000000000000        1.0000000000000000        0.0000000000000000     
  0.21875000000000000        1.0000000000000000        0.0000000000000000     
  0.25000000000000000        1.0000000000000000        0.0000000000000000     
  0.25000000000000000       0.87500000000000000        0.0000000000000000     
  0.28125000000000000       0.87500000000000000        0.0000000000000000     
  0.31250000000000000       0.87500000000000000        0.0000000000000000     
  0.34375000000000000       0.87500000000000000        0.0000000000000000     
  0.37500000000000000       0.87500000000000000        0.0000000000000000     
  0.25000000000000000       0.90625000000000000        0.0000000000000000     
  0.28125000000000000       0.90625000000000000        0.0000000000000000     
  0.31250000000000000       0.90625000000000000        0.0000000000000000     
  0.34375000000000000       0.90625000000000000        0.0000000000000000     
  0.37500000000000000       0.90625000000000000        0.0000000000000000     
  0.25000000000000000       0.93750000000000000        0.0000000000000000     
  0.28125000000000000       0.93750000000000000        0.0000000000000000     
  0.31250000000000000       0.93750000000000000        0.0000000000000000     
  0.34375000000000000       0.93750000000000000        0.0000000000000000     
  0.37500000000000000       0.93750000000000000        0.0000000000000000     
  0.25000000000000000       0.96875000000000000        0.0000000000000000     
  0.28125000000000000       0.96875000000000000        0.0000000000000000     
  0.31250000000000000       0.96875000000000000        0.0000000000000000     
  0.34375000000000000       0.96875000000000000        0.0000000000000000     
  0.37500000000000000       0.96875000000000000        0.0000000000000000     
  0.25000000000000000        1.0000000000000000        0.0000000000000000     
  0.28125000000000000        1.0000000000000000        0.0000000000000000     
  0.31250000000000000        1.0000000000000000        0.0000000000000000     
  0.34375000000000000        1.0000000000000000        0.0000000000000000     
  0.37500000000000000        1.0000000000000000        0.0000000000000000     
  0.37500000000000000       0.87500000000000000        0.0000000000000000     
  0.40625000000000000       0.87500000000000000        0.0000000000000000     
  0.43750000000000000       0.87500000000000000        0.0000000000000000     
  0.46875000000000000       0.87500000000000000        0.0000000000000000     
  0.50000000000000000       0.87500000000000000        0.0000000000000000     
  0.37500000000000000       0.90625000000000000        0.0000000000000000     
  0.40625000000000000       0.90625000000000000        0.0000000000000000     
  0.43750000000000000       0.90625000000000000        0.0000000000000000     
  0.46875000000000000       0.90625000000000000        0.0000000000000000     
  0.50000000000000000       0.90625000000000000        0.0000000000000000     
  0.37500000000000000       0.93750000000000000        0.0000000000000000     
  0.40625000000000000       0.93750000000000000        0.0000000000000000     
  0.43750000000000000       0.93750000000000000        0.0000000000000000     
  0.46875000000000000       0.93750000000000000        0.0000000000000000     
  0.50000000000000000       0.93750000000000000        0.0000000000000000     
  0.37500000000000000       0.96875000000000000        0.0000000000000000     
  0.40625000000000000       0.96875000000000000        0.0000000000000000     
  0.43750000000000000       0.96875000000000000        0.0000000000000000     
  0.46875000000000000       0.96875000000000000        0.0000000000000000     
  0.50000000000000000       0.96875000000000000        0.0000000000000000     
  0.37500000000000000        1.0000000000000000        0.0000000000000000     
  0.40625000000000000        1.0000000000000000        0.0000000000000000     
  0.43750000000000000        1.0000000000000000        0.0000000000000000     
  0.46875000000000000        1.0000000000000000        0.0000000000000000     
  0.50000000000000000        1.0000000000000000        0.0000000000000000     
  0.50000000000000000       0.87500000000000000        0.0000000000000000     
  0.53125000000000000       0.87500000000000000        0.0000000000000000     
  0.56250000000000000       0.87500000000000000        0.0000000000000000     
  0.59375000000000000       0.87500000000000000        0.0000000000000000     
  0.62500000000000000       0.87500000000000000        0.0000000000000000     
  0.50000000000000000       0.90625000000000000        0.0000000000000000     
  0.53125000000000000       0.90625000000000000        0.0000000000000000     
  0.56250000000000000       0.90625000000000000        0.0000000000000000     
  0.59375000000000000       0.90625000000000000        0.0000000000000000     
  0.62500000000000000       0.90625000000000000        0.0000000000000000     
  0.50000000000000000       0.93750000000000000        0.0000000000000000     
  0.53125000000000000       0.93750000000000000        0.0000000000000000     
  0.56250000000000000       0.93750000000000000        0.0000000000000000     
  0.59375000000000000       0.93750000000000000        0.0000000000000000     
  0.62500000000000000       0.93750000000000000        0.0000000000000000     
  0.50000000000000000       0.96875000000000000        0.0000000000000000     
  0.53125000000000000       0.96875000000000000        0.0000000000000000     
  0.56250000000000000       0.96875000000000000        0.0000000000000000     
  0.59375000000000000       0.96875000000000000        0.0000000000000000     
  0.62500000000000000       0.96875000000000000        0.0000000000000000     
  0.50000000000000000        1.0000000000000000        0.0000000000000000     
  0.53125000000000000        1.0000000000000000        0.0000000000000000     
  0.56250000000000000        1.0000000000000000        0.0000000000000000     
  0.59375000000000000        1.0000000000000000        0.0000000000000000     
  0.62500000000000000        1.0000000000000000        0.0000000000000000     
  0.62500000000000000       0.87500000000000000        0.0000000000000000     
  0.65625000000000000       0.87500000000000000        0.0000000000000000     
  0.68750000000000000       0.87500000000000000        0.0000000000000000     
  0.71875000000000000       0.87500000000000000        0.0000000000000000     
  0.75000000000000000       0.87500000000000000        0.0000000000000000     
  0.62500000000000000       0.90625000000000000        0.0000000000000000     
  0.65625000000000000       0.90625000000000000        0.0000000000000000     
  0.68750000000000000       0.90625000000000000        0.0000000000000000     
  0.71875000000000000       0.90625000000000000        0.0000000000000000     
  0.75000000000000000       0.90625000000000000        0.0000000000000000     
  0.62500000000000000       0.93750000000000000        0.0000000000000000     
  0.65625000000000000       0.93750000000000000        0.0000000000000000     
  0.68750000000000000       0.93750000000000000        0.0000000000000000     
  0.71875000000000000       0.93750000000000000        0.0000000000000000     
  0.75000000000000000       0.93750000000000000        0.0000000000000000     
  0.62500000000000000       0.96875000000000000        0.0000000000000000     
  0.65625000000000000       0.96875000000000000        0.0000000000000000     
  0.68750000000000000       0.96875000000000000        0.0000000000000000     
  0.71875000000000000       0.96875000000000000        0.0000000000000000     
  0.75000000000000000       0.96875000000000000        0.0000000000000000     
  0.62500000000000000        1.0000000000000000        0.0000000000000000     
  0.65625000000000000        1.0000000000000000        0.0000000000000000     
  0.68750000000000000        1.0000000000000000        0.0000000000000000     
  0.71875000000000000        1.0000000000000000        0.0000000000000000     
  0.75000000000000000        1.0000000000000000        0.0000000000000000     
  0.75000000000000000       0.87500000000000000        0.0000000000000000     
  0.78125000000000000       0.87500000000000000        0.0000000000000000     
  0.81250000000000000       0.87500000000000000        0.0000000000000000     
  0.84375000000000000       0.87500000000000000        0.0000000000000000     
  0.87500000000000000       0.87500000000000000        0.0000000000000000     
  0.75000000000000000       0.90625000000000000        0.0000000000000000     
  0.78125000000000000       0.90625000000000000        0.0000000000000000     
  0.81250000000000000       0.90625000000000000        0.0000000000000000     
  0.84375000000000000       0.90625000000000000        0.0000000000000000     
  0.87500000000000000       0.90625000000000000        0.0000000000000000     
  0.75000000000000000       0.93750000000000000        0.0000000000000000     
  0.78125000000000000       0.93750000000000000        0.0000000000000000     
  0.81250000000000000       0.93750000000000000        0.0000000000000000     
  0.84375000000000000       0.93750000000000000        0.0000000000000000     
  0.87500000000000000       0.93750000000000000        0.0000000000000000     
  0.75000000000000000       0.96875000000000000        0.0000000000000000     
  0.78125000000000000       0.96875000000000000        0.0000000000000000     
  0.81250000000000000       0.96875000000000000        0.0000000000000000     
  0.84375000000000000       0.96875000000000000        0.0000000000000000     
  0.87500000000000000       0.96875000000000000        0.0000000000000000     
  0.75000000000000000        1.0000000000000000        0.0000000000000000     
  0.78125000000000000        1.0000000000000000        0.0000000000000000     
  0.81250000000000000        1.0000000000000000        0.0000000000000000     
  0.84375000000000000        1.0000000000000000        0.0000000000000000     
  0.87500000000000000        1.0000000000000000        0.0000000000000000     
  0.87500000000000000       0.87500000000000000        0.0000000000000000     
  0.90625000000000000       0.87500000000000000        0.0000000000000000     
  0.93750000000000000       0.87500000000000000        0.0000000000000000     
  0.96875000000000000       0.87500000000000000        0.0000000000000000     
   1.0000000000000000       0.87500000000000000        0.0000000000000000     
  0.87500000000000000       0.90625000000000000        0.0000000000000000     
  0.90625000000000000       0.90625000000000000        0.0000000000000000     
  0.93750000000000000       0.90625000000000000        0.0000000000000000     
  0.96875000000000000       0.90625000000000000        0.0000000000000000     
   1.0000000000000000       0.90625000000000000        0.0000000000000000     
  0.87500000000000000       0.93750000000000000        0.0000000000000000     
  0.90625000000000000       0.93750000000000000        0.0000000000000000     
  0.93750000000000000       0.93750000000000000        0.0000000000000000     
  0.96875000000000000       0.93750000000000000        0.0000000000000000     
   1.0000000000000000       0.93750000000000000        0.0000000000000000     
  0.87500000000000000       0.96875000000000000        0.0000000000000000     
  0.90625000000000000       0.96875000000000000        0.0000000000000000     
  0.93750000000000000       0.96875000000000000        0.0000000000000000     
  0.96875000000000000       0.96875000000000000        0.0000000000000000     
   1.0000000000000000       0.96875000000000000        0.0000000000000000     
  0.87500000000000000        1.0000000000000000        0.0000000000000000     
  0.90625000000000000        1.0000000000000000        0.0000000000000000     
  0.93750000000000000        1.0000000000000000        0.0000000000000000     
  0.96875000000000000        1.0000000000000000        0.0000000000000000     
   1.0000000000000000        1.0000000000000000        0.0000000000000000     
 </DataArray>
 </Points>
 <Cells>
 <DataArray  type="Int32"  Name="connectivity"  format="ascii">
           0           1           6           5
           1           2           7           6
           2           3           8           7
           3           4           9           8
           5           6          11          10
           6           7          12          11
           7           8          13          12
           8           9          14          13
          10          11          16          15
          11          12          17          16
          12          13          18          17
          13          14          19          18
          15          16          21          20
          16          17          22          21
          17          18          23          22
          18          19          24          23
          25          26          31          30
          26          27          32          31
          27          28          33          32
          28          29          34          33
          30          31          36          35
          31          32          37          36
          32          33          38          37
          33          34          39          38
          35          36          41          40
          36          37          42          41
          37          38          43          42
          38          39          44          43
          40          41          46          45
          41          42          47          46
          42          43          48          47
          43          44          49          48
          50          51          56          55
          51          52          57          56
          52          53          58          57
          53          54          59          58
          55          56          61          60
          56          57          62          61
          57          58          63          62
          58          59          64          63
          60          61          66          65
          61          62          67          66
          62          63          68          67
          63          64          69          68
          65          66          71          70
          66          67          72          71
          67          68          73          72
          68          69          74          73
          75          76          81          80
          76          77          82          81
          77          78          83          82
          78          79          84          83
          80          81          86          85
          81          82          87          86
          82          83          88          87
          83          84          89          88
          85          86          91          90
          86          87          92          91
          87          88          93          92
          88          89          94          93
          90          91          96          95
          91          92          97          96
          92          93          98          97
          93          94          99          98
         100         101         106         105
         101         102         107         106
         102         103         108         107
         103         104         109         108
         105         106         111         110
         106         107         112         111
         107         108         113         112
         108         109         114         113
         110         111         116         115
         111         112         117         116
         112         113         118         117
         113         114         119         118
         115         116         121         120
         116         117         122         121
         117         118         123         122
         118         119         124         123
         125         126         131         130
         126         127         132         131
         127         128         133         132
         128         129         134         133
         130         131         136         135
         131         132         137         136
         132         133         138         137
         133         134         139         138
         135         136         141         140
         136         137         142         141
         137         138         143         142
         138         139         144         143
         140         141         146         145
         141         142         147         146
         142         143         148         147
         143         144         149         148
         150         151         156         155
         151         152         157         156
         152         153         158         157
         153         154         159         158
         155         156         161         160
         156         157         162         161
         157         158         163         162
         158         159         164         163
         160         161         166         165
         161         162         167         166
         162         163         168         167
         163         164         169         168
         165         166         171         170
         166         167         172         171
         167         168         173         172
         168         169         174         173
         175         176         181         180
         176         177         182         181
         177         178         183         182
         178         179         184         183
         180         181         186         185
         181         182         187         186
         182         183         188         187
         183         184         189         188
         185         186         191         190
         186         187         192         191
         187         188         193         192
         188         189         194         193
         190         191         196         195
         191         192         197         196
         192         193         198         197
         193         194         199         198
         200         201         206         205
         201         202         207         206
         202         203         208         207
         203         204         209         208
         205         206         211         210
         206         207         212         211
         207         208         213         212
         208         209         214         213
         210         211         216         215
         211         212         217         216
         212         213         218         217
         213         214         219         218
         215         216         221         220
         216         217         222         221
         217         218         223         222
         218         219         224         223
         225         226         231         230
         226         227         232         231
         227         228         233         232
         228         229         234         233
         230         231         236         235
         231         232         237         236
         232         233         238         237
         233         234         239         238
         235         236         241         240
         236         237         242         241
         237         238         243         242
         238         239         244         243
         240         241         246         245
         241         242         247         246
         242         243         248         247
         243         244         249         248
         250         251         256         255
         251         252         257         256
         252         253         258         257
         253         254         259         258
         255         256         261         260
         256         257         262         261
         257         258         263         262
         258         259         264         263
         260         261         266         265
         261         262         267         266
         262         263         268         267
         263         264         269         268
         265         266         271         270
         266         267         272         271
         267         268         273         272
         268         269         274         273
         275         276         281         280
         276         277         282         281
         277         278         283         282
         278         279         284         283
         280         281         286         285
         281         282         287         286
         282         283         288         287
         283         284         289         288
         285         286         291         290
         286         287         292         291
         287         288         293         292
         288         289         294         293
         290         291         296         295
         291         292         297         296
         292         293         298         297
         293         294         299         298
         300         301         306         305
         301         302         307         306
         302         303         308         307
         303         304         309         308
         305         306         311         310
         306         307         312         311
         307         308         313         312
         308         309         314         313
         310         311         316         315
         311         312         317         316
         312         313         318         317
         313         314         319         318
         315         316         321         320
         316         317         322         321
         317         318         323         322
         318         319         324         323
         325         326         331         330
         326         327         332         331
         327         328         333         332
         328         329         334         333
         330         331         336         335
         331         332         337         336
         332         333         338         337
         333         334         339         338
         335         336         341         340
         336         337         342         341
         337         338         343         342
         338         339         344         343
         340         341         346         345
         341         342         347         346
         342         343         348         347
         343         344         349         348
         350         351         356         355
         351         352         357         356
         352         353         358         357
         353         354         359         358
         355         356         361         360
         356         357         362         361
         357         358         363         362
         358         359         364         363
         360         361         366         365
         361         362         367         366
         362         363         368         367
         363         364         369         368
         365         366         371         370
         366         367         372         371
         367         368         373         372
         368         369         374         373
         375         376         381         380
         376         377         382         381
         377         378         383         382
         378         379         384         383
         380         381         386         385
         381         382         387         386
         382         383         388         387
         383         384         389         388
         385         386         391         390
         386         387         392         391
         387         388         393         392
         388         389         394         393
         390         391         396         395
         391         392         397         396
         392         393         398         397
         393         394         399         398
         400         401         406         405
         401         402         407         406
         402         403         408         407
         403         404         409         408
         405         406         411         410
         406         407         412         411
         407         408         413         412
         408         409         414         413
         410         411         416         415
         411         412         417         416
         412         413         418         417
         413         414         419         418
         415         416         421         420
         416         417         422         421
         417         418         423         422
         418         419         424         423
         425         426         431         430
         426         427         432         431
         427         428         433         432
         428         429         434         433
         430         431         436         435
         431         432         437         436
         432         433         438         437
         433         434         439         438
         435         436         441         440
         436         437         442         441
         437         438         443         442
         438         439         444         443
         440         441         446         445
         441         442         447         446
         442         443         448         447
         443         444         449         448
         450         451         456         455
         451         452         457         456
         452         453         458         457
         453         454         459         458
         455         456         461         460
         456         457         462         461
         457         458         463         462
         458         459         464         463
         460         461         466         465
         461         462         467         466
         462         463         468         467
         463         464         469         468
         465         466         471         470
         466         467         472         471
         467         468         473         472
         468         469         474         473
         475         476         481         480
         476         477         482         481
         477         478         483         482
         478         479         484         483
         480         481         486         485
         481         482         487         486
         482         483         488         487
         483         484         489         488
         485         486         491         490
         486         487         492         491
         487         488         493         492
         488         489         494         493
         490         491         496         495
         491         492         497         496
         492         493         498         497
         493         494         499         498
         500         501         506         505
         501         502         507         506
         502         503         508         507
         503         504         509         508
         505         506         511         510
         506         507         512         511
         507         508         513         512
         508         509         514         513
         510         511         516         515
         511         512         517         516
         512         513         518         517
         513         514         519         518
         515         516         521         520
         516         517         522         521
         517         518         523         522
         518         519         524         523
         525         526         531         530
         526         527         532         531
         527         528         533         532
         528         529         534         533
         530         531         536         535
         531         532         537         536
         532         533         538         537
         533         534         539         538
         535         536         541         540
         536         537         542         541
         537         538         543         542
         538         539         544         543
         540         541         546         545
         541         542         547         546
         542         543         548         547
         543         544         549         548
         550         551         556         555
         551         552         557         556
         552         553         558         557
         553         554         559         558
         555         556         561         560
         556         557         562         561
         557         558         563         562
         558         559         564         563
         560         561         566         565
         561         562         567         566
         562         563         568         567
         563         564         569         568
         565         566         571         570
         566         567         572         571
         567         568         573         572
         568         569         574         573
         575         576         581         580
         576         577         582         581
         577         578         583         582
         578         579         584         583
         580         581         586         585
         581         582         587         586
         582         583         588         587
         583         584         589         588
         585         586         591         590
         586         587         592         591
         587         588         593         592
         588         589         594         593
         590         591         596         595
         591         592         597         596
         592         593         598         597
         593         594         599         598
         600         601         606         605
         601         602         607         606
         602         603         608         607
         603         604         609         608
         605         606         611         610
         606         607         612         611
         607         608         613         612
         608         609         614         613
         610         611         616         615
         611         612         617         616
         612         613         618         617
         613         614         619         618
         615         616         621         620
         616         617         622         621
         617         618         623         622
         618         619         624         623
         625         626         631         630
         626         627         632         631
         627         628         633         632
         628         629         634         633
         630         631         636         635
         631         632         637         636
         632         633         638         637
         633         634         639         638
         635         636         641         640
         636         637         642         641
         637         638         643         642
         638         639         644         643
         640         641         646         645
         641         642         647         646
         642         643         648         647
         643         644         649         648
         650         651         656         655
         651         652         657         656
         652         653         658         657
         653         654         659         658
         655         656         661         660
         656         657         662         661
         657         658         663         662
         658         659         664         663
         660         661         666         665
         661         662         667         666
         662         663         668         667
         663         664         669         668
         665         666         671         670
         666         667         672         671
         667         668         673         672
         668         669         674         673
         675         676         681         680
         676         677         682         681
         677         678         683         682
         678         679         684         683
         680         681         686         685
         681         682         687         686
         682         683         688         687
         683         684         689         688
         685         686         691         690
         686         687         692         691
         687         688         693         692
         688         689         694         693
         690         691         696         695
         691         692         697         696
         692         693         698         697
         693         694         699         698
         700         701         706         705
         701         702         707         706
         702         703         708         707
         703         704         709         708
         705         706         711         710
         706         707         712         711
         707         708         713         712
         708         709         714         713
         710         711         716         715
         711         712         717         716
         712         713         718         717
         713         714         719         718
         715         716         721         720
         716         717         722         721
         717         718         723         722
         718         719         724         723
         725         726         731         730
         726         727         732         731
         727         728         733         732
         728         729         734         733
         730         731         736         735
         731         732         737         736
         732         733         738         737
         733         734         739         738
         735         736         741         740
         736         737         742         741
         737         738         743         742
         738         739         744         743
         740         741         746         745
         741         742         747         746
         742         743         748         747
         743         744         749         748
         750         751         756         755
         751         752         757         756
         752         753         758         757
         753         754         759         758
         755         756         761         760
         756         757         762         761
         757         758         763         762
         758         759         764         763
         760         761         766         765
         761         762         767         766
         762         763         768         767
         763         764         769         768
         765         766         771         770
         766         767         772         771
         767         768         773         772
         768         769         774         773
         775         776         781         780
         776         777         782         781
         777         778         783         782
         778         779         784         783
         780         781         786         785
         781         782         787         786
         782         783         788         787
         783         784         789         788
         785         786         791         790
         786         787         792         791
         787         788         793         792
         788         789         794         793
         790         791         796         795
         791         792         797         796
         792         793         798         797
         793         794         799         798
         800         801         806         805
         801         802         807         806
         802         803         808         807
         803         804         809         808
         805         806         811         810
         806         807         812         811
         807         808         813         812
         808         809         814         813
         810         811         816         815
         811         812         817         816
         812         813         818         817
         813         814         819         818
         815         816         821         820
         816         817         822         821
         817         818         823         822
         818         819         824         823
         825         826         831         830
         826         827         832         831
         827         828         833         832
         828         829         834         833
         830         831         836         835
         831         832         837         836
         832         833         838         837
         833         834         839         838
         835         836         841         840
         836         837         842         841
         837         838         843         842
         838         839         844         843
         840         841         846         845
         841         842         847         846
         842         843         848         847
         843         844         849         848
         850         851         856         855
         851         852         857         856
         852         853         858         857
         853         854         859         858
         855         856         861         860
         856         857         862         861
         857         858         863         862
         858         859         864         863
         860         861         866         865
         861         862         867         866
         862         863         868         867
         863         864         869         868
         865         866         871         870
         866         867         872         871
         867         868         873         872
         868         869         874         873
         875         876         881         880
         876         877         882         881
         877         878         883         882
         878         879         884         883
         880         881         886         885
         881         882         887         886
         882         883         888         887
         883         884         889         888
         885         886         891         890
         886         887         892         891
         887         888         893         892
         888         889         894         893
         890         891         896         895
         891         892         897         896
         892         893         898         897
         893         894         899         898
         900         901         906         905
         901         902         907         906
         902         903         908         907
         903         904         909         908
         905         906         911         910
         906         907         912         911
         907         908         913         912
         908         909         914         913
         910         911         916         915
         911         912         917         916
         912         913         918         917
         913         914         919         918
         915         916         921         920
         916         917         922         921
         917         918         923         922
         918         919         924         923
         925         926         931         930
         926         927         932         931
         927         928         933         932
         928         929         934         933
         930         931         936         935
         931         932         937         936
         932         933         938         937
         933         934         939         938
         935         936         941         940
         936         937         942         941
         937         938         943         942
         938         939         944         943
         940         941         946         945
         941         942         947         946
         942         943         948         947
         943         944         949         948
         950         951         956         955
         951         952         957         956
         952         953         958         957
         953         954         959         958
         955         956         961         960
         956         957         962         961
         957         958         963         962
         958         959         964         963
         960         961         966         965
         961         962         967         966
         962         963         968         967
         963         964         969         968
         965         966         971         970
         966         967         972         971
         967         968         973         972
         968         969         974         973
         975         976         981         980
         976         977         982         981
         977         978         983         982
         978         979         984         983
         980         981         986         985
         981         982         987         986
         982         983         988         987
         983         984         989         988
         985         986         991         990
         986         987         992         991
         987         988         993         992
         988         989         994         993
         990         991         996         995
         991         992         997         996
         992         993         998         997
         993         994         999         998
        1000        1001        1006        1005
        1001        1002        1007        1006
        1002        1003        1008        1007
        1003        1004        1009        1008
        1005        1006        1011        1010
        1006        1007        1012        1011
        1007        1008        1013        1012
        1008        1009        1014        1013
        1010        1011        1016        1015
        1011        1012        1017        1016
        1012        1013        1018        1017
        1013        1014        1019        1018
        1015        1016        1021        1020
        1016        1017        1022        1021
        1017        1018        1023        1022
        1018        1019        1024        1023
        1025        1026        1031        1030
        1026        1027        1032        1031
        1027        1028        1033        1032
        1028        1029        1034        1033
        1030        1031        1036        1035
        1031        1032        1037        1036
        1032        1033        1038        1037
        1033        1034        1039        1038
        1035        1036        1041        1040
        1036        1037        1042        1041
        1037        1038        1043        1042
        1038        1039        1044        1043
        1040        1041        1046        1045
        1041        1042        1047        1046
        1042        1043        1048        1047
        1043        1044        1049        1048
        1050        1051        1056        1055
        1051        1052        1057        1056
        1052        1053        1058        1057
        1053        1054        1059        1058
        1055        1056        1061        1060
        1056        1057        1062        1061
        1057        1058        1063        1062
        1058        1059        1064        1063
        1060        1061        1066        1065
        1061        1062        1067        1066
        1062        1063        1068        1067
        1063        1064        1069        1068
        1065        1066        1071        1070
        1066        1067        1072        1071
        1067        1068        1073        1072
        1068        1069        1074        1073
        1075        1076        1081        1080
        1076        1077        1082        1081
        1077        1078        1083        1082
        1078        1079        1084        1083
        1080        1081        1086        1085
        1081        1082        1087        1086
        1082        1083        1088        1087
        1083        1084        1089        1088
        1085        1086        1091        1090
        1086        1087        1092        1091
        1087        1088        1093        1092
        1088        1089        1094        1093
        1090        1091        1096        1095
        1091        1092        1097        1096
        1092        1093        1098        1097
        1093        1094        1099        1098
        1100        1101        1106        1105
        1101        1102        1107        1106
        1102        1103        1108        1107
        1103        1104        1109        1108
        1105        1106        1111        1110
        1106        1107        1112        1111
        1107        1108        1113        1112
        1108        1109        1114        1113
        1110        1111        1116        1115
        1111        1112        1117        1116
        1112        1113        1118        1117
        1113        1114        1119        1118
        1115        1116        1121        1120
        1116        1117        1122        1121
        1117        1118        1123        1122
        1118        1119        1124        1123
        1125        1126        1131        1130
        1126        1127        1132        1131
        1127        1128        1133        1132
        1128        1129        1134        1133
        1130        1131        1136        1135
        1131        1132        1137        1136
        1132        1133        1138        1137
        1133        1134        1139        1138
        1135        1136        1141        1140
        1136        1137        1142        1141
        1137        1138        1143        1142
        1138        1139        1144        1143
        1140        1141        1146        1145
        1141        1142        1147        1146
        1142        1143        1148        1147
        1143        1144        1149        1148
        1150        1151        1156        1155
        1151        1152        1157        1156
        1152        1153        1158        1157
        1153        1154        1159        1158
        1155        1156        1161        1160
        1156        1157        1162        1161
        1157        1158        1163        1162
        1158        1159        1164        1163
        1160        1161        1166        1165
        1161        1162        1167        1166
        1162        1163        1168        1167
        1163        1164        1169        1168
        1165        1166        1171        1170
        1166        1167        1172        1171
        1167        1168        1173        1172
        1168        1169        1174        1173
        1175        1176        1181        1180
        1176        1177        1182        1181
        1177        1178        1183        1182
        1178        1179        1184        1183
        1180        1181        1186        1185
        1181        1182        1187        1186
        1182        1183        1188        1187
        1183        1184        1189        1188
        1185        1186        1191        1190
        1186        1187        1192        1191
        1187        1188        1193        1192
        1188        1189        1194        1193
        1190        1191        1196        1195
        1191        1192        1197        1196
        1192        1193        1198        1197
        1193        1194        1199        1198
        1200        1201        1206        1205
        1201        1202        1207        1206
        1202        1203        1208        1207
        1203        1204        1209        1208
        1205        1206        1211        1210
        1206        1207        1212        1211
        1207        1208        1213        1212
        1208        1209        1214        1213
        1210        1211        1216        1215
        1211        1212        1217        1216
        1212        1213        1218        1217
        1213        1214        1219        1218
        1215        1216        1221        1220
        1216        1217        1222        1221
        1217        1218        1223        1222
        1218        1219        1224        1223
        1225        1226        1231        1230
        1226        1227        1232        1231
        1227        1228        1233        1232
        1228        1229        1234        1233
        1230        1231        1236        1235
        1231        1232        1237        1236
        1232        1233        1238        1237
        1233        1234        1239        1238
        1235        1236        1241        1240
        1236        1237        1242        1241
        1237        1238        1243        1242
        1238        1239        1244        1243
        1240        1241        1246        1245
        1241        1242        1247        1246
        1242        1243        1248        1247
        1243        1244        1249        1248
        1250        1251        1256        1255
        1251        1252        1257        1256
        1252        1253        1258        1257
        1253        1254        1259        1258
        1255        1256        1261        1260
        1256        1257        1262        1261
        1257        1258        1263        1262
        1258        1259        1264        1263
        1260        1261        1266        1265
        1261        1262        1267        1266
        1262        1263        1268        1267
        1263        1264        1269        1268
        1265        1266        1271        1270
        1266        1267        1272        1271
        1267        1268        1273        1272
        1268        1269        1274        1273
        1275        1276        1281        1280
        1276        1277        1282        1281
        1277        1278        1283        1282
        1278        1279        1284        1283
        1280        1281        1286        1285
        1281        1282        1287        1286
        1282        1283        1288        1287
        1283        1284        1289        1288
        1285        1286        1291        1290
        1286        1287        1292        1291
        1287        1288        1293        1292
        1288        1289        1294        1293
        1290        1291        1296        1295
        1291        1292        1297        1296
        1292        1293        1298        1297
        1293        1294        1299        1298
        1300        1301        1306        1305
        1301        1302        1307        1306
        1302        1303        1308        1307
        1303        1304        1309        1308
        1305        1306        1311        1310
        1306        1307        1312        1311
        1307        1308        1313        1312
        1308        1309        1314        1313
        1310        1311        1316        1315
        1311        1312        1317        1316
        1312        1313        1318        1317
        1313        1314        1319        1318
        1315        1316        1321        1320
        1316        1317        1322        1321
        1317        1318        1323        1322
        1318        1319        1324        1323
        1325        1326        1331        1330
        1326        1327        1332        1331
        1327        1328        1333        1332
        1328        1329        1334        1333
        1330        1331        1336        1335
        1331        1332        1337        1336
        1332        1333        1338        1337
        1333        1334        1339        1338
        1335        1336        1341        1340
        1336        1337        1342        1341
        1337        1338        1343        1342
        1338        1339        1344        1343
        1340        1341        1346        1345
        1341        1342        1347        1346
        1342        1343        1348        1347
        1343        1344        1349        1348
        1350        1351        1356        1355
        1351        1352        1357        1356
        1352        1353        1358        1357
        1353        1354        1359        1358
        1355        1356        1361        1360
        1356        1357        1362        1361
        1357        1358        1363        1362
        1358        1359        1364        1363
        1360        1361        1366        1365
        1361        1362        1367        1366
        1362        1363        1368        1367
        1363        1364        1369        1368
        1365        1366        1371        1370
        1366        1367        1372        1371
        1367        1368        1373        1372
        1368        1369        1374        1373
        1375        1376        1381        1380
        1376        1377        1382        1381
        1377        1378        1383        1382
        1378        1379        1384        1383
        1380        1381        1386        1385
        1381        1382        1387        1386
        1382        1383        1388        1387
        1383        1384        1389        1388
        1385        1386        1391        1390
        1386        1387        1392        1391
        1387        1388        1393        1392
        1388        1389        1394        1393
        1390        1391        1396        1395
        1391        1392        1397        1396
        1392        1393        1398        1397
        1393        1394        1399        1398
        1400        1401        1406        1405
        1401        1402        1407        1406
        1402        1403        1408        1407
        1403        1404        1409        1408
        1405        1406        1411        1410
        1406        1407        1412        1411
        1407        1408        1413        1412
        1408        1409        1414        1413
        1410        1411        1416        1415
        1411        1412        1417        1416
        1412        1413        1418        1417
        1413        1414        1419        1418
        1415        1416        1421        1420
        1416        1417        1422        1421
        1417        1418        1423        1422
        1418        1419        1424        1423
        1425        1426        1431        1430
        1426        1427        1432        1431
        1427        1428        1433        1432
        1428        1429        1434        1433
        1430        1431        1436        1435
        1431        1432        1437        1436
        1432        1433        1438        1437
        1433        1434        1439        1438
        1435        1436        1441        1440
        1436        1437        1442        1441
        1437        1438        1443        1442
        1438        1439        1444        1443
        1440        1441        1446        1445
        1441        1442        1447        1446
        1442        1443        1448        1447
        1443        1444        1449        1448
        1450        1451        1456        1455
        1451        1452        1457        1456
        1452        1453        1458        1457
        1453        1454        1459        1458
        1455        1456        1461        1460
        1456        1457        1462        1461
        1457        1458        1463        1462
        1458        1459        1464        1463
        1460        1461        1466        1465
        1461        1462        1467        1466
        1462        1463        1468        1467
        1463        1464        1469        1468
        1465        1466        1471        1470
        1466        1467        1472        1471
        1467        1468        1473        1472
        1468        1469        1474        1473
        1475        1476        1481        1480
        1476        1477        1482        1481
        1477        1478        1483        1482
        1478        1479        1484        1483
        1480        1481        1486        1485
        1481        1482        1487        1486
        1482        1483        1488        1487
        1483        1484        1489        1488
        1485        1486        1491        1490
        1486        1487        1492        1491
        1487        1488        1493        1492
        1488        1489        1494        1493
        1490        1491        1496        1495
        1491        1492        1497        1496
        1492        1493        1498        1497
        1493        1494        1499        1498
        1500        1501        1506        1505
        1501        1502        1507        1506
        1502        1503        1508        1507
        1503        1504        1509        1508
        1505        1506        1511        1510
        1506        1507        1512        1511
        1507        1508        1513        1512
        1508        1509        1514        1513
        1510        1511        1516        1515
        1511        1512        1517        1516
        1512        1513        1518        1517
        1513        1514        1519        1518
        1515        1516        1521        1520
        1516        1517        1522        1521
        1517        1518        1523        1522
        1518        1519        1524        1523
        1525        1526        1531        1530
        1526        1527        1532        1531
        1527        1528        1533        1532
        1528        1529        1534        1533
        1530        1531        1536        1535
        1531        1532        1537        1536
        1532        1533        1538        1537
        1533        1534        1539        1538
        1535        1536        1541        1540
        1536        1537        1542        1541
        1537        1538        1543        1542
        1538        1539        1544        1543
        1540        1541        1546        1545
        1541        1542        1547        1546
        1542        1543        1548        1547
        1543        1544        1549        1548
        1550        1551        1556        1555
        1551        1552        1557        1556
        1552        1553        1558        1557
        1553        1554        1559        1558
        1555        1556        1561        1560
        1556        1557        1562        1561
        1557        1558        1563        1562
        1558        1559        1564        1563
        1560        1561        1566        1565
        1561        1562        1567        1566
        1562        1563        1568        1567
        1563        1564        1569        1568
        1565        1566        1571        1570
        1566        1567        1572        1571
        1567        1568        1573        1572
        1568        1569        1574        1573
        1575        1576        1581        1580
        1576        1577        1582        1581
        1577        1578        1583        1582
        1578        1579        1584        1583
        1580        1581        1586        1585
        1581        1582        1587        1586
        1582        1583        1588        1587
        1583        1584        1589        1588
        1585        1586        1591        1590
        1586        1587        1592        1591
        1587        1588        1593        1592
        1588        1589        1594        1593
        1590        1591        1596        1595
        1591        1592        1597        1596
        1592        1593        1598        1597
        1593        1594        1599        1598
 </DataArray>
 <DataArray  type="Int32"  Name="offsets"  format="ascii"> 
           4
           8
          12
          16
          20
          24
          28
          32
          36
          40
          44
          48
          52
          56
          60
          64
          68
          72
          76
          80
          84
          88
          92
          96
         100
         104
         108
         112
         116
         120
         124
         128
         132
         136
         140
         144
         148
         152
         156
         160
         164
         168
         172
         176
         180
         184
         188
         192
         196
         200
         204
         208
         212
         216
         220
         224
         228
         232
         236
         240
         244
         248
         252
         256
         260
         264
         268
         272
         276
         280
         284
         288
         292
         296
         300
         304
         308
         312
         316
         320
         324
         328
         332
         336
         340
         344
         348
         352
         356
         360
         364
         368
         372
         376
         380
         384
         388
         392
         396
         400
         404
         408
         412
         416
         420
         424
         428
         432
         436
         440
         444
         448
         452
         456
         460
         464
         468
         472
         476
         480
         484
         488
         492
         496
         500
         504
         508
         512
         516
         520
         524
         528
         532
         536
         540
         544
         548
         552
         556
         560
         564
         568
         572
         576
         580
         584
         588
         592
         596
         600
         604
         608
         612
         616
         620
         624
         628
         632
         636
         640
         644
         648
         652
         656
         660
         664
         668
         672
         676
         680
         684
         688
         692
         696
         700
         704
         708
         712
         716
         720
         724
         728
         732
         736
         740
         744
         748
         752
         756
         760
         764
         768
         772
         776
         780
         784
         788
         792
         796
         800
         804
         808
         812
         816
         820
         824
         828
         832
         836
         840
         844
         848
         852
         856
         860
         864
         868
         872
         876
         880
         884
         888
         892
         896
         900
         904
         908
         912
         916
         920
         924
         928
         932
         936
         940
         944
         948
         952
         956
         960
         964
         968
         972
         976
         980
         984
         988
         992
         996
        1000
        1004
        1008
        1012
        1016
        1020
        1024
        1028
        1032
        1036
        1040
        1044
        1048
        1052
        1056
        1060
        1064
        1068
        1072
        1076
        1080
        1084
        1088
        1092
        1096
        1100
        1104
        1108
        1112
        1116
        1120
        1124
        1128
        1132
        1136
        1140
        1144
        1148
        1152
        1156
        1160
        1164
        1168
        1172
        1176
        1180
        1184
        1188
        1192
        1196
        1200
        1204
        1208
        1212
        1216
        1220
        1224
        1228
        1232
        1236
        1240
        1244
        1248
        1252
        1256
        1260
        1264
        1268
        1272
        1276
        1280
        1284
        1288
        1292
        1296
        1300
        1304
        1308
        1312
        1316
        1320
        1324
        1328
        1332
        1336
        1340
        1344
        1348
        1352
        1356
        1360
        1364
        1368
        1372
        1376
        1380
        1384
        1388
        1392
        1396
        1400
        1404
        1408
        1412
        1416
        1420
        1424
        1428
        1432
        1436
        1440
        1444
        1448
        1452
        1456
        1460
        1464
        1468
        1472
        1476
        1480
        1484
        1488
        1492
        1496
        1500
        1504
        1508
        1512
        1516
        1520
        1524
        1528
        1532
        1536
        1540
        1544
        1548
        1552
        1556
        1560
        1564
        1568
        1572
        1576
        1580
        1584
        1588
        1592
        1596
        1600
        1604
        1608
        1612
        1616
        1620
        1624
        1628
        1632
        1636
        1640
        1644
        1648
        1652
        1656
        1660
        1664
        1668
        1672
        1676
        1680
        1684
        1688
        1692
        1696
        1700
        1704
        1708
        1712
        1716
        1720
        1724
        1728
        1732
        1736
        1740
        1744
        1748
        1752
        1756
        1760
        1764
        1768
        1772
        1776
        1780
        1784
        1788
        1792
        1796
        1800
        1804
        1808
        1812
        1816
        1820
        1824
        1828
        1832
        1836
        1840
        1844
        1848
        1852
        1856
        1860
        1864
        1868
        1872
        1876
        1880
        1884
        1888
        1892
        1896
        1900
        1904
        1908
        1912
        1916
        1920
        1924
        1928
        1932
        1936
        1940
        1944
        1948
        1952
        1956
        1960
        1964
        1968
        1972
        1976
        1980
        1984
        1988
        1992
        1996
        2000
        2004
        2008
        2012
        2016
        2020
        2024
        2028
        2032
        2036
        2040
        2044
        2048
        2052
        2056
        2060
        2064
        2068
        2072
        2076
        2080
        2084
        2088
        2092
        2096
        2100
        2104
        2108
        2112
        2116
        2120
        2124
        2128
        2132
        2136
        2140
        2144
        2148
        2152
        2156
        2160
        2164
        2168
        2172
        2176
        2180
        2184
        2188
        2192
        2196
        2200
        2204
        2208
        2212
        2216
        2220
        2224
        2228
        2232
        2236
        2240
        2244
        2248
        2252
        2256
        2260
        2264
        2268
        2272
        2276
        2280
        2284
        2288
        2292
        2296
        2300
        2304
        2308
        2312
        2316
        2320
        2324
        2328
        2332
        2336
        2340
        2344
        2348
        2352
        2356
        2360
        2364
        2368
        2372
        2376
        2380
        2384
        2388
        2392
        2396
        2400
        2404
        2408
        2412
        2416
        2420
        2424
        2428
        2432
        2436
        2440
        2444
        2448
        2452
        2456
        2460
        2464
        2468
        2472
        2476
        2480
        2484
        2488
        2492
        2496
        2500
        2504
        2508
        2512
        2516
        2520
        2524
        2528
        2532
        2536
        2540
        2544
        2548
        2552
        2556
        2560
        2564
        2568
        2572
        2576
        2580
        2584
        2588
        2592
        2596
        2600
        2604
        2608
        2612
        2616
        2620
        2624
        2628
        2632
        2636
        2640
        2644
        2648
        2652
        2656
        2660
        2664
        2668
        2672
        2676
        2680
        2684
        2688
        2692
        2696
        2700
        2704
        2708
        2712
        2716
        2720
        2724
        2728
        2732
        2736
        2740
        2744
        2748
        2752
        2756
        2760
        2764
        2768
        2772
        2776
        2780
        2784
        2788
        2792
        2796
        2800
        2804
        2808
        2812
        2816
        2820
        2824
        2828
        2832
        2836
        2840
        2844
        2848
        2852
        2856
        2860
        2864
        2868
        2872
        2876
        2880
        2884
        2888
        2892
        2896
        2900
        2904
        2908
        2912
        2916
        2920
        2924
        2928
        2932
        2936
        2940
        2944
        2948
        2952
        2956
        2960
        2964
        2968
        2972
        2976
        2980
        2984
        2988
        2992
        2996
        3000
        3004
        3008
        3012
        3016
        3020
        3024
        3028
        3032
        3036
        3040
        3044
        3048
        3052
        3056
        3060
        3064
        3068
        3072
        3076
        3080
        3084
        3088
        3092
        3096
        3100
        3104
        3108
        3112
        3116
        3120
        3124
        3128
        3132
        3136
        3140
        3144
        3148
        3152
        3156
        3160
        3164
        3168
        3172
        3176
        3180
        3184
        3188
        3192
        3196
        3200
        3204
        3208
        3212
        3216
        3220
        3224
        3228
        3232
        3236
        3240
        3244
        3248
        3252
        3256
        3260
        3264
        3268
        3272
        3276
        3280
        3284
        3288
        3292
        3296
        3300
        3304
        3308
        3312
        3316
        3320
        3324
        3328
        3332
        3336
        3340
        3344
        3348
        3352
        3356
        3360
        3364
        3368
        3372
        3376
        3380
        3384
        3388
        3392
        3396
        3400
        3404
        3408
        3412
        3416
        3420
        3424
        3428
        3432
        3436
        3440
        3444
        3448
        3452
        3456
        3460
        3464
        3468
        3472
        3476
        3480
        3484
        3488
        3492
        3496
        3500
        3504
        3508
        3512
        3516
        3520
        3524
        3528
        3532
        3536
        3540
        3544
        3548
        3552
        3556
        3560
        3564
        3568
        3572
        3576
        3580
        3584
        3588
        3592
        3596
        3600
        3604
        3608
        3612
        3616
        3620
        3624
        3628
        3632
        3636
        3640
        3644
        3648
        3652
        3656
        3660
        3664
        3668
        3672
        3676
        3680
        3684
        3688
        3692
        3696
        3700
        3704
        3708
        3712
        3716
        3720
        3724
        3728
        3732
        3736
        3740
        3744
        3748
        3752
        3756
        3760
        3764
        3768
        3772
        3776
        3780
        3784
        3788
        3792
        3796
        3800
        3804
        3808
        3812
        3816
        3820
        3824
        3828
        3832
        3836
        3840
        3844
        3848
        3852
        3856
        3860
        3864
        3868
        3872
        3876
        3880
        3884
        3888
        3892
        3896
        3900
        3904
        3908
        3912
        3916
        3920
        3924
        3928
        3932
        3936
        3940
        3944
        3948
        3952
        3956
        3960
        3964
        3968
        3972
        3976
        3980
        3984
        3988
        3992
        3996
        4000
        4004
        4008
        4012
        4016
        4020
        4024
        4028
        4032
        4036
        4040
        4044
        4048
        4052
        4056
        4060
        4064
        4068
        4072
        4076
        4080
        4084
        4088
        4092
        4096
 </DataArray>
 <DataArray  type="UInt8"  Name="types"  format="ascii">
 9
 9
 9
 9
 9
 9
 9
 9
 9
 9
 9
 9
 9
 9
 9
 9
 9
 9
 9
 9
 9
 9
 9
 9
 9
 9
 9
 9
 9
 9
 9
 9
 9
 9
 9
 9
 9
 9
 9
 9
 9
 9
 9
 9
 9
 9
 9
 9
 9
 9
 9
 9
 9
 9
 9
 9
 9
 9
 9
 9
 9
 9
 9
 9
 9
 9
 9
 9
 9
 9
 9
 9
 9
 9
 9
 9
 9
 9
 9
 9
 9
 9
 9
 9
 9
 9
 9
 9
 9
 9
 9
 9
 9
 9
 9
 9
 9
 9
 9
 9
 9
 9
 9
 9
 9
 9
 9
 9
 9
 9
 9
 9
 9
 9
 9
 9
 9
 9
 9
 9
 9
 9
 9
 9
 9
 9
 9
 9
 9
 9
 9
 9
 9
 9
 9
 9
 9
 9
 9
 9
 9
 9
 9
 9
 9
 9
 9
 9
 9
 9
 9
 9
 9
 9
 9
 9
 9
 9
 9
 9
 9
 9
 9
 9
 9
 9
 9
 9
 9
 9
 9
 9
 9
 9
 9
 9
 9
 9
 9
 9
 9
 9
 9
 9
 9
 9
 9
 9
 9
 9
 9
 9
 9
 9
 9
 9
 9
 9
 9
 9
 9
 9
 9
 9
 9
 9
 9
 9
 9
 9
 9
 9
 9
 9
 9
 9
 9
 9
 9
 9
 9
 9
 9
 9
 9
 9
 9
 9
 9
 9
 9
 9
 9
 9
 9
 9
 9
 9
 9
 9
 9
 9
 9
 9
 9
 9
 9
 9
 9
 9
 9
 9
 9
 9
 9
 9
 9
 9
 9
 9
 9
 9
 9
 9
 9
 9
 9
 9
 9
 9
 9
 9
 9
 9
 9
 9
 9
 9
 9
 9
 9
 9
 9
 9
 9
 9
 9
 9
 9
 9
 9
 9
 9
 9
 9
 9
 9
 9
 9
 9
 9
 9
 9
 9
 9
 9
 9
 9
 9
 9
 9
 9
 9
 9
 9
 9
 9
 9
 9
 9
 9
 9
 9
 9
 9
 9
 9
 9
 9
 9
 9
 9
 9
 9
 9
 9
 9
 9
 9
 9
 9
 9
 9
 9
 9
 9
 9
 9
 9
 9
 9
 9
 9
 9
 9
 9
 9
 9
 9
 9
 9
 9
 9
 9
 9
 9
 9
 9
 9
 9
 9
 9
 9
 9
 9
 9
 9
 9
 9
 9
 9
 9
 9
 9
 9
 9
 9
 9
 9
 9
 9
 9
 9
 9
 9
 9
 9
 9
 9
 9
 9
 9
 9
 9
 9
 9
 9
 9
 9
 9
 9
 9
 9
 9
 9
 9
 9
 9
 9
 9
 9
 9
 9
 9
 9
 9
 9
 9
 9
 9
 9
 9
 9
 9
 9
 9
 9
 9
 9
 9
 9
 9
 9
 9
 9
 9
 9
 9
 9
 9
 9
 9
 9
 9
 9
 9
 9
 9
 9
 9
 9
 9
 9
 9
 9
 9
 9
 9
 9
 9
 9
 9
 9
 9
 9
 9
 9
 9
 9
 9
 9
 9
 9
 9
 9
 9
 9
 9
 9
 9
 9
 9
 9
 9
 9
 9
 9
 9
 9
 9
 9
 9
 9
 9
 9
 9
 9
 9
 9
 9
 9
 9
 9
 9
 9
 9
 9
 9
 9
 9
 9
 9
 9
 9
 9
 9
 9
 9
 9
 9
 9
 9
 9
 9
 9
 9
 9
 9
 9
 9
 9
 9
 9
 9
 9
 9
 9
 9
 9
 9
 9
 9
 9
 9
 9
 9
 9
 9
 9
 9
 9
 9
 9
 9
 9
 9
 9
 9
 9
 9
 9
 9
 9
 9
 9
 9
 9
 9
 9
 9
 9
 9
 9
 9
 9
 9
 9
 9
 9
 9
 9
 9
 9
 9
 9
 9
 9
 9
 9
 9
 9
 9
 9
 9
 9
 9
 9
 9
 9
 9
 9
 9
 9
 9
 9
 9
 9
 9
 9
 9
 9
 9
 9
 9
 9
 9
 9
 9
 9
 9
 9
 9
 9
 9
 9
 9
 9
 9
 9
 9
 9
 9
 9
 9
 9
 9
 9
 9
 9
 9
 9
 9
 9
 9
 9
 9
 9
 9
 9
 9
 9
 9
 9
 9
 9
 9
 9
 9
 9
 9
 9
 9
 9
 9
 9
 9
 9
 9
 9
 9
 9
 9
 9
 9
 9
 9
 9
 9
 9
 9
 9
 9
 9
 9
 9
 9
 9
 9
 9
 9
 9
 9
 9
 9
 9
 9
 9
 9
 9
 9
 9
 9
 9
 9
 9
 9
 9
 9
 9
 9
 9
 9
 9
 9
 9
 9
 9
 9
 9
 9
 9
 9
 9
 9
 9
 9
 9
 9
 9
 9
 9
 9
 9
 9
 9
 9
 9
 9
 9
 9
 9
 9
 9
 9
 9
 9
 9
 9
 9
 9
 9
 9
 9
 9
 9
 9
 9
 9
 9
 9
 9
 9
 9
 9
 9
 9
 9
 9
 9
 9
 9
 9
 9
 9
 9
 9
 9
 9
 9
 9
 9
 9
 9
 9
 9
 9
 9
 9
 9
 9
 9
 9
 9
 9
 9
 9
 9
 9
 9
 9
 9
 9
 9
 9
 9
 9
 9
 9
 9
 9
 9
 9
 9
 9
 9
 9
 9
 9
 9
 9
 9
 9
 9
 9
 9
 9
 9
 9
 9
 9
 9
 9
 9
 9
 9
 9
 9
 9
 9
 9
 9
 9
 9
 9
 9
 9
 9
 9
 9
 9
 9
 9
 9
 9
 9
 9
 9
 9
 9
 9
 9
 9
 9
 9
 9
 9
 9
 9
 9
 9
 9
 9
 9
 9
 9
 9
 9
 9
 9
 9
 9
 9
 9
 9
 9
 9
 9
 9
 9
 9
 9
 9
 9
 9
 9
 9
 9
 9
 9
 9
 9
 9
 9
 9
 9
 9
 9
 9
 9
 9
 9
 9
 9
 9
 9
 9
 9
 9
 9
 9
 9
 9
 9
 9
 9
 9
 9
 9
 9
 9
 9
 9
 9
 9
 9
 9
 9
 9
 9
 9
 9
 9
 9
 9
 9
 9
 9
 9
 9
 9
 9
 9
 9
 9
 9
 9
 9
 9
 9
 9
 9
 9
 9
 9
 9
 9
 9
 9
 9
 9
 9
 9
 9
 9
 9
 9
 9
 9
 9
 9
 9
 9
 9
 9
 9
 9
 9
 9
 9
 9
 9
 9
 9
 9
 9
 9
 9
 9
 9
 9
 9
 9
 9
 9
 9
 9
 9
 9
 9
 9
 9
 9
 9
 9
 </DataArray>
 </Cells> 
 <PointData>
 <DataArray  type="Float64" Name="disp" NumberOfComponents="3" format="ascii">
   0.0000000000000000        0.0000000000000000        0.0000000000000000     
   6.0961891515682399E-003   3.7901757000474079E-003   0.0000000000000000     
   1.1666497927978733E-002   7.3235964112875499E-003   0.0000000000000000     
   1.6710926329231480E-002   1.0600262133720426E-002   0.0000000000000000     
   2.1229474355326482E-002   1.3620172867346039E-002   0.0000000000000000     
   0.0000000000000000        0.0000000000000000        0.0000000000000000     
   4.8913210679578170E-003   3.0218151114409625E-003   0.0000000000000000     
   9.5740009217337024E-003   6.0601803958984617E-003   0.0000000000000000     
   1.4048039561327660E-002   9.1150958533724978E-003   0.0000000000000000     
   1.8313436986739685E-002   1.2186561483863070E-002   0.0000000000000000     
   0.0000000000000000        0.0000000000000000        0.0000000000000000     
   3.9536907535556495E-003   2.4247784697496210E-003   0.0000000000000000     
   7.9108911480044487E-003   5.0625058568643565E-003   0.0000000000000000     
   1.1871601183346393E-002   7.9131821613442066E-003   0.0000000000000000     
   1.5835820859581490E-002   1.0976807383189170E-002   0.0000000000000000     
   0.0000000000000000        0.0000000000000000        0.0000000000000000     
   3.2832982083617389E-003   1.9990657749733836E-003   0.0000000000000000     
   6.6771686067909654E-003   4.3305727941852336E-003   0.0000000000000000     
   1.0181611195287684E-002   6.9945210576355518E-003   0.0000000000000000     
   1.3796625973851890E-002   9.9909105653243364E-003   0.0000000000000000     
   0.0000000000000000        0.0000000000000000        0.0000000000000000     
   2.8801434323760841E-003   1.7446770271122489E-003   0.0000000000000000     
   5.8728332980932593E-003   3.8643812078610939E-003   0.0000000000000000     
   8.9780695971515279E-003   6.3591125422465334E-003   0.0000000000000000     
   1.2195852329550885E-002   9.2288710302685702E-003   0.0000000000000000     
   2.1229474355326482E-002   1.3620172867346039E-002   0.0000000000000000     
   2.5434810854253753E-002   1.6613504677898926E-002   0.0000000000000000     
   2.9539604674003319E-002   1.9810433631113625E-002   0.0000000000000000     
   3.3543855814575176E-002   2.3210959726990141E-002   0.0000000000000000     
   3.7447564275969333E-002   2.6815082965528467E-002   0.0000000000000000     
   1.8313436986739685E-002   1.2186561483863070E-002   0.0000000000000000     
   2.2408352119494983E-002   1.5342446291764764E-002   0.0000000000000000     
   2.6370943881118769E-002   1.8650619281472158E-002   0.0000000000000000     
   3.0201212271611027E-002   2.2111080452985252E-002   0.0000000000000000     
   3.3899157290971767E-002   2.5723829806304048E-002   0.0000000000000000     
   1.5835820859581490E-002   1.0976807383189170E-002   0.0000000000000000     
   1.9731807574569799E-002   1.4211754243854466E-002   0.0000000000000000     
   2.3487818726171398E-002   1.7576395464795311E-002   0.0000000000000000     
   2.7103854314386285E-002   2.1070731046011700E-002   0.0000000000000000     
   3.0579914339214458E-002   2.4694760987503641E-002   0.0000000000000000     
   1.3796625973851890E-002   9.9909105653243364E-003   0.0000000000000000     
   1.7405177219478197E-002   1.3221428534168033E-002   0.0000000000000000     
   2.0890229209161219E-002   1.6587762181083085E-002   0.0000000000000000     
   2.4251781942900952E-002   2.0089911506069490E-002   0.0000000000000000     
   2.7489835420697398E-002   2.3727876509127256E-002   0.0000000000000000     
   1.2195852329550885E-002   9.2288710302685702E-003   0.0000000000000000     
   1.5428461054220171E-002   1.2371469162705467E-002   0.0000000000000000     
   1.8578175330088216E-002   1.5684719430335486E-002   0.0000000000000000     
   2.1644995157155025E-002   1.9168621833158626E-002   0.0000000000000000     
   2.4628920535420592E-002   2.2823176371174890E-002   0.0000000000000000     
   3.7447564275969333E-002   2.6815082965528467E-002   0.0000000000000000     
   4.1256223386213153E-002   3.0619267526007621E-002   0.0000000000000000     
   4.4975326473334007E-002   3.4619977587706616E-002   0.0000000000000000     
   4.8604873537331894E-002   3.8817213150625453E-002   0.0000000000000000     
   5.2144864578206815E-002   4.3210974214764136E-002   0.0000000000000000     
   3.3899157290971767E-002   2.5723829806304048E-002   0.0000000000000000     
   3.7488177769594712E-002   2.9518951159566684E-002   0.0000000000000000     
   4.0991672537873586E-002   3.3526528330911298E-002   0.0000000000000000     
   4.4409641595808395E-002   3.7746561320337907E-002   0.0000000000000000     
   4.7742084943399127E-002   4.2179050127846493E-002   0.0000000000000000     
   3.0579914339214458E-002   2.4694760987503641E-002   0.0000000000000000     
   3.3945104702185702E-002   2.8494233620105613E-002   0.0000000000000000     
   3.7228531304829823E-002   3.2514897274652087E-002   0.0000000000000000     
   4.0430194147146804E-002   3.6756751951143078E-002   0.0000000000000000     
   4.3550093229136652E-002   4.1219797649578574E-002   0.0000000000000000     
   2.7489835420697398E-002   2.3727876509127256E-002   0.0000000000000000     
   3.0627004183986124E-002   2.7545114907624409E-002   0.0000000000000000     
   3.3685902774202699E-002   3.1585084418928981E-002   0.0000000000000000     
   3.6666531191347114E-002   3.5847785043040988E-002   0.0000000000000000     
   3.9568889435419384E-002   4.0333216779960393E-002   0.0000000000000000     
   2.4628920535420592E-002   2.2823176371174890E-002   0.0000000000000000     
   2.7533876214995975E-002   2.6671595022123074E-002   0.0000000000000000     
   3.0363786945992222E-002   3.0737089763741982E-002   0.0000000000000000     
   3.3118652728409345E-002   3.5019660596031607E-002   0.0000000000000000     
   3.5798473562247322E-002   3.9519307518991957E-002   0.0000000000000000     
   5.2144864578206815E-002   4.3210974214764136E-002   0.0000000000000000     
   5.5587515738360460E-002   4.7803824536309214E-002   0.0000000000000000     
   5.8925043160194514E-002   5.2598327871447276E-002   0.0000000000000000     
   6.2157446843708969E-002   5.7594484220178307E-002   0.0000000000000000     
   6.5284726788903832E-002   6.2792293582502309E-002   0.0000000000000000     
   4.7742084943399127E-002   4.2179050127846493E-002   0.0000000000000000     
   5.0983665535692196E-002   4.6815101741243419E-002   0.0000000000000000     
   5.4129046327734007E-002   5.1645823148335046E-002   0.0000000000000000     
   5.7178227319524572E-002   5.6671214349121382E-002   0.0000000000000000     
   6.0131208511063856E-002   6.1891275343602441E-002   0.0000000000000000     
   4.3550093229136652E-002   4.1219797649578574E-002   0.0000000000000000     
   4.6585198654120814E-002   4.5889093430060299E-002   0.0000000000000000     
   4.9532480525420773E-002   5.0749698352689998E-002   0.0000000000000000     
   5.2391938843036501E-002   5.5801612417467644E-002   0.0000000000000000     
   5.5163573606968011E-002   6.1044835624393258E-002   0.0000000000000000     
   3.9568889435419384E-002   4.0333216779960393E-002   0.0000000000000000     
   4.2392115093646335E-002   4.5025799602759889E-002   0.0000000000000000     
   4.5135345753254792E-002   4.9909953484512118E-002   0.0000000000000000     
   4.7798581414244791E-002   5.4985678425217066E-002   0.0000000000000000     
   5.0381822076616289E-002   6.0252974424874761E-002   0.0000000000000000     
   3.5798473562247322E-002   3.9519307518991957E-002   0.0000000000000000     
   3.8404414854268723E-002   4.4225220259342175E-002   0.0000000000000000     
   4.0937642011236085E-002   4.9126588543801419E-002   0.0000000000000000     
   4.3398155033149401E-002   5.4223412372369682E-002   0.0000000000000000     
   4.5785953920008698E-002   5.9515691745046957E-002   0.0000000000000000     
   6.5284726788903832E-002   6.2792293582502309E-002   0.0000000000000000     
   6.8315081152020063E-002   6.8177473432584637E-002   0.0000000000000000     
   7.1256708089298640E-002   7.3735741244590633E-002   0.0000000000000000     
   7.4109607600739549E-002   7.9467097018520311E-002   0.0000000000000000     
   7.6873779686342805E-002   8.5371540754373670E-002   0.0000000000000000     
   6.0131208511063856E-002   6.1891275343602441E-002   0.0000000000000000     
   6.2993375826576867E-002   6.7298341895079272E-002   0.0000000000000000     
   6.5770115190288567E-002   7.2884749766852996E-002   0.0000000000000000     
   6.8461426602198963E-002   7.8650498958923579E-002   0.0000000000000000     
   7.1067310062308056E-002   8.4595589471291033E-002   0.0000000000000000     
   5.5163573606968011E-002   6.1044835624393258E-002   0.0000000000000000     
   5.7850395933797427E-002   6.6475300466651871E-002   0.0000000000000000     
   6.0455416940106893E-002   7.2088939437428529E-002   0.0000000000000000     
   6.2978636625896423E-002   7.7885752536723238E-002   0.0000000000000000     
   6.5420054991166002E-002   8.3865739764535985E-002   0.0000000000000000     
   5.0381822076616289E-002   6.0252974424874761E-002   0.0000000000000000     
   5.2886141473681751E-002   6.5708349147302406E-002   0.0000000000000000     
   5.5312613338753640E-002   7.1348310256317271E-002   0.0000000000000000     
   5.7661237671831948E-002   7.7172857751919288E-002   0.0000000000000000     
   5.9932014472916656E-002   8.3181991634108526E-002   0.0000000000000000     
   4.5785953920008698E-002   5.9515691745046957E-002   0.0000000000000000     
   4.8100612446229853E-002   6.4997487937030918E-002   0.0000000000000000     
   5.0341704386228793E-002   7.0662862223519182E-002   0.0000000000000000     
   5.2509229740005513E-002   7.6511814604511758E-002   0.0000000000000000     
   5.4603188507560005E-002   8.2544345080008671E-002   0.0000000000000000     
   7.6873779686342805E-002   8.5371540754373670E-002   0.0000000000000000     
   7.9532977744964817E-002   9.1444190484569393E-002   0.0000000000000000     
   8.2070955175461979E-002   9.7680164241526257E-002   0.0000000000000000     
   8.4487711977834362E-002  0.10407946202524419        0.0000000000000000     
   8.6783248152081896E-002  0.11064208383572326        0.0000000000000000     
   7.1067310062308056E-002   8.4595589471291033E-002   0.0000000000000000     
   7.3562325202604653E-002   9.0706192127314011E-002   0.0000000000000000     
   7.5921031655077617E-002   9.6968477750351181E-002   0.0000000000000000     
   7.8143429419726920E-002  0.10338244634040253        0.0000000000000000     
   8.0229518496552590E-002  0.10994809789746807        0.0000000000000000     
   6.5420054991166002E-002   8.3865739764535985E-002   0.0000000000000000     
   6.7749597268506045E-002   9.0008841376361962E-002   0.0000000000000000     
   6.9937188690506941E-002   9.6294997627696347E-002   0.0000000000000000     
   7.1982829257168715E-002  0.10272420851853911        0.0000000000000000     
   7.3886518968491341E-002  0.10929647404889030        0.0000000000000000     
   5.9932014472916656E-002   8.3181991634108526E-002   0.0000000000000000     
   6.2094793942668952E-002   8.9352138231713243E-002   0.0000000000000000     
   6.4119426281749964E-002   9.5659723873561739E-002   0.0000000000000000     
   6.6005911490159705E-002  0.10210474855965398        0.0000000000000000     
   6.7754249567898175E-002  0.10868721228998995        0.0000000000000000     
   5.4603188507560005E-002   8.2544345080008671E-002   0.0000000000000000     
   5.6597915225093373E-002   8.8736082693367885E-002   0.0000000000000000     
   5.8467744428806666E-002   9.5062656487947358E-002   0.0000000000000000     
   6.0212676118699904E-002  0.10152406646374708        0.0000000000000000     
   6.1832710294773073E-002  0.10812031262076709        0.0000000000000000     
   8.6783248152081896E-002  0.11064208383572326        0.0000000000000000     
   8.9033826034665711E-002  0.11737902700546485        0.0000000000000000     
   9.1315707962046869E-002  0.12430128886697044        0.0000000000000000     
   9.3628893934225410E-002  0.13140886942024002        0.0000000000000000     
   9.5973383951201308E-002  0.13870176866527356        0.0000000000000000     
   8.0229518496552590E-002  0.10994809789746807        0.0000000000000000     
   8.2294300424327380E-002  0.11669154639633297        0.0000000000000000     
   8.4452776741824109E-002  0.12363890581178241        0.0000000000000000     
   8.6704947449042752E-002  0.13079017614381649        0.0000000000000000     
   8.9050812545983321E-002  0.13814535739243505        0.0000000000000000     
   7.3886518968491341E-002  0.10929647404889030        0.0000000000000000     
   7.5784333595695141E-002  0.11604979589814063        0.0000000000000000     
   7.7812348910000398E-002  0.12302217574568090        0.0000000000000000     
   7.9970564911407138E-002  0.13021361359151107        0.0000000000000000     
   8.2258981599915321E-002  0.13762410943563116        0.0000000000000000     
   6.7754249567898175E-002  0.10868721228998995        0.0000000000000000     
   6.9503925548768997E-002  0.11545377551088787        0.0000000000000000     
   7.1394424466575804E-002  0.12245109866866584        0.0000000000000000     
   7.3425746321318583E-002  0.12967918176332383        0.0000000000000000     
   7.5597891112997334E-002  0.13713802479486190        0.0000000000000000     
   6.1832710294773073E-002  0.10812031262076709        0.0000000000000000     
   6.3453076283548945E-002  0.11490348523457469        0.0000000000000000     
   6.5199003411550271E-002  0.12192567458073725        0.0000000000000000     
   6.7070491678777072E-002  0.12918688065925477        0.0000000000000000     
   6.9067541085229306E-002  0.13668710347012722        0.0000000000000000     
   9.5973383951201308E-002  0.13870176866527356        0.0000000000000000     
   9.8240580687796605E-002  0.14610763099742965        0.0000000000000000     
  0.10032188681883336       0.15355410081206686        0.0000000000000000     
  0.10221730234431159       0.16104117810918517        0.0000000000000000     
  0.10392682726423128       0.16856886288878459        0.0000000000000000     
   8.9050812545983321E-002  0.13814535739243505        0.0000000000000000     
   9.1285797619492182E-002  0.14560828645297935        0.0000000000000000     
   9.3205328256415629E-002  0.15308280022079052        0.0000000000000000     
   9.4809404456753663E-002  0.16056889869586849        0.0000000000000000     
   9.6098026220506338E-002  0.16806658187821327        0.0000000000000000     
   8.2258981599915321E-002  0.13762410943563116        0.0000000000000000     
   8.4418405169358432E-002  0.14513874592249484        0.0000000000000000     
   8.6189641813569876E-002  0.15264260569655574        0.0000000000000000     
   8.7572691532549637E-002  0.16013568875781389        0.0000000000000000     
   8.8567554326297759E-002  0.16761799510626935        0.0000000000000000     
   7.5597891112997334E-002  0.13713802479486190        0.0000000000000000     
   7.7638403337395412E-002  0.14469900940597608        0.0000000000000000     
   7.9274827490296129E-002  0.15223351723936263        0.0000000000000000     
   8.0507163571699500E-002  0.15974154829502155        0.0000000000000000     
   8.1335411581605552E-002  0.16722310257295267        0.0000000000000000     
   6.9067541085229306E-002  0.13668710347012722        0.0000000000000000     
   7.0945792123603080E-002  0.14428907690342316        0.0000000000000000     
   7.2460885286594390E-002  0.15185553484921116        0.0000000000000000     
   7.3612820574203264E-002  0.15938647730749120        0.0000000000000000     
   7.4401597986429702E-002  0.16688190427826333        0.0000000000000000     
   0.0000000000000000        0.0000000000000000        0.0000000000000000     
   2.8801434323760841E-003   1.7446770271122489E-003   0.0000000000000000     
   5.8728332980932593E-003   3.8643812078610939E-003   0.0000000000000000     
   8.9780695971515279E-003   6.3591125422465334E-003   0.0000000000000000     
   1.2195852329550885E-002   9.2288710302685702E-003   0.0000000000000000     
   0.0000000000000000        0.0000000000000000        0.0000000000000000     
   2.6103779905293600E-003   1.5888790828760507E-003   0.0000000000000000     
   5.2898854672070944E-003   3.5565399256821803E-003   0.0000000000000000     
   8.0385224300332028E-003   5.9029825284183900E-003   0.0000000000000000     
   1.0856288879007686E-002   8.6282068910846776E-003   0.0000000000000000     
   0.0000000000000000        0.0000000000000000        0.0000000000000000     
   2.3401534477522409E-003   1.4589387989746212E-003   0.0000000000000000     
   4.7203253594282381E-003   3.2996577754387389E-003   0.0000000000000000     
   7.1405157350279917E-003   5.5221569293923533E-003   0.0000000000000000     
   9.6007245745514998E-003   8.1264362608354634E-003   0.0000000000000000     
   0.0000000000000000        0.0000000000000000        0.0000000000000000     
   2.0694698040447275E-003   1.3548561754079605E-003   0.0000000000000000     
   4.1641529747566894E-003   3.0937347571307690E-003   0.0000000000000000     
   6.2840495121358883E-003   5.2166357451684251E-003   0.0000000000000000     
   8.4291594161823215E-003   7.7235591395209300E-003   0.0000000000000000     
   0.0000000000000000        0.0000000000000000        0.0000000000000000     
   1.7983270594068186E-003   1.2766312121760682E-003   0.0000000000000000     
   3.6213683131924509E-003   2.9387708707582696E-003   0.0000000000000000     
   5.4691237613568961E-003   4.9864189757466044E-003   0.0000000000000000     
   7.3415934039001559E-003   7.4195755271410741E-003   0.0000000000000000     
   1.2195852329550885E-002   9.2288710302685702E-003   0.0000000000000000     
   1.5428461054220171E-002   1.2371469162705467E-002   0.0000000000000000     
   1.8578175330088216E-002   1.5684719430335486E-002   0.0000000000000000     
   2.1644995157155025E-002   1.9168621833158626E-002   0.0000000000000000     
   2.4628920535420592E-002   2.2823176371174890E-002   0.0000000000000000     
   1.0856288879007686E-002   8.6282068910846776E-003   0.0000000000000000     
   1.3689803957420496E-002   1.1650034546395542E-002   0.0000000000000000     
   1.6485686808561575E-002   1.4886287027065471E-002   0.0000000000000000     
   1.9243937432430930E-002   1.8336964333094469E-002   0.0000000000000000     
   2.1964555829028561E-002   2.2002066464482540E-002   0.0000000000000000     
   9.6007245745514998E-003   8.1264362608354634E-003   0.0000000000000000     
   1.2077350807703934E-002   1.1045283102167031E-002   0.0000000000000000     
   1.4546793364190467E-002   1.4211484785786011E-002   0.0000000000000000     
   1.7009052244011096E-002   1.7625041311692409E-002   0.0000000000000000     
   1.9464127447165823E-002   2.1285952679886217E-002   0.0000000000000000     
   8.4291594161823215E-003   7.7235591395209300E-003   0.0000000000000000     
   1.0591101605070487E-002   1.0557214830019937E-002   0.0000000000000000     
   1.2761494996974888E-002   1.3660312706497105E-002   0.0000000000000000     
   1.4940339591895519E-002   1.7032852768952431E-002   0.0000000000000000     
   1.7127635389832384E-002   2.0674835017385918E-002   0.0000000000000000     
   7.3415934039001559E-003   7.4195755271410741E-003   0.0000000000000000     
   9.2310563495201607E-003   1.0185829729954259E-002   0.0000000000000000     
   1.1129791706914841E-002   1.3232770789198749E-002   0.0000000000000000     
   1.3037799476084201E-002   1.6560398704874545E-002   0.0000000000000000     
   1.4955079657028235E-002   2.0168713476981640E-002   0.0000000000000000     
   2.4628920535420592E-002   2.2823176371174890E-002   0.0000000000000000     
   2.7533876214995975E-002   2.6671595022123074E-002   0.0000000000000000     
   3.0363786945992222E-002   3.0737089763741982E-002   0.0000000000000000     
   3.3118652728409345E-002   3.5019660596031607E-002   0.0000000000000000     
   3.5798473562247322E-002   3.9519307518991957E-002   0.0000000000000000     
   2.1964555829028561E-002   2.2002066464482540E-002   0.0000000000000000     
   2.4631062038760129E-002   2.5879656011990611E-002   0.0000000000000000     
   2.7226976102031314E-002   2.9967795566379622E-002   0.0000000000000000     
   2.9752298018842108E-002   3.4266485127649564E-002   0.0000000000000000     
   3.2207027789192516E-002   3.8775724695800443E-002   0.0000000000000000     
   1.9464127447165823E-002   2.1285952679886217E-002   0.0000000000000000     
   2.1883902898823481E-002   2.5175279925616034E-002   0.0000000000000000     
   2.4240262524152893E-002   2.9274084084130444E-002   0.0000000000000000     
   2.6533206323154073E-002   3.3582365155429450E-002   0.0000000000000000     
   2.8762734295827000E-002   3.8100123139513060E-002   0.0000000000000000     
   1.7127635389832384E-002   2.0674835017385918E-002   0.0000000000000000     
   1.9292398795186013E-002   2.4558466762999338E-002   0.0000000000000000     
   2.1403646212356960E-002   2.8655955316994452E-002   0.0000000000000000     
   2.3461377641345219E-002   3.2967300679371266E-002   0.0000000000000000     
   2.5465593082150781E-002   3.7492502850129797E-002   0.0000000000000000     
   1.4955079657028235E-002   2.0168713476981640E-002   0.0000000000000000     
   1.6856549727847742E-002   2.4029216524140515E-002   0.0000000000000000     
   1.8717127166643515E-002   2.8113409264971641E-002   0.0000000000000000     
   2.0536811973415552E-002   3.2421291699475024E-002   0.0000000000000000     
   2.2315604148163859E-002   3.6952863827650659E-002   0.0000000000000000     
   3.5798473562247322E-002   3.9519307518991957E-002   0.0000000000000000     
   3.8404414854268723E-002   4.4225220259342175E-002   0.0000000000000000     
   4.0937642011236085E-002   4.9126588543801419E-002   0.0000000000000000     
   4.3398155033149401E-002   5.4223412372369682E-002   0.0000000000000000     
   4.5785953920008698E-002   5.9515691745046957E-002   0.0000000000000000     
   3.2207027789192516E-002   3.8775724695800443E-002   0.0000000000000000     
   3.4593505766214241E-002   4.3490411115786616E-002   0.0000000000000000     
   3.6914072303039017E-002   4.8405441232562442E-002   0.0000000000000000     
   3.9168727399666814E-002   5.3520815046127906E-002   0.0000000000000000     
   4.1357471056097668E-002   5.8836532556483016E-002   0.0000000000000000     
   2.8762734295827000E-002   3.8100123139513060E-002   0.0000000000000000     
   3.0930795659709152E-002   4.2824427888072676E-002   0.0000000000000000     
   3.3039339632337975E-002   4.7752349252799725E-002   0.0000000000000000     
   3.5088366213713473E-002   5.2883887233694207E-002   0.0000000000000000     
   3.7077875403835649E-002   5.8219041830756116E-002   0.0000000000000000     
   2.5465593082150781E-002   3.7492502850129797E-002   0.0000000000000000     
   2.7416284534753442E-002   4.2227270576200349E-002   0.0000000000000000     
   2.9313443999132972E-002   4.7167312604513283E-002   0.0000000000000000     
   3.1157071475289361E-002   5.2312628935068578E-002   0.0000000000000000     
   3.2947166963222634E-002   5.7663219567866235E-002   0.0000000000000000     
   2.2315604148163859E-002   3.6952863827650659E-002   0.0000000000000000     
   2.4049972391347114E-002   4.1698939180169647E-002   0.0000000000000000     
   2.5736385403423986E-002   4.6650331287703108E-002   0.0000000000000000     
   2.7374843184394489E-002   5.1807040150251032E-002   0.0000000000000000     
   2.8965345734258616E-002   5.7169065767813422E-002   0.0000000000000000     
   4.5785953920008698E-002   5.9515691745046957E-002   0.0000000000000000     
   4.8100612446229853E-002   6.4997487937030918E-002   0.0000000000000000     
   5.0341704386228793E-002   7.0662862223519182E-002   0.0000000000000000     
   5.2509229740005513E-002   7.6511814604511758E-002   0.0000000000000000     
   5.4603188507560005E-002   8.2544345080008671E-002   0.0000000000000000     
   4.1357471056097668E-002   5.8836532556483016E-002   0.0000000000000000     
   4.3478886488465589E-002   6.4343360310892925E-002   0.0000000000000000     
   4.5531556912904628E-002   7.0032064856622833E-002   0.0000000000000000     
   4.7515482329414785E-002   7.5902646193672707E-002   0.0000000000000000     
   4.9430662737996067E-002   8.1955104322042546E-002   0.0000000000000000     
   3.7077875403835649E-002   5.8219041830756116E-002   0.0000000000000000     
   3.9006041237412852E-002   6.3746609743944097E-002   0.0000000000000000     
   4.0871037749153447E-002   6.9455387673216795E-002   0.0000000000000000     
   4.2672864939057427E-002   7.5345375618574198E-002   0.0000000000000000     
   4.4411522807124813E-002   8.1416573580016333E-002   0.0000000000000000     
   3.2947166963222634E-002   5.7663219567866235E-002   0.0000000000000000     
   3.4682076693071627E-002   6.3207236236184378E-002   0.0000000000000000     
   3.6360146894975236E-002   6.8932830673301027E-002   0.0000000000000000     
   3.7981377568933453E-002   7.4840002879216244E-002   0.0000000000000000     
   3.9545768714946271E-002   8.0928752853929989E-002   0.0000000000000000     
   2.8965345734258616E-002   5.7169065767813422E-002   0.0000000000000000     
   3.0506992855441929E-002   6.2725239787613768E-002   0.0000000000000000     
   3.1998884350370002E-002   6.8464393856875583E-002   0.0000000000000000     
   3.3441020219042827E-002   7.4386527975598846E-002   0.0000000000000000     
   3.4833400461460412E-002   8.0491642143783598E-002   0.0000000000000000     
   5.4603188507560005E-002   8.2544345080008671E-002   0.0000000000000000     
   5.6597915225093373E-002   8.8736082693367885E-002   0.0000000000000000     
   5.8467744428806666E-002   9.5062656487947358E-002   0.0000000000000000     
   6.0212676118699904E-002  0.10152406646374708        0.0000000000000000     
   6.1832710294773073E-002  0.10812031262076709        0.0000000000000000     
   4.9430662737996067E-002   8.1955104322042546E-002   0.0000000000000000     
   5.1257224214359430E-002   8.8165284830241830E-002   0.0000000000000000     
   5.2975292834215863E-002   9.4509033306780010E-002   0.0000000000000000     
   5.4584868597565367E-002  0.10098634975165710        0.0000000000000000     
   5.6085951504407948E-002  0.10759723416487309        0.0000000000000000     
   4.4411522807124813E-002   8.1416573580016333E-002   0.0000000000000000     
   4.6070984009047238E-002   8.7644354711251135E-002   0.0000000000000000     
   4.7635221200516352E-002   9.4004092165986597E-002   0.0000000000000000     
   4.9104234381532171E-002  0.10049578594422269        0.0000000000000000     
   5.0478023552094679E-002  0.10711943604595942        0.0000000000000000     
   3.9545768714946271E-002   8.0928752853929989E-002   0.0000000000000000     
   4.1039194609156796E-002   8.7173292336395786E-002   0.0000000000000000     
   4.2447529527708139E-002   9.3547833065567076E-002   0.0000000000000000     
   4.3770773470600308E-002  0.10005237504144381        0.0000000000000000     
   4.5008926437833295E-002  0.10668691826402608        0.0000000000000000     
   3.4833400461460412E-002   8.0491642143783598E-002   0.0000000000000000     
   3.6161856014688104E-002   8.6752097705675768E-002   0.0000000000000000     
   3.7412217815791217E-002   9.3140256005521421E-002   0.0000000000000000     
   3.8584485864769778E-002   9.9656117043320530E-002   0.0000000000000000     
   3.9678660161623774E-002  0.10629968081907308        0.0000000000000000     
   6.1832710294773073E-002  0.10812031262076709        0.0000000000000000     
   6.3453076283548945E-002  0.11490348523457469        0.0000000000000000     
   6.5199003411550271E-002  0.12192567458073725        0.0000000000000000     
   6.7070491678777072E-002  0.12918688065925477        0.0000000000000000     
   6.9067541085229306E-002  0.13668710347012722        0.0000000000000000     
   5.6085951504407948E-002  0.10759723416487309        0.0000000000000000     
   5.7583250055418408E-002  0.11439773991488128        0.0000000000000000     
   5.9181472751271613E-002  0.12144392037013503        0.0000000000000000     
   6.0880619591967521E-002  0.12873577553063428        0.0000000000000000     
   6.2680690577506165E-002  0.13627330539637905        0.0000000000000000     
   5.0478023552094679E-002  0.10711943604595942        0.0000000000000000     
   5.1845911119760835E-002  0.11393535439748784        0.0000000000000000     
   5.3297219492087558E-002  0.12100385292509895        0.0000000000000000     
   5.4831948669074856E-002  0.12832493162879283        0.0000000000000000     
   5.6450098650722730E-002  0.13589859050856939        0.0000000000000000     
   4.5008926437833295E-002  0.10668691826402608        0.0000000000000000     
   4.6241059476576210E-002  0.11351632868239435        0.0000000000000000     
   4.7546243633998134E-002  0.12060547224562912        0.0000000000000000     
   4.8924478910099087E-002  0.12795434895373040        0.0000000000000000     
   5.0375765304879049E-002  0.13556295880669816        0.0000000000000000     
   3.9678660161623774E-002  0.10629968081907308        0.0000000000000000     
   4.0768695125864528E-002  0.11314066276960083        0.0000000000000000     
   4.1928545177003326E-002  0.12024877833172545        0.0000000000000000     
   4.3158210315040184E-002  0.12762402750544696        0.0000000000000000     
   4.4457690539975087E-002  0.13526641029076539        0.0000000000000000     
   6.9067541085229306E-002  0.13668710347012722        0.0000000000000000     
   7.0945792123603080E-002  0.14428907690342316        0.0000000000000000     
   7.2460885286594390E-002  0.15185553484921116        0.0000000000000000     
   7.3612820574203264E-002  0.15938647730749120        0.0000000000000000     
   7.4401597986429702E-002  0.16688190427826333        0.0000000000000000     
   6.2680690577506165E-002  0.13627330539637905        0.0000000000000000     
   6.4380365784501098E-002  0.14391281794462907        0.0000000000000000     
   6.5778325289565925E-002  0.15151062115264397        0.0000000000000000     
   6.6874569092700648E-002  0.15906671502042372        0.0000000000000000     
   6.7669097193905264E-002  0.16658109954796838        0.0000000000000000     
   5.6450098650722730E-002  0.13589859050856939        0.0000000000000000     
   5.7981918576609136E-002  0.14357410205938692        0.0000000000000000     
   5.9257657586312025E-002  0.15120073877620366        0.0000000000000000     
   6.0277315679831404E-002  0.15877850065901972        0.0000000000000000     
   6.1040892857167267E-002  0.16630738770783488        0.0000000000000000     
   5.0375765304879049E-002  0.13556295880669816        0.0000000000000000     
   5.1750450499927200E-002  0.14327292924769672        0.0000000000000000     
   5.2898882176832689E-002  0.15092588771989035        0.0000000000000000     
   5.3821060335595534E-002  0.15852183422327909        0.0000000000000000     
   5.4516984976215703E-002  0.16606076875786285        0.0000000000000000     
   4.4457690539975087E-002  0.13526641029076539        0.0000000000000000     
   4.5685961554455257E-002  0.14300929950955846        0.0000000000000000     
   4.6701999061127909E-002  0.15068606798370396        0.0000000000000000     
   4.7505803059993017E-002  0.15829671571320189        0.0000000000000000     
   4.8097373551050607E-002  0.16584124269805228        0.0000000000000000     
   0.0000000000000000        0.0000000000000000        0.0000000000000000     
   1.7983270594068186E-003   1.2766312121760682E-003   0.0000000000000000     
   3.6213683131924509E-003   2.9387708707582696E-003   0.0000000000000000     
   5.4691237613568961E-003   4.9864189757466044E-003   0.0000000000000000     
   7.3415934039001559E-003   7.4195755271410741E-003   0.0000000000000000     
   0.0000000000000000        0.0000000000000000        0.0000000000000000     
   1.5349987994545370E-003   1.2172318870755990E-003   0.0000000000000000     
   3.0993292347616880E-003   2.8203464253183331E-003   0.0000000000000000     
   4.6929913059214536E-003   4.8093436147282030E-003   0.0000000000000000     
   6.3159850129338333E-003   7.1842234553052085E-003   0.0000000000000000     
   0.0000000000000000        0.0000000000000000        0.0000000000000000     
   1.2877586098039046E-003   1.1696261779032065E-003   0.0000000000000000     
   2.6053935994905706E-003   2.7240417298080499E-003   0.0000000000000000     
   3.9529049690599982E-003   4.6632466557145306E-003   0.0000000000000000     
   5.3302927185121876E-003   6.9872409556226457E-003   0.0000000000000000     
   0.0000000000000000        0.0000000000000000        0.0000000000000000     
   1.0566064904549213E-003   1.1338140846588911E-003   0.0000000000000000     
   2.1395614073790982E-003   2.6498567842274190E-003   0.0000000000000000     
   3.2488647507725307E-003   4.5481280987055839E-003   0.0000000000000000     
   4.3845165206352187E-003   6.8286280280933868E-003   0.0000000000000000     
   0.0000000000000000        0.0000000000000000        0.0000000000000000     
   8.4154244140758705E-004   1.1097956073426521E-003   0.0000000000000000     
   1.7018326584272705E-003   2.5977915885764410E-003   0.0000000000000000     
   2.5808706510590507E-003   4.4639879437013670E-003   0.0000000000000000     
   3.4786564193029276E-003   6.7083846727174299E-003   0.0000000000000000     
   7.3415934039001559E-003   7.4195755271410741E-003   0.0000000000000000     
   9.2310563495201607E-003   1.0185829729954259E-002   0.0000000000000000     
   1.1129791706914841E-002   1.3232770789198749E-002   0.0000000000000000     
   1.3037799476084201E-002   1.6560398704874545E-002   0.0000000000000000     
   1.4955079657028235E-002   2.0168713476981640E-002   0.0000000000000000     
   6.3159850129338333E-003   7.1842234553052085E-003   0.0000000000000000     
   7.9555941563196342E-003   9.8952829964539021E-003   0.0000000000000000     
   9.5991025365996657E-003   1.2892819287578839E-002   0.0000000000000000     
   1.1246510153773925E-002   1.6176832328680019E-002   0.0000000000000000     
   1.2897817007842417E-002   1.9747322119757441E-002   0.0000000000000000     
   5.3302927185121876E-003   6.9872409556226457E-003   0.0000000000000000     
   6.7230941407356009E-003   9.6497298240027663E-003   0.0000000000000000     
   8.1168465286187014E-003   1.2604418455325265E-002   0.0000000000000000     
   9.5115498821614873E-003   1.5851306849590137E-002   0.0000000000000000     
   1.0907204201363960E-002   1.9390395006797380E-002   0.0000000000000000     
   4.3845165206352187E-003   6.8286280280933868E-003   0.0000000000000000     
   5.5335563027680583E-003   9.4491702126008568E-003   0.0000000000000000     
   6.6830236829719470E-003   1.2367568292438024E-002   0.0000000000000000     
   7.8329186612468814E-003   1.5583822267604889E-002   0.0000000000000000     
   8.9832412375928650E-003   1.9097932138101459E-002   0.0000000000000000     
   3.4786564193029276E-003   6.7083846727174299E-003   0.0000000000000000     
   4.3869806424170089E-003   9.2936041622481667E-003   0.0000000000000000     
   5.2976339996594025E-003   1.2182268798917118E-002   0.0000000000000000     
   6.2106164910301102E-003   1.5374378582724283E-002   0.0000000000000000     
   7.1259281165291302E-003   1.8869933513669661E-002   0.0000000000000000     
   1.4955079657028235E-002   2.0168713476981640E-002   0.0000000000000000     
   1.6856549727847742E-002   2.4029216524140515E-002   0.0000000000000000     
   1.8717127166643515E-002   2.8113409264971641E-002   0.0000000000000000     
   2.0536811973415552E-002   3.2421291699475024E-002   0.0000000000000000     
   2.2315604148163859E-002   3.6952863827650659E-002   0.0000000000000000     
   1.2897817007842417E-002   1.9747322119757441E-002   0.0000000000000000     
   1.4536807510747886E-002   2.3578481137328262E-002   0.0000000000000000     
   1.6147266074433082E-002   2.7644501857909651E-002   0.0000000000000000     
   1.7729192698898000E-002   3.1945384281501593E-002   0.0000000000000000     
   1.9282587384142649E-002   3.6481128408104101E-002   0.0000000000000000     
   1.0907204201363960E-002   1.9390395006797380E-002   0.0000000000000000     
   1.2293623957825673E-002   2.3197212530851278E-002   0.0000000000000000     
   1.3660623623146175E-002   2.7247289025656114E-002   0.0000000000000000     
   1.5008203197325473E-002   3.1540624491211880E-002   0.0000000000000000     
   1.6336362680363564E-002   3.6077218927518584E-002   0.0000000000000000     
   8.9832412375928650E-003   1.9097932138101459E-002   0.0000000000000000     
   1.0126999069081103E-002   2.2885410704709556E-002   0.0000000000000000     
   1.1257199812782809E-002   2.6921770768211034E-002   0.0000000000000000     
   1.2373843468697975E-002   3.1207012328605888E-002   0.0000000000000000     
   1.3476930036826608E-002   3.5741135385894129E-002   0.0000000000000000     
   7.1259281165291302E-003   1.8869933513669661E-002   0.0000000000000000     
   8.0369328445141792E-003   2.2643075658903090E-002   0.0000000000000000     
   8.9369946433429676E-003   2.6667947085574406E-002   0.0000000000000000     
   9.8261135130155025E-003   3.0944547793683615E-002   0.0000000000000000     
   1.0704289453531779E-002   3.5472877783230702E-002   0.0000000000000000     
   2.2315604148163859E-002   3.6952863827650659E-002   0.0000000000000000     
   2.4049972391347114E-002   4.1698939180169647E-002   0.0000000000000000     
   2.5736385403423986E-002   4.6650331287703108E-002   0.0000000000000000     
   2.7374843184394489E-002   5.1807040150251032E-002   0.0000000000000000     
   2.8965345734258616E-002   5.7169065767813422E-002   0.0000000000000000     
   1.9282587384142649E-002   3.6481128408104101E-002   0.0000000000000000     
   2.0800584895355155E-002   4.1236869979016426E-002   0.0000000000000000     
   2.2276319997723660E-002   4.6197744735537810E-002   0.0000000000000000     
   2.3709792691248160E-002   5.1363752677668281E-002   0.0000000000000000     
   2.5101002975928651E-002   5.6734893805407818E-002   0.0000000000000000     
   1.6336362680363564E-002   3.6077218927518584E-002   0.0000000000000000     
   1.7636847712642571E-002   4.0838499251776531E-002   0.0000000000000000     
   1.8901403934544609E-002   4.5805892381186021E-002   0.0000000000000000     
   2.0130031346069683E-002   5.0979398315747049E-002   0.0000000000000000     
   2.1322729947217796E-002   5.6359017055459613E-002   0.0000000000000000     
   1.3476930036826608E-002   3.5741135385894129E-002   0.0000000000000000     
   1.4558760843209345E-002   4.0503826998449982E-002   0.0000000000000000     
   1.5611637213886833E-002   4.5474774224647720E-002   0.0000000000000000     
   1.6635559148859065E-002   5.0653977064487335E-002   0.0000000000000000     
   1.7630526648126043E-002   5.6041435517968821E-002   0.0000000000000000     
   1.0704289453531779E-002   3.5472877783230702E-002   0.0000000000000000     
   1.1566324287055490E-002   4.0232853219036774E-002   0.0000000000000000     
   1.2407019835750332E-002   4.5204390265922913E-002   0.0000000000000000     
   1.3226376099616301E-002   5.0387488923889133E-002   0.0000000000000000     
   1.4024393078653399E-002   5.5782149192935435E-002   0.0000000000000000     
   2.8965345734258616E-002   5.7169065767813422E-002   0.0000000000000000     
   3.0506992855441929E-002   6.2725239787613768E-002   0.0000000000000000     
   3.1998884350370002E-002   6.8464393856875583E-002   0.0000000000000000     
   3.3441020219042827E-002   7.4386527975598846E-002   0.0000000000000000     
   3.4833400461460412E-002   8.0491642143783598E-002   0.0000000000000000     
   2.5101002975928651E-002   5.6734893805407818E-002   0.0000000000000000     
   2.6449796549828361E-002   6.2300882735835880E-002   0.0000000000000000     
   2.7756019111010517E-002   6.8051434086031926E-002   0.0000000000000000     
   2.9019670659475111E-002   7.3986547855995968E-002   0.0000000000000000     
   3.0240751195222147E-002   8.0106224045727981E-002   0.0000000000000000     
   2.1322729947217796E-002   5.6359017055459613E-002   0.0000000000000000     
   2.2479494601535550E-002   6.1934427418454278E-002   0.0000000000000000     
   2.3600320172569564E-002   6.7695308222861572E-002   0.0000000000000000     
   2.4685206660319828E-002   7.3641659468681536E-002   0.0000000000000000     
   2.5734154064786342E-002   7.9773481155914122E-002   0.0000000000000000     
   1.7630526648126043E-002   5.6041435517968821E-002   0.0000000000000000     
   1.8596087010563499E-002   6.1625873835468963E-002   0.0000000000000000     
   1.9531787535047133E-002   6.7396016267364550E-002   0.0000000000000000     
   2.0437628221576975E-002   7.3351862813655550E-002   0.0000000000000000     
   2.1313609070152999E-002   7.9493413474342023E-002   0.0000000000000000     
   1.4024393078653399E-002   5.5782149192935435E-002   0.0000000000000000     
   1.4799573776912191E-002   6.1375221986879940E-002   0.0000000000000000     
   1.5550421198443245E-002   6.7153558219540804E-002   0.0000000000000000     
   1.6276935343246552E-002   7.3117157890918050E-002   0.0000000000000000     
   1.6979116211322122E-002   7.9266021001011655E-002   0.0000000000000000     
   3.4833400461460412E-002   8.0491642143783598E-002   0.0000000000000000     
   3.6161856014688104E-002   8.6752097705675768E-002   0.0000000000000000     
   3.7412217815791217E-002   9.3140256005521421E-002   0.0000000000000000     
   3.8584485864769778E-002   9.9656117043320530E-002   0.0000000000000000     
   3.9678660161623774E-002  0.10629968081907308        0.0000000000000000     
   3.0240751195222147E-002   8.0106224045727981E-002   0.0000000000000000     
   3.1404642634466906E-002   8.6380907299389520E-002   0.0000000000000000     
   3.2496726893424685E-002   9.2781042261142088E-002   0.0000000000000000     
   3.3517003972095477E-002   9.9306628930985685E-002   0.0000000000000000     
   3.4465473870479282E-002  0.10595766730892031        0.0000000000000000     
   2.5734154064786342E-002   7.9773481155914122E-002   0.0000000000000000     
   2.6733228877318986E-002   8.6059857597835424E-002   0.0000000000000000     
   2.7668497589267631E-002   9.2469873107721451E-002   0.0000000000000000     
   2.8539960200632292E-002   9.9003527685572190E-002   0.0000000000000000     
   2.9347616711412953E-002  0.10566082133138768        0.0000000000000000     
   2.1313609070152999E-002   7.9493413474342023E-002   0.0000000000000000     
   2.2147614743244334E-002   8.5788948601013465E-002   0.0000000000000000     
   2.2927529903320070E-002   9.2206748545259468E-002   0.0000000000000000     
   2.3653354550380225E-002   9.8746813307080031E-002   0.0000000000000000     
   2.4325088684424793E-002  0.10540914288647518        0.0000000000000000     
   1.6979116211322122E-002   7.9266021001011655E-002   0.0000000000000000     
   1.7647800232242942E-002   8.5568180308923672E-002   0.0000000000000000     
   1.8273823835581994E-002   9.1991668573756208E-002   0.0000000000000000     
   1.8857187021339279E-002   9.8536485795509249E-002   0.0000000000000000     
   1.9397889789514802E-002  0.10520263197418279        0.0000000000000000     
   3.9678660161623774E-002  0.10629968081907308        0.0000000000000000     
   4.0768695125864528E-002  0.11314066276960083        0.0000000000000000     
   4.1928545177003326E-002  0.12024877833172545        0.0000000000000000     
   4.3158210315040184E-002  0.12762402750544696        0.0000000000000000     
   4.4457690539975087E-002  0.13526641029076539        0.0000000000000000     
   3.4465473870479282E-002  0.10595766730892031        0.0000000000000000     
   3.5412190184019046E-002  0.11280873155105801        0.0000000000000000     
   3.6427206508157721E-002  0.11993439581351074        0.0000000000000000     
   3.7510522842895314E-002  0.12733466009627853        0.0000000000000000     
   3.8662139188231817E-002  0.13500952439936134        0.0000000000000000     
   2.9347616711412953E-002  0.10566082133138768        0.0000000000000000     
   3.0154916767433024E-002  0.11252090991871665        0.0000000000000000     
   3.1025310014515910E-002  0.11966294932110773        0.0000000000000000     
   3.1958796452661614E-002  0.12708693953856093        0.0000000000000000     
   3.2955376081870130E-002  0.13479288057107630        0.0000000000000000     
   2.4325088684424793E-002  0.10540914288647518        0.0000000000000000     
   2.4996874876106454E-002  0.11227719787257666        0.0000000000000000     
   2.5722855696077882E-002  0.11943443885451638        0.0000000000000000     
   2.6503031144339089E-002  0.12688086583229424        0.0000000000000000     
   2.7337401220890060E-002  0.13461647880591024        0.0000000000000000     
   1.9397889789514802E-002  0.10520263197418279        0.0000000000000000     
   1.9938064510039332E-002  0.11207759541263818        0.0000000000000000     
   2.0519843552843642E-002  0.11924886441373671        0.0000000000000000     
   2.1143226917927731E-002  0.12671643897747836        0.0000000000000000     
   2.1808214605291597E-002  0.13448031910386324        0.0000000000000000     
   4.4457690539975087E-002  0.13526641029076539        0.0000000000000000     
   4.5685961554455257E-002  0.14300929950955846        0.0000000000000000     
   4.6701999061127909E-002  0.15068606798370396        0.0000000000000000     
   4.7505803059993017E-002  0.15829671571320189        0.0000000000000000     
   4.8097373551050607E-002  0.16584124269805228        0.0000000000000000     
   3.8662139188231817E-002  0.13500952439936134        0.0000000000000000     
   3.9746880333511939E-002  0.14278395091757229        0.0000000000000000     
   4.0629571068080426E-002  0.15048290184572441        0.0000000000000000     
   4.1310211391937260E-002  0.15810637718381773        0.0000000000000000     
   4.1788801305082446E-002  0.16565437693185225        0.0000000000000000     
   3.2955376081870130E-002  0.13479288057107630        0.0000000000000000     
   3.3891635430415810E-002  0.14259762154433836        0.0000000000000000     
   3.4644161026572973E-002  0.15031801158403163        0.0000000000000000     
   3.5212952870341624E-002  0.15795405069015614        0.0000000000000000     
   3.5598010961721771E-002  0.16550573886271183        0.0000000000000000     
   2.7337401220890060E-002  0.13461647880591024        0.0000000000000000     
   2.8120226845166865E-002  0.14245031138985667        0.0000000000000000     
   2.8745768936605551E-002  0.15019139719862554        0.0000000000000000     
   2.9214027495206112E-002  0.15783973623221706        0.0000000000000000     
   2.9525002520968548E-002  0.16539532849063102        0.0000000000000000     
   2.1808214605291597E-002  0.13448031910386324        0.0000000000000000     
   2.2432654577765117E-002  0.14234202045412722        0.0000000000000000     
   2.2934394798178156E-002  0.15010305868950632        0.0000000000000000     
   2.3313435266530718E-002  0.15776343381000049        0.0000000000000000     
   2.3569775982822800E-002  0.16532314581560981        0.0000000000000000     
   0.0000000000000000        0.0000000000000000        0.0000000000000000     
   8.4154244140758705E-004   1.1097956073426521E-003   0.0000000000000000     
   1.7018326584272705E-003   2.5977915885764410E-003   0.0000000000000000     
   2.5808706510590507E-003   4.4639879437013670E-003   0.0000000000000000     
   3.4786564193029276E-003   6.7083846727174299E-003   0.0000000000000000     
   0.0000000000000000        0.0000000000000000        0.0000000000000000     
   6.3367126377013045E-004   1.0939332105407368E-003   0.0000000000000000     
   1.2776861767411702E-003   2.5619135544524127E-003   0.0000000000000000     
   1.9320447389131194E-003   4.4039410317350276E-003   0.0000000000000000     
   2.5967469502859780E-003   6.6200156423885815E-003   0.0000000000000000     
   0.0000000000000000        0.0000000000000000        0.0000000000000000     
   4.2409775865077937E-004   1.0825893588393919E-003   0.0000000000000000     
   8.5260078642687850E-004   2.5362900934526311E-003   0.0000000000000000     
   1.2855090833282972E-003   4.3611022038397163E-003   0.0000000000000000     
   1.7228226493550358E-003   6.5570256900006479E-003   0.0000000000000000     
   0.0000000000000000        0.0000000000000000        0.0000000000000000     
   2.1282192604953426E-004   1.0757640522386172E-003   0.0000000000000000     
   4.2657648748439586E-004   2.5209212055770946E-003   0.0000000000000000     
   6.4126368430458488E-004   4.3354714600154325E-003   0.0000000000000000     
   8.5688351651010098E-004   6.5194148155536301E-003   0.0000000000000000     
   0.0000000000000000        0.0000000000000000        0.0000000000000000     
  -1.5623403360506653E-007   1.0734572907384128E-003   0.0000000000000000     
  -3.8672008627782962E-007   2.5158068908258048E-003   0.0000000000000000     
  -6.9145815801850610E-007   4.3270488002621768E-003   0.0000000000000000     
  -1.0704482488266623E-006   6.5071830190475272E-003   0.0000000000000000     
   3.4786564193029276E-003   6.7083846727174299E-003   0.0000000000000000     
   4.3869806424170089E-003   9.2936041622481667E-003   0.0000000000000000     
   5.2976339996594025E-003   1.2182268798917118E-002   0.0000000000000000     
   6.2106164910301102E-003   1.5374378582724283E-002   0.0000000000000000     
   7.1259281165291302E-003   1.8869933513669661E-002   0.0000000000000000     
   2.5967469502859780E-003   6.6200156423885815E-003   0.0000000000000000     
   3.2688792690991827E-003   9.1772525310514289E-003   0.0000000000000000     
   3.9455281535921713E-003   1.2042766842361925E-002   0.0000000000000000     
   4.6266936037649437E-003   1.5216558576320068E-002   0.0000000000000000     
   5.3123756196174991E-003   1.8698627732925861E-002   0.0000000000000000     
   1.7228226493550358E-003   6.5570256900006479E-003   0.0000000000000000     
   2.1647642922313142E-003   9.0943361771173674E-003   0.0000000000000000     
   2.6115568196813533E-003   1.1943309290371820E-002   0.0000000000000000     
   3.0632002317051528E-003   1.5103945029763997E-002   0.0000000000000000     
   3.5196945283027135E-003   1.8576243395293904E-002   0.0000000000000000     
   8.5688351651010098E-004   6.5194148155536301E-003   0.0000000000000000     
   1.0746357118134025E-003   9.0448551004459875E-003   0.0000000000000000     
   1.2957199979269482E-003   1.1883896142946800E-002   0.0000000000000000     
   1.5201363748507380E-003   1.5036537943056070E-002   0.0000000000000000     
   1.7478848425847712E-003   1.8502780500773801E-002   0.0000000000000000     
  -1.0704482488266623E-006   6.5071830190475272E-003   0.0000000000000000     
  -1.5064721545519422E-006   9.0288093010372824E-003   0.0000000000000000     
  -1.9823116710438815E-006   1.1864527400086871E-002   0.0000000000000000     
  -2.4979667983019381E-006   1.5014337316196289E-002   0.0000000000000000     
  -3.0534375363266541E-006   1.8478239049365540E-002   0.0000000000000000     
   7.1259281165291302E-003   1.8869933513669661E-002   0.0000000000000000     
   8.0369328445141792E-003   2.2643075658903090E-002   0.0000000000000000     
   8.9369946433429676E-003   2.6667947085574406E-002   0.0000000000000000     
   9.8261135130155025E-003   3.0944547793683615E-002   0.0000000000000000     
   1.0704289453531779E-002   3.5472877783230702E-002   0.0000000000000000     
   5.3123756196174991E-003   1.8698627732925861E-002   0.0000000000000000     
   5.9955499086135249E-003   2.2461382334102945E-002   0.0000000000000000     
   6.6691921782167044E-003   2.6477230401774951E-002   0.0000000000000000     
   7.3333024284270385E-003   3.0746171935941889E-002   0.0000000000000000     
   7.9878806592445263E-003   3.5268206936603742E-002   0.0000000000000000     
   3.5196945283027135E-003   1.8576243395293904E-002   0.0000000000000000     
   3.9749748858677672E-003   2.2331505670980165E-002   0.0000000000000000     
   4.4229764807940507E-003   2.6341033140841373E-002   0.0000000000000000     
   4.8636993130815598E-003   3.0604825804877542E-002   0.0000000000000000     
   5.2971433827302987E-003   3.5122883663088675E-002   0.0000000000000000     
   1.7478848425847712E-003   1.8502780500773801E-002   0.0000000000000000     
   1.9752077762769079E-003   2.2253445669534751E-002   0.0000000000000000     
   2.1983475510750083E-003   2.6259355302773679E-002   0.0000000000000000     
   2.4173041669790715E-003   3.0520509400490593E-002   0.0000000000000000     
   2.6320776239890978E-003   3.5036907962685486E-002   0.0000000000000000     
  -3.0534375363266541E-006   1.8478239049365540E-002   0.0000000000000000     
  -3.7514201590544381E-006   2.2227202329766705E-002   0.0000000000000000     
  -4.6946109404220242E-006   2.6232196887571866E-002   0.0000000000000000     
  -5.8830098804303610E-006   3.0493222722781026E-002   0.0000000000000000     
  -7.3166169790783372E-006   3.5010279835394190E-002   0.0000000000000000     
   1.0704289453531779E-002   3.5472877783230702E-002   0.0000000000000000     
   1.1566324287055490E-002   4.0232853219036774E-002   0.0000000000000000     
   1.2407019835750332E-002   4.5204390265922913E-002   0.0000000000000000     
   1.3226376099616301E-002   5.0387488923889133E-002   0.0000000000000000     
   1.4024393078653399E-002   5.5782149192935435E-002   0.0000000000000000     
   7.9878806592445263E-003   3.5268206936603742E-002   0.0000000000000000     
   8.6306364629895483E-003   4.0024134056263198E-002   0.0000000000000000     
   9.2592794319824850E-003   4.4994751947422910E-002   0.0000000000000000     
   9.8738095662233363E-003   5.0180060610082879E-002   0.0000000000000000     
   1.0474226865712101E-002   5.5580060044243096E-002   0.0000000000000000     
   5.2971433827302987E-003   3.5122883663088675E-002   0.0000000000000000     
   5.7227957898200689E-003   3.9876225652855556E-002   0.0000000000000000     
   6.1401436344306745E-003   4.4845870711558981E-002   0.0000000000000000     
   6.5491869165621138E-003   5.0031818839198959E-002   0.0000000000000000     
   6.9499256362143876E-003   5.5434070035775475E-002   0.0000000000000000     
   2.6320776239890978E-003   3.5036907962685486E-002   0.0000000000000000     
   2.8428022675470520E-003   3.9789128008813845E-002   0.0000000000000000     
   3.0496124430948969E-003   4.4757746558331153E-002   0.0000000000000000     
   3.2525081506326343E-003   4.9942763611237381E-002   0.0000000000000000     
   3.4514893901602646E-003   5.5344179167532565E-002   0.0000000000000000     
  -7.3166169790783372E-006   3.5010279835394190E-002   0.0000000000000000     
  -9.3441038295044533E-006   3.9762841124138075E-002   0.0000000000000000     
  -1.2314142024845421E-005   4.4730379487739391E-002   0.0000000000000000     
  -1.6226731565102201E-005   4.9912894926198159E-002   0.0000000000000000     
  -2.1081872450273102E-005   5.5310387439514351E-002   0.0000000000000000     
   1.4024393078653399E-002   5.5782149192935435E-002   0.0000000000000000     
   1.4799573776912191E-002   6.1375221986879940E-002   0.0000000000000000     
   1.5550421198443245E-002   6.7153558219540804E-002   0.0000000000000000     
   1.6276935343246552E-002   7.3117157890918050E-002   0.0000000000000000     
   1.6979116211322122E-002   7.9266021001011655E-002   0.0000000000000000     
   1.0474226865712101E-002   5.5580060044243096E-002   0.0000000000000000     
   1.1058241061083135E-002   6.1179868402898310E-002   0.0000000000000000     
   1.1623561882970795E-002   6.6964603839043221E-002   0.0000000000000000     
   1.2170189331375080E-002   7.2934266352677843E-002   0.0000000000000000     
   1.2698123406295992E-002   7.9088855943802175E-002   0.0000000000000000     
   6.9499256362143876E-003   5.5434070035775475E-002   0.0000000000000000     
   7.3403750235778130E-003   6.1037209613735148E-002   0.0000000000000000     
   7.7185503088427025E-003   6.6825822885524577E-002   0.0000000000000000     
   8.0844514920090579E-003   7.2799909851143749E-002   0.0000000000000000     
   8.4380785730768793E-003   7.8959470510592711E-002   0.0000000000000000     
   3.4514893901602646E-003   5.5344179167532565E-002   0.0000000000000000     
   3.6459756643962282E-003   6.0947245619390467E-002   0.0000000000000000     
   3.8353864760589705E-003   6.6737215358984886E-002   0.0000000000000000     
   4.0197218251484907E-003   7.2714088386315823E-002   0.0000000000000000     
   4.1989817116647905E-003   7.8877864701383291E-002   0.0000000000000000     
  -2.1081872450273102E-005   5.5310387439514351E-002   0.0000000000000000     
  -2.4957016461620300E-005   6.0909976419864280E-002   0.0000000000000000     
  -2.5929615380403212E-005   6.6698781259424175E-002   0.0000000000000000     
  -2.3999669206621309E-005   7.2676801958194051E-002   0.0000000000000000     
  -1.9167177940277369E-005   7.8844038516173914E-002   0.0000000000000000     
   1.6979116211322122E-002   7.9266021001011655E-002   0.0000000000000000     
   1.7647800232242942E-002   8.5568180308923672E-002   0.0000000000000000     
   1.8273823835581994E-002   9.1991668573756208E-002   0.0000000000000000     
   1.8857187021339279E-002   9.8536485795509249E-002   0.0000000000000000     
   1.9397889789514802E-002  0.10520263197418279        0.0000000000000000     
   1.2698123406295992E-002   7.9088855943802175E-002   0.0000000000000000     
   1.3201190774465122E-002   8.5396123578887914E-002   0.0000000000000000     
   1.3673218102614069E-002   9.1823820224406758E-002   0.0000000000000000     
   1.4114205390742835E-002   9.8371945880358747E-002   0.0000000000000000     
   1.4524152638851416E-002  0.10504050054674385        0.0000000000000000     
   8.4380785730768793E-003   7.8959470510592711E-002   0.0000000000000000     
   8.7751918000611804E-003   8.5271349268228019E-002   0.0000000000000000     
   9.0915514209769770E-003   9.1702390528406258E-002   0.0000000000000000     
   9.3871574358242709E-003   9.8252594291127482E-002   0.0000000000000000     
   9.6620098446030603E-003  0.10492196055639165        0.0000000000000000     
   4.1989817116647905E-003   7.8877864701383291E-002   0.0000000000000000     
   4.3698033090311160E-003   8.5193857376944043E-002   0.0000000000000000     
   4.5288237906707151E-003   9.1627379485754737E-002   0.0000000000000000     
   4.6760431565835885E-003   9.8178431027815469E-002   0.0000000000000000     
   4.8114614067697381E-003  0.10484701200312621        0.0000000000000000     
  -1.9167177940277369E-005   7.8844038516173914E-002   0.0000000000000000     
  -1.4974698625073004E-005   8.5163647905035902E-002   0.0000000000000000     
  -1.4964788304718771E-005   9.1598787096452153E-002   0.0000000000000000     
  -1.9137446979211758E-005   9.8149456090422693E-002   0.0000000000000000     
  -2.7492674648552356E-005  0.10481565488694751        0.0000000000000000     
   1.9397889789514802E-002  0.10520263197418279        0.0000000000000000     
   1.9938064510039332E-002  0.11207759541263818        0.0000000000000000     
   2.0519843552843642E-002  0.11924886441373671        0.0000000000000000     
   2.1143226917927731E-002  0.12671643897747836        0.0000000000000000     
   2.1808214605291597E-002  0.13448031910386324        0.0000000000000000     
   1.4524152638851416E-002  0.10504050054674385        0.0000000000000000     
   1.4932639644894670E-002  0.11192032013875415        0.0000000000000000     
   1.5369246206827458E-002  0.11910224057158177        0.0000000000000000     
   1.5833972324649774E-002  0.12658626184522667        0.0000000000000000     
   1.6326817998361630E-002  0.13437238395968887        0.0000000000000000     
   9.6620098446030603E-003  0.10492196055639165        0.0000000000000000     
   9.9347542563354638E-003  0.11180358965077770        0.0000000000000000     
   1.0224036280043591E-002  0.11899058190086459        0.0000000000000000     
   1.0529855915727450E-002  0.12648293730665228        0.0000000000000000     
   1.0852213163387038E-002  0.13428065586814078        0.0000000000000000     
   4.8114614067697381E-003  0.10484701200312621        0.0000000000000000     
   4.9444083443617084E-003  0.11172740394870882        0.0000000000000000     
   5.0842137724920484E-003  0.11891388840158515        0.0000000000000000     
   5.2308776911607546E-003  0.12640646536175518        0.0000000000000000     
   5.3844001003678305E-003  0.13420513482921897        0.0000000000000000     
  -2.7492674648552356E-005  0.10481565488694751        0.0000000000000000     
  -3.8398091026591464E-005  0.11169176303254746        0.0000000000000000     
  -5.0221315827178787E-005  0.11887216007374346        0.0000000000000000     
  -6.2962349050313377E-005  0.12635684601053548        0.0000000000000000     
  -7.6621190695995694E-005  0.13414582084292351        0.0000000000000000     
   2.1808214605291597E-002  0.13448031910386324        0.0000000000000000     
   2.2432654577765117E-002  0.14234202045412722        0.0000000000000000     
   2.2934394798178156E-002  0.15010305868950632        0.0000000000000000     
   2.3313435266530718E-002  0.15776343381000049        0.0000000000000000     
   2.3569775982822800E-002  0.16532314581560981        0.0000000000000000     
   1.6326817998361630E-002  0.13437238395968887        0.0000000000000000     
   1.6790678737602722E-002  0.14225596179083175        0.0000000000000000     
   1.7168450052012774E-002  0.15003235021451883        0.0000000000000000     
   1.7460131941591781E-002  0.15770154923075000        0.0000000000000000     
   1.7665724406339733E-002  0.16526355883952537        0.0000000000000000     
   1.0852213163387038E-002  0.13428065586814078        0.0000000000000000     
   1.1156059434071849E-002  0.14217534845365210        0.0000000000000000     
   1.1406346138831373E-002  0.14995862593150819        0.0000000000000000     
   1.1603073277665613E-002  0.15763048830170906        0.0000000000000000     
   1.1746240850574569E-002  0.16519093556425482        0.0000000000000000     
   5.3844001003678305E-003  0.13420513482921897        0.0000000000000000     
   5.5287966671724942E-003  0.14210018044258818        0.0000000000000000     
   5.6480830586339596E-003  0.14988188584047443        0.0000000000000000     
   5.7422592747522292E-003  0.15755025102287773        0.0000000000000000     
   5.8113253155273031E-003  0.16510527598979813        0.0000000000000000     
  -7.6621190695995694E-005  0.13414582084292351        0.0000000000000000     
  -9.1109563095342298E-005  0.14203045775764003        0.0000000000000000     
  -1.0633918857946996E-004  0.14980212994141751        0.0000000000000000     
  -1.2231006714837669E-004  0.15746083739425595        0.0000000000000000     
  -1.3902219880206328E-004  0.16500658011615532        0.0000000000000000     
   0.0000000000000000        0.0000000000000000        0.0000000000000000     
  -1.5623403360506653E-007   1.0734572907384128E-003   0.0000000000000000     
  -3.8672008627782962E-007   2.5158068908258048E-003   0.0000000000000000     
  -6.9145815801850610E-007   4.3270488002621768E-003   0.0000000000000000     
  -1.0704482488266623E-006   6.5071830190475272E-003   0.0000000000000000     
   0.0000000000000000        0.0000000000000000        0.0000000000000000     
  -2.1313208907795800E-004   1.0757117974253792E-003   0.0000000000000000     
  -4.2733563876046226E-004   2.5209823209854190E-003   0.0000000000000000     
  -6.4261064904751273E-004   4.3358115706801197E-003   0.0000000000000000     
  -8.5895711993910979E-004   6.5201995465094791E-003   0.0000000000000000     
   0.0000000000000000        0.0000000000000000        0.0000000000000000     
  -4.2440100656284383E-004   1.0825702953861170E-003   0.0000000000000000     
  -8.5331707101347703E-004   2.5364826678425942E-003   0.0000000000000000     
  -1.2867481933518993E-003   4.3617371173694320E-003   0.0000000000000000     
  -1.7246943735781113E-003   6.5583336439666304E-003   0.0000000000000000     
   0.0000000000000000        0.0000000000000000        0.0000000000000000     
  -6.3396298648826267E-004   1.0940327846206256E-003   0.0000000000000000     
  -1.2783310168453220E-003   2.5623079313973306E-003   0.0000000000000000     
  -1.9331040910711781E-003   4.4048254403301146E-003   0.0000000000000000     
  -2.5982822091658304E-003   6.6215853114189767E-003   0.0000000000000000     
   0.0000000000000000        0.0000000000000000        0.0000000000000000     
  -8.4181802885421430E-004   1.1100992651289061E-003   0.0000000000000000     
  -1.7023774762559975E-003   2.5984581116496284E-003   0.0000000000000000     
  -2.5816783422053487E-003   4.4650765395621668E-003   0.0000000000000000     
  -3.4797206267022682E-003   6.7099545488665223E-003   0.0000000000000000     
  -1.0704482488266623E-006   6.5071830190475272E-003   0.0000000000000000     
  -1.5064721545519422E-006   9.0288093010372824E-003   0.0000000000000000     
  -1.9823116710438815E-006   1.1864527400086871E-002   0.0000000000000000     
  -2.4979667983019381E-006   1.5014337316196289E-002   0.0000000000000000     
  -3.0534375363266541E-006   1.8478239049365540E-002   0.0000000000000000     
  -8.5895711993910979E-004   6.5201995465094791E-003   0.0000000000000000     
  -1.0775454808641927E-003   9.0459863843826011E-003   0.0000000000000000     
  -1.2995461612517025E-003   1.1885012220208581E-002   0.0000000000000000     
  -1.5249591611016388E-003   1.5037277053987420E-002   0.0000000000000000     
  -1.7537844804140011E-003   1.8502780885719119E-002   0.0000000000000000     
  -1.7246943735781113E-003   6.5583336439666304E-003   0.0000000000000000     
  -2.1673645355071635E-003   9.0961739559732840E-003   0.0000000000000000     
  -2.6149676029541078E-003   1.1945159761728486E-002   0.0000000000000000     
  -3.0675035759189445E-003   1.5105291061232240E-002   0.0000000000000000     
  -3.5249724544016729E-003   1.8576567854484537E-002   0.0000000000000000     
  -2.5982822091658304E-003   6.6215853114189767E-003   0.0000000000000000     
  -3.2709636360834632E-003   9.1793720158093294E-003   0.0000000000000000     
  -3.9482466367782585E-003   1.2044970024646585E-002   0.0000000000000000     
  -4.6301312112502170E-003   1.5218379337930740E-002   0.0000000000000000     
  -5.3166173594993427E-003   1.8699599955661800E-002   0.0000000000000000     
  -3.4797206267022682E-003   6.7099545488665223E-003   0.0000000000000000     
  -4.3883427825930927E-003   9.2955805638907426E-003   0.0000000000000000     
  -5.2993832627241571E-003   1.2184443008962879E-002   0.0000000000000000     
  -6.2128420670954625E-003   1.5376541884082931E-002   0.0000000000000000     
  -7.1287191957070091E-003   1.8871877189250895E-002   0.0000000000000000     
  -3.0534375363266541E-006   1.8478239049365540E-002   0.0000000000000000     
  -3.7514201590544381E-006   2.2227202329766705E-002   0.0000000000000000     
  -4.6946109404220242E-006   2.6232196887571866E-002   0.0000000000000000     
  -5.8830098804303610E-006   3.0493222722781026E-002   0.0000000000000000     
  -7.3166169790783372E-006   3.5010279835394190E-002   0.0000000000000000     
  -1.7537844804140011E-003   1.8502780885719119E-002   0.0000000000000000     
  -1.9824502799710916E-003   2.2253067101248743E-002   0.0000000000000000     
  -2.2073847205552125E-003   2.6259679086421364E-002   0.0000000000000000     
  -2.4285878021663644E-003   3.0522616841236968E-002   0.0000000000000000     
  -2.6460595248045463E-003   3.5041880365695569E-002   0.0000000000000000     
  -3.5249724544016729E-003   1.8576567854484537E-002   0.0000000000000000     
  -3.9814363796901765E-003   2.2331331433553592E-002   0.0000000000000000     
  -4.4309574930723357E-003   2.6341923090507591E-002   0.0000000000000000     
  -4.8735357945481521E-003   3.0608342825346545E-002   0.0000000000000000     
  -5.3091712841176232E-003   3.5130590638070454E-002   0.0000000000000000     
  -5.3166173594993427E-003   1.8699599955661800E-002   0.0000000000000000     
  -6.0007097193163069E-003   2.2461995326681240E-002   0.0000000000000000     
  -6.6754129284917899E-003   2.6478928899830563E-002   0.0000000000000000     
  -7.3407269870257906E-003   3.0750400675109747E-002   0.0000000000000000     
  -7.9966518949183100E-003   3.5276410652518804E-002   0.0000000000000000     
  -7.1287191957070091E-003   1.8871877189250895E-002   0.0000000000000000     
  -8.0402702988494838E-003   2.2645058780631701E-002   0.0000000000000000     
  -8.9407510268135742E-003   2.6670696514390260E-002   0.0000000000000000     
  -9.8301613795992830E-003   3.0948790390526573E-002   0.0000000000000000     
  -1.0708501357206607E-002   3.5479340409040647E-002   0.0000000000000000     
  -7.3166169790783372E-006   3.5010279835394190E-002   0.0000000000000000     
  -9.3441038295044533E-006   3.9762841124138075E-002   0.0000000000000000     
  -1.2314142024845421E-005   4.4730379487739391E-002   0.0000000000000000     
  -1.6226731565102201E-005   4.9912894926198159E-002   0.0000000000000000     
  -2.1081872450273102E-005   5.5310387439514351E-002   0.0000000000000000     
  -2.6460595248045463E-003   3.5041880365695569E-002   0.0000000000000000     
  -2.8605793363256650E-003   3.9795786269225128E-002   0.0000000000000000     
  -3.0729266845856249E-003   4.4762651161253615E-002   0.0000000000000000     
  -3.2831015695844266E-003   4.9942475041781030E-002   0.0000000000000000     
  -3.4911039913220689E-003   5.5335257910807373E-002   0.0000000000000000     
  -5.3091712841176232E-003   3.5130590638070454E-002   0.0000000000000000     
  -5.7378394419574964E-003   3.9886384714471958E-002   0.0000000000000000     
  -6.1595157482445123E-003   4.4853443240343745E-002   0.0000000000000000     
  -6.5742002029786700E-003   5.0031766215685787E-002   0.0000000000000000     
  -6.9818928061599703E-003   5.5421353640498112E-002   0.0000000000000000     
  -7.9966518949183100E-003   3.5276410652518804E-002   0.0000000000000000     
  -8.6411244207250000E-003   4.0034636459878536E-002   0.0000000000000000     
  -9.2720813330015063E-003   4.5002755725009745E-002   0.0000000000000000     
  -9.8895226317478324E-003   5.0180768447912423E-002   0.0000000000000000     
  -1.0493448316963975E-002   5.5568674628586584E-002   0.0000000000000000     
  -1.0708501357206607E-002   3.5479340409040647E-002   0.0000000000000000     
  -1.1570434272628174E-002   4.0240541505444878E-002   0.0000000000000000     
  -1.2410623438856608E-002   4.5210588615251637E-002   0.0000000000000000     
  -1.3229068855891915E-002   5.0389481738460952E-002   0.0000000000000000     
  -1.4025770523734089E-002   5.5777220875072787E-002   0.0000000000000000     
  -2.1081872450273102E-005   5.5310387439514351E-002   0.0000000000000000     
  -2.4957016461620300E-005   6.0909976419864280E-002   0.0000000000000000     
  -2.5929615380403212E-005   6.6698781259424175E-002   0.0000000000000000     
  -2.3999669206621309E-005   7.2676801958194051E-002   0.0000000000000000     
  -1.9167177940277369E-005   7.8844038516173914E-002   0.0000000000000000     
  -3.4911039913220689E-003   5.5335257910807373E-002   0.0000000000000000     
  -3.6927857045712790E-003   6.0930143171068804E-002   0.0000000000000000     
  -3.8839984641047798E-003   6.6716274225301492E-002   0.0000000000000000     
  -4.0647422699225709E-003   7.2693651073505422E-002   0.0000000000000000     
  -4.2350171220246540E-003   7.8862273715680609E-002   0.0000000000000000     
  -6.9818928061599703E-003   5.5421353640498112E-002   0.0000000000000000     
  -7.3778730855082941E-003   6.1012487028916283E-002   0.0000000000000000     
  -7.7574205687435194E-003   6.6795447895075910E-002   0.0000000000000000     
  -8.1205352558656480E-003   7.2770236238976965E-002   0.0000000000000000     
  -8.4672171468746765E-003   7.8936852060619470E-002   0.0000000000000000     
  -1.0493448316963975E-002   5.5568674628586584E-002   0.0000000000000000     
  -1.1080219159272667E-002   6.1157007993406752E-002   0.0000000000000000     
  -1.1646195929296622E-002   6.6936302268747472E-002   0.0000000000000000     
  -1.2191378627035848E-002   7.2906557454608709E-002   0.0000000000000000     
  -1.2715767252490344E-002   7.9067773550990483E-002   0.0000000000000000     
  -1.4025770523734089E-002   5.5777220875072787E-002   0.0000000000000000     
  -1.4799823925864392E-002   6.1363706064540183E-002   0.0000000000000000     
  -1.5550324545764087E-002   6.7138837346316094E-002   0.0000000000000000     
  -1.6277272383433173E-002   7.3102614720400610E-002   0.0000000000000000     
  -1.6980667438871652E-002   7.9255038186793650E-002   0.0000000000000000     
  -1.9167177940277369E-005   7.8844038516173914E-002   0.0000000000000000     
  -1.4974698625073004E-005   8.5163647905035902E-002   0.0000000000000000     
  -1.4964788304718771E-005   9.1598787096452153E-002   0.0000000000000000     
  -1.9137446979211758E-005   9.8149456090422693E-002   0.0000000000000000     
  -2.7492674648552356E-005  0.10481565488694751        0.0000000000000000     
  -4.2350171220246540E-003   7.8862273715680609E-002   0.0000000000000000     
  -4.3980467349647809E-003   8.5183576537076866E-002   0.0000000000000000     
  -4.5570548232967021E-003   9.1618993922943981E-002   0.0000000000000000     
  -4.7120413870204176E-003   9.8168525873281939E-002   0.0000000000000000     
  -4.8630064261359282E-003  0.10483217238809077        0.0000000000000000     
  -8.4672171468746765E-003   7.8936852060619470E-002   0.0000000000000000     
  -8.7983173120454033E-003   8.5256498957640134E-002   0.0000000000000000     
  -9.1146868216526143E-003   9.1690380527675641E-002   0.0000000000000000     
  -9.4163256756963180E-003   9.8238496770726005E-002   0.0000000000000000     
  -9.7032338741765076E-003  0.10490084768679125        0.0000000000000000     
  -1.2715767252490344E-002   7.9067773550990483E-002   0.0000000000000000     
  -1.3215786429866936E-002   8.5382415166725650E-002   0.0000000000000000     
  -1.3687860783372460E-002   9.1812946910647147E-002   0.0000000000000000     
  -1.4131990313006911E-002   9.8359368782754877E-002   0.0000000000000000     
  -1.4548175018770289E-002  0.10502168078304888        0.0000000000000000     
  -1.6980667438871652E-002   7.9255038186793650E-002   0.0000000000000000     
  -1.7650454088429388E-002   8.5561325164333527E-002   0.0000000000000000     
  -1.8276576708456234E-002   9.1986693071858472E-002   0.0000000000000000     
  -1.8859035298952196E-002   9.8531141909368555E-002   0.0000000000000000     
  -1.9397829859917271E-002  0.10519467167686374        0.0000000000000000     
  -2.7492674648552356E-005  0.10481565488694751        0.0000000000000000     
  -3.8398091026591464E-005  0.11169176303254746        0.0000000000000000     
  -5.0221315827178787E-005  0.11887216007374346        0.0000000000000000     
  -6.2962349050313377E-005  0.12635684601053548        0.0000000000000000     
  -7.6621190695995694E-005  0.13414582084292351        0.0000000000000000     
  -4.8630064261359282E-003  0.10483217238809077        0.0000000000000000     
  -5.0162200610693614E-003  0.11170350991890729        0.0000000000000000     
  -5.1779524122468456E-003  0.11887611491726825        0.0000000000000000     
  -5.3482034796683807E-003  0.12634998738317374        0.0000000000000000     
  -5.5269732633339702E-003  0.13412512731662365        0.0000000000000000     
  -9.7032338741765076E-003  0.10490084768679125        0.0000000000000000     
  -9.9916125770065263E-003  0.11176948762440181        0.0000000000000000     
  -1.0297662944099718E-002  0.11893647093208826        0.0000000000000000     
  -1.0621384975456082E-002  0.12640179760985054        0.0000000000000000     
  -1.0962778671075616E-002  0.13416546765768875        0.0000000000000000     
  -1.4548175018770289E-002  0.10502168078304888        0.0000000000000000     
  -1.4964575638838087E-002  0.11188969614903112        0.0000000000000000     
  -1.5409352911385794E-002  0.11905322811820350        0.0000000000000000     
  -1.5882506836413408E-002  0.12651227669056606        0.0000000000000000     
  -1.6384037413920940E-002  0.13426684186611873        0.0000000000000000     
  -1.9397829859917271E-002  0.10519467167686374        0.0000000000000000     
  -1.9935109246564039E-002  0.11206413549279515        0.0000000000000000     
  -2.0513022314105071E-002  0.11922638647561397        0.0000000000000000     
  -2.1131569062540372E-002  0.12668142462532014        0.0000000000000000     
  -2.1790749491869935E-002  0.13442924994191374        0.0000000000000000     
  -7.6621190695995694E-005  0.13414582084292351        0.0000000000000000     
  -9.1109563095342298E-005  0.14203045775764003        0.0000000000000000     
  -1.0633918857946996E-004  0.14980212994141751        0.0000000000000000     
  -1.2231006714837669E-004  0.15746083739425595        0.0000000000000000     
  -1.3902219880206328E-004  0.16500658011615532        0.0000000000000000     
  -5.5269732633339702E-003  0.13412512731662365        0.0000000000000000     
  -5.6981512340208975E-003  0.14199549591429295        0.0000000000000000     
  -5.8456268625064547E-003  0.14975505437285655        0.0000000000000000     
  -5.9694001487906427E-003  0.15740380269231441        0.0000000000000000     
  -6.0694710928734606E-003  0.16494174087266655        0.0000000000000000     
  -1.0962778671075616E-002  0.13416546765768875        0.0000000000000000     
  -1.1286820322893408E-002  0.14202461042803224        0.0000000000000000     
  -1.1558486222844539E-002  0.14977635527331060        0.0000000000000000     
  -1.1777776370929010E-002  0.15742070219352383        0.0000000000000000     
  -1.1944690767146823E-002  0.16495765118867192        0.0000000000000000     
  -1.6384037413920940E-002  0.13426684186611873        0.0000000000000000     
  -1.6857116829712877E-002  0.14211780129885790        0.0000000000000000     
  -1.7244917269593728E-002  0.14986603264277973        0.0000000000000000     
  -1.7547438733563483E-002  0.15751153589788422        0.0000000000000000     
  -1.7764681221622152E-002  0.16505431106417148        0.0000000000000000     
  -2.1790749491869935E-002  0.13442924994191374        0.0000000000000000     
  -2.2409040754479300E-002  0.14227506852676991        0.0000000000000000     
  -2.2904920002754008E-002  0.15002408648126389        0.0000000000000000     
  -2.3278387236694051E-002  0.15767630380539563        0.0000000000000000     
  -2.3529442456299440E-002  0.16523172049916518        0.0000000000000000     
   0.0000000000000000        0.0000000000000000        0.0000000000000000     
  -8.4181802885421430E-004   1.1100992651289061E-003   0.0000000000000000     
  -1.7023774762559975E-003   2.5984581116496284E-003   0.0000000000000000     
  -2.5816783422053487E-003   4.4650765395621668E-003   0.0000000000000000     
  -3.4797206267022682E-003   6.7099545488665223E-003   0.0000000000000000     
   0.0000000000000000        0.0000000000000000        0.0000000000000000     
  -1.0568474979678675E-003   1.1343166504298597E-003   0.0000000000000000     
  -2.1399776994696783E-003   2.6507691725386365E-003   0.0000000000000000     
  -3.2493906045054314E-003   4.5493575663263300E-003   0.0000000000000000     
  -4.3850862130751294E-003   6.8300818317929409E-003   0.0000000000000000     
   0.0000000000000000        0.0000000000000000        0.0000000000000000     
  -1.2879327581363906E-003   1.1702318540423894E-003   0.0000000000000000     
  -2.6056529367105398E-003   2.7250770780035045E-003   0.0000000000000000     
  -3.9531605357224480E-003   4.6645356718833441E-003   0.0000000000000000     
  -5.3304555551721170E-003   6.9886076356819099E-003   0.0000000000000000     
   0.0000000000000000        0.0000000000000000        0.0000000000000000     
  -1.5350738093597833E-003   1.2178448759664951E-003   0.0000000000000000     
  -3.0994031879785821E-003   2.8213818280442321E-003   0.0000000000000000     
  -4.6929881358563985E-003   4.8106108562332110E-003   0.0000000000000000     
  -6.3158286529932323E-003   7.1855319605334308E-003   0.0000000000000000     
   0.0000000000000000        0.0000000000000000        0.0000000000000000     
  -1.7982706516380454E-003   1.2771557162021766E-003   0.0000000000000000     
  -3.6212284532738063E-003   2.9396834226608198E-003   0.0000000000000000     
  -5.4688734049072821E-003   4.9875831193759278E-003   0.0000000000000000     
  -7.3412055065384734E-003   7.4208548063475028E-003   0.0000000000000000     
  -3.4797206267022682E-003   6.7099545488665223E-003   0.0000000000000000     
  -4.3883427825930927E-003   9.2955805638907426E-003   0.0000000000000000     
  -5.2993832627241571E-003   1.2184443008962879E-002   0.0000000000000000     
  -6.2128420670954625E-003   1.5376541884082931E-002   0.0000000000000000     
  -7.1287191957070091E-003   1.8871877189250895E-002   0.0000000000000000     
  -4.3850862130751294E-003   6.8300818317929409E-003   0.0000000000000000     
  -5.5341782416535607E-003   9.4508433903883332E-003   0.0000000000000000     
  -6.6837804067155244E-003   1.2369543663562375E-002   0.0000000000000000     
  -7.8338927082610144E-003   1.5586182651315061E-002   0.0000000000000000     
  -8.9845151462900376E-003   1.9100760353646395E-002   0.0000000000000000     
  -5.3304555551721170E-003   6.9886076356819099E-003   0.0000000000000000     
  -6.7231462798823822E-003   9.6512042854729179E-003   0.0000000000000000     
  -8.1168409946760813E-003   1.2606236937330073E-002   0.0000000000000000     
  -9.5115396995532151E-003   1.5853705591253389E-002   0.0000000000000000     
  -1.0907242394513787E-002   1.9393610247242850E-002   0.0000000000000000     
  -6.3158286529932323E-003   7.1855319605334308E-003   0.0000000000000000     
  -7.9552468972795502E-003   9.8966632491444897E-003   0.0000000000000000     
  -9.5985650266058303E-003   1.2894522830265981E-002   0.0000000000000000     
  -1.1245783040972067E-002   1.6179110703897909E-002   0.0000000000000000     
  -1.2896900940378259E-002   1.9750426870040270E-002   0.0000000000000000     
  -7.3412055065384734E-003   7.4208548063475028E-003   0.0000000000000000     
  -9.2304800938450716E-003   1.0187220281403052E-002   0.0000000000000000     
  -1.1128952502504770E-002   1.3234401342370096E-002   0.0000000000000000     
  -1.3036622732517563E-002   1.6562397989248630E-002   0.0000000000000000     
  -1.4953490783883458E-002   2.0171210222038646E-002   0.0000000000000000     
  -7.1287191957070091E-003   1.8871877189250895E-002   0.0000000000000000     
  -8.0402702988494838E-003   2.2645058780631701E-002   0.0000000000000000     
  -8.9407510268135742E-003   2.6670696514390260E-002   0.0000000000000000     
  -9.8301613795992830E-003   3.0948790390526573E-002   0.0000000000000000     
  -1.0708501357206607E-002   3.5479340409040647E-002   0.0000000000000000     
  -8.9845151462900376E-003   1.9100760353646395E-002   0.0000000000000000     
  -1.0128430947724346E-002   2.2888689366973389E-002   0.0000000000000000     
  -1.1258423339485703E-002   2.6925382287713059E-002   0.0000000000000000     
  -1.2374492321574108E-002   3.1210839115865412E-002   0.0000000000000000     
  -1.3476637893989561E-002   3.5745059851430436E-002   0.0000000000000000     
  -1.0907242394513787E-002   1.9393610247242850E-002   0.0000000000000000     
  -1.2293504495375529E-002   2.3201054657274747E-002   0.0000000000000000     
  -1.3659881417956182E-002   2.7251142573325331E-002   0.0000000000000000     
  -1.5006373162255745E-002   3.1543873995394621E-002   0.0000000000000000     
  -1.6332979728274220E-002   3.6079248923482604E-002   0.0000000000000000     
  -1.2896900940378259E-002   1.9750426870040270E-002   0.0000000000000000     
  -1.4535490941803036E-002   2.3582154651535760E-002   0.0000000000000000     
  -1.6145125262225019E-002   2.7647977371227074E-002   0.0000000000000000     
  -1.7725803901644202E-002   3.1947895029114208E-002   0.0000000000000000     
  -1.9277526860060585E-002   3.6481907625197166E-002   0.0000000000000000     
  -1.4953490783883458E-002   2.0171210222038646E-002   0.0000000000000000     
  -1.6854390287006867E-002   2.4031989349756436E-002   0.0000000000000000     
  -1.8714154872292204E-002   2.8115886681418279E-002   0.0000000000000000     
  -2.0532784539739463E-002   3.2422902217024166E-002   0.0000000000000000     
  -2.2310279289348658E-002   3.6953035956574100E-002   0.0000000000000000     
  -1.0708501357206607E-002   3.5479340409040647E-002   0.0000000000000000     
  -1.1570434272628174E-002   4.0240541505444878E-002   0.0000000000000000     
  -1.2410623438856608E-002   4.5210588615251637E-002   0.0000000000000000     
  -1.3229068855891915E-002   5.0389481738460952E-002   0.0000000000000000     
  -1.4025770523734089E-002   5.5777220875072787E-002   0.0000000000000000     
  -1.3476637893989561E-002   3.5745059851430436E-002   0.0000000000000000     
  -1.4556703070936667E-002   4.0507683290001345E-002   0.0000000000000000     
  -1.5606530866620030E-002   4.5478348227171381E-002   0.0000000000000000     
  -1.6626121281039654E-002   5.0657054662940508E-002   0.0000000000000000     
  -1.7615474314195530E-002   5.6043802597308748E-002   0.0000000000000000     
  -1.6332979728274220E-002   3.6079248923482604E-002   0.0000000000000000     
  -1.7630864888920125E-002   4.0839645252378348E-002   0.0000000000000000     
  -1.8891192417101979E-002   4.5807440876870914E-002   0.0000000000000000     
  -2.0113962312819776E-002   5.0982635796960302E-002   0.0000000000000000     
  -2.1299174576073526E-002   5.6365230012646511E-002   0.0000000000000000     
  -1.9277526860060585E-002   3.6481907625197166E-002   0.0000000000000000     
  -2.0792919726578547E-002   4.1236427392575867E-002   0.0000000000000000     
  -2.2264608090302448E-002   4.6197866564350251E-002   0.0000000000000000     
  -2.3692591951232293E-002   5.1366225140520333E-002   0.0000000000000000     
  -2.5076871309368084E-002   5.6741503121086070E-002   0.0000000000000000     
  -2.2310279289348658E-002   3.6953035956574100E-002   0.0000000000000000     
  -2.4042867583911932E-002   4.1698029710593908E-002   0.0000000000000000     
  -2.5726777886221446E-002   4.6649625289609399E-002   0.0000000000000000     
  -2.7362010196277202E-002   5.1807822693620567E-002   0.0000000000000000     
  -2.8948564514079188E-002   5.7172621922627440E-002   0.0000000000000000     
  -1.4025770523734089E-002   5.5777220875072787E-002   0.0000000000000000     
  -1.4799823925864392E-002   6.1363706064540183E-002   0.0000000000000000     
  -1.5550324545764087E-002   6.7138837346316094E-002   0.0000000000000000     
  -1.6277272383433173E-002   7.3102614720400610E-002   0.0000000000000000     
  -1.6980667438871652E-002   7.9255038186793650E-002   0.0000000000000000     
  -1.7615474314195530E-002   5.6043802597308748E-002   0.0000000000000000     
  -1.8576445519723001E-002   6.1627536436601529E-002   0.0000000000000000     
  -1.9510890451257413E-002   6.7397200587144282E-002   0.0000000000000000     
  -2.0418809108798758E-002   7.3352795048937033E-002   0.0000000000000000     
  -2.1300201492347029E-002   7.9494319821979714E-002   0.0000000000000000     
  -2.1299174576073526E-002   5.6365230012646511E-002   0.0000000000000000     
  -2.2449842075288030E-002   6.1943454303875781E-002   0.0000000000000000     
  -2.3568977678888093E-002   6.7705539450594363E-002   0.0000000000000000     
  -2.4656581386873717E-002   7.3651485452802271E-002   0.0000000000000000     
  -2.5712653199244890E-002   7.9781292310499463E-002   0.0000000000000000     
  -2.5076871309368084E-002   5.6741503121086070E-002   0.0000000000000000     
  -2.6420013592559476E-002   6.2311459666362937E-002   0.0000000000000000     
  -2.7724586228656128E-002   6.8063853936666349E-002   0.0000000000000000     
  -2.8990589217658045E-002   7.3998685931996336E-002   0.0000000000000000     
  -3.0218022559565239E-002   8.0115955652352855E-002   0.0000000000000000     
  -2.8948564514079188E-002   5.7172621922627440E-002   0.0000000000000000     
  -3.0486960071537322E-002   6.2731552524062997E-002   0.0000000000000000     
  -3.1977716100561521E-002   6.8472144045360256E-002   0.0000000000000000     
  -3.3420832601151765E-002   7.4394396486519229E-002   0.0000000000000000     
  -3.4816309573308071E-002   8.0498309847539917E-002   0.0000000000000000     
  -1.6980667438871652E-002   7.9255038186793650E-002   0.0000000000000000     
  -1.7650454088429388E-002   8.5561325164333527E-002   0.0000000000000000     
  -1.8276576708456234E-002   9.1986693071858472E-002   0.0000000000000000     
  -1.8859035298952196E-002   9.8531141909368555E-002   0.0000000000000000     
  -1.9397829859917271E-002  0.10519467167686374        0.0000000000000000     
  -2.1300201492347029E-002   7.9494319821979714E-002   0.0000000000000000     
  -2.2138962587609941E-002   8.5790126667469199E-002   0.0000000000000000     
  -2.2918987380295189E-002   9.2208567346602252E-002   0.0000000000000000     
  -2.3640275870402783E-002   9.8749641859378900E-002   0.0000000000000000     
  -2.4302828057932720E-002  0.10541335020579913        0.0000000000000000     
  -2.5712653199244890E-002   7.9781292310499463E-002   0.0000000000000000     
  -2.6717954227285793E-002   8.6065717393138258E-002   0.0000000000000000     
  -2.7653245582280592E-002   9.2475518070171028E-002   0.0000000000000000     
  -2.8518527264229293E-002   9.9010694341597733E-002   0.0000000000000000     
  -2.9313799273131880E-002  0.10567124620741840        0.0000000000000000     
  -3.0218022559565239E-002   8.0115955652352855E-002   0.0000000000000000     
  -3.1387429007456946E-002   8.6388097341340758E-002   0.0000000000000000     
  -3.2479351314412430E-002   9.2787545242564815E-002   0.0000000000000000     
  -3.3493789480431704E-002   9.9314299356025107E-002   0.0000000000000000     
  -3.4430743505514755E-002  0.10596835968172155        0.0000000000000000     
  -3.4816309573308071E-002   8.0498309847539917E-002   0.0000000000000000     
  -3.6147386928123401E-002   8.6757266512076617E-002   0.0000000000000000     
  -3.7397304576690722E-002   9.3144648863783638E-002   0.0000000000000000     
  -3.8566062519010028E-002   9.9660456902660968E-002   0.0000000000000000     
  -3.9653660755081345E-002  0.10630469062870859        0.0000000000000000     
  -1.9397829859917271E-002  0.10519467167686374        0.0000000000000000     
  -1.9935109246564039E-002  0.11206413549279515        0.0000000000000000     
  -2.0513022314105071E-002  0.11922638647561397        0.0000000000000000     
  -2.1131569062540372E-002  0.12668142462532014        0.0000000000000000     
  -2.1790749491869935E-002  0.13442924994191374        0.0000000000000000     
  -2.4302828057932720E-002  0.10541335020579913        0.0000000000000000     
  -2.4962095502252965E-002  0.11228306413591946        0.0000000000000000     
  -2.5673529762731507E-002  0.11944215539979650        0.0000000000000000     
  -2.6437130839368342E-002  0.12689062399743017        0.0000000000000000     
  -2.7252898732163473E-002  0.13462846992882060        0.0000000000000000     
  -2.9313799273131880E-002  0.10567124620741840        0.0000000000000000     
  -3.0104416507973440E-002  0.11253674055862961        0.0000000000000000     
  -3.0955733867739050E-002  0.11968674428622797        0.0000000000000000     
  -3.1867751352428704E-002  0.12712125739021354        0.0000000000000000     
  -3.2840468962042416E-002  0.13484027987058630        0.0000000000000000     
  -3.4430743505514755E-002  0.10596835968172155        0.0000000000000000     
  -3.5362072263725453E-002  0.11282516476092552        0.0000000000000000     
  -3.6359634629127696E-002  0.11996015313490840        0.0000000000000000     
  -3.7423430601721458E-002  0.12737332480367014        0.0000000000000000     
  -3.8553460181506752E-002  0.13506467976721079        0.0000000000000000     
  -3.9653660755081345E-002  0.10630469062870859        0.0000000000000000     
  -4.0735062769509021E-002  0.11314833674280730        0.0000000000000000     
  -4.1885232046897439E-002  0.12026238194583778        0.0000000000000000     
  -4.3104168587246604E-002  0.12764682623780005        0.0000000000000000     
  -4.4391872390556503E-002  0.13530166961869411        0.0000000000000000     
  -2.1790749491869935E-002  0.13442924994191374        0.0000000000000000     
  -2.2409040754479300E-002  0.14227506852676991        0.0000000000000000     
  -2.2904920002754008E-002  0.15002408648126389        0.0000000000000000     
  -2.3278387236694051E-002  0.15767630380539563        0.0000000000000000     
  -2.3529442456299440E-002  0.16523172049916518        0.0000000000000000     
  -2.7252898732163473E-002  0.13462846992882060        0.0000000000000000     
  -2.8016031577028637E-002  0.14246591571205877        0.0000000000000000     
  -2.8621727509875589E-002  0.15021318386523583        0.0000000000000000     
  -2.9069986530704330E-002  0.15787027438835177        0.0000000000000000     
  -2.9360808639514860E-002  0.16543718728140661        0.0000000000000000     
  -3.2840468962042416E-002  0.13484027987058630        0.0000000000000000     
  -3.3751528777196838E-002  0.14265984645501498        0.0000000000000000     
  -3.4478572878508681E-002  0.15039599187116839        0.0000000000000000     
  -3.5021601265977920E-002  0.15804871611904650        0.0000000000000000     
  -3.5380613939604566E-002  0.16561801919864932        0.0000000000000000     
  -3.8553460181506752E-002  0.13506467976721079        0.0000000000000000     
  -3.9615532354983912E-002  0.14285686075563850        0.0000000000000000     
  -4.0475456108653274E-002  0.15057251049906151        0.0000000000000000     
  -4.1133231442514823E-002  0.15821162899747976        0.0000000000000000     
  -4.1588858356568573E-002  0.16577421625089334        0.0000000000000000     
  -4.4391872390556503E-002  0.13530166961869411        0.0000000000000000     
  -4.5608042310389854E-002  0.14305695861392936        0.0000000000000000     
  -4.6612377200309356E-002  0.15074273974891517        0.0000000000000000     
  -4.7404877060315029E-002  0.15835901302365157        0.0000000000000000     
  -4.7985541890406866E-002  0.16590577843813858        0.0000000000000000     
   0.0000000000000000        0.0000000000000000        0.0000000000000000     
  -1.7982706516380454E-003   1.2771557162021766E-003   0.0000000000000000     
  -3.6212284532738063E-003   2.9396834226608198E-003   0.0000000000000000     
  -5.4688734049072821E-003   4.9875831193759278E-003   0.0000000000000000     
  -7.3412055065384734E-003   7.4208548063475028E-003   0.0000000000000000     
   0.0000000000000000        0.0000000000000000        0.0000000000000000     
  -2.0692909971929702E-003   1.3552596978269400E-003   0.0000000000000000     
  -4.1638192104014558E-003   3.0944800659296352E-003   0.0000000000000000     
  -6.2835846396254585E-003   5.2176611043080840E-003   0.0000000000000000     
  -8.4285872848649766E-003   7.7248028129622889E-003   0.0000000000000000     
   0.0000000000000000        0.0000000000000000        0.0000000000000000     
  -2.3399025582463507E-003   1.4592521439182912E-003   0.0000000000000000     
  -4.7198659371667792E-003   3.3002699619270478E-003   0.0000000000000000     
  -7.1398901367612875E-003   5.5230534540262688E-003   0.0000000000000000     
  -9.5999751570298737E-003   8.1276026202159578E-003   0.0000000000000000     
   0.0000000000000000        0.0000000000000000        0.0000000000000000     
  -2.6101053347981854E-003   1.5891330544762295E-003   0.0000000000000000     
  -5.2893686335697739E-003   3.5570531106530572E-003   0.0000000000000000     
  -8.0377898963147690E-003   5.9037601685304822E-003   0.0000000000000000     
  -1.0855369123033167E-002   8.6292542281085054E-003   0.0000000000000000     
   0.0000000000000000        0.0000000000000000        0.0000000000000000     
  -2.8798993268484762E-003   1.7449024295007561E-003   0.0000000000000000     
  -5.8723272996104442E-003   3.8648295121076637E-003   0.0000000000000000     
  -8.9772839182859013E-003   6.3597812478207224E-003   0.0000000000000000     
  -1.2194769182874852E-002   9.2297576366399334E-003   0.0000000000000000     
  -7.3412055065384734E-003   7.4208548063475028E-003   0.0000000000000000     
  -9.2304800938450716E-003   1.0187220281403052E-002   0.0000000000000000     
  -1.1128952502504770E-002   1.3234401342370096E-002   0.0000000000000000     
  -1.3036622732517563E-002   1.6562397989248630E-002   0.0000000000000000     
  -1.4953490783883458E-002   2.0171210222038646E-002   0.0000000000000000     
  -8.4285872848649766E-003   7.7248028129622889E-003   0.0000000000000000     
  -1.0590365226732644E-002   1.0558629813715860E-002   0.0000000000000000     
  -1.2760456545841091E-002   1.3661866728392419E-002   0.0000000000000000     
  -1.4938861242190321E-002   1.7034513556991961E-002   0.0000000000000000     
  -1.7125579315780334E-002   2.0676570299514488E-002   0.0000000000000000     
  -9.5999751570298737E-003   8.1276026202159578E-003   0.0000000000000000     
  -1.2076421653095967E-002   1.1046646277550165E-002   0.0000000000000000     
  -1.4545530280082994E-002   1.4212913243082957E-002   0.0000000000000000     
  -1.7007301037990953E-002   1.7626403516814337E-002   0.0000000000000000     
  -1.9461733926819848E-002   2.1287117098744288E-002   0.0000000000000000     
  -1.0855369123033167E-002   8.6292542281085054E-003   0.0000000000000000     
  -1.3688649372935043E-002   1.1651269672905968E-002   0.0000000000000000     
  -1.6484173705230476E-002   1.4887540886441711E-002   0.0000000000000000     
  -1.9241942119919458E-002   1.8338067868715745E-002   0.0000000000000000     
  -2.1961954617001990E-002   2.2002850619728051E-002   0.0000000000000000     
  -1.2194769182874852E-002   9.2297576366399334E-003   0.0000000000000000     
  -1.5427048386249869E-002   1.2372499999783263E-002   0.0000000000000000     
  -1.8576386821283528E-002   1.5685749658468681E-002   0.0000000000000000     
  -2.1642784487975832E-002   1.9169506612696188E-002   0.0000000000000000     
  -2.4626241386326776E-002   2.2823770862465776E-002   0.0000000000000000     
  -1.4953490783883458E-002   2.0171210222038646E-002   0.0000000000000000     
  -1.6854390287006867E-002   2.4031989349756436E-002   0.0000000000000000     
  -1.8714154872292204E-002   2.8115886681418279E-002   0.0000000000000000     
  -2.0532784539739463E-002   3.2422902217024166E-002   0.0000000000000000     
  -2.2310279289348658E-002   3.6953035956574100E-002   0.0000000000000000     
  -1.7125579315780334E-002   2.0676570299514488E-002   0.0000000000000000     
  -1.9289679255768011E-002   2.4560133553225318E-002   0.0000000000000000     
  -2.1400229551310237E-002   2.8657299915389779E-002   0.0000000000000000     
  -2.3457230202407010E-002   3.2968069386007860E-002   0.0000000000000000     
  -2.5460681209058336E-002   3.7492441965079573E-002   0.0000000000000000     
  -1.9461733926819848E-002   2.1287117098744288E-002   0.0000000000000000     
  -2.1880834572867471E-002   2.5176162063230933E-002   0.0000000000000000     
  -2.4236608602431622E-002   2.9274646484632391E-002   0.0000000000000000     
  -2.6529056015512309E-002   3.3582570362948642E-002   0.0000000000000000     
  -2.8758176812109508E-002   3.8099933698179704E-002   0.0000000000000000     
  -2.1961954617001990E-002   2.2002850619728051E-002   0.0000000000000000     
  -2.4627856238305240E-002   2.5880074879773299E-002   0.0000000000000000     
  -2.7223292025656362E-002   2.9967926389146124E-002   0.0000000000000000     
  -2.9748261979055342E-002   3.4266405147846526E-002   0.0000000000000000     
  -3.2202766098502200E-002   3.8775511155874506E-002   0.0000000000000000     
  -2.4626241386326776E-002   2.2823770862465776E-002   0.0000000000000000     
  -2.7530744252081324E-002   2.6671872002852391E-002   0.0000000000000000     
  -3.0360279820984448E-002   3.0737139628930960E-002   0.0000000000000000     
  -3.3114848093036137E-002   3.5019573740701491E-002   0.0000000000000000     
  -3.5794449068236395E-002   3.9519174338163980E-002   0.0000000000000000     
  -2.2310279289348658E-002   3.6953035956574100E-002   0.0000000000000000     
  -2.4042867583911932E-002   4.1698029710593908E-002   0.0000000000000000     
  -2.5726777886221446E-002   4.6649625289609399E-002   0.0000000000000000     
  -2.7362010196277202E-002   5.1807822693620567E-002   0.0000000000000000     
  -2.8948564514079188E-002   5.7172621922627440E-002   0.0000000000000000     
  -2.5460681209058336E-002   3.7492441965079573E-002   0.0000000000000000     
  -2.7410630427058817E-002   4.2226471398530009E-002   0.0000000000000000     
  -2.9307125712203078E-002   4.7166211432284270E-002   0.0000000000000000     
  -3.1150167064491113E-002   5.2311662066342357E-002   0.0000000000000000     
  -3.2939754483922931E-002   5.7662823300704283E-002   0.0000000000000000     
  -2.8758176812109508E-002   3.8099933698179704E-002   0.0000000000000000     
  -3.0926130222157733E-002   4.2823771648481716E-002   0.0000000000000000     
  -3.3035075475591452E-002   4.7751119372010813E-002   0.0000000000000000     
  -3.5085012572410659E-002   5.2881976868767014E-002   0.0000000000000000     
  -3.7075941512615368E-002   5.8216344138750292E-002   0.0000000000000000     
  -3.2202766098502200E-002   3.8775511155874506E-002   0.0000000000000000     
  -3.4589366969208682E-002   4.3489930460449029E-002   0.0000000000000000     
  -3.6910627176386566E-002   4.8404349108789026E-002   0.0000000000000000     
  -3.9166546720035840E-002   5.3518767100894517E-002   0.0000000000000000     
  -4.1357125600156502E-002   5.8833184436765482E-002   0.0000000000000000     
  -3.5794449068236395E-002   3.9519174338163980E-002   0.0000000000000000     
  -3.8400340668211672E-002   4.4224947834431941E-002   0.0000000000000000     
  -4.0933780814588427E-002   4.9125900642618910E-002   0.0000000000000000     
  -4.3394769507366648E-002   5.4222032762724866E-002   0.0000000000000000     
  -4.5783306746546348E-002   5.9513344194749830E-002   0.0000000000000000     
  -2.8948564514079188E-002   5.7172621922627440E-002   0.0000000000000000     
  -3.0486960071537322E-002   6.2731552524062997E-002   0.0000000000000000     
  -3.1977716100561521E-002   6.8472144045360256E-002   0.0000000000000000     
  -3.3420832601151765E-002   7.4394396486519229E-002   0.0000000000000000     
  -3.4816309573308071E-002   8.0498309847539917E-002   0.0000000000000000     
  -3.2939754483922931E-002   5.7662823300704283E-002   0.0000000000000000     
  -3.4674191001492015E-002   6.3207570875662936E-002   0.0000000000000000     
  -3.6351779648191911E-002   6.8933780531511252E-002   0.0000000000000000     
  -3.7972520424022577E-002   7.4841452268249231E-002   0.0000000000000000     
  -3.9536413328984041E-002   8.0930586085876860E-002   0.0000000000000000     
  -3.7075941512615368E-002   5.8216344138750292E-002   0.0000000000000000     
  -3.9005215871693977E-002   6.3743352719849766E-002   0.0000000000000000     
  -4.0870189225134926E-002   6.9452134149954506E-002   0.0000000000000000     
  -4.2670861572938208E-002   7.5342688429064553E-002   0.0000000000000000     
  -4.4407232915103810E-002   8.1415015557179879E-002   0.0000000000000000     
  -4.1357125600156502E-002   5.8833184436765482E-002   0.0000000000000000     
  -4.3480034682143211E-002   6.4338898056623475E-002   0.0000000000000000     
  -4.5532944831390580E-002   7.0027204900690060E-002   0.0000000000000000     
  -4.7515856047898646E-002   7.5898104968965222E-002   0.0000000000000000     
  -4.9428768331667379E-002   8.1951598261448974E-002   0.0000000000000000     
  -4.5783306746546348E-002   5.9513344194749830E-002   0.0000000000000000     
  -4.8098647432839703E-002   6.4994206885984077E-002   0.0000000000000000     
  -5.0340046466958874E-002   7.0658992783717872E-002   0.0000000000000000     
  -5.2507503848903903E-002   7.6507701887951224E-002   0.0000000000000000     
  -5.4601019578674748E-002   8.2540334198684132E-002   0.0000000000000000     
  -3.4816309573308071E-002   8.0498309847539917E-002   0.0000000000000000     
  -3.6147386928123401E-002   8.6757266512076617E-002   0.0000000000000000     
  -3.7397304576690722E-002   9.3144648863783638E-002   0.0000000000000000     
  -3.8566062519010028E-002   9.9660456902660968E-002   0.0000000000000000     
  -3.9653660755081345E-002  0.10630469062870859        0.0000000000000000     
  -3.9536413328984041E-002   8.0930586085876860E-002   0.0000000000000000     
  -4.1029280365247701E-002   8.7175109128955153E-002   0.0000000000000000     
  -4.2436943534984992E-002   9.3548948542045096E-002   0.0000000000000000     
  -4.3759402838195890E-002  0.10005210432514672        0.0000000000000000     
  -4.4996658274880419E-002  0.10668457647826000        0.0000000000000000     
  -4.4407232915103810E-002   8.1415015557179879E-002   0.0000000000000000     
  -4.6064561694792443E-002   8.7643509415585616E-002   0.0000000000000000     
  -4.7628106355164811E-002   9.4002563885566909E-002   0.0000000000000000     
  -4.9097866896220907E-002  0.10049217896712376        0.0000000000000000     
  -5.0473843317960725E-002  0.10711235466025616        0.0000000000000000     
  -4.9428768331667379E-002   8.1951598261448974E-002   0.0000000000000000     
  -5.1253230916757611E-002   8.8162467371967992E-002   0.0000000000000000     
  -5.2970793037230179E-002   9.4505494894349035E-002   0.0000000000000000     
  -5.4581454693085070E-002  0.10098068082859209        0.0000000000000000     
  -5.6085215884322290E-002  0.10758802517469714        0.0000000000000000     
  -5.4601019578674748E-002   8.2540334198684132E-002   0.0000000000000000     
  -5.6595288031143207E-002   8.8731982998102324E-002   0.0000000000000000     
  -5.8465003581181084E-002   9.5057741568391516E-002   0.0000000000000000     
  -6.0210166228788380E-002  0.10151760990955168        0.0000000000000000     
  -6.1830775973965080E-002  0.10811158802158286        0.0000000000000000     
  -3.9653660755081345E-002  0.10630469062870859        0.0000000000000000     
  -4.0735062769509021E-002  0.11314833674280730        0.0000000000000000     
  -4.1885232046897439E-002  0.12026238194583778        0.0000000000000000     
  -4.3104168587246604E-002  0.12764682623780005        0.0000000000000000     
  -4.4391872390556503E-002  0.13530166961869411        0.0000000000000000     
  -4.4996658274880419E-002  0.10668457647826000        0.0000000000000000     
  -4.6227891348526312E-002  0.11351275631634697        0.0000000000000000     
  -4.7532283562621298E-002  0.12060303515436964        0.0000000000000000     
  -4.8909834917165398E-002  0.12795541299232804        0.0000000000000000     
  -5.0360545412158605E-002  0.13556988983022211        0.0000000000000000     
  -5.0473843317960725E-002  0.10711235466025616        0.0000000000000000     
  -5.1845061323979452E-002  0.11392492329361660        0.0000000000000000     
  -5.3300546617872244E-002  0.12099171719585750        0.0000000000000000     
  -5.4840299199639106E-002  0.12831273636697885        0.0000000000000000     
  -5.6464319069280025E-002  0.13588798080698067        0.0000000000000000     
  -5.6085215884322290E-002  0.10758802517469714        0.0000000000000000     
  -5.7586572695868476E-002  0.11438483767461621        0.0000000000000000     
  -5.9190021212650296E-002  0.12142842807030133        0.0000000000000000     
  -6.0895561434667726E-002  0.12871879636175254        0.0000000000000000     
  -6.2703193361920762E-002  0.13625594254896978        0.0000000000000000     
  -6.1830775973965080E-002  0.10811158802158286        0.0000000000000000     
  -6.3452425464193371E-002  0.11489249945934575        0.0000000000000000     
  -6.5200707346955419E-002  0.12191316777770118        0.0000000000000000     
  -6.7075621622251225E-002  0.12917359297664907        0.0000000000000000     
  -6.9077168290080815E-002  0.13667377505618944        0.0000000000000000     
  -4.4391872390556503E-002  0.13530166961869411        0.0000000000000000     
  -4.5608042310389854E-002  0.14305695861392936        0.0000000000000000     
  -4.6612377200309356E-002  0.15074273974891517        0.0000000000000000     
  -4.7404877060315029E-002  0.15835901302365157        0.0000000000000000     
  -4.7985541890406866E-002  0.16590577843813858        0.0000000000000000     
  -5.0360545412158605E-002  0.13556988983022211        0.0000000000000000     
  -5.1735106093250993E-002  0.14328440369709450        0.0000000000000000     
  -5.2884208006092615E-002  0.15093689262198765        0.0000000000000000     
  -5.3807851150683476E-002  0.15852735660490158        0.0000000000000000     
  -5.4506035527023579E-002  0.16605579564583636        0.0000000000000000     
  -5.6464319069280025E-002  0.13588798080698067        0.0000000000000000     
  -5.8002771153403673E-002  0.14356345967234080        0.0000000000000000     
  -5.9285820378618688E-002  0.15118518211953705        0.0000000000000000     
  -6.0313466744925069E-002  0.15875314814856942        0.0000000000000000     
  -6.1085710252322817E-002  0.16626735775943793        0.0000000000000000     
  -6.2703193361920762E-002  0.13625594254896978        0.0000000000000000     
  -6.4411037490847922E-002  0.14389412653966835        0.0000000000000000     
  -6.5817214317887590E-002  0.15148760824156343        0.0000000000000000     
  -6.6921723843039821E-002  0.15903638765465508        0.0000000000000000     
  -6.7724566066304601E-002  0.16654046477894324        0.0000000000000000     
  -6.9077168290080815E-002  0.13667377505618944        0.0000000000000000     
  -7.0959905105583670E-002  0.14427640429907709        0.0000000000000000     
  -7.2478389823899300E-002  0.15184417098806680        0.0000000000000000     
  -7.3632622445027718E-002  0.15937707512315855        0.0000000000000000     
  -7.4422602968968923E-002  0.16687511670435237        0.0000000000000000     
   0.0000000000000000        0.0000000000000000        0.0000000000000000     
  -2.8798993268484762E-003   1.7449024295007561E-003   0.0000000000000000     
  -5.8723272996104442E-003   3.8648295121076637E-003   0.0000000000000000     
  -8.9772839182859013E-003   6.3597812478207224E-003   0.0000000000000000     
  -1.2194769182874852E-002   9.2297576366399334E-003   0.0000000000000000     
   0.0000000000000000        0.0000000000000000        0.0000000000000000     
  -3.2830918680690556E-003   1.9992737504030589E-003   0.0000000000000000     
  -6.6766912718893802E-003   4.3309673327686839E-003   0.0000000000000000     
  -1.0180798211460975E-002   6.9950807470968764E-003   0.0000000000000000     
  -1.3795412686783840E-002   9.9916139933876325E-003   0.0000000000000000     
   0.0000000000000000        0.0000000000000000        0.0000000000000000     
  -3.9534902921317568E-003   2.4249604985943272E-003   0.0000000000000000     
  -7.9104098870071832E-003   5.0628347391139345E-003   0.0000000000000000     
  -1.1870758784626276E-002   7.9136227215588217E-003   0.0000000000000000     
  -1.5834536984989038E-002   1.0977324445928993E-002   0.0000000000000000     
   0.0000000000000000        0.0000000000000000        0.0000000000000000     
  -4.8910945990365820E-003   3.0219626740745609E-003   0.0000000000000000     
  -9.5734831449638489E-003   6.0604317311434164E-003   0.0000000000000000     
  -1.4047165637781800E-002   9.1154071712065653E-003   0.0000000000000000     
  -1.8312142077490441E-002   1.2186888994264011E-002   0.0000000000000000     
   0.0000000000000000        0.0000000000000000        0.0000000000000000     
  -6.0959047887835290E-003   3.7902802768437598E-003   0.0000000000000000     
  -1.1665911045759380E-002   7.3237583088571279E-003   0.0000000000000000     
  -1.6710018770927551E-002   1.0600434096040104E-002   0.0000000000000000     
  -2.1228227964288048E-002   1.3620307638392688E-002   0.0000000000000000     
  -1.2194769182874852E-002   9.2297576366399334E-003   0.0000000000000000     
  -1.5427048386249869E-002   1.2372499999783263E-002   0.0000000000000000     
  -1.8576386821283528E-002   1.5685749658468681E-002   0.0000000000000000     
  -2.1642784487975832E-002   1.9169506612696188E-002   0.0000000000000000     
  -2.4626241386326776E-002   2.2823770862465776E-002   0.0000000000000000     
  -1.3795412686783840E-002   9.9916139933876325E-003   0.0000000000000000     
  -1.7403546700743316E-002   1.3222220597473808E-002   0.0000000000000000     
  -2.0888212256224763E-002   1.6588554085188251E-002   0.0000000000000000     
  -2.4249409353228165E-002   2.0090614456530962E-002   0.0000000000000000     
  -2.7487137991753528E-002   2.3728401711501940E-002   0.0000000000000000     
  -1.5834536984989038E-002   1.0977324445928993E-002   0.0000000000000000     
  -1.9730072324118268E-002   1.4212314805269350E-002   0.0000000000000000     
  -2.3485692638036772E-002   1.7576968692624810E-002   0.0000000000000000     
  -2.7101397926744545E-002   2.1071286107995361E-002   0.0000000000000000     
  -3.0577188190241592E-002   2.4695267051381014E-002   0.0000000000000000     
  -1.8312142077490441E-002   1.2186888994264011E-002   0.0000000000000000     
  -2.2406625256374706E-002   1.5342782623169890E-002   0.0000000000000000     
  -2.6368827966719549E-002   1.8650993480778352E-002   0.0000000000000000     
  -3.0198750208524971E-002   2.2111521567089391E-002   0.0000000000000000     
  -3.3896391981790966E-002   2.5724366882103011E-002   0.0000000000000000     
  -2.1228227964288048E-002   1.3620307638392688E-002   0.0000000000000000     
  -2.5433205497512636E-002   1.6613624051175429E-002   0.0000000000000000     
  -2.9537618242273102E-002   1.9810628449648881E-002   0.0000000000000000     
  -3.3541466198569438E-002   2.3211320833813043E-002   0.0000000000000000     
  -3.7444749366401645E-002   2.6815701203667913E-002   0.0000000000000000     
  -2.4626241386326776E-002   2.2823770862465776E-002   0.0000000000000000     
  -2.7530744252081324E-002   2.6671872002852391E-002   0.0000000000000000     
  -3.0360279820984448E-002   3.0737139628930960E-002   0.0000000000000000     
  -3.3114848093036137E-002   3.5019573740701491E-002   0.0000000000000000     
  -3.5794449068236395E-002   3.9519174338163980E-002   0.0000000000000000     
  -2.7487137991753528E-002   2.3728401711501940E-002   0.0000000000000000     
  -3.0623998653188458E-002   2.7545433509045980E-002   0.0000000000000000     
  -3.3682591818920561E-002   3.1585227508107869E-002   0.0000000000000000     
  -3.6662917488949821E-002   3.5847783708687610E-002   0.0000000000000000     
  -3.9564975663276276E-002   4.0333102110785196E-002   0.0000000000000000     
  -3.0577188190241592E-002   2.4695267051381014E-002   0.0000000000000000     
  -3.3942119480619391E-002   2.8494639474931818E-002   0.0000000000000000     
  -3.7225247849969390E-002   3.2515131330797788E-002   0.0000000000000000     
  -4.0426573298291593E-002   3.6756742618978946E-002   0.0000000000000000     
  -4.3546095825586016E-002   4.1219473339475281E-002   0.0000000000000000     
  -3.3896391981790966E-002   2.5724366882103011E-002   0.0000000000000000     
  -3.7485106734374100E-002   2.9519489900509892E-002   0.0000000000000000     
  -4.0988247914130915E-002   3.3526851097000716E-002   0.0000000000000000     
  -4.4405815521061424E-002   3.7746450471575488E-002   0.0000000000000000     
  -4.7737809555165642E-002   4.2178288024234213E-002   0.0000000000000000     
  -3.7444749366401645E-002   2.6815701203667913E-002   0.0000000000000000     
  -4.1252960414452602E-002   3.0619984785780211E-002   0.0000000000000000     
  -4.4971592011405159E-002   3.4620386806716662E-002   0.0000000000000000     
  -4.8600644157259329E-002   3.8816907266477255E-002   0.0000000000000000     
  -5.2140116852015111E-002   4.3209546165061993E-002   0.0000000000000000     
  -3.5794449068236395E-002   3.9519174338163980E-002   0.0000000000000000     
  -3.8400340668211672E-002   4.4224947834431941E-002   0.0000000000000000     
  -4.0933780814588427E-002   4.9125900642618910E-002   0.0000000000000000     
  -4.3394769507366648E-002   5.4222032762724866E-002   0.0000000000000000     
  -4.5783306746546348E-002   5.9513344194749830E-002   0.0000000000000000     
  -3.9564975663276276E-002   4.0333102110785196E-002   0.0000000000000000     
  -4.2387854071131971E-002   4.5025570846272553E-002   0.0000000000000000     
  -4.5130640441748991E-002   4.9909578047021542E-002   0.0000000000000000     
  -4.7793334775127365E-002   5.4985123713032200E-002   0.0000000000000000     
  -5.0375937071267057E-002   6.0252207844304490E-002   0.0000000000000000     
  -4.3546095825586016E-002   4.1219473339475281E-002   0.0000000000000000     
  -4.6580709929934835E-002   4.5888546571812933E-002   0.0000000000000000     
  -4.9527310109420249E-002   5.0749185395518044E-002   0.0000000000000000     
  -5.2385896364042221E-002   5.5801389810590588E-002   0.0000000000000000     
  -5.5156468693800795E-002   6.1045159817030591E-002   0.0000000000000000     
  -4.7737809555165642E-002   4.2178288024234213E-002   0.0000000000000000     
  -5.0978908244620286E-002   4.6813875011053108E-002   0.0000000000000000     
  -5.4123789817602158E-002   5.1644722688108387E-002   0.0000000000000000     
  -5.7172454274111259E-002   5.6670831055400051E-002   0.0000000000000000     
  -6.0124901614147588E-002   6.1892200112928134E-002   0.0000000000000000     
  -5.2140116852015111E-002   4.3209546165061993E-002   0.0000000000000000     
  -5.5582449015188322E-002   4.7801556163993057E-002   0.0000000000000000     
  -5.8920079566294768E-002   5.2596189924792598E-002   0.0000000000000000     
  -6.2153008505334451E-002   5.7593447447460623E-002   0.0000000000000000     
  -6.5281235832307383E-002   6.2793328731997139E-002   0.0000000000000000     
  -4.5783306746546348E-002   5.9513344194749830E-002   0.0000000000000000     
  -4.8098647432839703E-002   6.4994206885984077E-002   0.0000000000000000     
  -5.0340046466958874E-002   7.0658992783717872E-002   0.0000000000000000     
  -5.2507503848903903E-002   7.6507701887951224E-002   0.0000000000000000     
  -5.4601019578674748E-002   8.2540334198684132E-002   0.0000000000000000     
  -5.0375937071267057E-002   6.0252207844304490E-002   0.0000000000000000     
  -5.2879885645715781E-002   6.5707240380889501E-002   0.0000000000000000     
  -5.5306618814021234E-002   7.1346631262838300E-002   0.0000000000000000     
  -5.7656136576183396E-002   7.7170380490150903E-002   0.0000000000000000     
  -5.9928438932202281E-002   8.3178488062827280E-002   0.0000000000000000     
  -5.5156468693800795E-002   6.1045159817030591E-002   0.0000000000000000     
  -5.7842580842703800E-002   6.6475959714297733E-002   0.0000000000000000     
  -6.0447786554759075E-002   7.2089253801851744E-002   0.0000000000000000     
  -6.2972085829966620E-002   7.7885042079692601E-002   0.0000000000000000     
  -6.5415478668326407E-002   8.3863324547820320E-002   0.0000000000000000     
  -6.0124901614147588E-002   6.1892200112928134E-002   0.0000000000000000     
  -6.2986733023803726E-002   6.7300364886208802E-002   0.0000000000000000     
  -6.5763549689172390E-002   7.2886860400758202E-002   0.0000000000000000     
  -6.8455351610253498E-002   7.8651686656576347E-002   0.0000000000000000     
  -7.1062138787047119E-002   8.4594843653663224E-002   0.0000000000000000     
  -6.5281235832307383E-002   6.2793328731997139E-002   0.0000000000000000     
  -6.8312342189015607E-002   6.8180455896622624E-002   0.0000000000000000     
  -7.1253908217261172E-002   7.3739451059557606E-002   0.0000000000000000     
  -7.4105933917044120E-002   7.9470314220802071E-002   0.0000000000000000     
  -7.6868419288364409E-002   8.5373045380356033E-002   0.0000000000000000     
  -5.4601019578674748E-002   8.2540334198684132E-002   0.0000000000000000     
  -5.6595288031143207E-002   8.8731982998102324E-002   0.0000000000000000     
  -5.8465003581181084E-002   9.5057741568391516E-002   0.0000000000000000     
  -6.0210166228788380E-002  0.10151760990955168        0.0000000000000000     
  -6.1830775973965080E-002  0.10811158802158286        0.0000000000000000     
  -5.9928438932202281E-002   8.3178488062827280E-002   0.0000000000000000     
  -6.2092519853237264E-002   8.9347566545958559E-002   0.0000000000000000     
  -6.4117373310447701E-002   9.5654228504635827E-002   0.0000000000000000     
  -6.6002999303833590E-002  0.10209847393885912        0.0000000000000000     
  -6.7749397833394939E-002  0.10868030284862841        0.0000000000000000     
  -6.5415478668326407E-002   8.3863324547820320E-002   0.0000000000000000     
  -6.7746713198327826E-002   9.0004728267506703E-002   0.0000000000000000     
  -6.9934537548460171E-002   9.6289880300023598E-002   0.0000000000000000     
  -7.1978951718723455E-002  0.10271878064537096        0.0000000000000000     
  -7.3879955709117678E-002  0.10929142930354883        0.0000000000000000     
  -7.1062138787047119E-002   8.4594843653663224E-002   0.0000000000000000     
  -7.3557868066414900E-002   9.0703468162746742E-002   0.0000000000000000     
  -7.5916496295218530E-002   9.6964696954554730E-002   0.0000000000000000     
  -7.8138023473457982E-002  0.10337853002908719        0.0000000000000000     
  -8.0222449601133297E-002  0.10994496738634417        0.0000000000000000     
  -7.6868419288364409E-002   8.5373045380356033E-002   0.0000000000000000     
  -7.9525984457498478E-002   9.1443786231678689E-002   0.0000000000000000     
  -8.2063249550722736E-002   9.7678678468229307E-002   0.0000000000000000     
  -8.4480214568037171E-002  0.10407772209000785        0.0000000000000000     
  -8.6776879509441809E-002  0.11064091709701435        0.0000000000000000     
  -6.1830775973965080E-002  0.10811158802158286        0.0000000000000000     
  -6.3452425464193371E-002  0.11489249945934575        0.0000000000000000     
  -6.5200707346955419E-002  0.12191316777770118        0.0000000000000000     
  -6.7075621622251225E-002  0.12917359297664907        0.0000000000000000     
  -6.9077168290080815E-002  0.13667377505618944        0.0000000000000000     
  -6.7749397833394939E-002  0.10868030284862841        0.0000000000000000     
  -6.9497015772056206E-002  0.11544664059200989        0.0000000000000000     
  -7.1386299992741875E-002  0.12244441252706970        0.0000000000000000     
  -7.3417250495451961E-002  0.12967361865380783        0.0000000000000000     
  -7.5589867280186421E-002  0.13713425897222431        0.0000000000000000     
  -7.3879955709117678E-002  0.10929142930354883        0.0000000000000000     
  -7.5774739762559093E-002  0.11604599301681309        0.0000000000000000     
  -7.7800494121963895E-002  0.12302063852741951        0.0000000000000000     
  -7.9957218787332154E-002  0.13021536583536816        0.0000000000000000     
  -8.2244913758663787E-002  0.13763017494065902        0.0000000000000000     
  -8.0222449601133297E-002  0.10994496738634417        0.0000000000000000     
  -8.2285597435701963E-002  0.11669055673375539        0.0000000000000000     
  -8.4443289734621452E-002  0.12364184577875072        0.0000000000000000     
  -8.6695526497891792E-002  0.13079883452133012        0.0000000000000000     
  -8.9042307725512956E-002  0.13816152296149364        0.0000000000000000     
  -8.6776879509441809E-002  0.11064091709701435        0.0000000000000000     
  -8.9029588791484870E-002  0.11738033174283680        0.0000000000000000     
  -9.1314686830714559E-002  0.12430803428106324        0.0000000000000000     
  -9.3632173627130916E-002  0.13142402471169368        0.0000000000000000     
  -9.5982049180733886E-002  0.13872830303472808        0.0000000000000000     
  -6.9077168290080815E-002  0.13667377505618944        0.0000000000000000     
  -7.0959905105583670E-002  0.14427640429907709        0.0000000000000000     
  -7.2478389823899300E-002  0.15184417098806680        0.0000000000000000     
  -7.3632622445027718E-002  0.15937707512315855        0.0000000000000000     
  -7.4422602968968923E-002  0.16687511670435237        0.0000000000000000     
  -7.5589867280186421E-002  0.13713425897222431        0.0000000000000000     
  -7.7630223640906729E-002  0.14469889256094715        0.0000000000000000     
  -7.9264392871574371E-002  0.15224007849860433        0.0000000000000000     
  -8.0492374972189334E-002  0.15975781678519588        0.0000000000000000     
  -8.1314169942751618E-002  0.16725210742072180        0.0000000000000000     
  -8.2244913758663787E-002  0.13763017494065902        0.0000000000000000     
  -8.4402842740112866E-002  0.14515019093565856        0.0000000000000000     
  -8.6170269435833335E-002  0.15266053891273326        0.0000000000000000     
  -8.7547193845825225E-002  0.16016121887188309        0.0000000000000000     
  -8.8533615970088492E-002  0.16765223081310812        0.0000000000000000     
  -8.9042307725512956E-002  0.13816152296149364        0.0000000000000000     
  -9.1277762403202053E-002  0.14563029942321137        0.0000000000000000     
  -9.3196019516676193E-002  0.15310555223045355        0.0000000000000000     
  -9.4797079065935375E-002  0.16058728138322023        0.0000000000000000     
  -9.6080941050979585E-002  0.16807548688151128        0.0000000000000000     
  -9.5982049180733886E-002  0.13872830303472808        0.0000000000000000     
  -9.8254982630174306E-002  0.14613921802360558        0.0000000000000000     
 -0.10034164311410294       0.15357511845176527        0.0000000000000000     
 -0.10224203063251981       0.16103600431920717        0.0000000000000000     
 -0.10395614518542488       0.16852187562593132        0.0000000000000000     
 </DataArray>
 <DataArray  type="Float64" Name="stress" NumberOfComponents="3" format="ascii">
   13417064100.178524        4025119230.0535574        2893700820.5176911     
   11766946170.451342        1890360531.9725289        1715675990.7169654     
   10314161011.541058        413377736.61448479        810721915.81557667     
   9058708623.4476643       -405829156.02057600        178838595.81352380     
   8000589006.1711674       -567260145.93265247       -179973969.28919202     
   10540254962.740288        3162076488.8220863        2225383403.0272202     
   9667919211.5808697        1589594422.3883858        1446528737.6809373     
   8944237004.3529339        512624169.05961418        863141155.18421555     
   8369208341.0564747       -68834271.164229870        475220655.53705472     
   7942833221.6914940       -154780898.28314495        282767238.73945510     
   8338150540.1861811        2501445162.0558543        1711978346.6341395     
   8021872190.3094597        1424722294.0839617        1275501414.3759797     
   7805568157.4787970        681247149.59894013        956887892.91760576     
   7689238441.6941967        271019728.60079002        756137782.25901580     
   7672883042.9556561        194040031.08951187        673251082.40021372     
   6810750832.5162077        2043225249.7548623        1353485651.3384488     
   6828805106.6371031        1395744147.0592535        1202594020.8020928     
   6898154470.9186449        919246678.23246098        1091962129.0157468     
   7018798925.3608303        613732843.27448416        1021589975.9794102     
   7190738469.9636593        479202642.18532276        991477561.69308376     
   5958055839.7303667        1787416751.9191101        1149905317.1401484     
   6088717960.5638075        1502659981.3142638        1227806556.9592764     
   6221995944.6724777        1226622754.9601774        1268363863.4786386     
   6357889792.0563755        959305072.85685098        1271577236.6982350     
   6496399502.7155027        700706935.00428510        1237446676.6180658     
   8000589006.1711674       -567260145.93265247       -179973969.28919202     
   7917769197.9208965       -199853026.69623184       -78487715.292380676     
   7793384640.6827154        29004929.247156620       -9379264.4732579421     
   7627435334.4566278        119313721.89751434        27351383.168169286     
   7419921279.2426281        71073351.254843235        31704227.631909821     
   7942833221.6914940       -154780898.28314495        282767238.73945510     
   7740112630.3286972        16353372.415929317        281004745.08004975     
   7514003026.5183802        109524268.28993273        264682417.25116438     
   7264504410.2605400        124731789.33886147        233800255.25279805     
   6991616781.5551796        61975935.562721252        188358259.08495423     
   7672883042.9556561        194040031.08951187        673251082.40021372     
   7401170151.3609390        184173998.11542177        589444867.04837370     
   7124243983.8590899        156930378.78422070        508896786.53526843     
   6842104540.4501066        112309173.09590554        431606840.86089379     
   6554751821.1339912        50310381.050480604        357575030.02525210     
   7190738469.9636593        479202642.18532276        991477561.69308376     
   6900941761.0176277        303608850.40224981        846832650.61259770     
   6624107512.7048512        171223260.73002458        723263843.37905586     
   6360235725.0253296        82045873.168646574        620771139.99245942     
   6109326397.9790602        36076687.718115568        539354540.45280588     
   6496399502.7155027        700706935.00428510        1237446676.6180658     
   6239427459.2987614        374657929.27641058        1053168095.7727200     
   6013593613.0556622        152402914.12734246        907783587.78252780     
   5818897963.9862051        33941889.557080507        801293152.64749396     
   5655340512.0903883        19274855.565626621        733696790.36761415     
   7419921279.2426281        71073351.254843235        31704227.631909821     
   7220985736.5163736       -18886576.512364388        16183694.670223437     
   7034410693.8521872       -67644837.406011581        3738480.4727466637     
   6860196151.2500687       -75201431.426098824       -5631414.9605118511     
   6698342108.7100182       -41556358.572628021       -11925991.629555630     
   6991616781.5551796        61975935.562721252        188358259.08495423     
   6809675683.6549110        2870155.4305419922        181506402.67562389     
   6635540816.4894829       -30214855.585500240        177531689.45244563     
   6469212180.0588932       -37279097.485417128        176434119.41542017     
   6310689774.3631487       -18322570.269191980        178213692.56454644     
   6554751821.1339912        50310381.050480604        357575030.02525210     
   6389238952.1223898        21888883.772134304        354078535.95318002     
   6226978044.5184011        4307257.8524942398        353261009.48919743     
   6067969098.3220243       -2434496.7084400654        355122450.63330740     
   5912212113.5332623        1663620.0893344879        359662859.38551074     
   6109326397.9790602        36076687.718115568        539354540.45280588     
   5959675541.9188128        38169608.512407303        533900094.50289100     
   5808722377.9389458        35921502.907974482        530926440.58300424     
   5656466906.0394650        29332370.904829741        530433578.69315231     
   5502909126.2203712        18402212.502960205        532421508.83332664     
   5655340512.0903883        19274855.565626621        733696790.36761415     
   5520985453.0441742        51712329.651363134        720971078.32475626     
   5380773816.7511148        64627879.580948114        710527982.73386848     
   5234705603.2112160        58021505.354393244        702367503.59495127     
   5082780812.4244661        31893206.971683264        696489640.90800285     
   6698342108.7100182       -41556358.572628021       -11925991.629555630     
   6507038832.2989731       -6442021.3640470505       -9500333.4462521262     
   6310168924.7377796        10116878.677365065       -282465.67353963957     
   6107732386.0264311        8120341.5516026020        15727611.688570624     
   5899729216.1649370       -12431632.741321802        38529898.640082829     
   6310689774.3631487       -18322570.269191980        178213692.56454644     
   6131912494.9030724        1431886.4719588757        171491422.61498722     
   5949861550.6340361        10274127.183224201        171156913.14618418     
   5764536941.5560236        8204151.8645794392        177210164.15812671     
   5575938667.6690397       -4778039.4839706421        189651175.65082088     
   5912212113.5332623        1663620.0893344879        359662859.38551074     
   5744805262.1423101        5711525.6985127926        346467788.70112759     
   5576417712.2835693        6490436.4150631428        339256029.38884628     
   5407049463.9570360        4000352.2389724255        338027581.44867438     
   5236700517.1627111       -1758726.8297541142        342782444.88059443     
   5502909126.2203712        18402212.502960205        532421508.83332664     
   5345717134.0166788        6396896.3156044483        515428764.81216693     
   5189837409.6863766       -1234193.6271207333        504014883.05445892     
   5035269953.2294645       -4491057.3252115250        498179863.56020564     
   4882014764.6459446       -3373694.7786629200        497923706.32940042     
   5082780812.4244661        31893206.971683264        696489640.90800285     
   4934648110.5261774        3487998.3232300282        678374350.94810915     
   4790120642.8424606       -12899762.943319082        665433474.14301610     
   4649198409.3733187       -17270076.827958822        657667010.49272609     
   4511881410.1187391       -9622943.3307068348        655074959.99724102     
   5899729216.1649370       -12431632.741321802        38529898.640082829     
   5725899265.2324009       -24009277.155391932        44791967.460242696     
   5556793548.2193699       -19839475.171118975        53369774.432163171     
   5392412065.1258278        77773.211458921432        64263319.555858679     
   5232754815.9517956        35742467.992395163        77472602.831325680     
   5575938667.6690397       -4778039.4839706421        189651175.65082088     
   5410027030.6231766       -11077938.108495951        195245244.93338457     
   5247307499.0489349       -6737485.1609373093        203396645.41017458     
   5087780072.9463167        8243319.3587005138        214105377.08119193     
   4931444752.3153296        33864475.450430632        227371439.94645804     
   5236700517.1627111       -1758726.8297541142        342782444.88059443     
   5079397459.8391247       -2573799.9140477180        345921031.43637037     
   4923754379.5392857        2144383.7474899292        351858542.22883439     
   4769771276.2631941        12395824.154851913        360594977.25800884     
   4617448150.0108585        28180521.308061361        372130336.52387160     
   4882014764.6459446       -3373694.7786629200        497923706.32940042     
   4734010552.8802452        1503137.4279434681        496819326.96920073     
   4586134189.6904202        6806131.5541436672        498755464.88816619     
   4438385675.0764713        12535287.599926233        503732120.08628666     
   4290765009.0384021        18690605.565294743        511749292.56356728     
   4511881410.1187391       -9622943.3307068348        655074959.99724102     
   4373866309.7465391        1152873.9174935818        647940131.53188288     
   4234446929.5023417        7247758.2590322495        644087413.38814890     
   4093623269.3861461        8661709.6939141750        643516805.56603956     
   3951395329.3979516        5394728.2221331596        646228308.06555378     
   5232754815.9517956        35742467.992395163        77472602.831325680     
   5002741654.0219336        44843948.225042105        77314631.693827704     
   4764406604.9495573        26205804.649313450        62526994.741795272     
   4517749668.7346840       -20171962.734736919        33109691.975240540     
   4262770845.3773084       -94289353.927137375       -10937276.605839694     
   4931444752.3153296        33864475.450430632        227371439.94645804     
   4666145259.2253218        21908433.888453722        217664419.42204633     
   4394430839.1806154       -11430697.522525549        200303161.15697020     
   4116301492.1812105       -66152918.782518864        175287665.15122515     
   3831757218.2270937       -142258229.89151764        142617931.40480927     
   4617448150.0108585        28180521.308061361        372130336.52387160     
   4336792120.2574577        1145896.3005099297        355099053.49832380     
   4051628123.7371416       -40915284.596730709        337388960.80596650     
   3761956160.4499278       -98003021.383643866        319000058.44679242     
   3467776230.3958139       -170117314.06021738        299932346.42080826     
   4290765009.0384021        18690605.565294743        511749292.56356728     
   4014682237.1183195       -17443664.538836002        489618533.92265308     
   3735998458.6191387       -62247956.573297739        473784393.68877429     
   3454713673.5408564       -115722270.53809857        464246871.86194468     
   3170827881.8834691       -177866606.43324316        461005968.44215578     
   3951395329.3979516        5394728.2221331596        646228308.06555378     
   3699815609.8079262       -33860248.629543781        621222860.69503200     
   3447541843.8266077       -75428713.452214241        609489459.80540657     
   3194574031.4539795       -119310666.24590445        611028105.39668489     
   2940912172.6900592       -165506107.01057875        625838797.46885753     
   4262770845.3773084       -94289353.927137375       -10937276.605839694     
   4331870675.5558357       -64302473.368482113       -18241835.496210713     
   4413829102.1232042        8546395.1529676914        30083662.497422714     
   4508646125.0793943        124257251.63716125        134039217.37505354     
   4616321744.4244232        282830096.08414912        293624829.13667727     
   3831757218.2270937       -142258229.89151764        142617931.40480927     
   4034625666.5398626       -65674163.069294691        162947252.43463135     
   4248172049.2256794        46503018.329741240        219792256.77674738     
   4472396366.2845297        194273314.30557132        313152944.43114769     
   4707298617.7164288        377636724.85822082        443029315.39783168     
   3467776230.3958139       -170117314.06021738        299932346.42080826     
   3749800800.9236407       -63319809.750185490        345351441.68573493     
   4040322643.8087234        71801935.750685930        408171846.69124949     
   4339341759.0510616        235247922.44240737        488393561.43733031     
   4646858146.6506357        427018150.32494307        586016585.92397439     
   3170827881.8834691       -177866606.43324316        461005968.44215578     
   3477396078.7071762       -57239413.411147356        528970732.25710660     
   3790280885.8723435        84443147.415816545        595222432.24091899     
   4109482303.3789692        247181076.04763961        659761068.39358783     
   4435000331.2270489        430974372.48431218        722586640.71511352     
   2940912172.6900592       -165506107.01057875        625838797.46885753     
   3217411499.8904572       -47432974.052188873        713805124.14873683     
   3498046775.4165268        84426653.325106144        780944013.42576313     
   3782817999.2682672        230072775.12129116        827255465.29992676     
   4071725171.4456677        389505391.33636618        852739479.77124000     
   4616321744.4244232        282830096.08414912        293624829.13667727     
   4261930482.7486362        291225766.07283902        315830913.97430634     
   3887060552.0562730        231359206.00628495        221375212.55926776     
   3491711952.3473420        103230415.88449860        10257724.891566699     
   3075884683.6218367       -93160604.292533398       -317521549.02880198     
   4707298617.7164288        377636724.85822082        443029315.39783168     
   4076149648.8283162        292715222.71104622        411791006.73868507     
   3428738429.1250992        153586217.84684134        305858672.35407525     
   2765064958.6067686       -39750289.734378219        125232312.24402092     
   2085129237.2733459       -287294300.03262782       -130088073.59151322     
   4646858146.6506357        427018150.32494307        586016585.92397439     
   3858859357.7707944        284751842.20811641        506253038.33642793     
   3058814736.2772999        102332758.71245134        393763225.55062437     
   2246724282.1701488       -120239100.16206217        248547147.56655338     
   1422587995.4493532       -382963734.41539919        70604804.384238452     
   4435000331.2270489        430974372.48431218        722586640.71511352     
   3610059609.5760498        267335624.56400800        599217008.76753080     
   2777289473.5128517        77598828.603039384        485088872.14889824     
   1936689923.0374689       -138236015.39855409        380202230.85919082     
   1088260958.1498933       -380168907.44078428        284557084.89844149     
   4071725171.4456677        389505391.33636618        852739479.77124000     
   3329750404.2440886        240466569.77872121        690682918.03199720     
   2584162640.8317757        79384427.518634677        579835612.14889371     
   1834961881.2087352       -93741035.443874955        520197562.12193435     
   1082148125.3749690       -278909819.10882193        511768767.95113051     
   5958055839.7303667        1787416751.9191101        1149905317.1401484     
   6088717960.5638075        1502659981.3142638        1227806556.9592764     
   6221995944.6724777        1226622754.9601774        1268363863.4786386     
   6357889792.0563755        959305072.85685098        1271577236.6982350     
   6496399502.7155027        700706935.00428510        1237446676.6180658     
   5434682895.7295952        1630404868.7188785        1033468211.3804388     
   5490107075.6210699        1372723423.6741984        1113803055.1600013     
   5547668476.2484083        1122166047.7490621        1167358341.0008559     
   5607367097.6116095        878732740.94346881        1194134068.9030015     
   5669202939.7106752        642423503.25742030        1194130238.8664384     
   4895249334.4148312        1468574800.3244493        936405201.40052140     
   4905619502.9673605        1247023859.7208414        1018615232.8445928     
   4917648249.7163877        1031001513.1055609        1084610081.7110133     
   4931335574.6619129        820507760.47860777        1134389747.9997821     
   4946681477.8039370        615542601.83998215        1167954231.7109001     
   4339755155.7860765        1301926546.7358232        858716287.20039618     
   4335255242.6026802        1125561289.4541931        942243090.01305079     
   4331935265.0764160        953129151.02967477        1020119085.6091117     
   4329795223.2072868        784630131.46226788        1092344273.9885783     
   4328835116.9952917        620064230.75197220        1158918655.1514513     
   3768200359.8433304        1130460107.9529991        800401468.78006268     
   3779014294.5270290        1008335712.8742539        884686626.66537511     
   3790529522.3284960        888548961.52140379        973885352.69515073     
   3802746043.2477312        771099853.89444864        1067997646.8693898     
   3815663857.2847357        655988389.99338925        1167023509.1880913     
   6496399502.7155027        700706935.00428510        1237446676.6180658     
   6239427459.2987614        374657929.27641058        1053168095.7727200     
   6013593613.0556622        152402914.12734246        907783587.78252780     
   5818897963.9862051        33941889.557080507        801293152.64749396     
   5655340512.0903883        19274855.565626621        733696790.36761415     
   5669202939.7106752        642423503.25742030        1194130238.8664384     
   5518989480.1501808        382558225.92815566        1073342728.4176821     
   5393051163.0546923        203610090.14891315        980509964.60351288     
   5291387988.4242125        105579095.91969371        915631947.42392886     
   5213999956.2587385        88465243.240496874        878708676.87893057     
   4946681477.8039370        615542601.83998215        1167954231.7109001     
   4871971384.3266325        412484487.57741046        1102650894.4986620     
   4814673378.6056976        267466665.83607674        1054362977.7004383     
   4774787460.6411371        180489136.61598134        1023090481.3162315     
   4752313630.4329462        151551899.91712451        1008833405.3460393     
   4328835116.9952917        620064230.75197220        1158918655.1514513     
   4298373171.8281174        464436714.22417450        1141092594.0156560     
   4278460259.7086782        343972641.18883252        1129342627.0733044     
   4269096380.6369767        258672011.64594436        1123668754.3243990     
   4270281534.6130109        208534825.59550881        1124070975.7689388     
   3815663857.2847357        655988389.99338925        1167023509.1880913     
   3798194842.6546340        538414905.86844981        1188667826.9686649     
   3784411806.3636322        433128016.20718002        1205448912.7221122     
   3774314748.4117317        340127721.00957954        1217366766.4484339     
   3767903668.7989326        259414020.27565122        1224421388.1476295     
   5655340512.0903883        19274855.565626621        733696790.36761415     
   5520985453.0441742        51712329.651363134        720971078.32475626     
   5380773816.7511148        64627879.580948114        710527982.73386848     
   5234705603.2112160        58021505.354393244        702367503.59495127     
   5082780812.4244661        31893206.971683264        696489640.90800285     
   5213999956.2587385        88465243.240496874        878708676.87893057     
   5078005180.5369425        86939061.514324903        855048290.11369324     
   4939605390.2753582        77396164.655534506        835681733.10262942     
   4798800585.4739923        59836552.664131880        820609005.84574246     
   4655590766.1328421        34260225.540111780        809830108.34303164     
   4752313630.4329462        151551899.91712451        1008833405.3460393     
   4620425461.7561512        117785959.49521732        978265167.01665664     
   4489583841.2466335        87508512.964227915        954001971.74365520     
   4359788768.9043913        60719560.324157953        936043819.52703583     
   4231040244.7294226        37419101.575002909        924390710.36679709     
   4270281534.6130109        208534825.59550881        1124070975.7689388     
   4148246296.7018089        144253023.59404492        1090621709.0336492     
   4030709169.6649427        94964924.507031202        1065488698.6569458     
   3917670153.5024123        60670528.334467649        1048671944.6388301     
   3809129248.2142153        41369835.076358080        1040171446.9793022     
   3767903668.7989326        259414020.27565122        1224421388.1476295     
   3661467685.3739109        166340253.81080627        1192117916.1646688     
   3562981375.5302844        99765399.283946991        1170141913.8425000     
   3472444739.2680516        59689456.695069790        1158493381.1811247     
   3389857776.5872159        46112426.044175267        1157172318.1805432     
   5082780812.4244661        31893206.971683264        696489640.90800285     
   4934648110.5261774        3487998.3232300282        678374350.94810915     
   4790120642.8424606       -12899762.943319082        665433474.14301610     
   4649198409.3733187       -17270076.827958822        657667010.49272609     
   4511881410.1187391       -9622943.3307068348        655074959.99724102     
   4655590766.1328421        34260225.540111780        809830108.34303164     
   4522345637.7659626        11943014.911071301        796097480.19781876     
   4391683354.1824026       -1764713.1069035530        787237495.91748095     
   4263603915.3821635       -6862958.5138061047        783250155.50202143     
   4138107321.3652487       -3351721.3096380234        784135458.95144081     
   4231040244.7294226        37419101.575002909        924390710.36679709     
   4111820491.9227381        20931229.574008942        913847956.36647308     
   3994161194.4681239        9644875.4132487774        907876076.94109929     
   3878062352.3655801        3560039.0927240849        906475072.09067798     
   3763523965.6151052        2676720.6124329567        909644941.81521177     
   3809129248.2142153        41369835.076358080        1040171446.9793022     
   3703072672.9965100        30452642.312044144        1031625779.4540721     
   3597554163.6996255        21329002.617133379        1027349217.2138711     
   3492573720.3235588        13998915.991618395        1027341760.2586976     
   3388131342.8683157        8462382.4355103970        1031603408.5885520     
   3389857776.5872159        46112426.044175267        1157172318.1805432     
   3296102180.9872766        40507253.125182867        1149430949.4606194     
   3201862261.8769059        33287668.504750848        1145656916.7357981     
   3107138019.2561064        24453672.182889342        1145850220.0060792     
   3011929453.1248765        14005264.159596205        1150010859.2714617     
   4511881410.1187391       -9622943.3307068348        655074959.99724102     
   4373866309.7465391        1152873.9174935818        647940131.53188288     
   4234446929.5023417        7247758.2590322495        644087413.38814890     
   4093623269.3861461        8661709.6939141750        643516805.56603956     
   3951395329.3979516        5394728.2221331596        646228308.06555378     
   4138107321.3652487       -3351721.3096380234        784135458.95144081     
   4007548904.3139343        1421605.9308335781        775739479.87303996     
   3876241029.4770746        3696740.5528221130        771182490.72163272     
   3744183696.8546743        3473682.5563447475        770464491.49722159     
   3611376906.4467263        752431.94136929512        773585482.19980419     
   3763523965.6151052        2676720.6124329567        909644941.81521177     
   3642013316.4714503        1924883.2212080956        900751771.22463214     
   3520408031.6287050        857593.49968290329        896254470.16641998     
   3398708111.0868721       -525148.55213570595        896153038.64056849     
   3276913554.8459516       -2223342.9342546463        900447476.64708388     
   3388131342.8683157        8462382.4355103970        1031603408.5885520     
   3277259546.2190890        2662705.7886204720        1022977005.5866590     
   3166947935.9572282       -1269682.9003908634        1019303351.7225001     
   3057196512.0827317       -3334783.6315135956        1020582446.9960740     
   2948005274.5956020       -3532596.4047485590        1026814291.4073838     
   3011929453.1248765        14005264.159596205        1150010859.2714617     
   2913287593.5568519        3635073.6330708265        1142415182.9591193     
   2815860742.4626465       -2685088.6473940611        1140329135.3898783     
   2719648899.8422618       -4955222.6817871332        1143752716.5637417     
   2624652065.6956949       -3175328.4701162577        1152685926.4807112     
   3951395329.3979516        5394728.2221331596        646228308.06555378     
   3699815609.8079262       -33860248.629543781        621222860.69503200     
   3447541843.8266077       -75428713.452214241        609489459.80540657     
   3194574031.4539795       -119310666.24590445        611028105.39668489     
   2940912172.6900592       -165506107.01057875        625838797.46885753     
   3611376906.4467263        752431.94136929512        773585482.19980419     
   3393876080.7927380       -29896038.594243288        748429945.36295593     
   3175463827.6406674       -63582600.790119171        734230778.99998426     
   2956140146.9905200       -100307254.64625549        730987983.11089790     
   2735905038.8422890       -140070000.16267443        738701557.69568467     
   3276913554.8459516       -2223342.9342546463        900447476.64708388     
   3086875405.9650755       -26250172.302682638        874888239.05266106     
   2895708448.4793482       -54039697.020634294        857969695.92510331     
   2703412682.3887620       -85591917.088112593        849691847.26440501     
   2509988107.6933146       -120906832.50512362        850054693.07056987     
   2948005274.5956020       -3532596.4047485590        1026814291.4073838     
   2778813585.3249435       -22922649.754867315        1000597741.7641523     
   2608275706.3426456       -46800002.143769264        980706210.58076668     
   2436391637.6487160       -75164653.571446419        967139697.85722005     
   2263161379.2431445       -108016604.03793013        959898203.59351850     
   2624652065.6956949       -3175328.4701162577        1152685926.4807112     
   2469690618.8723369       -19913470.950785875        1125558453.4974275     
   2313165601.2305613       -41863516.159510612        1102440322.9669683     
   2155077012.7703753       -69025464.096272945        1083331534.8893290     
   1995424853.4917684       -101399314.76110566        1068232089.2645246     
   2940912172.6900592       -165506107.01057875        625838797.46885753     
   3217411499.8904572       -47432974.052188873        713805124.14873683     
   3498046775.4165268        84426653.325106144        780944013.42576313     
   3782817999.2682672        230072775.12129116        827255465.29992676     
   4071725171.4456677        389505391.33636618        852739479.77124000     
   2735905038.8422890       -140070000.16267443        738701557.69568467     
   2959207380.1187882       -41643389.567756772        826900076.85187471     
   3186802327.7618833        71091908.915807486        899539087.86102426     
   3418689881.7715664        198135895.28800178        956618590.72314394     
   3654870042.1478429        339488569.54884124        998138585.43822753     
   2509988107.6933146       -120906832.50512362        850054693.07056987     
   2695144689.4911203       -37611376.340122819        938668172.41747797     
   2884750535.6964407        60514961.183265805        1016990072.8731704     
   3078805646.3092794        173472180.06503975        1085020394.4376502     
   3277310021.3296356        301260280.30521643        1142759137.1109214     
   2263161379.2431445       -108016604.03793013        959898203.59351850     
   2425223428.0074539       -35336934.369292498        1049109410.8455554     
   2591891399.2202058        52695810.127496600        1133296968.4622042     
   2763165292.8813972        156081629.45241094        1212460876.4434588     
   2939045108.9910331        274820523.60547566        1286601134.7893219     
   1995424853.4917684       -101399314.76110566        1068232089.2645246     
   2149443595.6677871       -34820063.655259013        1158223792.1361034     
   2308224918.3331718        47634455.748473287        1248459774.6281197     
   2471768821.4879189        145964243.45008194        1338940036.7405612     
   2640075305.1320410        260169299.44960487        1429664578.4734294     
   4071725171.4456677        389505391.33636618        852739479.77124000     
   3329750404.2440886        240466569.77872121        690682918.03199720     
   2584162640.8317757        79384427.518634677        579835612.14889371     
   1834961881.2087352       -93741035.443874955        520197562.12193435     
   1082148125.3749690       -278909819.10882193        511768767.95113051     
   3654870042.1478429        339488569.54884124        998138585.43822753     
   3041556668.6757665        226091150.32795596        839424815.73081040     
   2424015282.2477102        98600354.587139606        720247154.03530324     
   1802245882.8636878       -42983817.673580050        640605600.35172486     
   1176248470.5236824       -198661366.45420212        600500154.68003666     
   3277310021.3296356        301260280.30521643        1142759137.1109214     
   2759306190.6035275        213498708.12600863        986670639.89922416     
   2236459330.1761975        109593703.60940707        858445102.85520530     
   1708769440.0476556       -10454733.244576931        758082525.97886264     
   1176236520.2179024       -146646602.43593711        685582909.27019501     
   2939045108.9910331        274820523.60547566        1286601134.7893219     
   2482998970.0273623        202689243.17289007        1132420390.5372291     
   2021494784.6172299        112364474.58543634        994429458.60858166     
   1554532552.7606487        3846217.8431353569        872628339.00337040     
   1082112274.4576001       -122865527.05402553        767017031.72159290     
   2640075305.1320410        260169299.44960487        1429664578.4734294     
   2212635006.9472818        193662755.46859735        1276674067.6448302     
   1779121645.5708182        106912667.51523399        1128200221.2954299     
   1339535221.0026522       -80964.410460591316        984243039.42523527     
   893875733.24279320       -127318140.30846518        844802522.03424752     
   3768200359.8433304        1130460107.9529991        800401468.78006268     
   3779014294.5270290        1008335712.8742539        884686626.66537511     
   3790529522.3284960        888548961.52140379        973885352.69515073     
   3802746043.2477312        771099853.89444864        1067997646.8693898     
   3815663857.2847357        655988389.99338925        1167023509.1880913     
   3207735521.4661555        962320656.43984663        756399183.87103844     
   3235756720.3303695        868002183.19716346        852841098.72569346     
   3263550344.6314025        772925128.07720923        951189051.30488276     
   3291116394.3692541        677089491.07998419        1051443041.6086068     
   3318454869.5439253        580495272.20548749        1153603069.6368659     
   2685511215.5341163        805653364.66023493        721647870.20484042     
   2722146734.5219073        736562930.03653252        829162863.06772959     
   2757625811.2655678        663617687.93239260        935576363.23522449     
   2791948445.7650967        586817638.34781504        1040888370.7073258     
   2825114638.0204935        506162781.28279918        1145098885.4840329     
   2201527442.0472126        660458232.61416388        696147527.78146875     
   2238184337.1016426        614017953.39236057        813651919.69148350     
   2272755922.2309909        560626641.08695316        927047288.48617601     
   2305242197.4352584        500284295.69794142        1036333634.1655456     
   2335643162.7144442        432990917.22532576        1141510956.7295930     
   1755784201.0054445        526735260.30163336        679898156.60092330     
   1783869528.0695739        500367253.26464766        806308268.59695566     
   1808940677.5276725        463951987.54089123        925601827.05773687     
   1830997649.3797395        417489463.13036442        1037778831.9832677     
   1850040443.6257756        360979680.03306639        1142839283.3735471     
   3815663857.2847357        655988389.99338925        1167023509.1880913     
   3798194842.6546340        538414905.86844981        1188667826.9686649     
   3784411806.3636322        433128016.20718002        1205448912.7221122     
   3774314748.4117317        340127721.00957954        1217366766.4484339     
   3767903668.7989326        259414020.27565122        1224421388.1476295     
   3318454869.5439253        580495272.20548749        1153603069.6368659     
   3293841812.9727135        473496634.17838120        1181772414.8267348     
   3272872401.5390716        378643479.94317472        1206869226.0664523     
   3255546635.2430024        295935809.49986887        1228893503.3560207     
   3241864514.0844998        225373622.84846103        1247845246.6954386     
   2825114638.0204935        506162781.28279918        1145098885.4840329     
   2798473819.7281046        411273873.41950661        1179743869.3480773     
   2775434313.3717532        328389338.67634273        1213107017.3389468     
   2755996118.9514408        257509177.05330789        1245188329.4566419     
   2740159236.4671679        198633388.55040145        1275987805.7011611     
   2335643162.7144442        432990917.22532576        1141510956.7295930     
   2312090862.9208055        351746623.59182543        1182582190.5326936     
   2292097541.8616738        282365592.40668297        1224162286.5395951     
   2275663199.5370507        224847823.66989923        1266251244.7502961     
   2262787835.9469333        179193317.38147008        1308849065.1647983     
   1850040443.6257756        360979680.03306639        1142839283.3735471     
   1834692942.5508173        294914884.69533598        1190287378.3805840     
   1822862087.0088358        240572241.13419408        1240035033.6683967     
   1814547876.9998310        197951749.34963995        1292082249.2369854     
   1809750312.5238008        167053409.34167159        1346429025.0863497     
   3767903668.7989326        259414020.27565122        1224421388.1476295     
   3661467685.3739109        166340253.81080627        1192117916.1646688     
   3562981375.5302844        99765399.283946991        1170141913.8425000     
   3472444739.2680516        59689456.695069790        1158493381.1811247     
   3389857776.5872159        46112426.044175267        1157172318.1805432     
   3241864514.0844998        225373622.84846103        1247845246.6954386     
   3164674674.5711389        150678568.81367648        1231109157.4634364     
   3093678188.6826811        96628026.861899495        1222301391.0188277     
   3028875056.4191232        63221996.993124366        1221421947.3616135     
   2970265277.7804680        50460479.207356811        1228470826.4917934     
   2740159236.4671679        198633388.55040145        1275987805.7011611     
   2685360835.5129004        140260635.33990681        1272770059.2708755     
   2634999468.2270427        96677994.357439876        1275081488.7545841     
   2589075134.6095920        67885465.603000045        1282922094.1522889     
   2547587834.6605496        53883049.076586723        1296291875.4639883     
   2262787835.9469333        179193317.38147008        1308849065.1647983     
   2223526168.1991935        135086453.38949919        1317100621.5869853     
   2186945214.1633682        99915301.770572066        1328482207.0497704     
   2153044973.8394566        73679862.524693727        1342993821.5531504     
   2121825447.2274611        56380135.651865721        1360635465.0971301     
   1809750312.5238008        167053409.34167159        1346429025.0863497     
   1779170672.6300187        135156022.96244562        1364100844.4117682     
   1749515426.4916582        106339949.10129082        1382503545.9043853     
   1720784574.1087203        80605187.758210003        1401637129.5642014     
   1692978115.4812009        57951738.933194280        1421501595.3912144     
   3389857776.5872159        46112426.044175267        1157172318.1805432     
   3296102180.9872766        40507253.125182867        1149430949.4606194     
   3201862261.8769059        33287668.504750848        1145656916.7357981     
   3107138019.2561064        24453672.182889342        1145850220.0060792     
   3011929453.1248765        14005264.159596205        1150010859.2714617     
   2970265277.7804680        50460479.207356811        1228470826.4917934     
   2885908362.2643437        39750177.421911716        1219750762.6076946     
   2801803383.4949017        29879664.792066336        1215471223.3006065     
   2717950341.4721365        20848941.317813277        1215632208.5705340     
   2634349236.1960511        12658006.999164104        1220233718.4174762     
   2547587834.6605496        53883049.076586723        1296291875.4639883     
   2473981566.6051311        38473208.637760878        1287452086.7156758     
   2401363495.5534987        26357358.211558580        1283526011.1262834     
   2329733621.5056562        17535497.797988296        1284513648.6958160     
   2259091944.4616041        12007627.397048116        1290414999.4242740     
   2121825447.2274611        56380135.651865721        1360635465.0971301     
   2060321794.0096312        36676346.772719979        1352534921.7845612     
   2000542598.0527010        22720748.763235927        1349821280.2128258     
   1942487859.3566670        14513341.623409271        1352494540.3819270     
   1886157577.9215322        12054125.353242636        1360554702.2918591     
   1692978115.4812009        57951738.933194280        1421501595.3912144     
   1644929044.4778495        34359591.826797545        1414999267.8143535     
   1599340690.9925065        18969836.447093904        1414357030.5602350     
   1556213055.0251687        11782472.794075727        1419574883.6288636     
   1515546136.5758395        12797500.867754161        1430652827.0202377     
   3011929453.1248765        14005264.159596205        1150010859.2714617     
   2913287593.5568519        3635073.6330708265        1142415182.9591193     
   2815860742.4626465       -2685088.6473940611        1140329135.3898783     
   2719648899.8422618       -4955222.6817871332        1143752716.5637417     
   2624652065.6956949       -3175328.4701162577        1152685926.4807112     
   2634349236.1960511        12658006.999164104        1220233718.4174762     
   2550617063.0336871        6005244.5169912577        1214415517.5573194     
   2467673057.8734574        1979708.7085995674        1213698809.4866397     
   2385517220.7153583        581399.57398104668        1218083594.2054358     
   2304149551.5593920        1810317.1131387949        1227569871.7137091     
   2259091944.4616041        12007627.397048116        1290414999.4242740     
   2189103354.9802456        8722462.1418364048        1285876293.4660065     
   2119476093.0293348        6641721.9881129265        1286030944.3435864     
   2050210158.6088676        5765406.9358714819        1290878952.0570114     
   1981305551.7188516        6093516.9851244688        1300420316.6062849     
   1886157577.9215322        12054125.353242636        1360554702.2918591     
   1828746469.3965271        11786726.507593036        1356797510.6851821     
   1771269847.9302812        11300951.191143632        1357325539.9607203     
   1713727713.5227945        10596799.403889656        1362138790.1184742     
   1656120066.1740682        9674271.1458329558        1371237261.1584456     
   1515546136.5758395        12797500.867754161        1430652827.0202377     
   1469546406.2825313        15198037.614268839        1427179169.2148423     
   1423054322.5762973        15957396.317699075        1427582596.3380358     
   1376069885.4571326        15075576.978026152        1431863108.3898191     
   1328593094.9250448        12552579.595276058        1440020705.3701904     
   2624652065.6956949       -3175328.4701162577        1152685926.4807112     
   2469690618.8723369       -19913470.950785875        1125558453.4974275     
   2313165601.2305613       -41863516.159510612        1102440322.9669683     
   2155077012.7703753       -69025464.096272945        1083331534.8893290     
   1995424853.4917684       -101399314.76110566        1068232089.2645246     
   2304149551.5593920        1810317.1131387949        1227569871.7137091     
   2160847823.3147402       -16296156.532325268        1198593628.8166134     
   2016260010.5022295       -38689578.737319827        1174892826.4883387     
   1870386113.1218581       -65369949.501848102        1156467464.7288940     
   1723226131.1736298       -96337268.825899482        1143317543.5382683     
   1981305551.7188516        6093516.9851244688        1300420316.6062849     
   1853280965.2414713       -12296060.868570566        1269919037.7543619     
   1724247780.4467921       -34047633.113270640        1245959297.5872614     
   1594205997.3348110       -59161199.748972356        1228541096.1049850     
   1463155615.9055285       -87636760.775683641        1217664433.3075349     
   1656120066.1740682        9674271.1458329558        1371237261.1584456     
   1546990044.6525378       -7913183.9595063925        1339534680.3106787     
   1437128911.0642586       -27937679.287341952        1315639736.2637303     
   1326536665.4092348       -50399214.837655306        1299552429.0176091     
   1215213307.6874671       -75297790.610455215        1291272758.5723107     
   1328593094.9250448        12552579.595276058        1440020705.3701904     
   1241975061.5479257       -3147525.8051608801        1407440556.4855578     
   1154903402.3546207       -20359717.259552956        1383934142.5177488     
   1067378117.3451264       -39083994.767906547        1369501463.4667633     
   979399206.51944482       -59320358.330218375        1364142519.3325977     
   1995424853.4917684       -101399314.76110566        1068232089.2645246     
   2149443595.6677871       -34820063.655259013        1158223792.1361034     
   2308224918.3331718        47634455.748473287        1248459774.6281197     
   2471768821.4879189        145964243.45008194        1338940036.7405612     
   2640075305.1320410        260169299.44960487        1429664578.4734294     
   1723226131.1736298       -96337268.825899482        1143317543.5382683     
   1873378583.6446731       -32949161.755442739        1241704669.3509808     
   2028220436.7728591        46070280.838818550        1337609864.3937588     
   2187751690.5581765        140721058.95685017        1431033128.6666005     
   2351972345.0006294        251003172.59867269        1521974462.1695068     
   1463155615.9055285       -87636760.775683641        1217664433.3075349     
   1601652606.1277130       -29776549.503758729        1324361605.5904319     
   1744765817.1747992        43471064.517843187        1425850636.7130337     
   1892495249.0467892        132106081.28911811        1522131526.6753359     
   2044840901.7436841        236128500.81007689        1613204275.4773436     
   1215213307.6874671       -75297790.610455215        1291272758.5723107     
   1334265663.1168940       -25302226.900244772        1406194600.8544569     
   1457861059.5389917        39836806.785541654        1513182091.5859475     
   1585999496.9537623        120119310.44689751        1612235230.7667787     
   1718680975.3611994        215545284.08381456        1703354018.3969483     
   979399206.51944482       -59320358.330218375        1364142519.3325977     
   1071217754.6122218       -19526193.944883585        1487203655.1430619     
   1167506163.8654366        35167507.641915798        1599604229.0125027     
   1268264434.2790899        104760746.43017668        1701344240.9409192     
   1373492565.8531830        189253522.41990271        1792423690.9283125     
   2640075305.1320410        260169299.44960487        1429664578.4734294     
   2212635006.9472818        193662755.46859735        1276674067.6448302     
   1779121645.5708182        106912667.51523399        1128200221.2954299     
   1339535221.0026522       -80964.410460591316        984243039.42523527     
   893875733.24279320       -127318140.30846518        844802522.03424752     
   2351972345.0006294        251003172.59867269        1521974462.1695068     
   1945243242.4959080        188362126.13746881        1358418949.7810256     
   1532744585.6952472        106489232.02313215        1205386424.0088060     
   1114476374.5986319        5384490.2556196451        1062876884.8528354     
   690438609.20608103       -114952099.16501480        930890332.31311595     
   2044840901.7436841        236128500.81007689        1613204275.4773436     
   1675983915.3105757        182501227.98617625        1439437855.2407079     
   1301660883.4772794        110653803.82831037        1282200743.7573700     
   921871806.24378514        20586228.336461663        1141492941.0273449     
   536616683.61010432       -87701498.489350468        1017314447.0506105     
   1718680975.3611994        215545284.08381456        1703354018.3969483     
   1404857025.3912711        176080061.01469022        1519730784.0238645     
   1085870538.9168968        119406382.93074799        1358643180.5411291     
   761721515.93809628        45524249.832042903        1220091207.9487493     
   432409956.45484984       -45566338.281469405        1104074866.2467122     
   1373492565.8531830        189253522.41990271        1792423690.9283125     
   1131862572.7379928        169098625.22299212        1599297736.1304953     
   885373552.01412928        132746969.33050588        1434713734.3600805     
   634025503.68157041        80198554.742368668        1298671685.6170561     
   377818427.74033129        11453381.458639011        1191171589.9014349     
   1755784201.0054445        526735260.30163336        679898156.60092330     
   1783869528.0695739        500367253.26464766        806308268.59695566     
   1808940677.5276725        463951987.54089123        925601827.05773687     
   1830997649.3797395        417489463.13036442        1037778831.9832677     
   1850040443.6257756        360979680.03306639        1142839283.3735471     
   1326064750.7755795        397819425.23267382        669717890.84696674     
   1339278384.7281148        375665516.85530466        791803891.08760798     
   1350248467.6281450        346033104.96958560        908594196.62543964     
   1358974999.4756706        308922189.57551658        1020088807.4604611     
   1365457980.2706909        264332770.67309734        1126287723.5926726     
   890152349.72438407        267045704.91731521        662424864.70336139     
   893696744.37229979        250666631.34165516        781085817.50105894     
   895768214.52123690        229377809.43606573        896271934.42838764     
   896366760.17119503        203179239.20054713        1007983215.4853477     
   895492381.32217455        172070920.63509929        1116219660.6719389     
   448046997.85185879        134414099.35555765        658019078.17010748     
   447124607.00212973        125370596.72369896        774154047.83730829     
   445499918.20694792        113986100.94033161        888635040.46658182     
   443172931.46631354        100260612.00545581        1001462056.0579273     
   440143646.78022659        84194129.919071108        1112635094.6113453     
  -251304.84199635935       -75391.452598907810        656500531.24720490     
  -438027.38239585940       -222586.99856380996        771008582.09635651     
  -556421.31472179282       -142020.51761664951        885683514.74002159     
  -606486.63897408498        166307.99024264794        1000525329.1782001     
  -588223.35515261604        702398.52501448267        1115534025.4108922     
   1850040443.6257756        360979680.03306639        1142839283.3735471     
   1834692942.5508173        294914884.69533598        1190287378.3805840     
   1822862087.0088358        240572241.13419408        1240035033.6683967     
   1814547876.9998310        197951749.34963995        1292082249.2369854     
   1809750312.5238008        167053409.34167159        1346429025.0863497     
   1365457980.2706909        264332770.67309734        1126287723.5926726     
   1359825027.9739299        216650242.66661263        1181735944.5369785     
   1356792772.3275654        177636703.49478281        1238115273.3380637     
   1356361213.3315961        147292153.15760452        1295425709.9959311     
   1358530350.9860241        125616591.65508324        1353667254.5105782     
   895492381.32217455        172070920.63509929        1116219660.6719389     
   895664113.73505247        141597700.73929143        1178599400.5238361     
   897520593.91574669        116740306.73620453        1240541795.8085191     
   901061821.86425710        97498738.625839174        1302046846.5259874     
   906287797.58058441        83872996.408195853        1363114552.6762407     
   440143646.78022659        84194129.919071108        1112635094.6113453     
   442210199.83418560        69757258.913373530        1180877746.3411584     
   445045551.77338058        57883050.858463123        1247314601.0797613     
   448649702.59781253        48571505.754342303        1311945658.8271556     
   453022652.30748075        41822623.601008907        1374770919.5833378     
  -588223.35515261604        702398.52501448267        1115534025.4108922     
  -536713.72867076413        1128917.1888588746        1188570981.9889443     
  -632354.09953256091        1064935.8615579437        1258433689.1517909     
  -875144.46773767809        510454.54311226471        1325122146.8994327     
  -1265084.8332857222       -534526.76647598296        1388636355.2318687     
   1809750312.5238008        167053409.34167159        1346429025.0863497     
   1779170672.6300187        135156022.96244562        1364100844.4117682     
   1749515426.4916582        106339949.10129082        1382503545.9043853     
   1720784574.1087203        80605187.758210003        1401637129.5642014     
   1692978115.4812009        57951738.933194280        1421501595.3912144     
   1358530350.9860241        125616591.65508324        1353667254.5105782     
   1332760153.5532222        100720857.65995395        1372299585.3056035     
   1307792530.7009439        78500372.266569912        1392284839.1224699     
   1283627482.4291894        58955135.474933743        1413623015.9611769     
   1260265008.7379591        42085147.285042107        1436314115.8217244     
   906287797.58058441        83872996.408195853        1363114552.6762407     
   887104302.19345450        66512092.672569454        1382565272.5701592     
   868601562.21195066        51420373.622364640        1403990956.3405619     
   850779577.63607335        38597839.257581204        1427391603.9874468     
   833638348.46582305        28044489.578221232        1452767215.5108154     
   453022652.30748075        41822623.601008907        1374770919.5833378     
   442203118.55071551        32529728.000293925        1394897906.2054367     
   431942521.02467895        25099953.168674558        1417621897.5586603     
   422240859.72937256        19533299.106155276        1442942893.6430104     
   413098134.66479516        15829765.812732980        1470860894.4584861     
  -1265084.8332857222       -534526.76647598296        1388636355.2318687     
  -1943397.3749937348       -1226236.3568727174        1409297486.2114339     
  -2184592.8608694058       -460889.09449480643        1433177662.7767668     
  -1988671.2909143711        1761515.0206519512        1460276884.9278677     
  -1355632.6651259651        5440975.9885767866        1490595152.6647358     
   1692978115.4812009        57951738.933194280        1421501595.3912144     
   1644929044.4778495        34359591.826797545        1414999267.8143535     
   1599340690.9925065        18969836.447093904        1414357030.5602350     
   1556213055.0251687        11782472.794075727        1419574883.6288636     
   1515546136.5758395        12797500.867754161        1430652827.0202377     
   1260265008.7379591        42085147.285042107        1436314115.8217244     
   1228389101.9431336        26154267.048973918        1433729174.2463043     
   1198013788.4039810        15225364.331816673        1435957053.2307768     
   1169139068.1205037        9298439.1335794926        1442997752.7751396     
   1141764941.0927010        8373491.4542521834        1454851272.8793926     
   833638348.46582305        28044489.578221232        1452767215.5108154     
   814943406.55708420        18877216.415747911        1452979514.9641159     
   796788933.64168704        11511506.564414024        1456957365.2144537     
   779174929.71963120        5947360.0242177248        1464700766.2618301     
   762101394.79091609        2184776.7951588631        1476209718.1062436     
   413098134.66479516        15829765.812732980        1470860894.4584861     
   404591958.31970406        12528439.927121386        1472750289.9677844     
   395666126.70562273        7828263.1448760778        1477357966.5112674     
   386320639.82255024        1729235.4659942389        1484683924.0889349     
   376555497.67048657       -5768643.1095266044        1494728162.7007887     
  -1355632.6651259651        5440975.9885767866        1490595152.6647358     
  -2665242.7690058001        7107937.5831021741        1493041499.2573123     
  -5354632.4042105358        4175634.0732094911        1497158857.1212192     
  -9423801.5707374047       -3355934.5410890887        1502947226.2564566     
  -14872750.268590685       -15486768.259809732        1510406606.6630261     
   1515546136.5758395        12797500.867754161        1430652827.0202377     
   1469546406.2825313        15198037.614268839        1427179169.2148423     
   1423054322.5762973        15957396.317699075        1427582596.3380358     
   1376069885.4571326        15075576.978026152        1431863108.3898191     
   1328593094.9250448        12552579.595276058        1440020705.3701904     
   1141764941.0927010        8373491.4542521834        1454851272.8793926     
   1105509948.4644456        7161106.3203313947        1449358169.1565802     
   1069321498.1138357        6170528.7785615325        1448317683.7583964     
   1033199590.0408722        5401758.8289464712        1451729816.6848433     
   997144224.24555588        4854796.4714886546        1459594567.9359171     
   762101394.79091609        2184776.7951588631        1476209718.1062436     
   737235520.95925903       -2147215.8797426522        1469349213.4383478     
   712995085.09582245       -4394415.3272433281        1467516860.4911232     
   689380087.20060766       -4556821.5473378003        1470712659.2645712     
   666390527.27361417       -2634434.5400279760        1478936609.7586915     
   376555497.67048657       -5768643.1095266044        1494728162.7007887     
   364723123.76697493       -12726928.985946178        1487152302.0601454     
   354075083.52225894       -15737435.999712333        1485180126.5362182     
   344611376.93633771       -14800164.150828764        1488811636.1290038     
   336332004.00921464       -9915113.4392869025        1498046830.8385010     
  -14872750.268590685       -15486768.259809732        1510406606.6630261     
  -12027243.112407893       -24578032.998276789        1502767435.0219755     
  -7438506.6068554465       -27858533.238845356        1501307481.8936810     
  -1106540.7519327318       -25328268.981512845        1506026747.2781401     
   6968654.4523615120       -16987240.226275243        1516925231.1753554     
   1328593094.9250448        12552579.595276058        1440020705.3701904     
   1241975061.5479257       -3147525.8051608801        1407440556.4855578     
   1154903402.3546207       -20359717.259552956        1383934142.5177488     
   1067378117.3451264       -39083994.767906547        1369501463.4667633     
   979399206.51944482       -59320358.330218375        1364142519.3325977     
   997144224.24555588        4854796.4714886546        1459594567.9359171     
   934729196.42308354       -4539040.1409114599        1426100620.9561269     
   871628521.50090516       -16218367.085663378        1400695342.8427699     
   807842199.47901428       -30183184.362789392        1383378733.5958467     
   743370230.35741663       -46433491.972274303        1374150793.2153563     
   666390527.27361417       -2634434.5400279760        1478936609.7586915     
   625364030.57610381       -6566344.6933024526        1444258173.1862974     
   583419865.49536562       -13557149.457337618        1416683339.4299514     
   540558032.03140140       -23606848.832125664        1396212108.4896531     
   496778530.18420851       -36715442.817675978        1382844480.3653979     
   336332004.00921464       -9915113.4392869025        1498046830.8385010     
   313879564.00698566       -9229439.4623403400        1461913213.1760697     
   290277434.33800966       -12376064.374550119        1431898132.2792947     
   265525615.00228655       -19354988.175917581        1408001588.1481826     
   239624105.99981889       -30166210.866432890        1390223580.7827218     
   6968654.4523615120       -16987240.226275243        1516925231.1753554     
   275796.71573332138       -12528324.448008558        1479065740.9254465     
  -7798771.9711646028       -12675111.837307308        1446339721.3908055     
  -17255051.608324654       -17427602.394147355        1418747172.5714333     
  -28093042.195754372       -26785796.118551563        1396288094.4673312     
   979399206.51944482       -59320358.330218375        1364142519.3325977     
   1071217754.6122218       -19526193.944883585        1487203655.1430619     
   1167506163.8654366        35167507.641915798        1599604229.0125027     
   1268264434.2790899        104760746.43017668        1701344240.9409192     
   1373492565.8531830        189253522.41990271        1792423690.9283125     
   743370230.35741663       -46433491.972274303        1374150793.2153563     
   804808973.45185268       -21602839.350495011        1498497146.2648773     
   869114295.44805706        12783076.277183533        1613588098.5867512     
   936286196.34602141        56724254.910725385        1719423650.1809740     
   1006324676.1457510        110220696.55015546        1816003801.0475485     
   496778530.18420851       -36715442.817675978        1382844480.3653979     
   531852214.60422957       -25643878.062269300        1506605554.6855233     
   568189195.66734302       -10361324.496555835        1622516389.4913762     
   605789473.37354863        9132217.8794660866        1730576984.7829523     
   644653047.72284174        32836749.065780133        1830787340.5602531     
   239624105.99981889       -30166210.866432890        1390223580.7827218     
   252347478.06934762       -31649310.080231294        1511528880.4050026     
   264730864.52329856       -34265694.679287642        1626389101.7263832     
   276774265.36166251       -38015364.663633794        1734804244.7468610     
   288477680.58444852       -42898320.033241257        1836774309.4664347     
  -28093042.195754372       -26785796.118551563        1396288094.4673312     
  -33705236.152789287       -39619135.404361442        1513267123.4233124     
  -41260697.984080777       -58930034.271026574        1625206235.2917676     
  -50759427.689624324       -84718492.718532264        1732105430.0726888     
  -62201425.269431278       -116984510.74691525        1833964707.7660892     
   1373492565.8531830        189253522.41990271        1792423690.9283125     
   1131862572.7379928        169098625.22299212        1599297736.1304953     
   885373552.01412928        132746969.33050588        1434713734.3600805     
   634025503.68157041        80198554.742368668        1298671685.6170561     
   377818427.74033129        11453381.458639011        1191171589.9014349     
   1006324676.1457510        110220696.55015546        1816003801.0475485     
   835126632.27281344        90532869.225715905        1618475487.1889331     
   660525759.91872263        59502280.297439188        1446475857.4417782     
   482522059.08347160        17128929.765293270        1300004911.8060749     
   301115529.76707113       -36587182.370685294        1179062650.2818334     
   644653047.72284174        32836749.065780133        1830787340.5602531     
   535277613.33231431        11033189.685843736        1630555566.6229572     
   423955549.58816433       -17259134.206169248        1452839207.8811831     
   310686856.49038512       -52040222.610274971        1297638264.3349202     
   195471534.03898171       -93310075.526465058        1164952735.9841678     
   288477680.58444852       -42898320.033241257        1836774309.4664347     
   232315515.91649550       -69400413.396627709        1635537974.4325817     
   175662921.02244899       -97537274.180326641        1453803785.6782997     
   118519895.90230736       -127308902.38434233        1291571743.2035878     
   60886440.556066923       -158715298.00868577        1148841847.0084469     
  -62201425.269431278       -116984510.74691525        1833964707.7660892     
  -73759659.974643424       -150767940.02169514        1633422710.6177900     
  -84352125.778418973       -181332139.62502316        1449369590.8331192     
  -93978822.680761158       -208677109.55690527        1281805348.4120817     
  -102639750.68167625       -232802849.81736159        1130729983.3546698     
  -251304.84199635935       -75391.452598907810        656500531.24720490     
  -438027.38239585940       -222586.99856380996        771008582.09635651     
  -556421.31472179282       -142020.51761664951        885683514.74002159     
  -606486.63897408498        166307.99024264794        1000525329.1782001     
  -588223.35515261604        702398.52501448267        1115534025.4108922     
  -448554954.77946687       -134566486.43384007        657919336.14132833     
  -447931503.15550005       -125630966.48485418        774180017.89151263     
  -446532740.42850268       -114111076.19243318        888801017.47478426     
  -444358666.59847486       -100006815.55657738        1001782334.8911436     
  -441409281.66541642       -83318184.577286422        1113123970.1405902     
  -890676348.38283789       -267202904.51485136        662325605.05915320     
  -894404333.91286469       -250733152.46642274        781163730.62115288     
  -896650025.84490430       -229322421.75803614        896555610.05481434     
  -897413424.17895627       -202970712.38969165        1008501243.3601367     
  -896694528.91502106       -171678024.36138880        1117000630.5371211     
  -1326615485.6521094       -397984645.69563282        669719338.00067902     
  -1339856519.6544900       -375529144.94326949        791959720.28527749     
  -1350908277.5639262       -345776057.21442515        908947292.48011112     
  -1359770759.3804181       -308725382.50909972        1020682054.5851809     
  -1366443965.1039660       -264377120.82729360        1127164006.6004853     
  -1756372366.5872812       -526911709.97618437        680100534.96590602     
  -1784288060.3803759       -500018943.91539431        806567986.88388622     
  -1809307495.5855687       -463471982.56160021        925976064.75067556     
  -1831430672.2028608       -417270825.91480255        1038324768.5662746     
  -1850657590.2322514       -361415473.97500050        1143614098.3306830     
  -588223.35515261604        702398.52501448267        1115534025.4108922     
  -536713.72867076413        1128917.1888588746        1188570981.9889443     
  -632354.09953256091        1064935.8615579437        1258433689.1517909     
  -875144.46773767809        510454.54311226471        1325122146.8994327     
  -1265084.8332857222       -534526.76647598296        1388636355.2318687     
  -441409281.66541642       -83318184.577286422        1113123970.1405902     
  -443477427.51485848       -68373159.515897989        1181152471.5125499     
  -446478036.12655228       -56536343.662015274        1247374293.5341868     
  -450411107.50049776       -47807737.015637934        1311789436.2055004     
  -455276641.63669509       -42187339.576767221        1374397899.5264904     
  -896694528.91502106       -171678024.36138880        1117000630.5371211     
  -896974987.19786668       -141042289.98969930        1179104478.4772623     
  -898973221.00787306       -116132474.04187757        1240769217.1319621     
  -902689230.34503937       -96948576.517923385        1301994846.5012200     
  -908123015.20936644       -83490597.417837858        1362781366.5850372     
  -1366443965.1039660       -264377120.82729360        1127164006.6004853     
  -1361029392.7776957       -216878474.23254707        1182427002.8830814     
  -1358117908.7434950       -177723455.27803126        1238618459.9451180     
  -1357709513.0013626       -146912063.96374363        1295738377.7865949     
  -1359804205.5512991       -124444300.28968656        1353786756.4075124     
  -1850657590.2322514       -361415473.97500050        1143614098.3306830     
  -1835640644.2543464       -295881712.24444234        1191120044.7300072     
  -1823912099.3334179       -241309287.37047452        1240922021.9736536     
  -1815471955.4694669       -197698199.35309768        1293020030.0616224     
  -1810320212.6624937       -165048448.19231331        1347414068.9939139     
  -1265084.8332857222       -534526.76647598296        1388636355.2318687     
  -1943397.3749937348       -1226236.3568727174        1409297486.2114339     
  -2184592.8608694058       -460889.09449480643        1433177662.7767668     
  -1988671.2909143711        1761515.0206519512        1460276884.9278677     
  -1355632.6651259651        5440975.9885767866        1490595152.6647358     
  -455276641.63669509       -42187339.576767221        1374397899.5264904     
  -445568185.32410949       -33706515.961820126        1395401812.1247218     
  -435924038.30986106       -25440056.674663082        1419059762.9007938     
  -426344200.59394759       -17387961.715290725        1445371751.8547049     
  -416828672.17636997       -9550231.0837023258        1474337778.9864569     
  -908123015.20936644       -83490597.417837858        1362781366.5850372     
  -889642096.92228162       -66321532.661486119        1383543063.3887401     
  -871726914.28770077       -51038253.413480788        1406393790.9623547     
  -854377467.30562472       -37640759.673824012        1431333549.3058810     
  -837593755.97605181       -26129051.442512870        1458362338.4193201     
  -1359804205.5512991       -124444300.28968656        1353786756.4075124     
  -1334165132.1695094       -99071286.455867529        1373721240.0034897     
  -1309593220.7943921       -77255479.310956478        1395179746.9614508     
  -1286088471.4259465       -58996878.854952931        1418162277.2813969     
  -1263650884.0641735       -44295485.087855220        1442668830.9633267     
  -1810320212.6624937       -165048448.19231331        1347414068.9939139     
  -1779137291.0657938       -131955777.34496713        1365936341.9689698     
  -1749522957.8299332       -104091734.36708653        1385417630.8980825     
  -1721477212.9549131       -81456319.258676708        1405857935.7812512     
  -1695000056.4407325       -64049532.019727230        1427257256.6184759     
  -1355632.6651259651        5440975.9885767866        1490595152.6647358     
  -2665242.7690058001        7107937.5831021741        1493041499.2573123     
  -5354632.4042105358        4175634.0732094911        1497158857.1212192     
  -9423801.5707374047       -3355934.5410890887        1502947226.2564566     
  -14872750.268590685       -15486768.259809732        1510406606.6630261     
  -416828672.17636997       -9550231.0837023258        1474337778.9864569     
  -411221889.42162049       -4764720.1059520692        1474070938.1280212     
  -406790091.40478873       -3895824.9212606251        1476733722.9549165     
  -403533278.12587464       -6943545.5296258926        1482326133.4671435     
  -401451449.58487922       -13907881.931056142        1490848169.6647031     
  -837593755.97605181       -26129051.442512870        1458362338.4193201     
  -821474539.17981577       -17146178.726678580        1455621237.3688474     
  -806325512.32809114       -11397272.492549866        1457068376.4177058     
  -792146675.42087758       -8882332.7401241362        1462703755.5658958     
  -778938028.45817637       -9601359.4694076180        1472527374.8134172     
  -1263650884.0641735       -44295485.087855220        1442668830.9633267     
  -1233423192.0435922       -30036438.279079616        1437692396.9797902     
  -1203960895.1741164       -18328708.640654981        1438162817.5095851     
  -1175263993.4557447       -9172296.1725783348        1444080092.5527108     
  -1147332486.8884807       -2567200.8748617172        1455444222.1091704     
  -1695000056.4407325       -64049532.019727230        1427257256.6184759     
  -1647067848.0129480       -43435498.763151109        1420284416.9608498     
  -1599696239.9428639       -24690133.365577638        1420017046.2305553     
  -1552885232.2304785       -7813435.8269976377        1426455144.4275925     
  -1506634824.8757925        7194593.8525837064        1439598711.5519633     
  -14872750.268590685       -15486768.259809732        1510406606.6630261     
  -12027243.112407893       -24578032.998276789        1502767435.0219755     
  -7438506.6068554465       -27858533.238845356        1501307481.8936810     
  -1106540.7519327318       -25328268.981512845        1506026747.2781401     
   6968654.4523615120       -16987240.226275243        1516925231.1753554     
  -401451449.58487922       -13907881.931056142        1490848169.6647031     
  -382039163.14771366       -16201564.254372522        1487298552.1652086     
  -361800342.49400038       -15740132.522530511        1488744719.6579101     
  -340734987.62373340       -12523586.735509738        1495186672.1428075     
  -318843098.53691936       -6551926.8933294564        1506624409.6199064     
  -778938028.45817637       -9601359.4694076180        1472527374.8134172     
  -746340201.37019348       -6111830.9666234255        1471997833.8005204     
  -713832535.19848359       -2922838.8514136076        1475280644.2592628     
  -681415029.94304132       -34383.123763740063        1482375806.1896422     
  -649087685.60387087        2553536.2163134515        1493283319.5916629     
  -1147332486.8884807       -2567200.8748617172        1455444222.1091704     
  -1104930357.7798467        5691166.8649751544        1456865279.9279153     
  -1063535084.7203053        10593347.774503291        1460915255.6977403     
  -1023146667.7098539        12139341.853731692        1467594149.4186454     
  -983765106.74849343        10329149.102655828        1476901961.0906329     
  -1506634824.8757925        7194593.8525837064        1439598711.5519633     
  -1457809632.3766739        19207429.240418971        1441900890.5473909     
  -1410907991.0594692        24808427.355208814        1445648553.9733419     
  -1365929900.9241698        23997588.196981370        1450841701.8298163     
  -1322875361.9707856        16774911.765700758        1457480334.1168122     
   6968654.4523615120       -16987240.226275243        1516925231.1753554     
   275796.71573332138       -12528324.448008558        1479065740.9254465     
  -7798771.9711646028       -12675111.837307308        1446339721.3908055     
  -17255051.608324654       -17427602.394147355        1418747172.5714333     
  -28093042.195754372       -26785796.118551563        1396288094.4673312     
  -318843098.53691936       -6551926.8933294564        1506624409.6199064     
  -310346252.82543570       -3966865.3475660384        1467093265.4189680     
  -302259294.26488751       -2748094.3049207181        1434545465.6703446     
  -294582222.85527796       -2895613.7654036283        1408981010.3740420     
  -287315038.59660178       -4409423.7289990187        1390399899.5300555     
  -649087685.60387087        2553536.2163134515        1493283319.5916629     
  -620115782.90985048        4850349.5899044275        1453214315.8722491     
  -590581943.56743550        9020285.1248079240        1421978530.3422003     
  -560486167.57662630        15063342.821028143        1399575963.0015180     
  -529828454.93742275        22979522.678561419        1386006613.8502016     
  -983765106.74849343        10329149.102655828        1476901961.0906329     
  -929032793.53751040        13923320.364403844        1437428892.2852950     
  -872766719.87880588        22630026.451891720        1408638915.4063697     
  -814966885.77237761        36449267.365125775        1390532030.4538605     
  -755633291.21821952        55381043.104124188        1383108237.4277627     
  -1322875361.9707856        16774911.765700758        1457480334.1168122     
  -1237097284.7084208        23252046.975919783        1419736994.6581025     
  -1148813623.1989958        38081129.676336288        1394526620.8628545     
  -1058024377.4425206        61262159.866924167        1381849212.7310708     
  -964729547.43898642        92795137.547705889        1381704770.2627499     
  -28093042.195754372       -26785796.118551563        1396288094.4673312     
  -33705236.152789287       -39619135.404361442        1513267123.4233124     
  -41260697.984080777       -58930034.271026574        1625206235.2917676     
  -50759427.689624324       -84718492.718532264        1732105430.0726888     
  -62201425.269431278       -116984510.74691525        1833964707.7660892     
  -287315038.59660178       -4409423.7289990187        1390399899.5300555     
  -307652158.47519577       -17680039.362381309        1510422662.1037087     
  -329870939.17775297       -37222857.742310077        1624259385.5977447     
  -353971380.70427561       -63037878.868791424        1731910070.0121691     
  -379953483.05476046       -95125102.741811484        1833374715.3469706     
  -529828454.93742275        22979522.678561419        1386006613.8502016     
  -568165135.00067711        8289240.4186822176        1509144984.9335308     
  -608321868.83760595       -12467887.753444493        1624951194.9451556     
  -650298656.44820690       -39291861.837811321        1733425243.8850796     
  -694095497.83248270       -72182681.834428996        1834567131.7533033     
  -755633291.21821952        55381043.104124188        1383108237.4277627     
  -815244165.72923851        38288703.938818812        1509434091.9127758     
  -876613486.96364343        15334875.695562422        1627281663.3339977     
  -939741254.92142761       -13480441.625626266        1736650951.6914344     
  -1004627469.6025983       -48157248.024769485        1837541956.9850805     
  -964729547.43898642        92795137.547705889        1381704770.2627499     
  -1048889250.6608784        72318351.198031783        1511289983.0414476     
  -1134745793.5558629        46185432.604715586        1631250790.7642729     
  -1222299176.1239357        14396381.767770231        1741587193.4312217     
  -1311549398.3651016       -23048801.312816262        1842299191.0422964     
  -62201425.269431278       -116984510.74691525        1833964707.7660892     
  -73759659.974643424       -150767940.02169514        1633422710.6177900     
  -84352125.778418973       -181332139.62502316        1449369590.8331192     
  -93978822.680761158       -208677109.55690527        1281805348.4120817     
  -102639750.68167625       -232802849.81736159        1130729983.3546698     
  -379953483.05476046       -95125102.741811484        1833374715.3469706     
  -338012622.12376869       -107017223.06060615        1637249094.0682440     
  -294309958.89421993       -113036669.05088061        1460735905.3869705     
  -248845493.36611909       -113183440.71264501        1303835149.3031592     
  -201619225.53946540       -107457538.04590294        1166546825.8167849     
  -694095497.83248270       -72182681.834428996        1834567131.7533033     
  -589731097.74006927       -59506160.139676437        1643786591.9741182     
  -482808861.95198101       -38303519.459339410        1475742040.0262163     
  -373328790.46821290       -8574759.7934055626        1330433475.9095933     
  -261290883.28877616        29680118.858099282        1207860899.6242485     
  -1004627469.6025983       -48157248.024769485        1837541956.9850805     
  -828915086.82354283       -8234751.2588952482        1653035204.3354082     
  -649848834.95169330        42867309.149626434        1494387994.7508516     
  -467428713.98704624        105148933.20080870        1361600328.2314005     
  -281654723.92960185        178610120.89464366        1254672204.7770569     
  -1311549398.3651016       -23048801.312816262        1842299191.0422964     
  -1055564589.3741896        46797003.581733882        1664994931.1521237     
  -795429877.89336121        130475816.77600473        1516673769.5608828     
  -531145263.92261213        227987638.27001140        1397335706.2685769     
  -262710747.46194676        339332468.06373900        1306980741.2752006     
  -1756372366.5872812       -526911709.97618437        680100534.96590602     
  -1784288060.3803759       -500018943.91539431        806567986.88388622     
  -1809307495.5855687       -463471982.56160021        925976064.75067556     
  -1831430672.2028608       -417270825.91480255        1038324768.5662746     
  -1850657590.2322514       -361415473.97500050        1143614098.3306830     
  -2202105275.5007915       -660631582.65023744        696552896.92829633     
  -2238527918.5536351       -613831090.20914638        814026255.97161615     
  -2272939692.2704897       -560327699.98142576        927421091.24009633     
  -2305340596.6513553       -500121411.96707618        1036737402.7337370     
  -2335730631.6962318       -433212226.16609645        1141975190.4525380     
  -2685972496.7050776       -805791749.01152325        722160124.86131215     
  -2722385373.9423814       -736528515.66754460        829606436.90274048     
  -2757672771.0956097       -663513682.04331112        935955075.44568026     
  -2791834688.1647601       -586747248.13882315        1041206040.4901314     
  -2824871125.1498346       -506229213.95408005        1145359332.0360937     
  -3207974030.2001400       -962392209.06004190        756922218.76495337     
  -3235860426.5466156       -868111220.29058886        853308529.67725933     
  -3263506732.0609283       -773029928.74725640        951578017.36742723     
  -3290912946.7430758       -677148334.43004346        1051730681.8354577     
  -3318079070.5930591       -580466437.33894968        1153766523.0813506     
  -3768109875.9859786       -1130432962.7957935        800839178.63922000     
  -3778953076.3663383       -1008579204.0782800        885132534.29517210     
  -3790441575.1664457       -888876440.09326065        974289917.00533772     
  -3802575372.3863025       -771324670.84073663        1068311326.7697165     
  -3815354468.0259061       -655923896.32070601        1167196763.5883086     
  -1850657590.2322514       -361415473.97500050        1143614098.3306830     
  -1835640644.2543464       -295881712.24444234        1191120044.7300072     
  -1823912099.3334179       -241309287.37047452        1240922021.9736536     
  -1815471955.4694669       -197698199.35309768        1293020030.0616224     
  -1810320212.6624937       -165048448.19231331        1347414068.9939139     
  -2335730631.6962318       -433212226.16609645        1141975190.4525380     
  -2312447026.4605651       -352335335.21928400        1183258461.9618990     
  -2292581578.6520915       -282852302.36312050        1225063949.1599274     
  -2276134288.2708135       -224763127.59760529        1267391652.0466218     
  -2263105155.3167310       -178067810.92274106        1310241570.6219833     
  -2824871125.1498346       -506229213.95408005        1145359332.0360937     
  -2798388903.9582791       -411529606.78157455        1180268546.2235718     
  -2775454596.5641346       -328656378.93377626        1213926160.9440608     
  -2756068202.9674020       -257609530.41068530        1246332176.1975615     
  -2740229723.1680846       -198389061.21230459        1277486591.9840717     
  -3318079070.5930591       -580466437.33894968        1153766523.0813506     
  -3293466276.7474880       -473464526.93131363        1182150297.5150251     
  -3272531153.0695472       -378721517.08244359        1207508657.3260553     
  -3255273699.5592356       -296237407.79233980        1229841602.5144398     
  -3241693916.2165556       -226012199.06100309        1249149133.0801802     
  -3815354468.0259061       -655923896.32070601        1167196763.5883086     
  -3797679144.8281941       -538140095.66850150        1188903715.8362594     
  -3783811248.1683292       -433047716.80912161        1205811438.3059092     
  -3773750778.0463123       -340646759.74256527        1217919930.9972589     
  -3767497734.4621415       -260937224.46883595        1225229193.9103074     
  -1810320212.6624937       -165048448.19231331        1347414068.9939139     
  -1779137291.0657938       -131955777.34496713        1365936341.9689698     
  -1749522957.8299332       -104091734.36708653        1385417630.8980825     
  -1721477212.9549131       -81456319.258676708        1405857935.7812512     
  -1695000056.4407325       -64049532.019727230        1427257256.6184759     
  -2263105155.3167310       -178067810.92274106        1310241570.6219833     
  -2222884673.6204867       -133109360.50882351        1318666241.5534604     
  -2185769729.5851331       -98502702.297870159        1330345609.0151670     
  -2151760323.2106667       -74247836.289877892        1345279673.0071049     
  -2120856454.4970913       -60344762.484853983        1363468433.5292716     
  -2740229723.1680846       -198389061.21230459        1277486591.9840717     
  -2684412594.0117998       -139597105.02366579        1274020553.3552451     
  -2633237951.8164530       -96280105.371485829        1276104891.8328230     
  -2586705796.5820475       -68438062.255771160        1283739607.4168046     
  -2544816128.3085775       -56070975.676516533        1296924700.1071899     
  -3241693916.2165556       -226012199.06100309        1249149133.0801802     
  -3163721052.2397342       -151419010.88949442        1231999277.3743265     
  -3091927624.5238986       -97423943.587940693        1222695479.3510504     
  -3026313633.0690527       -64026997.156352639        1221237739.0103521     
  -2966879077.8751931       -51228171.594718337        1227626056.3522317     
  -3767497734.4621415       -260937224.46883595        1225229193.9103074     
  -3660810048.3042860       -168575078.10630977        1192602413.6107016     
  -3561838747.7074652       -101934216.94723320        1170117371.5698481     
  -3470583832.6716824       -61014640.991618633        1157774067.7877462     
  -3387045303.1969376       -45816350.239459634        1155572502.2643967     
  -1695000056.4407325       -64049532.019727230        1427257256.6184759     
  -1647067848.0129480       -43435498.763151109        1420284416.9608498     
  -1599696239.9428639       -24690133.365577638        1420017046.2305553     
  -1552885232.2304785       -7813435.8269976377        1426455144.4275925     
  -1506634824.8757925        7194593.8525837064        1439598711.5519633     
  -2120856454.4970913       -60344762.484853983        1363468433.5292716     
  -2057313598.4707804       -42054482.485100031        1356132095.7965505     
  -1994228604.7829833       -25290410.280393362        1354634730.3484771     
  -1931601473.4336982       -10052545.870726347        1358976337.1850500     
  -1869432204.4229250        3659110.7439005375        1369156916.3062723     
  -2544816128.3085775       -56070975.676516533        1296924700.1071899     
  -2468138329.3771257       -40847160.341600895        1289344725.3217583     
  -2391815654.7650008       -26807092.737776637        1286737226.1782899     
  -2315848104.4722018       -13950772.865038753        1289102202.6767845     
  -2240235678.4987288       -2278200.7233864069        1296439654.8172402     
  -2966879077.8751931       -51228171.594718337        1227626056.3522317     
  -2879542040.7319846       -39813532.332656980        1219922305.5364745     
  -2792457389.8889170       -29240180.737730503        1216324533.7199953     
  -2705625125.3459883       -19508116.809934855        1216832740.9027934     
  -2619045247.1031981       -10617340.549271703        1221446927.0848691     
  -3387045303.1969376       -45816350.239459634        1155572502.2643967     
  -3291524732.5353584       -38953598.458267570        1147864836.4406970     
  -3196153810.1547322       -32589674.280255437        1143396652.9735916     
  -3100932536.0550590       -26724577.705417037        1142167951.8630772     
  -3005860910.2363396       -21358308.733758807        1144178733.1091583     
  -1506634824.8757925        7194593.8525837064        1439598711.5519633     
  -1457809632.3766739        19207429.240418971        1441900890.5473909     
  -1410907991.0594692        24808427.355208814        1445648553.9733419     
  -1365929900.9241698        23997588.196981370        1450841701.8298163     
  -1322875361.9707856        16774911.765700758        1457480334.1168122     
  -1869432204.4229250        3659110.7439005375        1369156916.3062723     
  -1816079119.3964291        11734573.943259358        1367401787.2290094     
  -1764240482.9456944        14761875.223415494        1368592792.3242383     
  -1713916295.0707209        12741014.584369659        1372729931.5919595     
  -1665106555.7715068        5671992.0261219740        1379813205.0321736     
  -2240235678.4987288       -2278200.7233864069        1296439654.8172402     
  -2178067130.2535129        3146161.4949008226        1291104504.0411286     
  -2117003927.9779096        4886037.1478171349        1290216137.1794789     
  -2057046071.6719136        2941426.2353706360        1293774554.2322912     
  -1998193561.3355312       -2687671.2424494028        1301779755.1995666     
  -2619045247.1031981       -10617340.549271703        1221446927.0848691     
  -2543773664.9479218       -6557808.1046540737        1213009040.9837501     
  -2469198326.1561065       -4819086.8715732098        1210518588.5390637     
  -2395319230.7277503       -5401176.8500225544        1213975569.7508078     
  -2322136378.6628537       -8304078.0400078297        1223379984.6189859     
  -3005860910.2363396       -21358308.733758807        1144178733.1091583     
  -2913198723.4796591       -17377334.855408549        1133115398.0568745     
  -2820823677.4802904       -14353496.834759712        1129500146.4029932     
  -2728735772.2382293       -12286794.671807647        1133332978.1475129     
  -2636935007.7534800       -11177228.366560340        1144613893.2904334     
  -1322875361.9707856        16774911.765700758        1457480334.1168122     
  -1237097284.7084208        23252046.975919783        1419736994.6581025     
  -1148813623.1989958        38081129.676336288        1394526620.8628545     
  -1058024377.4425206        61262159.866924167        1381849212.7310708     
  -964729547.43898642        92795137.547705889        1381704770.2627499     
  -1665106555.7715068        5671992.0261219740        1379813205.0321736     
  -1548098341.2466669        19787037.278567135        1346491342.4367247     
  -1429097969.1946311        40542607.621663094        1322897102.0622778     
  -1308105439.6154046        67938703.055394113        1309030483.9088361     
  -1185120752.5089858        101975323.57977086        1304891487.9763985     
  -1998193561.3355312       -2687671.2424494028        1301779755.1995666     
  -1857970476.5266705        16660703.958684802        1272280371.6275353     
  -1716268660.9104755        40938181.850930572        1249703266.8340526     
  -1573088114.4869514        70144762.434268594        1234048440.8191123     
  -1428428837.2561004        104280445.70870805        1225315893.5827174     
  -2322136378.6628537       -8304078.0400078297        1223379984.6189859     
  -2166713690.5484271        13873047.016277671        1197104082.2305379     
  -2010325698.3465269        39267852.364137650        1174945115.1781750     
  -1852972402.0571625        67880338.003545523        1156903083.4618986     
  -1694653801.6803315        99710503.934511781        1142977987.0817094     
  -2636935007.7534800       -11177228.366560340        1144613893.2904334     
  -2474327983.3119388        11424066.451345682        1120962474.2457266     
  -2311269081.5027905        35531619.161275148        1098622647.0946486     
  -2147758302.3260369        61145429.763223529        1077594411.8371937     
  -1983795645.7816815        88265498.257173300        1057877768.4733697     
  -964729547.43898642        92795137.547705889        1381704770.2627499     
  -1048889250.6608784        72318351.198031783        1511289983.0414476     
  -1134745793.5558629        46185432.604715586        1631250790.7642729     
  -1222299176.1239357        14396381.767770231        1741587193.4312217     
  -1311549398.3651016       -23048801.312816262        1842299191.0422964     
  -1185120752.5089858        101975323.57977086        1304891487.9763985     
  -1296443272.1390309        64767881.559359372        1425045390.4940250     
  -1410385576.0152998        18827825.384870946        1537790144.4468067     
  -1526947664.1377878       -35844844.943682611        1643125749.8347433     
  -1646129536.5064952       -99250129.426298380        1741052206.6578424     
  -1428428837.2561004        104280445.70870805        1225315893.5827174     
  -1560584869.0342126        52241139.295571327        1334961717.1706207     
  -1696283629.6316748       -11607263.182065248        1439413648.6847134     
  -1835525119.0484848       -87264761.724195659        1538671688.1249938     
  -1978309337.2846427       -174731356.33081156        1632735835.4914622     
  -1694653801.6803315        99710503.934511781        1142977987.0817094     
  -1841314041.3464200        34738124.406672478        1241038963.0712397     
  -1992439954.4049821       -45119833.096072793        1336121303.4779890     
  -2148031540.8560195       -139863368.57374334        1428225008.3019605     
  -2308088800.6995401       -249492482.02634728        1517350077.5431552     
  -1983795645.7816815        88265498.257173300        1057877768.4733697     
  -2138630789.0756524        12258836.892677784        1143277128.1958764     
  -2298854550.3352251       -81709884.357168436        1227913108.8266385     
  -2464466929.5604067       -193640665.49237359        1311785710.3656545     
  -2635467926.7511849       -323533506.51290053        1394894932.8129213     
  -1311549398.3651016       -23048801.312816262        1842299191.0422964     
  -1055564589.3741896        46797003.581733882        1664994931.1521237     
  -795429877.89336121        130475816.77600473        1516673769.5608828     
  -531145263.92261213        227987638.27001140        1397335706.2685769     
  -262710747.46194676        339332468.06373900        1306980741.2752006     
  -1646129536.5064952       -99250129.426298380        1741052206.6578424     
  -1322263278.3176463       -27292172.380031168        1566360337.3653038     
  -994162640.91887081        58780382.032652795        1414414449.4295430     
  -661827624.31016397        158967533.81177706        1285214542.8505471     
  -325258228.49153203        273269282.95731235        1178760617.6283383     
  -1978309337.2846427       -174731356.33081156        1632735835.4914622     
  -1604381964.0183041       -106007347.36895353        1460754912.9699001     
  -1226135734.8220310       -22887151.973987341        1305282854.8629549     
  -843570649.69582188        74629229.854107618        1166319661.1706345     
  -456686708.63967669        186541798.11532459        1043865331.8929203     
  -2308088800.6995401       -249492482.02634728        1517350077.5431552     
  -1901920646.4761693       -189348521.38504624        1348178657.9659147     
  -1491349159.6028490       -114526785.24392498        1189278985.8611362     
  -1076374340.0795872       -25027273.602992475        1040651061.2288090     
  -656996187.90637946        79150013.537766069        902294884.06895590     
  -2635467926.7511849       -323533506.51290053        1394894932.8129213     
  -2214879325.6912284       -277315694.42828047        1228631572.3533478     
  -1789802915.2613254       -216138517.77717185        1066402842.4240745     
  -1360238695.4614611       -140001976.55951965        908208743.02510309     
  -926186666.29164314       -48906070.775360793        754049274.15643704     
  -3768109875.9859786       -1130432962.7957935        800839178.63922000     
  -3778953076.3663383       -1008579204.0782800        885132534.29517210     
  -3790441575.1664457       -888876440.09326065        974289917.00533772     
  -3802575372.3863025       -771324670.84073663        1068311326.7697165     
  -3815354468.0259061       -655923896.32070601        1167196763.5883086     
  -4339352733.2259417       -1301805819.9677825        859037067.83192337     
  -4334969967.9155569       -1125678419.7671971        942590089.59556794     
  -4331728542.2269392       -953355484.97250259        1020466679.1094784     
  -4329628456.1600885       -784837015.58369863        1092666836.3736548     
  -4328669709.7150059       -620123011.60078526        1159190561.3880970     
  -4894675301.0833797       -1468402590.3250141        936641949.69087398     
  -4905182168.0935297       -1247036228.0447412        1018875922.8265226     
  -4917326415.9274654       -1031127801.8437541        1084893004.4084895     
  -4931108044.5851860       -820677311.72205400        1134693194.4367747     
  -4946527054.0666943       -615684757.67964101        1168276492.9113784     
  -5434077579.5582952       -1630223273.8674886        1033653824.2160721     
  -5489589676.9002552       -1372652628.9109104        1113990033.9880364     
  -5547235196.2680244       -1122193390.7070155        1167568892.9023709     
  -5607014137.6615973       -878845559.25580359        1194390400.9590766     
  -5668926501.0809736       -642609134.55727363        1194454558.1581526     
  -5957559568.6506834       -1787267870.5952051        1150072691.4075179     
  -6088192494.3357391       -1502527622.3657067        1227932423.0801086     
  -6221454883.2486153       -1226552251.5622864        1268494344.5911224     
  -6357346735.3893156       -959341758.18494499        1271758455.9405601     
  -6495868050.7578411       -700896142.23368263        1237724757.1284208     
  -3815354468.0259061       -655923896.32070601        1167196763.5883086     
  -3797679144.8281941       -538140095.66850150        1188903715.8362594     
  -3783811248.1683292       -433047716.80912161        1205811438.3059092     
  -3773750778.0463123       -340646759.74256527        1217919930.9972589     
  -3767497734.4621415       -260937224.46883595        1225229193.9103074     
  -4328669709.7150059       -620123011.60078526        1159190561.3880970     
  -4297889894.1172562       -464318011.93394864        1141337485.3584871     
  -4277741480.6967769       -343951019.52468312        1129589895.0269074     
  -4268224469.4535713       -259022034.37299252        1123947790.3933585     
  -4269338860.3876371       -209531056.47887635        1124411171.4578388     
  -4946527054.0666943       -615684757.67964101        1168276492.9113784     
  -4871486416.1365328       -412511660.01845837        1102902083.6915457     
  -4813901156.0230656       -267523155.07959819        1054537875.6460747     
  -4773771273.7262955       -180719242.86306024        1023183868.7749647     
  -4751096769.2462244       -152099923.36884499        1008840063.0782160     
  -5668926501.0809736       -642609134.55727363        1194454558.1581526     
  -5518468710.8860245       -382721039.92203403        1073597510.8354357     
  -5392290274.1471968       -203764123.47386551        980655380.16341078     
  -5290391190.8644905       -105738385.21276784        915628166.14207804     
  -5212771461.0379047       -88643825.138741970        878515868.77143669     
  -6495868050.7578411       -700896142.23368263        1237724757.1284208     
  -6238836778.3657322       -374946151.64467335        1053423766.7901560     
  -6012908835.0691671       -152673924.70748401        907942408.57891572     
  -5818084220.8681488       -34079461.422114372        801280682.49469697     
  -5654362935.7626781       -19162761.788565874        733438588.53750253     
  -3767497734.4621415       -260937224.46883595        1225229193.9103074     
  -3660810048.3042860       -168575078.10630977        1192602413.6107016     
  -3561838747.7074652       -101934216.94723320        1170117371.5698481     
  -3470583832.6716824       -61014640.991618633        1157774067.7877462     
  -3387045303.1969376       -45816350.239459634        1155572502.2643967     
  -4269338860.3876371       -209531056.47887635        1124411171.4578388     
  -4147409323.7670894       -145816992.19461107        1090813044.9284990     
  -4029808885.1074476       -96533254.446689367        1065408776.3605369     
  -3916537544.4087048       -61679843.235109568        1048198365.7539527     
  -3807595301.6708708       -41256758.559880257        1039181813.1087477     
  -4751096769.2462244       -152099923.36884499        1008840063.0782160     
  -4619490754.4411964       -118703552.84630203        978222425.85262978     
  -4488826549.9969397       -88446550.192994833        953850766.29104781     
  -4359104155.9134521       -61328915.408920765        935725084.39347100     
  -4230323572.1907358       -37350648.494081259        923845380.15989780     
  -5212771461.0379047       -88643825.138741970        878515868.77143669     
  -5077054340.3266087       -87234760.061385632        854830556.38309264     
  -4938891742.3759470       -77674104.186154842        835443341.36138165     
  -4798283667.1859226       -59961857.513045549        820354223.70630050     
  -4655230114.7565393       -34098020.042063236        809563203.41784990     
  -5654362935.7626781       -19162761.788565874        733438588.53750253     
  -5520100081.4233208       -51410613.839860439        720637436.51989126     
  -5380004462.2444687       -64215916.426171780        710186501.57153702     
  -5234076078.2261171       -57578669.547489882        702085783.69244039     
  -5082314929.3682728       -31498873.203825474        696335282.88259995     
  -3387045303.1969376       -45816350.239459634        1155572502.2643967     
  -3291524732.5353584       -38953598.458267570        1147864836.4406970     
  -3196153810.1547322       -32589674.280255437        1143396652.9735916     
  -3100932536.0550590       -26724577.705417037        1142167951.8630772     
  -3005860910.2363396       -21358308.733758807        1144178733.1091583     
  -3807595301.6708708       -41256758.559880257        1039181813.1087477     
  -3701508840.5574355       -29740391.794933319        1030340983.0002083     
  -3596400962.8608732       -21485969.752895832        1025314367.4248669     
  -3492271668.5811853       -16493492.433774710        1024101966.3827240     
  -3389120957.7183738       -14762959.837566853        1026703779.8737776     
  -4230323572.1907358       -37350648.494081259        923845380.15989780     
  -4112029128.6922894       -20688039.165430784        912904294.77461123     
  -3995542203.7466364       -10050491.679428339        906352156.09912705     
  -3880862797.3537798       -5438006.0360727310        904188964.13344526     
  -3767990909.5137162       -6850582.2353656292        906414718.87756801     
  -4655230114.7565393       -34098020.042063236        809563203.41784990     
  -4523085596.9399204       -11796540.569760799        795554771.76390660     
  -4393577532.8120203        1716759.9401543140        786510018.99637282     
  -4266705922.3728323        6441881.4876906872        782428945.11524749     
  -4142470765.6223593        2378824.0728425980        783311550.12052846     
  -5082314929.3682728       -31498873.203825474        696335282.88259995     
  -4934678245.3003302       -3065896.0079274178        678292413.96809447     
  -4790506950.0570211        13815785.105853558        665787956.11660302     
  -4649801043.6383486        19146170.137519836        658821909.32812595     
  -4512560526.0443134        12925259.087061167        657394273.60265911     
  -3005860910.2363396       -21358308.733758807        1144178733.1091583     
  -2913198723.4796591       -17377334.855408549        1133115398.0568745     
  -2820823677.4802904       -14353496.834759712        1129500146.4029932     
  -2728735772.2382293       -12286794.671807647        1133332978.1475129     
  -2636935007.7534800       -11177228.366560340        1144613893.2904334     
  -3389120957.7183738       -14762959.837566853        1026703779.8737776     
  -3279280990.4523416       -12456109.180403471        1016382066.7016572     
  -3169405599.4573517       -10031179.426719666        1012212283.5739876     
  -3059494784.7334056       -7488170.5765155554        1014194430.4907691     
  -2949548546.2805066       -4827082.6297954321        1022328507.4520038     
  -3767990909.5137162       -6850582.2353656292        906414718.87756801     
  -3644676457.0353231       -7328843.3884801865        897210952.81958342     
  -3521004016.3417106       -6613810.4908623695        892862963.45210135     
  -3396973587.4328814       -4705483.5425117016        893370750.77512133     
  -3272585170.3088274       -1603862.5434253216        898734314.78864527     
  -4142470765.6223593        2378824.0728425980        783311550.12052846     
  -4009385123.2286124       -1995537.4796564579        775602056.41065729     
  -3875618928.1333761       -4101390.0271987915        771452186.03733706     
  -3741172180.3366580       -3938733.5698018074        770861939.00057185     
  -3606044879.8384566       -1507568.1074476242        773831315.30036175     
  -4512560526.0443134        12925259.087061167        657394273.60265911     
  -4373406989.0322037        3543808.5460832119        651555377.47487462     
  -4233250334.8323445       -2493918.0357291698        647979951.32969642     
  -4092090563.4447346       -5187920.6583757401        646667995.16711903     
  -3949927674.8693776       -4538199.3218545914        647619508.98714781     
  -2636935007.7534800       -11177228.366560340        1144613893.2904334     
  -2474327983.3119388        11424066.451345682        1120962474.2457266     
  -2311269081.5027905        35531619.161275148        1098622647.0946486     
  -2147758302.3260369        61145429.763223529        1077594411.8371937     
  -1983795645.7816815        88265498.257173300        1057877768.4733697     
  -2949548546.2805066       -4827082.6297954321        1022328507.4520038     
  -2779418726.9783773        16967569.275124431        997361608.43047118     
  -2608613239.2930503        41014449.124032021        977056031.15722084     
  -2437132083.2245264        67313556.916933298        961411775.63225436     
  -2264975258.7728076        95864892.653814554        950428841.85557115     
  -3272585170.3088274       -1603862.5434253216        898734314.78864527     
  -3085361899.4185276        22255343.466778636        872713025.30847704     
  -2897239169.1294374        49112747.472946882        854702787.43124843     
  -2708216979.4415598        78968349.475076437        844703601.15695584     
  -2518295330.3548923        111822149.47317004        842715466.48560262     
  -3606044879.8384566       -1507568.1074476242        773831315.30036175     
  -3392157500.6323957        27287389.026316643        747016724.87974775     
  -3177146871.0119486        59826514.208024740        731562915.91672862     
  -2961012990.9771228        96109807.437665701        727469888.41130042     
  -2743755860.5279231        136137268.71523416        734737642.36347222     
  -3949927674.8693776       -4538199.3218545914        647619508.98714781     
  -3699805530.6199675        32063705.953752995        620272707.14427888     
  -3448336344.9405837        73155749.329268932        607636416.61366141     
  -3195520117.8312302        118737930.80468857        609710637.39529097     
  -2941356849.2919021        168810250.38002372        626495369.48917127     
  -1983795645.7816815        88265498.257173300        1057877768.4733697     
  -2138630789.0756524        12258836.892677784        1143277128.1958764     
  -2298854550.3352251       -81709884.357168436        1227913108.8266385     
  -2464466929.5604067       -193640665.49237359        1311785710.3656545     
  -2635467926.7511849       -323533506.51290053        1394894932.8129213     
  -2264975258.7728076        95864892.653814554        950428841.85557115     
  -2429168516.0419464        16772533.964327455        1036969891.0667870     
  -2598480520.7558880       -79382316.207858205        1117787854.1561596     
  -2772911272.9146447       -192599657.86275220        1192882731.1236861     
  -2952460772.5182171       -322879491.00036168        1262254521.9693711     
  -2518295330.3548923        111822149.47317004        842715466.48560262     
  -2706017293.1137524        25392916.004334807        930713054.12645435     
  -2898588132.7966352       -77199240.544565916        1008027848.6153587     
  -3096007849.4035363       -195954320.17353678        1074659849.9523232     
  -3298276442.9344587       -330872322.88258255        1130609058.1373439     
  -2743755860.5279231        136137268.71523416        734737642.36347222     
  -2969177120.2910814        38119983.012676120        824506617.37487590     
  -3199177386.4574637       -75160657.367308378        898633092.20423961     
  -3433756659.0270786       -203704652.42472506        957117066.85156381     
  -3672914937.9999218       -347512002.15957487        999958541.31684637     
  -2941356849.2919021        168810250.38002372        626495369.48917127     
  -3218647997.5739212        54953734.989372849        718350580.81205487     
  -3500248281.7383728       -73266566.676062346        789603584.92280078     
  -3786157701.7852607       -215850654.61628878        840254381.82140744     
  -4076376257.7145972       -372798528.83132374        870302971.50787556     
  -2635467926.7511849       -323533506.51290053        1394894932.8129213     
  -2214879325.6912284       -277315694.42828047        1228631572.3533478     
  -1789802915.2613254       -216138517.77717185        1066402842.4240745     
  -1360238695.4614611       -140001976.55951965        908208743.02510309     
  -926186666.29164314       -48906070.775360793        754049274.15643704     
  -2952460772.5182171       -322879491.00036168        1262254521.9693711     
  -2502026137.7518091       -264366825.25054860        1097454996.4621615     
  -2046606431.2044864       -189237253.56434292        948742053.96841526     
  -1586201652.8762434       -97490775.941745520        816115694.48812759     
  -1120811802.7670858        10872607.617255986        699575918.02130437     
  -3298276442.9344587       -330872322.88258255        1130609058.1373439     
  -2783561624.5097132       -249734558.48200202        967853507.06195879     
  -2263364471.8930840       -150322346.77514565        833236491.48319352     
  -1737684985.0845780       -32635687.762030721        726758011.40105104     
  -1206523164.0841839        103325418.55736935        648418066.81553280     
  -3672914937.9999218       -347512002.15957487        999958541.31684637     
  -3059485785.9649420       -233418894.12265527        839827104.15273845     
  -2440077037.3271184       -99393797.409592628        719886154.96841562     
  -1814688692.0864418        54563287.979635596        640135693.76387548     
  -1183320750.2429361        228452362.04498321        600575720.53912282     
  -4076376257.7145972       -372798528.83132374        870302971.50787556     
  -3329798622.1174946       -215419832.17250586        713375787.73450351     
  -2576744127.5065808       -36451605.467651248        608691044.42407775     
  -1817212773.8818717        164106151.28320432        556248741.57659757     
  -1051204561.2433436        386253438.08011383        556048879.19206750     
  -5957559568.6506834       -1787267870.5952051        1150072691.4075179     
  -6088192494.3357391       -1502527622.3657067        1227932423.0801086     
  -6221454883.2486153       -1226552251.5622864        1268494344.5911224     
  -6357346735.3893156       -959341758.18494499        1271758455.9405601     
  -6495868050.7578411       -700896142.23368263        1237724757.1284208     
  -6810383683.9245796       -2043115105.1773739        1353647139.2653115     
  -6828315271.5547876       -1395638835.1366081        1202723581.8407640     
  -6897552290.4158649       -919180669.19873929        1092082858.8173826     
  -7018094740.5078115       -613740607.36376739        1021724970.1951667     
  -7189942621.8306265       -479318649.63169265        991649915.97411633     
  -8337812340.9440145       -2501343702.2832046        1712125755.7895534     
  -8021383606.0543995       -1424633715.0916784        1275630279.9309816     
  -7804936270.3986988       -681195058.67986679        956998283.03631806     
  -7688470333.9769106       -271027733.04777002        756229765.10556281     
  -7671985796.7890396       -194131738.19539118        673324726.13871610     
  -10539845539.708988       -3161953661.9126964        2225508540.9802437     
  -9667397497.8345680       -1589512262.2309153        1446652517.3507609     
  -8943606823.1971111       -512595420.00566864        863240617.24792874     
  -8368473515.7966137        68796864.763044357        475272840.67174757     
  -7941997575.6330709        154664592.07522726        282749187.62221760     
  -13416483280.219501       -4024944984.0658507        2893795494.8373828     
  -11766356946.895300       -1890274476.5543215        1715790294.1001024     
  -10313563948.811106       -413381753.17614412        810809861.45221579     
  -9058104285.9669151        405733186.06868029        178854196.89372140     
  -7999977958.3627338        567070341.18015337       -180076699.57537878     
  -6495868050.7578411       -700896142.23368263        1237724757.1284208     
  -6238836778.3657322       -374946151.64467335        1053423766.7901560     
  -6012908835.0691671       -152673924.70748401        907942408.57891572     
  -5818084220.8681488       -34079461.422114372        801280682.49469697     
  -5654362935.7626781       -19162761.788565874        733438588.53750253     
  -7189942621.8306265       -479318649.63169265        991649915.97411633     
  -6900242772.1794424       -303850618.38718915        846984426.06728232     
  -6623469301.7016335       -171470517.72060966        723355584.85067594     
  -6359622210.3972015       -82178347.631950140        620763392.32429898     
  -6108701498.2661428       -35974108.121213198        539207848.48815131     
  -7671985796.7890396       -194131738.19539118        673324726.13871610     
  -7400425893.9839020       -184388223.52693319        589501178.23917484     
  -7123615420.4299765       -157142806.36249828        508931295.59306836     
  -6841554376.1272564       -112395486.70208526        431615078.20039546     
  -6554242761.0757437       -50146264.545697927        357552526.06115913     
  -7941997575.6330709        154664592.07522726        282749187.62221760     
  -7739386143.7791157       -16558967.063898563        280974023.30583370     
  -7513347191.2541962       -109690790.63314915        264669540.80609104     
  -7263880718.0583172       -124730878.63252640        233835740.12299028     
  -6990986724.1914711       -61679231.062021255        188472621.25652745     
  -7999977958.3627338        567070341.18015337       -180076699.57537878     
  -7917123521.5650797        199637151.00190783       -78597038.732737809     
  -7792664614.1742954       -29114470.532565594       -9429679.5102536809     
  -7626601236.1903801       -119184523.42326069        27425378.092079498     
  -7418933387.6133318       -70573007.670186996        31968134.074257206     
  -5654362935.7626781       -19162761.788565874        733438588.53750253     
  -5520100081.4233208       -51410613.839860439        720637436.51989126     
  -5380004462.2444687       -64215916.426171780        710186501.57153702     
  -5234076078.2261171       -57578669.547489882        702085783.69244039     
  -5082314929.3682728       -31498873.203825474        696335282.88259995     
  -6108701498.2661428       -35974108.121213198        539207848.48815131     
  -5958987518.8148088       -37839482.448198318        533704825.13275266     
  -5808022496.9156809       -35534715.282552004        530725724.55016285     
  -5655806432.5687666       -29059806.624273777        530270546.74038333     
  -5502339325.7740602       -18414756.473366022        532339291.70341283     
  -6554242761.0757437       -50146264.545697927        357552526.06115913     
  -6388581354.5022774       -21480270.545330286        354002288.57764900     
  -6226250627.8727283       -3916543.0246818066        353149679.57050240     
  -6067250581.1870995        2544918.0162353516        354994699.03971791     
  -5911581214.4453850       -2095887.4225678444        359537346.98529124     
  -6990986724.1914711       -61679231.062021255        188472621.25652745     
  -6808881588.4857283       -2332978.1312522888        181529826.85458297     
  -6634688855.1156101        30638600.347433567        177458366.63255286     
  -6468408524.0811129        37235504.374045849        176258240.59043518     
  -6310040595.3822432        17457733.948573589        177929448.72823271     
  -7418933387.6133318       -70573007.670186996        31968134.074257206     
  -7219888220.7651615        19602394.794022560        16287439.963553602     
  -7033337178.6443233        68130714.833801270        3651785.7363122068     
  -6859280261.2508144        75011952.449143410       -5938828.6074583726     
  -6697717468.5846367        40246107.640047550       -12484403.067765702     
  -5082314929.3682728       -31498873.203825474        696335282.88259995     
  -4934678245.3003302       -3065896.0079274178        678292413.96809447     
  -4790506950.0570211        13815785.105853558        665787956.11660302     
  -4649801043.6383486        19146170.137519836        658821909.32812595     
  -4512560526.0443134        12925259.087061167        657394273.60265911     
  -5502339325.7740602       -18414756.473366022        532339291.70341283     
  -5344968957.1077900       -6435899.2465808392        515485541.35871130     
  -5188742271.4292593        1730681.3543913364        504377934.25027466     
  -5033659268.7384748        6084985.3295509815        499016470.37810469     
  -4879719949.0354347        6627012.6789031029        499401149.74220276     
  -5911581214.4453850       -2095887.4225678444        359537346.98529124     
  -5743883640.6857738       -6393094.0163946152        346581372.02009755     
  -5575008044.0770159       -6763557.7797312737        339579272.46442455     
  -5404954424.6191072       -3207278.7125694752        338531048.31827116     
  -5233722782.3120518        4275743.1850895882        343436699.58164030     
  -6310040595.3822432        17457733.948573589        177929448.72823271     
  -6131422296.0342836       -2937480.3173689842        171579905.95225620     
  -5949304268.0002832       -11666932.296504021        171391970.75905430     
  -5763686511.2802410       -8730621.9888393879        177365643.14862454     
  -5574569025.8741579        5871450.6056358814        189500923.12096906     
  -6697717468.5846367        40246107.640047550       -12484403.067765702     
  -6507584923.1533194        3930941.8505024910       -9518856.8448158521     
  -6311630943.1990671       -12979442.195935249       -183970.86583619672     
  -6109855528.7218828       -10485044.499265432        15520254.869164299     
  -5902258679.7217627        11414134.940532207        37593820.360198446     
  -4512560526.0443134        12925259.087061167        657394273.60265911     
  -4373406989.0322037        3543808.5460832119        651555377.47487462     
  -4233250334.8323445       -2493918.0357291698        647979951.32969642     
  -4092090563.4447346       -5187920.6583757401        646667995.16711903     
  -3949927674.8693776       -4538199.3218545914        647619508.98714781     
  -4879719949.0354347        6627012.6789031029        499401149.74220276     
  -4732647976.3622751        2688322.2724411488        498642464.73958880     
  -4586028263.7652225       -2757901.7210402489        500455392.53952277     
  -4439860811.2442789       -9711659.3015615940        504839933.14200163     
  -4294145618.7994475       -18172950.469103575        511796086.54702622     
  -5233722782.3120518        4275743.1850895882        343436699.58164030     
  -5077851965.9208632        6043935.3302440643        346060285.56302875     
  -4923888786.8696404        1453336.3421871662        351563627.16690999     
  -4771833245.1583881       -9496053.7791063786        359946724.39327693     
  -4621685340.7871027       -26804235.033619642        371209577.24212801     
  -5574569025.8741579        5871450.6056358814        189500923.12096906     
  -5409018957.7079668        13610647.719501972        193808839.94519708     
  -5246831904.1455994        10139796.153950214        201304655.21185380     
  -5088007865.1870556       -4541104.0910189152        211988368.92093921     
  -4932546840.8323450       -30432053.015416384        225859981.07245055     
  -5902258679.7217627        11414134.940532207        37593820.360198446     
  -5726148951.7235966        25388459.440180540        41888127.886090577     
  -5554857615.5931015        23301477.714248419        49678476.674355447     
  -5388384671.3302994        5153189.7626810074        60964866.724992491     
  -5226730118.9351730       -29056404.414482117        75747298.037992522     
  -3949927674.8693776       -4538199.3218545914        647619508.98714781     
  -3699805530.6199675        32063705.953752995        620272707.14427888     
  -3448336344.9405837        73155749.329268932        607636416.61366141     
  -3195520117.8312302        118737930.80468857        609710637.39529097     
  -2941356849.2919021        168810250.38002372        626495369.48917127     
  -4294145618.7994475       -18172950.469103575        511796086.54702622     
  -4016292709.3704767        16947645.817056894        488977947.55345100     
  -3735389360.2883906        62236374.280278206        473122495.61408156     
  -3451435571.5531840        117693234.92055774        464229730.72892183     
  -3164431343.1648622        183318227.73789465        462299652.89796621     
  -4621685340.7871027       -26804235.033619642        371209577.24212801     
  -4338238306.9158401        194060.04190802574        354907399.02485061     
  -4050037435.1683140        43038481.371649265        337820083.60373467     
  -3757082725.5445194        101729028.95560598        319947630.97878271     
  -3459374178.0444674        176265702.79377389        301290041.14999676     
  -4932546840.8323450       -30432053.015416384        225859981.07245055     
  -4665642323.2560549       -18197051.371706009        218061061.55846992     
  -4392280569.5803528        15562070.603380680        201729180.58261243     
  -4112461579.8052392        70845312.909838676        176864338.14487404     
  -3826185353.9307165        147652675.54766226        143466534.24526119     
  -5226730118.9351730       -29056404.414482117        75747298.037992522     
  -4998504758.3911247       -38225688.423769951        78438935.154317990     
  -4762118763.5245037       -20192858.024506569        64849786.550720975     
  -4517572134.3353376        25042086.783258438        34979852.227206826     
  -4264864870.8236084        97479145.999558210       -11170867.816229651     
  -2941356849.2919021        168810250.38002372        626495369.48917127     
  -3218647997.5739212        54953734.989372849        718350580.81205487     
  -3500248281.7383728       -73266566.676062346        789603584.92280078     
  -3786157701.7852607       -215850654.61628878        840254381.82140744     
  -4076376257.7145972       -372798528.83132374        870302971.50787556     
  -3164431343.1648622        183318227.73789465        462299652.89796621     
  -3471670251.0137181        65852739.864509106        532355217.25866848     
  -3785135998.3967280       -72368879.789400578        600809090.50688183     
  -4104828585.3138933       -231346631.22381568        667661272.64260662     
  -4430748011.7652130       -411080514.43875933        732911763.66584098     
  -3459374178.0444674        176265702.79377389        301290041.14999676     
  -3742273656.6040249        71477399.094481707        347308637.62151104     
  -4033317678.3494463       -60459381.891034126        410726059.08019501     
  -4332506243.2807426       -219544640.16281056        491542305.52602881     
  -4639839351.3979216       -405778375.72083616        589757376.95903206     
  -3826185353.9307165        147652675.54766226        143466534.24526119     
  -4030458214.3448315        71827712.679310083        163210841.90059328     
  -4244793321.5965261       -37538072.980989695        219354490.64273724     
  -4469190675.6858206       -180444681.43328238        311897480.47168171     
  -4703650276.6127024       -356892112.67752814        440839811.38744003     
  -4264864870.8236084        97479145.999558210       -11170867.816229651     
  -4336223924.2361336        66903680.618996143       -19938169.904094327     
  -4419562928.1379709       -3604953.0592482090        26694385.194504254     
  -4514881882.5291090       -114046755.03517938        128726797.47955328     
  -4622180787.4095678       -264421725.30883169        286159066.95107067     
  -4076376257.7145972       -372798528.83132374        870302971.50787556     
  -3329798622.1174946       -215419832.17250586        713375787.73450351     
  -2576744127.5065808       -36451605.467651248        608691044.42407775     
  -1817212773.8818717        164106151.28320432        556248741.57659757     
  -1051204561.2433436        386253438.08011383        556048879.19206750     
  -4430748011.7652130       -411080514.43875933        732911763.66584098     
  -3599883534.5021720       -241129889.23244107        613987160.06799901     
  -2761045401.8981919       -44600412.889665246        504754933.77774185     
  -1914233613.9532692        178507914.58957040        405215084.79506499     
  -1059448170.6674117        428195093.20528299        315367613.11998445     
  -4639839351.3979216       -405778375.72083616        589757376.95903206     
  -3846259641.4842420       -259727304.67159700        510581615.91836685     
  -3043209479.9024982       -82108061.395484686        398548169.02992845     
  -2230688866.6526928        127079354.10753191        253657036.29371661     
  -1408697801.7348030        367834941.83745521        75908217.709735453     
  -4703650276.6127024       -356892112.67752814        440839811.38744003     
  -4068926943.0636969       -271212078.48995733        403159155.28560579     
  -3423236361.5195174       -148974550.98510623        290070750.18063432     
  -2766578531.9801250        9820469.8371090889        101574596.07253598     
  -2098953454.4455402        205172983.97661042       -162329307.03869581     
  -4622180787.4095678       -264421725.30883169        286159066.95107067     
  -4267885439.2405615       -275584210.68755341        291719778.16971809     
  -3901126046.7492437       -245199881.65854979        179322677.22987103     
  -3521902609.9355960       -173268738.22178435       -51032235.868471123     
  -3130215128.7996006       -59790780.377205014       -399344961.12529624     
 </DataArray>
 <DataArray  type="Float64" Name="VM" NumberOfComponents="1" format="ascii">
   12935780783.545721     
   11341135164.172956     
   10210825826.809750     
   9273464133.4157963     
   8304624958.1111994     
   10130330886.415722     
   9322271076.3698921     
   8826786789.5304890     
   8444049904.1408682     
   8036281945.5864687     
   7982303275.2689934     
   7735117224.5363874     
   7669444191.1026268     
   7670015464.6638536     
   7666925088.9909925     
   6491607541.9118776     
   6586965407.9927340     
   6757631822.6419935     
   6961571458.6428947     
   7172141751.7813358     
   5657791612.7005072     
   5890986965.6810160     
   6116537891.8173170     
   6332029604.1021824     
   6537273694.4351263     
   8304624958.1111994     
   8020715766.5053005     
   7778939695.4377527     
   7568632118.2725964     
   7384845293.8570395     
   8036281945.5864687     
   7747252740.0912066     
   7473917427.3248301     
   7214322933.6011486     
   6968476931.6455746     
   7666925088.9909925     
   7381766206.4940996     
   7101999506.9302387     
   6827695818.1270437     
   6559047965.6411200     
   7172141751.7813358     
   6911683235.1226044     
   6659072624.5142136     
   6410426610.9454041     
   6162586815.9997349     
   6537273694.4351263     
   6329349233.9979506     
   6143472855.5559731     
   5965688000.9393091     
   5786983229.3510313     
   7384845293.8570395     
   7230501859.8484726     
   7068478841.3173571     
   6898111205.0949116     
   6719248420.0687447     
   6968476931.6455746     
   6815495583.5468225     
   6657804388.4284716     
   6495125044.8877125     
   6327404646.6401358     
   6559047965.6411200     
   6407738683.0771780     
   6254824773.0676546     
   6100275667.5902300     
   5944114003.4037752     
   6162586815.9997349     
   6012225788.7070293     
   5863406572.6742430     
   5716173545.8276110     
   5570592408.2582397     
   5786983229.3510313     
   5635410313.8420582     
   5488506688.5552549     
   5346189678.5007277     
   5208537725.9875326     
   6719248420.0687447     
   6510283028.9371576     
   6305116591.7749557     
   6103737055.2384548     
   5906331881.6096859     
   6327404646.6401358     
   6138387460.6438894     
   5952118317.1927986     
   5768610807.5529976     
   5587992449.4991608     
   5944114003.4037752     
   5773225121.5761929     
   5604067023.4642467     
   5436667889.7581053     
   5271123669.4680338     
   5570592408.2582397     
   5416598289.8633442     
   5263355596.3370113     
   5110883180.7105331     
   4959267488.6249800     
   5208537725.9875326     
   5070909916.0396681     
   4933114505.3771210     
   4795123961.8035593     
   4657032708.5800047     
   5906331881.6096859     
   5738466041.0642996     
   5567507252.6587009     
   5393521838.6208897     
   5216701537.2677841     
   5587992449.4991608     
   5426122856.5527325     
   5262484738.7696562     
   5097171486.6679525     
   4930353605.2899876     
   5271123669.4680338     
   5115891184.5524731     
   4960263770.2811766     
   4804355591.6682091     
   4648326841.5553303     
   4959267488.6249800     
   4810845106.2893019     
   4663446186.8795681     
   4517192296.0687256     
   4372239554.3342943     
   4657032708.5800047     
   4514991090.8456535     
   4375436991.8124714     
   4238479722.4543409     
   4104274665.1285458     
   5216701537.2677841     
   4982271069.0692205     
   4752592009.4133263     
   4528232504.0244560     
   4310730627.5701675     
   4930353605.2899876     
   4670470749.6341028     
   4413813378.4747019     
   4160864914.6728897     
   3912635864.1868138     
   4648326841.5553303     
   4379621411.3488207     
   4113955756.1980896     
   3851737909.9896660     
   3593635888.6240187     
   4372239554.3342943     
   4111835045.6848240     
   3855843943.3956971     
   3604830231.0248418     
   3359665145.5116887     
   4104274665.1285458     
   3869471833.1314378     
   3642212254.4468212     
   3423558246.9616022     
   3215294419.6368885     
   4310730627.5701675     
   4364491568.3569984     
   4409869968.1762962     
   4453874415.0519686     
   4510369298.5854759     
   3912635864.1868138     
   4077639445.8035369     
   4242228350.3225155     
   4411960835.3494864     
   4594828164.6105328     
   3593635888.6240187     
   3828871240.0723534     
   4066825834.2916899     
   4310451503.7097683     
   4563067902.4236689     
   3359665145.5116887     
   3624090790.4125390     
   3887951365.8082252     
   4151988804.2354579     
   4417011401.7312479     
   3215294419.6368885     
   3469171559.4111652     
   3711839352.2197533     
   3942762594.5744390     
   4162474657.7520261     
   4510369298.5854759     
   4160159542.0710268     
   3796113871.9407201     
   3441304064.2609797     
   3171554281.9388828     
   4594828164.6105328     
   4002029811.0686569     
   3396156291.5624037     
   2793586554.9823160     
   2253911359.4672771     
   4563067902.4236689     
   3826478571.7711101     
   3085279738.9227786     
   2348978203.6007824     
   1652323380.3200293     
   4417011401.7312479     
   3635393273.2516055     
   2865270952.2308321     
   2114535069.7073565     
   1409071145.9632001     
   4162474657.7520261     
   3431544396.8569770     
   2736363313.0660648     
   2087989517.4240098     
   1528521771.4824388     
   5657791612.7005072     
   5890986965.6810160     
   6116537891.8173170     
   6332029604.1021824     
   6537273694.4351263     
   5151449736.8933868     
   5311395151.5167007     
   5467966115.6393576     
   5618294088.2235155     
   5760935843.9476786     
   4643458008.8593502     
   4755573322.4758224     
   4868805061.7819576     
   4980524543.4089022     
   5088812082.6300507     
   4134081045.0843182     
   4224357569.6059289     
   4320550125.1934738     
   4420987600.2613039     
   4524203206.2333374     
   3624831217.5459061     
   3719568006.8611493     
   3825561434.1643929     
   3942718916.8037276     
   4070922728.5827999     
   6537273694.4351263     
   6329349233.9979506     
   6143472855.5559731     
   5965688000.9393091     
   5786983229.3510313     
   5760935843.9476786     
   5652473325.1677179     
   5559908061.7137089     
   5474159243.1155224     
   5389689293.9397097     
   5088812082.6300507     
   5054122375.6108122     
   5029900336.0462809     
   5010939707.8108931     
   4994042969.3685408     
   4524203206.2333374     
   4538906035.3492670     
   4558301262.9721956     
   4579922900.7071447     
   4602053391.5826263     
   4070922728.5827999     
   4112172608.6781535     
   4150850402.4977188     
   4186088286.8241925     
   4217175578.4872923     
   5786983229.3510313     
   5635410313.8420582     
   5488506688.5552549     
   5346189678.5007277     
   5208537725.9875326     
   5389689293.9397097     
   5248384584.2787952     
   5110623928.9294100     
   4976456692.2307568     
   4845995456.8924150     
   4994042969.3685408     
   4867133853.1628704     
   4743574948.0661430     
   4623338037.9917097     
   4506470300.9378119     
   4602053391.5826263     
   4494299315.6498489     
   4390746776.5970812     
   4291068837.5993910     
   4195171505.6008296     
   4217175578.4872923     
   4133811873.4519649     
   4056725705.9470859     
   3985032961.1361785     
   3918429641.7303896     
   5208537725.9875326     
   5070909916.0396681     
   4933114505.3771210     
   4795123961.8035593     
   4657032708.5800047     
   4845995456.8924150     
   4722187613.3390846     
   4599333047.7066917     
   4477506985.2021523     
   4356881737.3917742     
   4506470300.9378119     
   4396225048.5557737     
   4288077704.1888566     
   4182184285.5259924     
   4078775265.0677309     
   4195171505.6008296     
   4098007013.6413507     
   4004055180.3468175     
   3913523756.4824696     
   3826676197.8396611     
   3918429641.7303896     
   3833534779.0814333     
   3752870474.1741986     
   3676661787.3152337     
   3605177837.4625397     
   4657032708.5800047     
   4514991090.8456535     
   4375436991.8124714     
   4238479722.4543409     
   4104274665.1285458     
   4356881737.3917742     
   4226117403.4853601     
   4098182039.5234871     
   3973256109.8728004     
   3851574990.3182111     
   4078775265.0677309     
   3961226516.1562567     
   3847085987.0112362     
   3736612467.5682569     
   3630133615.5003395     
   3826676197.8396611     
   3724400180.8611917     
   3626364547.2149234     
   3532905647.8356433     
   3444445450.0297155     
   3605177837.4625397     
   3520227997.2158413     
   3440594625.5571351     
   3366675212.8028126     
   3298969114.1961317     
   4104274665.1285458     
   3869471833.1314378     
   3642212254.4468212     
   3423558246.9616022     
   3215294419.6368885     
   3851574990.3182111     
   3647080232.8087263     
   3450623425.8676600     
   3263185362.6227875     
   3086268649.9671402     
   3630133615.5003395     
   3450624312.6830640     
   3279156432.9934173     
   3116582276.7352028     
   2964103982.3644714     
   3444445450.0297155     
   3284755041.5334301     
   3132525135.3439002     
   2988454794.0488253     
   2853461004.7462459     
   3298969114.1961317     
   3154297688.6125126     
   3015866193.2086544     
   2884215366.4543991     
   2760017440.0484076     
   3215294419.6368885     
   3469171559.4111652     
   3711839352.2197533     
   3942762594.5744390     
   4162474657.7520261     
   3086268649.9671402     
   3306533702.7587018     
   3515923632.0906420     
   3714120426.7825546     
   3901459062.7828312     
   2964103982.3644714     
   3163839665.3210201     
   3354651035.8015733     
   3536503562.3589435     
   3709702243.1828494     
   2853461004.7462459     
   3044757626.4076161     
   3230662797.7690797     
   3411502410.9907503     
   3587733267.2941818     
   2760017440.0484076     
   2953068070.4354191     
   3145818765.2584586     
   3338927682.2348509     
   3533078198.8711429     
   4162474657.7520261     
   3431544396.8569770     
   2736363313.0660648     
   2087989517.4240098     
   1528521771.4824388     
   3901459062.7828312     
   3275426261.5434027     
   2683809091.7255549     
   2135071859.4274206     
   1654842360.6757524     
   3709702243.1828494     
   3160822820.0539660     
   2641863591.9148855     
   2159151309.6454487     
   1728467657.5804079     
   3587733267.2941818     
   3090342611.2867327     
   2615070282.8946066     
   2166805905.9909859     
   1756121461.6466415     
   3533078198.8711429     
   3065035720.7580776     
   2608639631.1573858     
   2168101969.8142419     
   1752171291.5869730     
   3624831217.5459061     
   3719568006.8611493     
   3825561434.1643929     
   3942718916.8037276     
   4070922728.5827999     
   3137702542.4450545     
   3255290964.6732779     
   3382303338.1725416     
   3518254451.4162188     
   3662672555.1544991     
   2694398565.8832235     
   2830213521.9582767     
   2973346377.3959160     
   3122709123.8177743     
   3277386148.9151263     
   2298428892.3082738     
   2449140695.6739302     
   2604573711.6292858     
   2762808661.5090361     
   2922420167.5325036     
   1955039451.4800105     
   2119048620.8191538     
   2284397606.7297807     
   2448138543.9889164     
   2608327787.6687307     
   4070922728.5827999     
   4112172608.6781535     
   4150850402.4977188     
   4186088286.8241925     
   4217175578.4872923     
   3662672555.1544991     
   3701854678.5149827     
   3739707586.5112219     
   3775349890.6052489     
   3808044291.5405121     
   3277386148.9151263     
   3320399003.5764608     
   3363679243.5428247     
   3406407670.6750541     
   3447908843.1729727     
   2922420167.5325036     
   2975184297.3563056     
   3030173575.9324713     
   3086696983.5423970     
   3144216945.8862271     
   2608327787.6687307     
   2676256126.4672127     
   2748678196.5306911     
   2825067358.9924026     
   2905063068.8977046     
   4217175578.4872923     
   4133811873.4519649     
   4056725705.9470859     
   3985032961.1361785     
   3918429641.7303896     
   3808044291.5405121     
   3756049846.4500456     
   3709893227.9848380     
   3669087668.4922876     
   3633533099.5719070     
   3447908843.1729727     
   3422574515.9390931     
   3402252309.4741931     
   3386713040.2636676     
   3375937386.4377460     
   3144216945.8862271     
   3141052506.5063205     
   3141464319.3254018     
   3145360478.2321587     
   3152725764.8412943     
   2905063068.8977046     
   2919856698.8433495     
   2935986579.3659043     
   2953413704.8533387     
   2972107439.9952273     
   3918429641.7303896     
   3833534779.0814333     
   3752870474.1741986     
   3676661787.3152337     
   3605177837.4625397     
   3633533099.5719070     
   3560717280.4387479     
   3492762364.1231418     
   3429913606.7007165     
   3372465195.5219226     
   3375937386.4377460     
   3316546637.3130550     
   3262861445.7211618     
   3215126613.8559127     
   3173645675.6449194     
   3152725764.8412943     
   3107854262.4523878     
   3069737050.4382753     
   3038585555.1917105     
   3014685228.1115661     
   2972107439.9952273     
   2942298733.3223801     
   2920467205.5877299     
   2906747393.9100723     
   2901370572.5921078     
   3605177837.4625397     
   3520227997.2158413     
   3440594625.5571351     
   3366675212.8028126     
   3298969114.1961317     
   3372465195.5219226     
   3303752644.1789808     
   3240944826.1897831     
   3184413405.4918876     
   3134600542.5975118     
   3173645675.6449194     
   3119869986.9204206     
   3072421328.5048127     
   3031613439.2602100     
   2997801644.6583385     
   3014685228.1115661     
   2974154686.0864592     
   2940153978.2596359     
   2912916268.9780231     
   2892694313.2146411     
   2901370572.5921078     
   2871930455.6567755     
   2848965814.0797520     
   2832621831.2194691     
   2823051328.6597900     
   3298969114.1961317     
   3154297688.6125126     
   3015866193.2086544     
   2884215366.4543991     
   2760017440.0484076     
   3134600542.5975118     
   3002436086.8688583     
   2878528968.9502568     
   2763536770.0014644     
   2658256022.9703798     
   2997801644.6583385     
   2880220941.5507188     
   2773110152.7443433     
   2677171571.5284042     
   2593231727.6538038     
   2892694313.2146411     
   2790795928.1908083     
   2701665007.8166385     
   2625948506.5815735     
   2564385312.0647950     
   2823051328.6597900     
   2736619788.9188747     
   2665248773.7676973     
   2609433612.8939471     
   2569726534.4148335     
   2760017440.0484076     
   2953068070.4354191     
   3145818765.2584586     
   3338927682.2348509     
   3533078198.8711429     
   2658256022.9703798     
   2863188899.9094496     
   3064304223.4355531     
   3262171759.3296752     
   3457404051.3557768     
   2593231727.6538038     
   2806362483.5035887     
   3011544583.3442211     
   3209304177.9590411     
   3400230855.2611566     
   2564385312.0647950     
   2783310029.7000585     
   2989653732.0625057     
   3183900313.3128147     
   3366617771.8064036     
   2569726534.4148335     
   2793587244.2601171     
   2999908362.3907347     
   3189094203.5305953     
   3361652641.4102125     
   3533078198.8711429     
   3065035720.7580776     
   2608639631.1573858     
   2168101969.8142419     
   1752171291.5869730     
   3457404051.3557768     
   2998157357.3447576     
   2560526200.0711656     
   2150629561.8162794     
   1780156526.2750783     
   3400230855.2611566     
   2958429258.4523425     
   2548459894.4658918     
   2177225748.4445181     
   1856743697.3816943     
   3366617771.8064036     
   2947202929.3314204     
   2569328066.6901793     
   2239080836.3507800     
   1966138838.1319489     
   3361652641.4102125     
   2965058274.3012662     
   2619005140.7741895     
   2327491495.0449781     
   2096477978.7722399     
   1955039451.4800105     
   2119048620.8191538     
   2284397606.7297807     
   2448138543.9889164     
   2608327787.6687307     
   1653704889.4311929     
   1820035898.4279723     
   1988041600.8618979     
   2155034097.4828997     
   2319263703.7044063     
   1393697727.8629951     
   1570921016.9581745     
   1749129973.4813671     
   1926323582.2950976     
   2101253388.0686977     
   1207293150.1553068     
   1399115932.0330205     
   1590502724.0213895     
   1780674141.2572944     
   1969169401.3507700     
   1137092297.2544246     
   1335426091.1456170     
   1534048928.6844726     
   1732960847.6042967     
   1932161933.7120552     
   2608327787.6687307     
   2676256126.4672127     
   2748678196.5306911     
   2825067358.9924026     
   2905063068.8977046     
   2319263703.7044063     
   2406440221.5490894     
   2496039567.0513644     
   2587665485.7605681     
   2681039984.4278750     
   2101253388.0686977     
   2205159807.1553249     
   2308944894.9092379     
   2412373103.6977057     
   2515277922.9206324     
   1969169401.3507700     
   2086380914.4103694     
   2200690014.2052307     
   2312024738.2645354     
   2420334130.5436401     
   1932161933.7120552     
   2058665855.8638141     
   2179671593.9226289     
   2295179205.5901070     
   2405188972.0252213     
   2905063068.8977046     
   2919856698.8433495     
   2935986579.3659043     
   2953413704.8533387     
   2972107439.9952273     
   2681039984.4278750     
   2702179865.9297028     
   2725654532.5933275     
   2751452140.8314424     
   2779567471.9795156     
   2515277922.9206324     
   2542997234.8854589     
   2574105811.4034190     
   2608604570.0600748     
   2646499230.0853062     
   2420334130.5436401     
   2453454205.8700318     
   2491047599.9832673     
   2533115417.6893773     
   2579662132.1718574     
   2405188972.0252213     
   2440975442.5864353     
   2482337329.4652214     
   2529275845.5310745     
   2581794055.5681882     
   2972107439.9952273     
   2942298733.3223801     
   2920467205.5877299     
   2906747393.9100723     
   2901370572.5921078     
   2779567471.9795156     
   2764820835.0814028     
   2757380392.4543586     
   2757322795.1501617     
   2764762813.6400623     
   2646499230.0853062     
   2642452204.8382215     
   2644618530.2752266     
   2653028441.6926141     
   2667718816.3753228     
   2579662132.1718574     
   2581813889.1677985     
   2588682149.3979616     
   2600276456.6485868     
   2616607799.3193421     
   2581794055.5681882     
   2586038539.1924300     
   2593168408.9860339     
   2603194103.2906899     
   2616145076.2923756     
   2901370572.5921078     
   2871930455.6567755     
   2848965814.0797520     
   2832621831.2194691     
   2823051328.6597900     
   2764762813.6400623     
   2741569652.7393203     
   2725758720.4185991     
   2717445097.6619439     
   2716749555.8070359     
   2667718816.3753228     
   2649917953.6003547     
   2640517317.9254532     
   2639582207.4052162     
   2647187058.8156676     
   2616607799.3193421     
   2602439748.6965642     
   2597781570.9569530     
   2602644158.2627296     
   2617056594.4442644     
   2616145076.2923756     
   2602956591.9531651     
   2600460857.0292001     
   2608632670.4677596     
   2627478254.4508023     
   2823051328.6597900     
   2736619788.9188747     
   2665248773.7676973     
   2609433612.8939471     
   2569726534.4148335     
   2716749555.8070359     
   2641830991.9729805     
   2580693324.7933760     
   2533596940.2444487     
   2500828633.0065255     
   2647187058.8156676     
   2579316703.2861319     
   2523776356.7170796     
   2480674484.2344732     
   2450133250.6911640     
   2617056594.4442644     
   2552072339.1520104     
   2497799718.1006937     
   2454266311.8764877     
   2421512559.8388953     
   2627478254.4508023     
   2561848334.3449626     
   2505158357.8719959     
   2457403378.1597195     
   2418597844.1333613     
   2569726534.4148335     
   2793587244.2601171     
   2999908362.3907347     
   3189094203.5305953     
   3361652641.4102125     
   2500828633.0065255     
   2720671133.6488075     
   2924963720.6231122     
   3113838854.5487299     
   3287480732.3032165     
   2450133250.6911640     
   2665847713.6227746     
   2868189640.5667748     
   3057159168.7013993     
   3232775023.5257702     
   2421512559.8388953     
   2631886437.7083402     
   2831210392.4085369     
   3019471500.0011854     
   3196663015.9697647     
   2418597844.1333613     
   2621316941.3523674     
   2815427076.2150435     
   3001003356.0402164     
   3178137416.4362383     
   3361652641.4102125     
   2965058274.3012662     
   2619005140.7741895     
   2327491495.0449781     
   2096477978.7722399     
   3287480732.3032165     
   2913488457.1677070     
   2584068348.6417732     
   2301063702.6029015     
   2067266879.9291074     
   3232775023.5257702     
   2873477405.9842963     
   2553346545.8762960     
   2273103146.7879949     
   2033838731.4754710     
   3196663015.9697647     
   2846025844.3294787     
   2529454685.4856715     
   2247179535.2696881     
   1999518462.6145508     
   3178137416.4362383     
   2832182925.2138338     
   2515296703.5779886     
   2227519198.5126324     
   1968879921.3287740     
   1137092297.2544246     
   1335426091.1456170     
   1534048928.6844726     
   1732960847.6042967     
   1932161933.7120552     
   1207279081.6945078     
   1399362642.0289109     
   1591024902.5114493     
   1781493932.6383672     
   1970315094.7303722     
   1393820671.3311808     
   1571375108.0375855     
   1749966848.9245045     
   1927595288.3185122     
   2103012815.6803854     
   1654055563.1616700     
   1820627104.7232475     
   1988959039.2413507     
   2156355189.1359777     
   2321056643.8255954     
   1955667887.4928498     
   2119712420.9419923     
   2285198367.2391634     
   2449164272.7885523     
   2609647100.4094982     
   1932161933.7120552     
   2058665855.8638141     
   2179671593.9226289     
   2295179205.5901070     
   2405188972.0252213     
   1970315094.7303722     
   2087196360.5863309     
   2201164383.6205950     
   2312141255.3135910     
   2420074056.8063083     
   2103012815.6803854     
   2206537505.3376484     
   2309927351.6520176     
   2412945125.3803859     
   2515423923.8894830     
   2321056643.8255954     
   2408040729.2942915     
   2497444201.8069887     
   2588881650.5242863     
   2682079365.6959343     
   2609647100.4094982     
   2677739895.5956478     
   2750349247.4969592     
   2826978927.5785031     
   2907281159.5650930     
   2405188972.0252213     
   2440975442.5864353     
   2482337329.4652214     
   2529275845.5310745     
   2581794055.5681882     
   2420074056.8063083     
   2454809002.2817397     
   2494148925.6802025     
   2538101054.9491239     
   2586672031.4644890     
   2515423923.8894830     
   2545473119.8101611     
   2579118411.9808612     
   2616364931.4681864     
   2657220846.5615225     
   2682079365.6959343     
   2705358460.4296870     
   2731191890.0094881     
   2759561870.3728600     
   2790462629.2791114     
   2907281159.5650930     
   2923238042.7061276     
   2940697336.7131410     
   2959595130.4211454     
   2979891508.6304545     
   2581794055.5681882     
   2586038539.1924300     
   2593168408.9860339     
   2603194103.2906899     
   2616145076.2923756     
   2586672031.4644890     
   2585695685.8055654     
   2589620829.0940938     
   2598452936.9548154     
   2612213266.7853742     
   2657220846.5615225     
   2649061875.5957870     
   2647686835.4734321     
   2653120044.4957085     
   2665402105.3100104     
   2790462629.2791114     
   2772375444.2203856     
   2762739147.8762212     
   2761639306.1047664     
   2769185194.9696045     
   2979891508.6304545     
   2948694863.8713160     
   2927368474.2478862     
   2916110948.2223125     
   2915162642.8493781     
   2616145076.2923756     
   2602956591.9531651     
   2600460857.0292001     
   2608632670.4677596     
   2627478254.4508023     
   2612213266.7853742     
   2603113084.4878116     
   2602793686.6357613     
   2611271625.3781009     
   2628567318.4353065     
   2665402105.3100104     
   2655716930.2553630     
   2652703894.4830689     
   2656429390.6231236     
   2666957823.2088037     
   2769185194.9696045     
   2755823136.4770880     
   2746871974.7127109     
   2742424940.9338021     
   2742586396.2812052     
   2915162642.8493781     
   2896690035.0973334     
   2880274023.5123520     
   2865997964.5930700     
   2853982920.6671734     
   2627478254.4508023     
   2561848334.3449626     
   2505158357.8719959     
   2457403378.1597195     
   2418597844.1333613     
   2628567318.4353065     
   2559724082.6269665     
   2502858301.0575480     
   2457970003.2843895     
   2425064560.4833016     
   2666957823.2088037     
   2592888434.1611228     
   2533824073.8841076     
   2489829928.3816977     
   2460988511.9661565     
   2742586396.2812052     
   2659856475.9514999     
   2595144578.1254869     
   2548713891.9589682     
   2520885098.5171943     
   2853982920.6671734     
   2758020086.1672134     
   2683110978.4594312     
   2629925328.6404576     
   2599261522.9725885     
   2418597844.1333613     
   2621316941.3523674     
   2815427076.2150435     
   3001003356.0402164     
   3178137416.4362383     
   2425064560.4833016     
   2633183052.2627745     
   2830649623.9763179     
   3017531007.1876283     
   3193909651.3466291     
   2460988511.9661565     
   2675844865.8673530     
   2878198327.6719384     
   3068088977.9204073     
   3245579595.0668049     
   2520885098.5171943     
   2744535944.4886069     
   2954025382.1292706     
   3149364508.1841283     
   3330600052.5480347     
   2599261522.9725885     
   2834297934.9026332     
   3053707134.3952694     
   3257483242.3676543     
   3445672990.5846047     
   3178137416.4362383     
   2832182925.2138338     
   2515296703.5779886     
   2227519198.5126324     
   1968879921.3287740     
   3193909651.3466291     
   2851540957.9119368     
   2543103611.5134220     
   2268595969.1735196     
   2028059767.2308567     
   3245579595.0668049     
   2902125806.6211510     
   2597984215.5497470     
   2333753716.4530435     
   2110377416.0422361     
   3330600052.5480347     
   2979583575.4436984     
   2674244719.9081492     
   2416725448.4023600     
   2210010037.8527327     
   3445672990.5846047     
   3079355157.1784344     
   2766661338.5517645     
   2512534464.8244495     
   2323339346.9810205     
   1955667887.4928498     
   2119712420.9419923     
   2285198367.2391634     
   2449164272.7885523     
   2609647100.4094982     
   2299234492.9833612     
   2449823269.7432547     
   2605179561.4754930     
   2763374716.8445606     
   2922972007.5446715     
   2695173437.4124131     
   2830809502.6958990     
   2973767242.7811441     
   3122954049.4472108     
   3277449709.7600412     
   3138273516.5607567     
   3255722560.0111189     
   3382567849.1059880     
   3518325446.9368615     
   3662524817.1197791     
   3625046934.8351955     
   3719774682.4331231     
   3825707382.1611757     
   3942761505.0604897     
   4070826520.5889916     
   2609647100.4094982     
   2677739895.5956478     
   2750349247.4969592     
   2826978927.5785031     
   2907281159.5650930     
   2922972007.5446715     
   2976087432.1496153     
   3031471388.6896515     
   3088455843.8381534     
   3146516459.2880569     
   3277449709.7600412     
   3320815971.0229135     
   3364497369.3070602     
   3407684969.9313717     
   3449710354.6753607     
   3662524817.1197791     
   3701916706.1665988     
   3740019203.8108559     
   3775945010.2234602     
   3808952514.7864389     
   4070826520.5889916     
   4112025579.6749105     
   4150678346.8718567     
   4185893697.8943815     
   4216942819.7567482     
   2907281159.5650930     
   2923238042.7061276     
   2940697336.7131410     
   2959595130.4211454     
   2979891508.6304545     
   3146516459.2880569     
   3143197350.8705473     
   3143476767.2822771     
   3147245442.8186741     
   3154493544.0768504     
   3449710354.6753607     
   3423478817.0692468     
   3402207316.8733788     
   3385655572.1225686     
   3373808499.4891977     
   3808952514.7864389     
   3755859123.9736114     
   3708535126.3383088     
   3666493247.4007201     
   3629628796.5164046     
   4216942819.7567482     
   4132762753.6248837     
   4054816468.7644801     
   3982240685.2877407     
   3914720474.5598769     
   2979891508.6304545     
   2948694863.8713160     
   2927368474.2478862     
   2916110948.2223125     
   2915162642.8493781     
   3154493544.0768504     
   3108869786.1128354     
   3071198175.2042394     
   3041745855.3470154     
   3020828131.4727411     
   3373808499.4891977     
   3313576364.5204082     
   3259518551.9076324     
   3211914174.2882881     
   3171092038.1820865     
   3629628796.5164046     
   3555746621.4838877     
   3486453415.3950095     
   3421995323.2777562     
   3362662817.7750669     
   3914720474.5598769     
   3828866250.3656688     
   3746247104.9715075     
   3667051755.0872693     
   3591502582.9873867     
   2915162642.8493781     
   2896690035.0973334     
   2880274023.5123520     
   2865997964.5930700     
   2853982920.6671734     
   3020828131.4727411     
   2988135694.0403447     
   2959382467.0196786     
   2934735222.7652273     
   2914397009.1628304     
   3171092038.1820865     
   3122769827.2891173     
   3079942581.6372113     
   3042869637.9879017     
   3011860859.6530752     
   3362662817.7750669     
   3296713315.4549956     
   3237457347.3405523     
   3185256017.7925291     
   3140553912.5148954     
   3591502582.9873867     
   3505460976.8863072     
   3426962985.0279732     
   3356479313.4978347     
   3294616887.4272494     
   2853982920.6671734     
   2758020086.1672134     
   2683110978.4594312     
   2629925328.6404576     
   2599261522.9725885     
   2914397009.1628304     
   2804772555.1950269     
   2711470872.9288011     
   2635395400.8761649     
   2577593572.1219988     
   3011860859.6530752     
   2887798296.0831299     
   2775390014.9545131     
   2675536779.5229759     
   2589292889.4726257     
   3140553912.5148954     
   3004009678.7830672     
   2874609646.7923102     
   2753029075.3289900     
   2640069035.7573276     
   3294616887.4272494     
   3149661405.8656993     
   3007701041.9890337     
   2869069403.5667467     
   2734164002.5080547     
   2599261522.9725885     
   2834297934.9026332     
   3053707134.3952694     
   3257483242.3676543     
   3445672990.5846047     
   2577593572.1219988     
   2803781556.3198533     
   3018359163.2647829     
   3221444941.1679702     
   3413210047.5247536     
   2589292889.4726257     
   2804647813.9960113     
   3012234822.5618038     
   3212339121.3656826     
   3405296629.1677384     
   2640069035.7573276     
   2841855213.7590752     
   3039344440.1506071     
   3233055885.4266214     
   3423554202.9211721     
   2734164002.5080547     
   2919136316.2155819     
   3102721614.6186385     
   3285759910.2283444     
   3469135131.9728265     
   3445672990.5846047     
   3079355157.1784344     
   2766661338.5517645     
   2512534464.8244495     
   2323339346.9810205     
   3413210047.5247536     
   3012223717.1150427     
   2655552005.5181980     
   2350281866.0354233     
   2106604348.2580979     
   3405296629.1677384     
   2969278955.4517040     
   2566546298.1654921     
   2204776779.4021072     
   1896711956.3816230     
   3423554202.9211721     
   2957327548.1801815     
   2511890283.0524993     
   2093115683.1401584     
   1712401280.7121542     
   3469135131.9728265     
   2982780623.0465798     
   2504977056.2057939     
   2038122449.4214365     
   1587667571.4675937     
   3625046934.8351955     
   3719774682.4331231     
   3825707382.1611757     
   3942761505.0604897     
   4070826520.5889916     
   4133947259.5787444     
   4224306169.6862459     
   4320548392.1193228     
   4421013625.7689838     
   4524245194.6751528     
   4643123195.1306601     
   4755343944.0080366     
   4868666156.0794153     
   4980469379.4872694     
   5088841341.4530678     
   5151056979.5013390     
   5311063146.5103617     
   5467697597.1547422     
   5618094238.3607111     
   5760810298.5830507     
   5657480820.7930174     
   5890624229.9091797     
   6116144659.9837523     
   6331621801.6564941     
   6536858266.8622360     
   4070826520.5889916     
   4112025579.6749105     
   4150678346.8718567     
   4185893697.8943815     
   4216942819.7567482     
   4524245194.6751528     
   4538701888.5874519     
   4557846084.3690119     
   4579196900.9079342     
   4601032485.6557341     
   5088841341.4530678     
   5053828236.3580141     
   5029267674.9681692     
   5009945606.1288776     
   4992663443.6466255     
   5760810298.5830507     
   5652059188.4228964     
   5559191833.4754019     
   5473129539.1865396     
   5388333176.9588737     
   6536858266.8622360     
   6328787089.1861782     
   6142755558.1569719     
   5964825264.0347786     
   5785985715.5224323     
   4216942819.7567482     
   4132762753.6248837     
   4054816468.7644801     
   3982240685.2877407     
   3914720474.5598769     
   4601032485.6557341     
   4493008261.5158653     
   4389186181.4538651     
   4289249207.0254784     
   4193100473.8100591     
   4992663443.6466255     
   4865818815.1899195     
   4742347437.5564871     
   4622224080.3124180     
   4505496435.1270714     
   5388333176.9588737     
   5247227925.4072714     
   5109692519.8571587     
   4975776394.7588053     
   4845593225.5543385     
   5785985715.5224323     
   5634563973.4804316     
   5487821460.4537001     
   5345677684.0677767     
   5208212601.7773352     
   3914720474.5598769     
   3828866250.3656688     
   3746247104.9715075     
   3667051755.0872693     
   3591502582.9873867     
   4193100473.8100591     
   4095946226.2373371     
   4001387012.8243141     
   3909602051.2031574     
   3820822857.6141720     
   4505496435.1270714     
   4395944094.8183575     
   4288207555.9873004     
   4182426869.3019857     
   4078817527.2817655     
   4845593225.5543385     
   4722690747.6034184     
   4600745942.9903936     
   4479831660.0298424     
   4360120969.1561136     
   5208212601.7773352     
   5071111453.1792727     
   4934080779.2903595     
   4797101325.5684519     
   4660278668.7469311     
   3591502582.9873867     
   3505460976.8863072     
   3426962985.0279732     
   3356479313.4978347     
   3294616887.4272494     
   3820822857.6141720     
   3716461946.9982343     
   3617618100.8008981     
   3524687989.0564685     
   3438181051.7315407     
   4078817527.2817655     
   3958784081.8913012     
   3842634329.0502448     
   3730656937.7260470     
   3623221991.3029528     
   4360120969.1561136     
   4227510830.2615013     
   4097555234.3696532     
   3970432432.7570591     
   3846371056.4029493     
   4660278668.7469311     
   4518381678.9982729     
   4378297761.6422167     
   4240110982.1211691     
   4103931865.6769738     
   3294616887.4272494     
   3149661405.8656993     
   3007701041.9890337     
   2869069403.5667467     
   2734164002.5080547     
   3438181051.7315407     
   3279757136.1295710     
   3126891670.0617070     
   2980123108.5642152     
   2840137243.3097386     
   3623221991.3029528     
   3445795004.5115027     
   3275705848.4107814     
   3113697344.6794491     
   2960814893.4390893     
   3846371056.4029493     
   3643369620.8050294     
   3448691342.2393479     
   3263288943.9704351     
   3088652653.8776999     
   4103931865.6769738     
   3868130454.8773603     
   3640921172.6068535     
   3423465809.7271614     
   3217778355.5847712     
   2734164002.5080547     
   2919136316.2155819     
   3102721614.6186385     
   3285759910.2283444     
   3469135131.9728265     
   2840137243.3097386     
   3027838168.3310943     
   3209435811.3557606     
   3385406537.4572296     
   3556381051.3265705     
   2960814893.4390893     
   3160786045.9082603     
   3351471992.2116423     
   3532940413.4629593     
   3705620882.7820077     
   3088652653.8776999     
   3312111769.3153000     
   3524564810.3346863     
   3725711665.0473251     
   3915921087.3840790     
   3217778355.5847712     
   3476733272.0842562     
   3724389388.0013385     
   3960103446.6268053     
   4184308407.8931661     
   3469135131.9728265     
   2982780623.0465798     
   2504977056.2057939     
   2038122449.4214365     
   1587667571.4675937     
   3556381051.3265705     
   3046603734.2152390     
   2556843541.7757778     
   2090223573.0685802     
   1654310385.9278438     
   3705620882.7820077     
   3150500336.0157533     
   2624505750.3772125     
   2132706091.4033449     
   1688898092.4372861     
   3915921087.3840790     
   3288878921.5353866     
   2697412608.5358772     
   2150443838.5070472     
   1674766995.2660692     
   4184308407.8931661     
   3455918828.7894545     
   2767404365.2021809     
   2134396138.5716352     
   1608671872.0937223     
   5657480820.7930174     
   5890624229.9091797     
   6116144659.9837523     
   6331621801.6564941     
   6536858266.8622360     
   6491404255.7457266     
   6586612731.6929150     
   6757141324.7822685     
   6960948738.1718206     
   7171391521.3318691     
   7982119040.1311674     
   7734748895.9898252     
   7668892358.9688969     
   7669282482.4879208     
   7666014337.3369608     
   10130076828.862532     
   9321860718.9833012     
   8826208600.8912220     
   8443308566.7391376     
   8035386347.4013605     
   12935368404.048910     
   11340655103.639496     
   10210253892.421371     
   9272810396.8892231     
   8303917701.2786016     
   6536858266.8622360     
   6328787089.1861782     
   6142755558.1569719     
   5964825264.0347786     
   5785985715.5224323     
   7171391521.3318691     
   6910946413.7672224     
   6658359251.7350664     
   6409755554.0545321     
   6161980879.1336699     
   7666014337.3369608     
   7380940723.4325199     
   7101281489.4262438     
   6827108752.6289778     
   6558618258.0057364     
   8035386347.4013605     
   7746422080.3528881     
   7473180246.0303698     
   7213704188.1473885     
   6968003071.6657114     
   8303917701.2786016     
   8019961615.5719423     
   7778165393.8243084     
   7567861982.5483170     
   7384107434.2926092     
   5785985715.5224323     
   5634563973.4804316     
   5487821460.4537001     
   5345677684.0677767     
   5208212601.7773352     
   6161980879.1336699     
   6011655478.5936747     
   5862850074.7489872     
   5715609748.0525675     
   5570000743.7137413     
   6558618258.0057364     
   6407273798.5960875     
   6254276211.5588198     
   6099593466.4430609     
   5943248955.8022451     
   6968003071.6657114     
   6814972354.3882580     
   6657160575.1965809     
   6494286001.8027258     
   6326298504.1760082     
   7384107434.2926092     
   7229764388.6643391     
   7067651658.0169430     
   6897099847.7072420     
   6717965739.5157299     
   5208212601.7773352     
   5071111453.1792727     
   4934080779.2903595     
   4797101325.5684519     
   4660278668.7469311     
   5570000743.7137413     
   5415857357.9453373     
   5262624888.3758049     
   5110327261.2165756     
   4959057691.6763821     
   5943248955.8022451     
   5771990549.5027122     
   5602588312.1170969     
   5435072882.2716188     
   5269544268.5729179     
   6326298504.1760082     
   6137153742.6696930     
   5950888411.2686529     
   5767513638.4746008     
   5587156423.8386946     
   6717965739.5157299     
   6509572163.2211161     
   6305151249.7016420     
   6104678946.9915934     
   5908332833.1974850     
   4660278668.7469311     
   4518381678.9982729     
   4378297761.6422167     
   4240110982.1211691     
   4103931865.6769738     
   4959057691.6763821     
   4812132573.1041298     
   4665874176.0360031     
   4520390469.6705570     
   4375818238.7480669     
   5269544268.5729179     
   5116109898.1150827     
   4962119498.3601723     
   4807686974.2860346     
   4652977838.6367884     
   5587156423.8386946     
   5426230476.6236858     
   5263470370.8122215     
   5098976043.3025427     
   4932937777.1308641     
   5908332833.1974850     
   5739343894.3297920     
   5567209923.5115938     
   5391997165.7301664     
   5213913595.9661446     
   4103931865.6769738     
   3868130454.8773603     
   3640921172.6068535     
   3423465809.7271614     
   3217778355.5847712     
   4375818238.7480669     
   4112938044.2644620     
   3854999198.0695710     
   3602637582.1531978     
   3356857481.4938307     
   4652977838.6367884     
   4381669922.4846592     
   4113554451.3850293     
   3849067840.2698512     
   3588932346.6889653     
   4932937777.1308641     
   4671862622.9698267     
   4413933364.6062031     
   4159633507.1143904     
   3910011524.1805224     
   5213913595.9661446     
   4981355010.1432867     
   4753381803.0731220     
   4530550220.2996016     
   4314473815.0282927     
   3217778355.5847712     
   3476733272.0842562     
   3724389388.0013385     
   3960103446.6268053     
   4184308407.8931661     
   3356857481.4938307     
   3624314575.9004211     
   3891205522.5563941     
   4158222629.7524414     
   4426126966.2140274     
   3588932346.6889653     
   3826104937.9842095     
   4066145917.7413039     
   4311899023.3158484     
   4566558891.8134241     
   3910011524.1805224     
   4076660958.3353992     
   4243193050.7807083     
   4414931936.7267342     
   4599567527.2971020     
   4314473815.0282927     
   4370196329.2253933     
   4418003499.9038239     
   4464523402.6290092     
   4523044339.4479542     
   4184308407.8931661     
   3455918828.7894545     
   2767404365.2021809     
   2134396138.5716352     
   1608671872.0937223     
   4426126966.2140274     
   3644201732.3032494     
   2875160825.5470204     
   2128487502.8198264     
   1434504153.5581880     
   4566558891.8134241     
   3826783716.4248061     
   3081317181.1111441     
   2338508532.9375401     
   1629474297.9146092     
   4599567527.2971020     
   4001723658.5661731     
   3388685382.8776150     
   2777080213.4559107     
   2226522515.6127052     
   4523044339.4479542     
   4167725066.0894175     
   3797212350.8304634     
   3439679824.5542841     
   3176962838.7208200     
 </DataArray>
 <DataArray  type="Float64" Name="strain" NumberOfComponents="3" format="ascii">
  0.20349213885270762        0.0000000000000000       0.12539370222243329     
  0.18666396684765973       -2.7328721986047896E-002   7.4345959597735170E-002
  0.16983579484261185       -4.4681176114130541E-002   3.5131283018674991E-002
  0.15300762283756394       -5.2057362384247921E-002   7.7496724852526983E-003
  0.13617945083251606       -4.9457280796400049E-002  -7.7988720025316538E-003
  0.15986053360156102        0.0000000000000000        9.6433280797846216E-002
  0.15318401474773924       -2.1846355684764587E-002   6.2682911966173954E-002
  0.14650749589391748       -3.6177448870771095E-002   3.7402783391316009E-002
  0.13983097704009573       -4.2993279558019536E-002   2.0592895073272371E-002
  0.13315445818627397       -4.2293847746509891E-002   1.2253247012043056E-002
  0.12646194985949041        0.0000000000000000        7.4185728354146052E-002
  0.12657425836807118       -1.6363989383481270E-002   5.5271727956292455E-002
  0.12668656687665192       -2.7673721627411649E-002   4.1465142026429584E-002
  0.12679887538523266       -3.3929196731791150E-002   3.2765970564557351E-002
  0.12691118389381337       -3.5130414696619747E-002   2.9174213570675928E-002
  0.10329638762649582        0.0000000000000000        5.8651044891332785E-002
  0.10683469770865545       -1.0881623082197957E-002   5.2112407568090692E-002
  0.11037300779081512       -1.9169994384052206E-002   4.7318358924015695E-002
  0.11391131787297476       -2.4865113905562751E-002   4.4268898959107773E-002
  0.11744962795513439       -2.7966981646729588E-002   4.2964027673366961E-002
   9.0363846902577233E-002   0.0000000000000000        4.9829230409406428E-002
   9.3965332769492149E-002  -5.3992567809146436E-003   5.3204950801568646E-002
   9.7566818636407079E-002  -1.0666267140692767E-002   5.4962434084074342E-002
  0.10116830450332201       -1.5801031079334362E-002   5.5101680256923517E-002
  0.10476979037023695       -2.0803548596839430E-002   5.3622689320116185E-002
  0.13617945083251606       -4.9457280796400049E-002  -7.7988720025316538E-003
  0.13296208509882945       -4.2919729767875017E-002  -3.4011343293364957E-003
  0.12974471936514281       -3.8483507715960971E-002  -4.0643479384117748E-004
  0.12652735363145623       -3.6148614640657897E-002   1.1852266039540024E-003
  0.12330998789776959       -3.5915050541965754E-002   1.3738498640494257E-003
  0.13315445818627397       -4.2293847746509891E-002   1.2253247012043056E-002
  0.12892011031006531       -3.8428006944711331E-002   1.2176872286802157E-002
  0.12468576243385668       -3.5744610661093024E-002   1.1469571414217124E-002
  0.12045141455764802       -3.4243658895655005E-002   1.0131344394287915E-002
  0.11621706668143938       -3.3925151648397212E-002   8.1621912270146840E-003
  0.12691118389381337       -3.5130414696619747E-002   2.9174213570675928E-002
  0.12243196586543854       -3.3936284121547665E-002   2.5542610905429527E-002
  0.11795274783706373       -3.3005713606225111E-002   2.2052194083194965E-002
  0.11347352980868891       -3.2338703150652105E-002   1.8702963103972063E-002
  0.10899431178031412       -3.1935252754828614E-002   1.5494917967760924E-002
  0.11744962795513439       -2.7966981646729588E-002   4.2964027673366961E-002
  0.11349765176494922       -2.9444561298383975E-002   3.6696081526545903E-002
  0.10954567557476408       -3.0266816551357188E-002   3.1341433213092421E-002
  0.10559369938457892       -3.0433747405649202E-002   2.6900082733006574E-002
  0.10164172319439377       -2.9945353861260043E-002   2.3372030086288256E-002
  0.10476979037023695       -2.0803548596839430E-002   5.3622689320116185E-002
  0.10211716800859730       -2.4952838475220295E-002   4.5637284150151197E-002
   9.9464545646957656E-002  -2.7527919496489271E-002   3.9337288803909541E-002
   9.6811923285318013E-002  -2.8528791660646351E-002   3.4722703281391404E-002
   9.4159300923678343E-002  -2.7955454967691501E-002   3.1793527582596612E-002
  0.12330998789776959       -3.5915050541965754E-002   1.3738498640494257E-003
  0.12044419515783472       -3.6419704957787943E-002   7.0129343570968228E-004
  0.11757840241789985       -3.6299467426027798E-002   1.6200082048568876E-004
  0.11471260967796497       -3.5554337946685319E-002  -2.4402798162218020E-004
  0.11184681693803011       -3.4184316519760560E-002  -5.1679297061407725E-004
  0.11621706668143938       -3.3925151648397212E-002   8.1621912270146840E-003
  0.11348024395042913       -3.4000542494432184E-002   7.8652774492770361E-003
  0.11074342121941888       -3.3681285008872422E-002   7.6930398762726435E-003
  0.10800659848840863       -3.2967379191718077E-002   7.6454785080015408E-003
  0.10526977575739843       -3.1858825042968941E-002   7.7225933444636796E-003
  0.10899431178031412       -3.1935252754828614E-002   1.5494917967760924E-002
  0.10637787144984583       -3.1581380031076377E-002   1.5343403224637800E-002
  0.10376143111937755       -3.1063102591717101E-002   1.5307977077865222E-002
  0.10114499078890926       -3.0380420436750787E-002   1.5388639527443321E-002
   9.8528550458441042E-002  -2.9533333566177405E-002   1.5585390573372132E-002
  0.10164172319439377       -2.9945353861260043E-002   2.3372030086288256E-002
   9.9137077656084843E-002  -2.9162217567720607E-002   2.3135670761791943E-002
   9.6632432117775890E-002  -2.8444920174561822E-002   2.3006812425263517E-002
   9.4127786579466924E-002  -2.7793461681783493E-002   2.2985455076703267E-002
   9.1623141041158054E-002  -2.7207842089385856E-002   2.3071598716110822E-002
   9.4159300923678343E-002  -2.7955454967691501E-002   3.1793527582596612E-002
   9.1757862569146087E-002  -2.6743055104364817E-002   3.1242080060739440E-002
   8.9356424214613844E-002  -2.5826737757406439E-002   3.0789545918467637E-002
   8.6954985860081629E-002  -2.5206502926816192E-002   3.0435925155781224E-002
   8.4553547505549359E-002  -2.4882350612594278E-002   3.0181217772680125E-002
  0.11184681693803011       -3.4184316519760560E-002  -5.1679297061407725E-004
  0.10848285731180313       -3.2642561184228980E-002  -4.1168111600425883E-004
  0.10511889768557617       -3.1382229979066145E-002  -1.2240179186717715E-005
  0.10175493805934917       -3.0403322904272112E-002   6.8152983983806037E-004
   9.8390978433122223E-002  -2.9705839959846714E-002   1.6696289410702558E-003
  0.10526977575739843       -3.1858825042968941E-002   7.7225933444636796E-003
  0.10219138214935808       -3.0635697699982714E-002   7.4312949799827804E-003
   9.9112988541317809E-002  -2.9578072300116443E-002   7.4167995696679812E-003
   9.6034594933277498E-002  -2.8685948843370460E-002   7.6791071135188238E-003
   9.2956201325237187E-002  -2.7959327329744710E-002   8.2182176115355721E-003
   9.8528550458441042E-002  -2.9533333566177405E-002   1.5585390573372132E-002
   9.5718196740545936E-002  -2.8628834215736337E-002   1.5013604177048862E-002
   9.2907843022650843E-002  -2.7773914621166795E-002   1.4701094606850006E-002
   9.0097489304755737E-002  -2.6968574782468974E-002   1.4647861862775891E-002
   8.7287135586860617E-002  -2.6212814699642789E-002   1.4853905944825760E-002
   9.1623141041158054E-002  -2.7207842089385856E-002   2.3071598716110822E-002
   8.9063301085366628E-002  -2.6621970731489988E-002   2.2335246475193901E-002
   8.6503461129575215E-002  -2.5969756942217231E-002   2.1840644932359887E-002
   8.3943621173783803E-002  -2.5251200721567515E-002   2.1587794087608910E-002
   8.1383781217992390E-002  -2.4466302069540771E-002   2.1576693940940684E-002
   8.4553547505549359E-002  -2.4882350612594278E-002   3.0181217772680125E-002
   8.2226695183820142E-002  -2.4615107247243723E-002   2.9396221874418066E-002
   7.9899842862090939E-002  -2.4165599263267619E-002   2.8835450546197364E-002
   7.7572990540361764E-002  -2.3533826660665905E-002   2.8498903788018129E-002
   7.5246138218632519E-002  -2.2719789439438809E-002   2.8386581599880445E-002
   9.8390978433122223E-002  -2.9705839959846714E-002   1.6696289410702558E-003
   9.5551700806316975E-002  -2.9029650945418539E-002   1.9409852566105168E-003
   9.2712423179511755E-002  -2.8114625660615497E-002   2.3126902253937376E-003
   8.9873145552706493E-002  -2.6960764105438153E-002   2.7847438474205427E-003
   8.7033867925901287E-002  -2.5568066279885726E-002   3.3571461226907795E-003
   9.2956201325237187E-002  -2.7959327329744710E-002   8.2182176115355721E-003
   9.0222506867595420E-002  -2.7234767454924147E-002   8.4606272804466642E-003
   8.7488812409953598E-002  -2.6348828914593628E-002   8.8138546344408986E-003
   8.4755117952311776E-002  -2.5301511708753239E-002   9.2778996735183167E-003
   8.2021423494670009E-002  -2.4092815837402803E-002   9.8527623976798484E-003
   8.7287135586860617E-002  -2.6212814699642789E-002   1.4853905944825760E-002
   8.4669493330222320E-002  -2.5439883964429755E-002   1.4989911362242717E-002
   8.2051851073583981E-002  -2.4583032168571599E-002   1.5247203496582824E-002
   7.9434208816945642E-002  -2.3642259312068439E-002   1.5625782347847051E-002
   7.6816566560307331E-002  -2.2617565394919936E-002   1.6125647916034436E-002
   8.1383781217992390E-002  -2.4466302069540771E-002   2.1576693940940684E-002
   7.8892660194197703E-002  -2.3645000473935501E-002   2.1528837501998698E-002
   7.6401539170402946E-002  -2.2817235422549705E-002   2.1612736811820535E-002
   7.3910418146608217E-002  -2.1983006915383581E-002   2.1828391870405757E-002
   7.1419297122813558E-002  -2.1142314952437097E-002   2.2175802677754583E-002
   7.5246138218632519E-002  -2.2719789439438809E-002   2.8386581599880445E-002
   7.2892007459521513E-002  -2.1850116983441137E-002   2.8077405699714925E-002
   7.0537876700410534E-002  -2.1051438676527839E-002   2.7910454580153121E-002
   6.8183745941299528E-002  -2.0323754518698826E-002   2.7885728241195049E-002
   6.5829615182188522E-002  -1.9667064509954202E-002   2.8003226682840665E-002
   8.7033867925901287E-002  -2.5568066279885726E-002   3.3571461226907795E-003
   8.3154807825907007E-002  -2.4266309133025632E-002   3.3503007067325341E-003
   7.9275747725912726E-002  -2.3385269613925896E-002   2.7095031054777952E-003
   7.5396687625918418E-002  -2.2924947722585701E-002   1.4347533189270900E-003
   7.1517627525924166E-002  -2.2885343459005503E-002  -4.7394865291972010E-004
   8.2021423494670009E-002  -2.4092815837402803E-002   9.8527623976798484E-003
   7.7659545484313086E-002  -2.2965585731319044E-002   9.4321248416220083E-003
   7.3297667473956218E-002  -2.2162665821278502E-002   8.6798036501353759E-003
   6.8935789463599434E-002  -2.1684056107281368E-002   7.5957988232197571E-003
   6.4573911453242483E-002  -2.1529756589327431E-002   6.1801103608750685E-003
   7.6816566560307331E-002  -2.2617565394919936E-002   1.6125647916034436E-002
   7.2274139189455078E-002  -2.1664862329612122E-002   1.5387625651594031E-002
   6.7731711818602672E-002  -2.0940062028631218E-002   1.4620188301591883E-002
   6.3189284447750349E-002  -2.0443164491977035E-002   1.3823335866027672E-002
   5.8646857076897985E-002  -2.0174169719649360E-002   1.2997068344901691E-002
   7.1419297122813558E-002  -2.1142314952437097E-002   2.2175802677754583E-002
   6.6998588941332843E-002  -2.0364138927905534E-002   2.1216803136648300E-002
   6.2577880759852128E-002  -1.9717458235983990E-002   2.0530657059846885E-002
   5.8157172578371434E-002  -1.9202272876672592E-002   2.0117364447350936E-002
   5.3736464396890705E-002  -1.8818582849971399E-002   1.9976925299160085E-002
   6.5829615182188522E-002  -1.9667064509954202E-002   2.8003226682840665E-002
   6.1832894739946492E-002  -1.9063415526198696E-002   2.6919657296784721E-002
   5.7836174297704532E-002  -1.8494854443336609E-002   2.6411209924900952E-002
   5.3839453855462509E-002  -1.7961381261368304E-002   2.6477884567189677E-002
   4.9842733413220541E-002  -1.7462995980293272E-002   2.7119681223650494E-002
   7.1517627525924166E-002  -2.2885343459005503E-002  -4.7394865291972010E-004
   7.2519356959439674E-002  -2.2731061267253883E-002  -7.9047953816913097E-004
   7.3521086392955237E-002  -2.1926705591399892E-002   1.3036253748883175E-003
   7.4522815826470773E-002  -2.0472276431444288E-002   5.8083660862523201E-003
   7.5524545259986309E-002  -1.8367773787386299E-002   1.2723742595922682E-002
   6.4573911453242483E-002  -2.1529756589327431E-002   6.1801103608750685E-003
   6.7572131924344192E-002  -2.1267697717187561E-002   7.0610476055006921E-003
   7.0570352395445957E-002  -2.0465809940632712E-002   9.5243311269923858E-003
   7.3568572866547638E-002  -1.9124093259663126E-002   1.3569960925349733E-002
   7.6566793337649375E-002  -1.7242547674278463E-002   1.9197937000572707E-002
   5.8646857076897985E-002  -2.0174169719649360E-002   1.2997068344901691E-002
   6.2813279064144939E-002  -1.9804334167121296E-002   1.4965229139715180E-002
   6.6979701051391963E-002  -1.9004914289865518E-002   1.7687446689954145E-002
   7.1146123038638986E-002  -1.7775910087881850E-002   2.1163720995617648E-002
   7.5312545025885885E-002  -1.6117321561170794E-002   2.5394052056705557E-002
   5.3736464396890705E-002  -1.8818582849971399E-002   1.9976925299160085E-002
   5.8242798378842005E-002  -1.8340970617055002E-002   2.2922065064474619E-002
   6.2749132360793311E-002  -1.7544018639098109E-002   2.5792972063773154E-002
   6.7255466342744624E-002  -1.6427726916100852E-002   2.8589646297055474E-002
   7.1761800324695924E-002  -1.4992095448063375E-002   3.1312087764321588E-002
   4.9842733413220541E-002  -1.7462995980293272E-002   2.7119681223650494E-002
   5.3860689868435230E-002  -1.6877607066988765E-002   3.0931555379778597E-002
   5.7878646323649918E-002  -1.6083122988330867E-002   3.3840907248449736E-002
   6.1896602778864662E-002  -1.5079543744319815E-002   3.5847736829663496E-002
   6.5914559234079295E-002  -1.3866869334955567E-002   3.6952044123420402E-002
   7.5524545259986309E-002  -1.8367773787386299E-002   1.2723742595922682E-002
   6.9576045882113080E-002  -1.6455889645862531E-002   1.3686006272219942E-002
   6.3627546504239796E-002  -1.5579315993509951E-002   9.5929258775682702E-003
   5.7679047126366539E-002  -1.5738052830328399E-002   4.4450141196789028E-004
   5.1730547748493283E-002  -1.6932100156318075E-002  -1.3759267124581420E-002
   7.6566793337649375E-002  -1.7242547674278463E-002   1.9197937000572707E-002
   6.6472251366916701E-002  -1.5502161198957476E-002   1.7844276958676353E-002
   5.6377709396184111E-002  -1.4583921848178139E-002   1.3253875802009929E-002
   4.6283167425451369E-002  -1.4487829621940146E-002   5.4267335305742403E-003
   3.6188625454718903E-002  -1.5213884520243859E-002  -5.6371498556322397E-003
   7.5312545025885885E-002  -1.6117321561170794E-002   2.5394052056705557E-002
   6.2890563418472656E-002  -1.4548432752052032E-002   2.1937631661245210E-002
   5.0468581811059413E-002  -1.3588527702845646E-002   1.7063073107193724E-002
   3.8046600203646121E-002  -1.3237606413551779E-002   1.0770376394550647E-002
   2.5624618596232884E-002  -1.3495668884170087E-002   3.0595415233169998E-003
   7.1761800324695924E-002  -1.4992095448063375E-002   3.1312087764321588E-002
   5.8830982036780791E-002  -1.3594704305146782E-002   2.5966070379926334E-002
   4.5900163748865672E-002  -1.2593133557513604E-002   2.1020517793118924E-002
   3.2969345460950587E-002  -1.1987383205163247E-002   1.6475430003898270E-002
   2.0038527173035475E-002  -1.1777453248095870E-002   1.2330807012265799E-002
   6.5914559234079295E-002  -1.3866869334955567E-002   3.6952044123420402E-002
   5.4293507221841203E-002  -1.2640975858241754E-002   2.9929593114719877E-002
   4.2672455209603083E-002  -1.1597739412181632E-002   2.5126209859785392E-002
   3.1051403197364963E-002  -1.0737159996774926E-002   2.2541894358617157E-002
   1.9430351185126926E-002  -1.0059237612021876E-002   2.2176646611215656E-002
   9.0363846902577233E-002   0.0000000000000000        4.9829230409406428E-002
   9.3965332769492149E-002  -5.3992567809146436E-003   5.3204950801568646E-002
   9.7566818636407079E-002  -1.0666267140692767E-002   5.4962434084074342E-002
  0.10116830450332201       -1.5801031079334362E-002   5.5101680256923517E-002
  0.10476979037023695       -2.0803548596839430E-002   5.3622689320116185E-002
   8.2426023918565530E-002   0.0000000000000000        4.4783622493152347E-002
   8.4638167475313511E-002  -4.5718116502020435E-003   4.8264799056933393E-002
   8.6850311032061492E-002  -9.0355749187576769E-003   5.0585528110037088E-002
   8.9062454588809487E-002  -1.3391289805666902E-002   5.1745809652463400E-002
   9.1274598145557481E-002  -1.7638956310929703E-002   5.1745643684212334E-002
   7.4244614905291606E-002   0.0000000000000000        4.0577558727355925E-002
   7.5525205750851809E-002  -3.7443665194894452E-003   4.4139993423265689E-002
   7.6805796596411999E-002  -7.4048826968225907E-003   4.6999770207477247E-002
   7.8086387441972188E-002  -1.0981548531999437E-002   4.9156889079990558E-002
   7.9366978287532364E-002  -1.4474364025019979E-002   5.0611350040805671E-002
   6.5819619862755502E-002   0.0000000000000000        3.7211039112017168E-002
   6.6626447596107030E-002  -2.9169213887768456E-003   4.0830533900565534E-002
   6.7433275329458572E-002  -5.7741904748875045E-003   4.4205160376394839E-002
   6.8240103062810115E-002  -8.5718072583319711E-003   4.7334918539505062E-002
   6.9046930796161671E-002  -1.1309771739110255E-002   5.0219808389896224E-002
   5.7151038790957176E-002   0.0000000000000000        3.4684063647136047E-002
   5.7941893011079215E-002  -2.0894762580642469E-003   3.8336420488832922E-002
   5.8732747231201247E-002  -4.1434982529524166E-003   4.2201698616789865E-002
   5.9523601451323280E-002  -6.1620659846645127E-003   4.6279898031006891E-002
   6.0314455671445319E-002  -8.1451794532005264E-003   5.0571018731483952E-002
  0.10476979037023695       -2.0803548596839430E-002   5.3622689320116185E-002
  0.10211716800859730       -2.4952838475220295E-002   4.5637284150151197E-002
   9.9464545646957656E-002  -2.7527919496489271E-002   3.9337288803909541E-002
   9.6811923285318013E-002  -2.8528791660646351E-002   3.4722703281391404E-002
   9.4159300923678343E-002  -2.7955454967691501E-002   3.1793527582596612E-002
   9.1274598145557481E-002  -1.7638956310929703E-002   5.1745643684212334E-002
   9.0070366872862240E-002  -2.1218976968614977E-002   4.6511518231432888E-002
   8.8866135600166984E-002  -2.3571754312791578E-002   4.2488765132818893E-002
   8.7661904327471743E-002  -2.4697288343459502E-002   3.9677384388370249E-002
   8.6457673054776488E-002  -2.4595579060618745E-002   3.8077375998086992E-002
   7.9366978287532364E-002  -1.4474364025019979E-002   5.0611350040805671E-002
   7.9137100634223495E-002  -1.7485115462009655E-002   4.7781538761608684E-002
   7.8907222980914571E-002  -1.9615589129093874E-002   4.5689062367018994E-002
   7.8677345327605716E-002  -2.0865785026272666E-002   4.4333920857036697E-002
   7.8447467674296820E-002  -2.1235703153545990E-002   4.3716114231661704E-002
   6.9046930796161671E-002  -1.1309771739110255E-002   5.0219808389896224E-002
   6.9317369292681077E-002  -1.3751253955404344E-002   4.9447345740678425E-002
   6.9587807789200484E-002  -1.5659423945396184E-002   4.8938180506509860E-002
   6.9858246285719891E-002  -1.7034281709085813E-002   4.8692312687390625E-002
   7.0128684782239312E-002  -1.7875827246473242E-002   4.8709742283320680E-002
   6.0314455671445319E-002  -8.1451794532005264E-003   5.0571018731483952E-002
   6.0611172848234980E-002  -1.0017392448799005E-002   5.1508939168642146E-002
   6.0907890025024634E-002  -1.1703258761698494E-002   5.2236119551291531E-002
   6.1204607201814296E-002  -1.3202778391898998E-002   5.2752559879432136E-002
   6.1501324378603957E-002  -1.4515951339400479E-002   5.3058260153063946E-002
   9.4159300923678343E-002  -2.7955454967691501E-002   3.1793527582596612E-002
   9.1757862569146087E-002  -2.6743055104364817E-002   3.1242080060739440E-002
   8.9356424214613844E-002  -2.5826737757406439E-002   3.0789545918467637E-002
   8.6954985860081629E-002  -2.5206502926816192E-002   3.0435925155781224E-002
   8.4553547505549359E-002  -2.4882350612594278E-002   3.0181217772680125E-002
   8.6457673054776488E-002  -2.4595579060618745E-002   3.8077375998086992E-002
   8.4198724368044084E-002  -2.3941041544112633E-002   3.7052092571593372E-002
   8.1939775681311638E-002  -2.3408090873784551E-002   3.6212875101113942E-002
   7.9680826994579207E-002  -2.2996727049634427E-002   3.5559723586648842E-002
   7.7421878307846803E-002  -2.2706950071662346E-002   3.5092638028198037E-002
   7.8447467674296820E-002  -2.1235703153545990E-002   4.3716114231661704E-002
   7.6418161231793111E-002  -2.1139027983860473E-002   4.2391490570721786E-002
   7.4388854789289416E-002  -2.0989443990162702E-002   4.1340085442225061E-002
   7.2359548346785735E-002  -2.0786951172452658E-002   4.0561898846171555E-002
   7.0330241904282026E-002  -2.0531549530730400E-002   4.0056930782561208E-002
   7.0128684782239312E-002  -1.7875827246473242E-002   4.8709742283320680E-002
   6.8416173160393251E-002  -1.8337014423608293E-002   4.7260274058124795E-002
   6.6703661538547218E-002  -1.8570797106540859E-002   4.6171176941800986E-002
   6.4991149916701199E-002  -1.8577175295270934E-002   4.5442450934349302E-002
   6.3278638294855138E-002  -1.8356148989798447E-002   4.5074096035769763E-002
   6.1501324378603957E-002  -1.4515951339400479E-002   5.3058260153063946E-002
   6.0192760153844484E-002  -1.5535000863356116E-002   5.1658443033802313E-002
   5.8884195929085004E-002  -1.6152150222918972E-002   5.0706149599841668E-002
   5.7575631704325517E-002  -1.6367399418089096E-002   5.0201379851182067E-002
   5.6267067479566057E-002  -1.6180748448866494E-002   5.0144133787823536E-002
   8.4553547505549359E-002  -2.4882350612594278E-002   3.0181217772680125E-002
   8.2226695183820142E-002  -2.4615107247243723E-002   2.9396221874418066E-002
   7.9899842862090939E-002  -2.4165599263267619E-002   2.8835450546197364E-002
   7.7572990540361764E-002  -2.3533826660665905E-002   2.8498903788018129E-002
   7.5246138218632519E-002  -2.2719789439438809E-002   2.8386581599880445E-002
   7.7421878307846803E-002  -2.2706950071662346E-002   3.5092638028198037E-002
   7.5312712221544009E-002  -2.2412677940311952E-002   3.4497557475238812E-002
   7.3203546135241229E-002  -2.1987828656027074E-002   3.4113624823090841E-002
   7.1094380048938421E-002  -2.1432402218807586E-002   3.3940840071754262E-002
   6.8985213962635669E-002  -2.0746398628653545E-002   3.3979203221229104E-002
   7.0330241904282026E-002  -2.0531549530730400E-002   4.0056930782561208E-002
   6.8425685384175594E-002  -2.0210248633380209E-002   3.9600078109213836E-002
   6.6521128864069148E-002  -1.9810058048786470E-002   3.9341296667447637E-002
   6.4616572343962717E-002  -1.9330977776949164E-002   3.9280586457262713E-002
   6.2712015823856257E-002  -1.8773007817868309E-002   3.9417947478659177E-002
   6.3278638294855138E-002  -1.8356148989798447E-002   4.5074096035769763E-002
   6.1565614671714952E-002  -1.8007819326448481E-002   4.4703783776343126E-002
   5.9852591048574759E-002  -1.7632287441545907E-002   4.4518466079267752E-002
   5.8139567425434552E-002  -1.7229553335090821E-002   4.4518142944543565E-002
   5.6426543802294379E-002  -1.6799617007083073E-002   4.4702814372170586E-002
   5.6267067479566057E-002  -1.6180748448866494E-002   5.0144133787823536E-002
   5.4732500084162028E-002  -1.5805390019516669E-002   4.9808674476626846E-002
   5.3197932688758012E-002  -1.5454516834305349E-002   4.9645133058551255E-002
   5.1663365293353990E-002  -1.5128128893232375E-002   4.9653509533596762E-002
   5.0128797897949967E-002  -1.4826226196297781E-002   4.9833803901763341E-002
   7.5246138218632519E-002  -2.2719789439438809E-002   2.8386581599880445E-002
   7.2892007459521513E-002  -2.1850116983441137E-002   2.8077405699714925E-002
   7.0537876700410534E-002  -2.1051438676527839E-002   2.7910454580153121E-002
   6.8183745941299528E-002  -2.0323754518698826E-002   2.7885728241195049E-002
   6.5829615182188522E-002  -1.9667064509954202E-002   2.8003226682840665E-002
   6.8985213962635669E-002  -2.0746398628653545E-002   3.3979203221229104E-002
   6.6785373708911397E-002  -2.0014051089389112E-002   3.3615377461165066E-002
   6.4585533455187139E-002  -1.9319592804838338E-002   3.3417907931270752E-002
   6.2385693201462852E-002  -1.8663023775000960E-002   3.3386794631546271E-002
   6.0185852947738594E-002  -1.8044343999877477E-002   3.3522037561991513E-002
   6.2712015823856257E-002  -1.8773007817868309E-002   3.9417947478659177E-002
   6.0690597525084794E-002  -1.8177985195337115E-002   3.9032576753067393E-002
   5.8669179226313338E-002  -1.7587746933148810E-002   3.8837693707211532E-002
   5.6647760927541882E-002  -1.7002293031303291E-002   3.8833298341091303E-002
   5.4626342628770468E-002  -1.6421623489800669E-002   3.9019390654706970E-002
   5.6426543802294379E-002  -1.6799617007083073E-002   4.4702814372170586E-002
   5.4607678908041718E-002  -1.6341919301285104E-002   4.4329003575421889E-002
   5.2788814013789091E-002  -1.5855901061459322E-002   4.4169811907975004E-002
   5.0969949119536430E-002  -1.5341562287605552E-002   4.4225239369829875E-002
   4.9151084225283775E-002  -1.4798902979723819E-002   4.4495285960986633E-002
   5.0128797897949967E-002  -1.4826226196297781E-002   4.9833803901763341E-002
   4.8536617857782183E-002  -1.4505853407233080E-002   4.9504657928228502E-002
   4.6944437817614412E-002  -1.4124055189769801E-002   4.9414262533561390E-002
   4.5352257777446635E-002  -1.3680831543907762E-002   4.9562617717762138E-002
   4.3760077737278830E-002  -1.3176182469647080E-002   4.9949723480830821E-002
   6.5829615182188522E-002  -1.9667064509954202E-002   2.8003226682840665E-002
   6.1832894739946492E-002  -1.9063415526198696E-002   2.6919657296784721E-002
   5.7836174297704532E-002  -1.8494854443336609E-002   2.6411209924900952E-002
   5.3839453855462509E-002  -1.7961381261368304E-002   2.6477884567189677E-002
   4.9842733413220541E-002  -1.7462995980293272E-002   2.7119681223650494E-002
   6.0185852947738594E-002  -1.8044343999877477E-002   3.3522037561991513E-002
   5.6714081539516847E-002  -1.7467647713867746E-002   3.2431964299061422E-002
   5.3242310131295059E-002  -1.6937029151371991E-002   3.1816667089999320E-002
   4.9770538723073278E-002  -1.6452488312390191E-002   3.1676145934805576E-002
   4.6298767314851524E-002  -1.6014025196922688E-002   3.2010400833479669E-002
   5.4626342628770468E-002  -1.6421623489800669E-002   3.9019390654706970E-002
   5.1579174294264667E-002  -1.5871879901536753E-002   3.7911823692281979E-002
   4.8532005959758970E-002  -1.5379203859407310E-002   3.7178686823421146E-002
   4.5484837625253266E-002  -1.4943595363412355E-002   3.6819980048124215E-002
   4.2437669290747521E-002  -1.4565054413551964E-002   3.6835703366391359E-002
   4.9151084225283775E-002  -1.4798902979723819E-002   4.4495285960986633E-002
   4.6428173004190061E-002  -1.4276112089205838E-002   4.3359235476446600E-002
   4.3705261783096278E-002  -1.3821378567442717E-002   4.2497269125166555E-002
   4.0982350562002494E-002  -1.3434702414434351E-002   4.1909386907146205E-002
   3.8259439340908731E-002  -1.3116083630181227E-002   4.1595588822385801E-002
   4.3760077737278830E-002  -1.3176182469647080E-002   4.9949723480830821E-002
   4.1261077669292878E-002  -1.2680344276874783E-002   4.8774199651555189E-002
   3.8762077601306913E-002  -1.2263553275477984E-002   4.7772413995235297E-002
   3.6263077533320955E-002  -1.1925809465456426E-002   4.6944366511870922E-002
   3.3764077465334996E-002  -1.1667112846810601E-002   4.6290057201462731E-002
   4.9842733413220541E-002  -1.7462995980293272E-002   2.7119681223650494E-002
   5.3860689868435230E-002  -1.6877607066988765E-002   3.0931555379778597E-002
   5.7878646323649918E-002  -1.6083122988330867E-002   3.3840907248449736E-002
   6.1896602778864662E-002  -1.5079543744319815E-002   3.5847736829663496E-002
   6.5914559234079295E-002  -1.3866869334955567E-002   3.6952044123420402E-002
   4.6298767314851524E-002  -1.6014025196922688E-002   3.2010400833479669E-002
   4.9528339949818589E-002  -1.5490093393389887E-002   3.5832336663581238E-002
   5.2757912584785682E-002  -1.4749146490212625E-002   3.8980027140644385E-002
   5.5987485219752761E-002  -1.3791184487391136E-002   4.1453472264669569E-002
   5.9217057854719840E-002  -1.2616207384925193E-002   4.3252672035656525E-002
   4.2437669290747521E-002  -1.4565054413551964E-002   3.6835703366391359E-002
   4.5107135039885948E-002  -1.4102579719790981E-002   4.0675620804757381E-002
   4.7776600789024348E-002  -1.3415169992094439E-002   4.4069569824504051E-002
   5.0446066538162790E-002  -1.2502825230462401E-002   4.7017550425631507E-002
   5.3115532287301176E-002  -1.1365545434894569E-002   4.9519562608139930E-002
   3.8259439340908731E-002  -1.3116083630181227E-002   4.1595588822385801E-002
   4.0597075138637362E-002  -1.2715066046192144E-002   4.5461407803307402E-002
   4.2934710936365951E-002  -1.2081193493976086E-002   4.9109535300028852E-002
   4.5272346734094568E-002  -1.1214465973533472E-002   5.2539971312549880E-002
   4.7609982531823171E-002  -1.0114883484863904E-002   5.5752715840870617E-002
   3.3764077465334996E-002  -1.1667112846810601E-002   4.6290057201462731E-002
   3.5998160246072747E-002  -1.1327552372593253E-002   5.0189697659231147E-002
   3.8232243026810497E-002  -1.0747216995857969E-002   5.4099923567218516E-002
   4.0466325807548234E-002  -9.9261067166048940E-003   5.8020734925424325E-002
   4.2700408588285999E-002  -8.8642215348334608E-003   6.1952131733848614E-002
   6.5914559234079295E-002  -1.3866869334955567E-002   3.6952044123420402E-002
   5.4293507221841203E-002  -1.2640975858241754E-002   2.9929593114719877E-002
   4.2672455209603083E-002  -1.1597739412181632E-002   2.5126209859785392E-002
   3.1051403197364963E-002  -1.0737159996774926E-002   2.2541894358617157E-002
   1.9430351185126926E-002  -1.0059237612021876E-002   2.2176646611215656E-002
   5.9217057854719840E-002  -1.2616207384925193E-002   4.3252672035656525E-002
   4.9562155392956331E-002  -1.1439597504579568E-002   3.6375075348335117E-002
   3.9907252931192808E-002  -1.0476737168119560E-002   3.1210710008196474E-002
   3.0252350469429361E-002  -9.7276263755447720E-003   2.7759576015241413E-002
   2.0597448007665720E-002  -9.1922651268551148E-003   2.6021673369468257E-002
   5.3115532287301176E-002  -1.1365545434894569E-002   4.9519562608139930E-002
   4.4920942969428744E-002  -1.0238219150917494E-002   4.2755727728966381E-002
   3.6726353651556257E-002  -9.3557349240575363E-003   3.7199287790392228E-002
   2.8531764333683811E-002  -8.7180927543145607E-003   3.2850242792417383E-002
   2.0337175015811393E-002  -8.3252926416884643E-003   2.9708592735041783E-002
   4.7609982531823171E-002  -1.0114883484863904E-002   5.5752715840870617E-002
   4.0369869951258248E-002  -9.0368407972553078E-003   4.9071550256613257E-002
   3.3129757370693319E-002  -8.2347326799955441E-003   4.3091943206371872E-002
   2.5889644790128473E-002  -7.7085591330843225E-003   3.7813894690146052E-002
   1.8649532209563460E-002  -7.4583201565217583E-003   3.3237404707935694E-002
   4.2700408588285999E-002  -8.8642215348334608E-003   6.1952131733848614E-002
   3.5908936338445052E-002  -7.8354624435931219E-003   5.5322542931275975E-002
   2.9117464088604134E-002  -7.1137304359335241E-003   4.8888676256135299E-002
   2.2325991838763173E-002  -6.6990255118542716E-003   4.2650531708426864E-002
   1.5534519588922213E-002  -6.5913476713550523E-003   3.6608109288150725E-002
   5.7151038790957176E-002   0.0000000000000000        3.4684063647136047E-002
   5.7941893011079215E-002  -2.0894762580642469E-003   3.8336420488832922E-002
   5.8732747231201247E-002  -4.1434982529524166E-003   4.2201698616789865E-002
   5.9523601451323280E-002  -6.1620659846645127E-003   4.6279898031006891E-002
   6.0314455671445319E-002  -8.1451794532005264E-003   5.0571018731483952E-002
   4.8650655408903357E-002   0.0000000000000000        3.2777297967744999E-002
   4.9589267756187008E-002  -1.7120805483657889E-003   3.6956447611446716E-002
   5.0527880103470667E-002  -3.4356662552035254E-003   4.1218192223211589E-002
   5.1466492450754318E-002  -5.1707571205132034E-003   4.5562531803039631E-002
   5.2405104798037984E-002  -6.9173531442948358E-003   4.9989466350930850E-002
   4.0730253435600765E-002   0.0000000000000000        3.1271407708876417E-002
   4.1686297591849129E-002  -1.3346848386673283E-003   3.5930390732934948E-002
   4.2642341748097501E-002  -2.7278342574546298E-003   4.0541642406859729E-002
   4.3598385904345872E-002  -4.1794482563619001E-003   4.5105162730650787E-002
   4.4554430060594237E-002  -5.6895268353891497E-003   4.9620951704308094E-002
   3.3389832871049394E-002   0.0000000000000000        3.0166392870530315E-002
   3.4232982518065572E-002  -9.5728912896886863E-004   3.5258249853297619E-002
   3.5076132165081750E-002  -2.0200022597057356E-003   4.0172049167734293E-002
   3.5919281812097928E-002  -3.1881393922105991E-003   4.4907790813840311E-002
   3.6762431459114113E-002  -4.4617005264834600E-003   4.9465474791615699E-002
   2.6629393715249243E-002   0.0000000000000000        2.9462253452706678E-002
   2.7229322534836328E-002  -5.7989341927040892E-004   3.4940024972534747E-002
   2.7829251354423420E-002  -1.3121702619568430E-003   4.0109412505835267E-002
   2.8429180174010506E-002  -2.1968305280592910E-003   4.4970416052608264E-002
   2.9029108993597594E-002  -3.2338742175777712E-003   4.9523035612853705E-002
   6.0314455671445319E-002  -8.1451794532005264E-003   5.0571018731483952E-002
   6.0611172848234980E-002  -1.0017392448799005E-002   5.1508939168642146E-002
   6.0907890025024634E-002  -1.1703258761698494E-002   5.2236119551291531E-002
   6.1204607201814296E-002  -1.3202778391898998E-002   5.2752559879432136E-002
   6.1501324378603957E-002  -1.4515951339400479E-002   5.3058260153063946E-002
   5.2405104798037984E-002  -6.9173531442948358E-003   4.9989466350930850E-002
   5.2529880378653318E-002  -8.5775984952238798E-003   5.1210137975825173E-002
   5.2654655959268659E-002  -1.0053637341975780E-002   5.2297666462879602E-002
   5.2779431539884028E-002  -1.1345469684550531E-002   5.3252051812094227E-002
   5.2904207120499355E-002  -1.2453095522948147E-002   5.4073294023469012E-002
   4.4554430060594237E-002  -5.6895268353891497E-003   4.9620951704308094E-002
   4.4584860961704213E-002  -7.1378045416487478E-003   5.1122234338416686E-002
   4.4615291862814176E-002  -8.4040159222530542E-003   5.2567970751354359E-002
   4.4645722763924138E-002  -9.4881609772020717E-003   5.3958160943121149E-002
   4.4676153665034128E-002  -1.0390239706495816E-002   5.5292804913716985E-002
   3.6762431459114113E-002  -4.4617005264834600E-003   4.9465474791615699E-002
   3.6776114597387631E-002  -5.6980105880736036E-003   5.1245228256416725E-002
   3.6789797735661156E-002  -6.7543945025303207E-003   5.3047032416715788E-002
   3.6803480873934688E-002  -7.6308522698536017E-003   5.4870887272512832E-002
   3.6817164012208206E-002  -8.3273838900434979E-003   5.6716792823807927E-002
   2.9029108993597594E-002  -3.2338742175777712E-003   4.9523035612853705E-002
   2.9103641285703606E-002  -4.2582166344984854E-003   5.1579119729825304E-002
   2.9178173577809628E-002  -5.1047730828076114E-003   5.3734851458963860E-002
   2.9252705869915647E-002  -5.7735435625051552E-003   5.5990230800269367E-002
   2.9327238162021659E-002  -6.2645280735911454E-003   5.8345257753741823E-002
   6.1501324378603957E-002  -1.4515951339400479E-002   5.3058260153063946E-002
   6.0192760153844484E-002  -1.5535000863356116E-002   5.1658443033802313E-002
   5.8884195929085004E-002  -1.6152150222918972E-002   5.0706149599841668E-002
   5.7575631704325517E-002  -1.6367399418089096E-002   5.0201379851182067E-002
   5.6267067479566057E-002  -1.6180748448866494E-002   5.0144133787823536E-002
   5.2904207120499355E-002  -1.2453095522948147E-002   5.4073294023469012E-002
   5.1991185065450599E-002  -1.3312063892627752E-002   5.3348063490082240E-002
   5.1078163010401849E-002  -1.3857923829048413E-002   5.2966393610815864E-002
   5.0165140955353099E-002  -1.4090675332210209E-002   5.2928284385669919E-002
   4.9252118900304349E-002  -1.4010318402113059E-002   5.3233735814644384E-002
   4.4676153665034128E-002  -1.0390239706495816E-002   5.5292804913716985E-002
   4.4054710748515476E-002  -1.1089126921899388E-002   5.5153369235071269E-002
   4.3433267831996844E-002  -1.1563697435177881E-002   5.5253531179365309E-002
   4.2811824915478199E-002  -1.1813951246331292E-002   5.5593290746599182E-002
   4.2190381998959560E-002  -1.1839888355359637E-002   5.6172647936772832E-002
   3.6817164012208206E-002  -8.3273838900434979E-003   5.6716792823807927E-002
   3.6383337203039066E-002  -8.8661899511709823E-003   5.7074360268769365E-002
   3.5949510393869948E-002  -9.2694710413073079E-003   5.7567562305490046E-002
   3.5515683584700808E-002  -9.5372271604523863E-003   5.8196398933969856E-002
   3.5081856775531689E-002  -9.6694583086062089E-003   5.8960870154208971E-002
   2.9327238162021659E-002  -6.2645280735911454E-003   5.8345257753741823E-002
   2.8977064429021419E-002  -6.6432529804426668E-003   5.9111036591176620E-002
   2.8626890696021184E-002  -6.9752446474367780E-003   5.9908486989190032E-002
   2.8276716963020955E-002  -7.2605030745734357E-003   6.0737608947782060E-002
   2.7926543230020709E-002  -7.4990282618527665E-003   6.1598402466952626E-002
   5.6267067479566057E-002  -1.6180748448866494E-002   5.0144133787823536E-002
   5.4732500084162028E-002  -1.5805390019516669E-002   4.9808674476626846E-002
   5.3197932688758012E-002  -1.5454516834305349E-002   4.9645133058551255E-002
   5.1663365293353990E-002  -1.5128128893232375E-002   4.9653509533596762E-002
   5.0128797897949967E-002  -1.4826226196297781E-002   4.9833803901763341E-002
   4.9252118900304349E-002  -1.4010318402113059E-002   5.3233735814644384E-002
   4.7899721817296168E-002  -1.3767038854289856E-002   5.2855866379666772E-002
   4.6547324734288034E-002  -1.3511022504273405E-002   5.2670419676359617E-002
   4.5194927651279873E-002  -1.3242269352063794E-002   5.2677395704723136E-002
   4.3842530568271698E-002  -1.2960779397660854E-002   5.2876794464757307E-002
   4.2190381998959560E-002  -1.1839888355359637E-002   5.6172647936772832E-002
   4.1040660066896717E-002  -1.1728687689062975E-002   5.5789590424345954E-002
   3.9890938134833853E-002  -1.1567528174241518E-002   5.5619460482138949E-002
   3.8741216202770996E-002  -1.1356409810895144E-002   5.5662258110152026E-002
   3.7591494270708160E-002  -1.1095332599023885E-002   5.5917983308385204E-002
   3.5081856775531689E-002  -9.6694583086062089E-003   5.8960870154208971E-002
   3.4155314832963586E-002  -9.6903365238361558E-003   5.8609846610664318E-002
   3.3228772890395504E-002  -9.6240338442095744E-003   5.8492255475889113E-002
   3.2302230947827408E-002  -9.4705502697265149E-003   5.8608096749883508E-002
   3.1375689005259326E-002  -9.2298858003869513E-003   5.8957370432647226E-002
   2.7926543230020709E-002  -7.4990282618527665E-003   6.1598402466952626E-002
   2.7243686115496837E-002  -7.6519853586092881E-003   6.1316634938621981E-002
   2.6560829000972973E-002  -7.6805395141776346E-003   6.1288804657610184E-002
   2.5877971886449098E-002  -7.5846907285579144E-003   6.1514911623917423E-002
   2.5195114771925223E-002  -7.3644390017499617E-003   6.1994955837543636E-002
   5.0128797897949967E-002  -1.4826226196297781E-002   4.9833803901763341E-002
   4.8536617857782183E-002  -1.4505853407233080E-002   4.9504657928228502E-002
   4.6944437817614412E-002  -1.4124055189769801E-002   4.9414262533561390E-002
   4.5352257777446635E-002  -1.3680831543907762E-002   4.9562617717762138E-002
   4.3760077737278830E-002  -1.3176182469647080E-002   4.9949723480830821E-002
   4.3842530568271698E-002  -1.2960779397660854E-002   5.2876794464757307E-002
   4.2480258161309833E-002  -1.2652997906551916E-002   5.2624672427483837E-002
   4.1117985754347962E-002  -1.2305370144223962E-002   5.2593615077754390E-002
   3.9755713347386062E-002  -1.1917896110677107E-002   5.2783622415568887E-002
   3.8393440940424170E-002  -1.1490575805911313E-002   5.3194694440927393E-002
   3.7591494270708160E-002  -1.1095332599023885E-002   5.5917983308385204E-002
   3.6441443605628246E-002  -1.0800142405870621E-002   5.5721306050193611E-002
   3.5291392940548352E-002  -1.0486685098678127E-002   5.5728007588222078E-002
   3.4141342275468438E-002  -1.0154960677446482E-002   5.5938087922470493E-002
   3.2991291610388572E-002  -9.8049691421755181E-003   5.6351547052939016E-002
   3.1375689005259326E-002  -9.2298858003869513E-003   5.8957370432647226E-002
   3.0420174190737486E-002  -8.9472869051894187E-003   5.8794558796357893E-002
   2.9464659376215636E-002  -8.6680000531323461E-003   5.8817440064964546E-002
   2.8509144561693796E-002  -8.3920252442158134E-003   5.9026014238467213E-002
   2.7553629747171973E-002  -8.1193624784397928E-003   5.9420281316865976E-002
   2.5195114771925223E-002  -7.3644390017499617E-003   6.1994955837543636E-002
   2.4416449916637509E-002  -7.0944314045081752E-003   6.1844430665976502E-002
   2.3637785061349795E-002  -6.8493150075865025E-003   6.1861912507981551E-002
   2.2859120206062077E-002  -6.6290898109852264E-003   6.2047401363558831E-002
   2.2080455350774367E-002  -6.4337558147039564E-003   6.2400897232708252E-002
   4.3760077737278830E-002  -1.3176182469647080E-002   4.9949723480830821E-002
   4.1261077669292878E-002  -1.2680344276874783E-002   4.8774199651555189E-002
   3.8762077601306913E-002  -1.2263553275477984E-002   4.7772413995235297E-002
   3.6263077533320955E-002  -1.1925809465456426E-002   4.6944366511870922E-002
   3.3764077465334996E-002  -1.1667112846810601E-002   4.6290057201462731E-002
   3.8393440940424170E-002  -1.1490575805911313E-002   5.3194694440927393E-002
   3.6095611171240632E-002  -1.1075841725445790E-002   5.1939057248719916E-002
   3.3797781402057088E-002  -1.0726126364799811E-002   5.0912022481161348E-002
   3.1499951632873543E-002  -1.0441429723973427E-002   5.0113590138252069E-002
   2.9202121863689992E-002  -1.0221751802966472E-002   4.9543760219991628E-002
   3.2991291610388572E-002  -9.8049691421755181E-003   5.6351547052939016E-002
   3.0949496391700707E-002  -9.4713391740168656E-003   5.5029824969355677E-002
   2.8907701173012886E-002  -9.1886994541218042E-003   5.3991569562114664E-002
   2.6865905954325045E-002  -8.9570499824902609E-003   5.3236780831216017E-002
   2.4824110735637228E-002  -8.7763907591223711E-003   5.2765458776659849E-002
   2.7553629747171973E-002  -8.1193624784397928E-003   5.9420281316865976E-002
   2.5822733330673163E-002  -7.8668366225877959E-003   5.8046502813462741E-002
   2.4091836914174353E-002  -7.6512725434436588E-003   5.7011055238094979E-002
   2.2360940497675522E-002  -7.4726702410070952E-003   5.6313938590763057E-002
   2.0630044081176729E-002  -7.3310297152782561E-003   5.5955152871466796E-002
   2.2080455350774367E-002  -6.4337558147039564E-003   6.2400897232708252E-002
   2.0715321988157898E-002  -6.2623340711589759E-003   6.0989090781040839E-002
   1.9350188625541442E-002  -6.1138456327656521E-003   5.9970479509102448E-002
   1.7985055262924973E-002  -5.9882904995240752E-003   5.9345063416893079E-002
   1.6619921900308504E-002  -5.8856686714341966E-003   5.9112842504412566E-002
   3.3764077465334996E-002  -1.1667112846810601E-002   4.6290057201462731E-002
   3.5998160246072747E-002  -1.1327552372593253E-002   5.0189697659231147E-002
   3.8232243026810497E-002  -1.0747216995857969E-002   5.4099923567218516E-002
   4.0466325807548234E-002  -9.9261067166048940E-003   5.8020734925424325E-002
   4.2700408588285999E-002  -8.8642215348334608E-003   6.1952131733848614E-002
   2.9202121863689992E-002  -1.0221751802966472E-002   4.9543760219991628E-002
   3.1387722202855101E-002  -9.9160456141474118E-003   5.3807202338542498E-002
   3.3573322542020230E-002  -9.3732641698839880E-003   5.7963094123729547E-002
   3.5758922881185359E-002  -8.5934074701767144E-003   6.2011435575552692E-002
   3.7944523220350468E-002  -7.5764755150252716E-003   6.5952226694011962E-002
   2.4824110735637228E-002  -8.7763907591223711E-003   5.2765458776659849E-002
   2.6843092849647344E-002  -8.5045388557012103E-003   5.7389002908918713E-002
   2.8862074963657440E-002  -7.9993113439099442E-003   6.1786860924231461E-002
   3.0881057077667560E-002  -7.2607082237486440E-003   6.5959032822597893E-002
   3.2900039191677680E-002  -6.2887294952171380E-003   6.9905518604018224E-002
   2.0630044081176729E-002  -7.3310297152782561E-003   5.5955152871466796E-002
   2.2364272186449458E-002  -7.0930320972552169E-003   6.0935099370359805E-002
   2.4098500291722155E-002  -6.6253585179359316E-003   6.5571223968724390E-002
   2.5832728396994884E-002  -5.9280089773205190E-003   6.9863526666560413E-002
   2.7566956502267582E-002  -5.0009834754090876E-003   7.3812007463867763E-002
   1.6619921900308504E-002  -5.8856686714341966E-003   5.9112842504412566E-002
   1.7951260213261447E-002  -5.6815253388091680E-003   6.4445491722866011E-002
   1.9282598526214362E-002  -5.2514056919619190E-003   6.9316183257208452E-002
   2.0613936839167284E-002  -4.5953097308925051E-003   7.3724917107439836E-002
   2.1945275152120206E-002  -3.7132374556008707E-003   7.7671693273560216E-002
   4.2700408588285999E-002  -8.8642215348334608E-003   6.1952131733848614E-002
   3.5908936338445052E-002  -7.8354624435931219E-003   5.5322542931275975E-002
   2.9117464088604134E-002  -7.1137304359335241E-003   4.8888676256135299E-002
   2.2325991838763173E-002  -6.6990255118542716E-003   4.2650531708426864E-002
   1.5534519588922213E-002  -6.5913476713550523E-003   3.6608109288150725E-002
   3.7944523220350468E-002  -7.5764755150252716E-003   6.5952226694011962E-002
   3.1478910077577790E-002  -6.5868474435217261E-003   5.8864821157177782E-002
   2.5013296934805127E-002  -5.8889023947573671E-003   5.2233411707048261E-002
   1.8547683792032435E-002  -5.4826403687328329E-003   4.6057998343622869E-002
   1.2082070649259757E-002  -5.3680613654473186E-003   4.0338581066901691E-002
   3.2900039191677680E-002  -6.2887294952171380E-003   6.9905518604018224E-002
   2.7020559115245382E-002  -5.3382324434499417E-003   6.2375640393764004E-002
   2.1141079038813106E-002  -4.6640743535812240E-003   5.5562032229486039E-002
   1.5261598962380777E-002  -4.2662552256112311E-003   4.9464694111184947E-002
   9.3821188859484900E-003  -4.1447750595396959E-003   4.4083626038859791E-002
   2.7566956502267582E-002  -5.0009834754090876E-003   7.3812007463867763E-002
   2.2533883451447734E-002  -4.0896174433781851E-003   6.5855000641034125E-002
   1.7500810400627877E-002  -3.4392463124053516E-003   5.8874537823448925E-002
   1.2467737349808057E-002  -3.0498700824897664E-003   5.2870619011112466E-002
   7.4346642989881785E-003  -2.9214887536320733E-003   4.7843244204024193E-002
   2.1945275152120206E-002  -3.7132374556008707E-003   7.7671693273560216E-002
   1.8018883086184920E-002  -2.8410024433067615E-003   6.9302901898988134E-002
   1.4092491020249627E-002  -2.2144182712288824E-003   6.2170928488936822E-002
   1.0166098954314331E-002  -1.8334849393683746E-003   5.6275773043405766E-002
   6.2397068883789930E-003  -1.6982024477243396E-003   5.1617435562395508E-002
   2.6629393715249243E-002   0.0000000000000000        2.9462253452706678E-002
   2.7229322534836328E-002  -5.7989341927040892E-004   3.4940024972534747E-002
   2.7829251354423420E-002  -1.3121702619568430E-003   4.0109412505835267E-002
   2.8429180174010506E-002  -2.1968305280592910E-003   4.4970416052608264E-002
   2.9029108993597594E-002  -3.2338742175777712E-003   4.9523035612853705E-002
   2.0111982053429622E-002   0.0000000000000000        2.9021108603368557E-002
   2.0442978827858723E-002  -4.3529997605216281E-004   3.4311501947129681E-002
   2.0773975602287824E-002  -9.8402392198096520E-004   3.9372415187102383E-002
   2.1104972376716925E-002  -1.6461718377864089E-003   4.4203848323286651E-002
   2.1435969151146029E-002  -2.4217437234684992E-003   4.8805801355682479E-002
   1.3500643970819825E-002   0.0000000000000000        2.8705077470478995E-002
   1.3641612582830056E-002  -2.9070653283391366E-004   3.3847052091712557E-002
   1.3782581194840287E-002  -6.5587758200508911E-004   3.8838450491896798E-002
   1.3923549806850516E-002  -1.0955131475135233E-003   4.3679272671031735E-002
   1.4064518418860746E-002  -1.6096132293592176E-003   4.8369518629117356E-002
   6.7953794674198587E-003   0.0000000000000000        2.8514160054037990E-002
   6.8252237997503337E-003  -1.4611308961566603E-004   3.3546675406283359E-002
   6.8550681320808078E-003  -3.2773124202921302E-004   3.8507518420218545E-002
   6.8849124644112802E-003  -5.4485445724063771E-004   4.3396689095843516E-002
   6.9147567967417544E-003  -7.9748273524994770E-004   4.8214187433158300E-002
  -3.8114567702781169E-006   0.0000000000000000        2.8448356354045544E-002
  -6.1875213804452739E-006  -1.5196463974175359E-006   3.3410371890842117E-002
  -8.5635859906132983E-006   4.1509794666480526E-007   3.8379618972067604E-002
  -1.0939650600781323E-005   5.8042330322478908E-006   4.3356097597722007E-002
  -1.3315715210949347E-005   1.4647758859337792E-005   4.8339807767805332E-002
   2.9029108993597594E-002  -3.2338742175777712E-003   4.9523035612853705E-002
   2.9103641285703606E-002  -4.2582166344984854E-003   5.1579119729825304E-002
   2.9178173577809628E-002  -5.1047730828076114E-003   5.3734851458963860E-002
   2.9252705869915647E-002  -5.7735435625051552E-003   5.5990230800269367E-002
   2.9327238162021659E-002  -6.2645280735911454E-003   5.8345257753741823E-002
   2.1435969151146029E-002  -2.4217437234684992E-003   4.8805801355682479E-002
   2.1580499252899100E-002  -3.1882877620927719E-003   5.1208557596602401E-002
   2.1725029354652176E-002  -3.8233521367247798E-003   5.3651661844649430E-002
   2.1869559456405247E-002  -4.3269368473645726E-003   5.6135114099823684E-002
   2.2014089558158319E-002  -4.6990418940120668E-003   5.8658914362125052E-002
   1.4064518418860746E-002  -1.6096132293592176E-003   4.8369518629117356E-002
   1.4219746725221085E-002  -2.1183588896870722E-003   5.1072640689366233E-002
   1.4374975031581421E-002  -2.5419311906419908E-003   5.3756811151702499E-002
   1.4530203337941756E-002  -2.8803301322239661E-003   5.6422030016126119E-002
   1.4685431644302095E-002  -3.1335557144329916E-003   5.9068297282637100E-002
   6.9147567967417544E-003  -7.9748273524994770E-004   4.8214187433158300E-002
   7.0213837026695588E-003  -1.0484300172813690E-003   5.1171369008116863E-002
   7.1280106085973606E-003  -1.2605102445591839E-003   5.4050299380122992E-002
   7.2346375145251642E-003  -1.4337234170833577E-003   5.6850978549176742E-002
   7.3412644204529677E-003  -1.5680695348539216E-003   5.9573406515277975E-002
  -1.3315715210949347E-005   1.4647758859337792E-005   4.8339807767805332E-002
  -1.4589814755473773E-005   2.1498855124335060E-005   5.1504742552854255E-002
  -1.5863914299999067E-005   2.0910701523628537E-005   5.4532126529910942E-002
  -1.7138013844522626E-005   1.2883298057226136E-005   5.7421959698975414E-002
  -1.8412113389048787E-005  -2.5833552748377731E-006   6.0174242060047650E-002
   2.9327238162021659E-002  -6.2645280735911454E-003   5.8345257753741823E-002
   2.8977064429021419E-002  -6.6432529804426668E-003   5.9111036591176620E-002
   2.8626890696021184E-002  -6.9752446474367780E-003   5.9908486989190032E-002
   2.8276716963020955E-002  -7.2605030745734357E-003   6.0737608947782060E-002
   2.7926543230020709E-002  -7.4990282618527665E-003   6.1598402466952626E-002
   2.2014089558158319E-002  -4.6990418940120668E-003   5.8658914362125052E-002
   2.1709064937587265E-002  -4.9851198067668787E-003   5.9466315363242823E-002
   2.1404040317016215E-002  -5.2306231157285537E-003   6.0332343028640364E-002
   2.1099015696445157E-002  -5.4355518208970520E-003   6.1256997358317661E-002
   2.0793991075874110E-002  -5.5999059222724273E-003   6.2240278352274726E-002
   1.4685431644302095E-002  -3.1335557144329916E-003   5.9068297282637100E-002
   1.4452511239861394E-002  -3.3269866330911148E-003   5.9911161811373570E-002
   1.4219590835420688E-002  -3.4860015840203424E-003   6.0839608108091019E-002
   1.3986670430979984E-002  -3.6106005672206804E-003   6.1853636172789363E-002
   1.3753750026539280E-002  -3.7007835826920951E-003   6.2953246005468672E-002
   7.3412644204529677E-003  -1.5680695348539216E-003   5.9573406515277975E-002
   7.2074033358437897E-003  -1.6688534594153457E-003   6.0445575935568922E-002
   7.0735422512346099E-003  -1.7413800523121523E-003   6.1430282227541946E-002
   6.9396811666254327E-003  -1.7856493135442750E-003   6.2527525391197117E-002
   6.8058200820162547E-003  -1.8016612431117594E-003   6.3737305426534399E-002
  -1.8412113389048787E-005  -2.5833552748377731E-006   6.0174242060047650E-002
  -2.6258774465531994E-005  -1.0720285739576618E-005   6.1069557735828804E-002
  -3.4105435542016067E-005   3.2414793961002553E-006   6.2104365386993224E-002
  -4.1952096618499274E-005   3.9301940132104377E-005   6.3278665013540930E-002
  -4.9798757694983348E-005   9.7461096468576258E-005   6.4592456615471888E-002
   2.7926543230020709E-002  -7.4990282618527665E-003   6.1598402466952626E-002
   2.7243686115496837E-002  -7.6519853586092881E-003   6.1316634938621981E-002
   2.6560829000972973E-002  -7.6805395141776346E-003   6.1288804657610184E-002
   2.5877971886449098E-002  -7.5846907285579144E-003   6.1514911623917423E-002
   2.5195114771925223E-002  -7.3644390017499617E-003   6.1994955837543636E-002
   2.0793991075874110E-002  -5.5999059222724273E-003   6.2240278352274726E-002
   2.0342380363807356E-002  -5.7060410588994359E-003   6.2128264217339857E-002
   1.9890769651740602E-002  -5.7363128698229605E-003   6.2224805640000325E-002
   1.9439158939673830E-002  -5.6907213550428598E-003   6.2529902620256053E-002
   1.8987548227607086E-002  -5.5692665145593012E-003   6.3043555158107015E-002
   1.3753750026539280E-002  -3.7007835826920951E-003   6.2953246005468672E-002
   1.3488004027205996E-002  -3.7600967591896219E-003   6.2962445648445026E-002
   1.3222258027872713E-002  -3.7920862254682015E-003   6.3134819159292990E-002
   1.2956512028539431E-002  -3.7967519815278604E-003   6.3470366538012635E-002
   1.2690766029206140E-002  -3.7740940273685991E-003   6.3969087784603890E-002
   6.8058200820162547E-003  -1.8016612431117594E-003   6.3737305426534399E-002
   6.6805571056927941E-003  -1.8141524594798304E-003   6.3819179231937320E-002
   6.5552941293693327E-003  -1.8478595811135127E-003   6.4018845215488257E-002
   6.4300311530458669E-003  -1.9027826080128473E-003   6.4336303377187182E-002
   6.3047681767224089E-003  -1.9789215401778762E-003   6.4771553717034178E-002
  -4.9798757694983348E-005   9.7461096468576258E-005   6.4592456615471888E-002
  -7.9960400732274201E-005   1.3179184023006524E-004   6.4698464967816866E-002
  -1.1012204376955638E-004   9.6367063241210860E-005   6.4876883808586167E-002
  -1.4028368680684463E-004  -8.8132344977977922E-006   6.5127713137779791E-002
  -1.7044532984412941E-004  -1.8374905298720878E-004   6.5450952955397795E-002
   2.5195114771925223E-002  -7.3644390017499617E-003   6.1994955837543636E-002
   2.4416449916637509E-002  -7.0944314045081752E-003   6.1844430665976502E-002
   2.3637785061349795E-002  -6.8493150075865025E-003   6.1861912507981551E-002
   2.2859120206062077E-002  -6.6290898109852264E-003   6.2047401363558831E-002
   2.2080455350774367E-002  -6.4337558147039564E-003   6.2400897232708252E-002
   1.8987548227607086E-002  -5.5692665145593012E-003   6.3043555158107015E-002
   1.8389360276139105E-002  -5.4081979703167055E-003   6.2805520663451811E-002
   1.7791172324671121E-002  -5.2437653442598195E-003   6.2760432962863849E-002
   1.7192984373203136E-002  -5.0759686363885861E-003   6.2908292056343212E-002
   1.6594796421735156E-002  -4.9048078467029688E-003   6.3249097943889748E-002
   1.2690766029206140E-002  -3.7740940273685991E-003   6.3969087784603890E-002
   1.2297994762053031E-002  -3.7219645361253398E-003   6.3671799248995076E-002
   1.1905223494899924E-002  -3.6382156809331677E-003   6.3592397287948674E-002
   1.1512452227746817E-002  -3.5228474617920022E-003   6.3730881901464753E-002
   1.1119680960593709E-002  -3.3758598787018701E-003   6.4087253089543300E-002
   6.3047681767224089E-003  -1.9789215401778762E-003   6.4771553717034178E-002
   6.1423533743793137E-003  -2.0357311019339776E-003   6.4443266422606296E-002
   5.9799385720362107E-003  -2.0326660176065003E-003   6.4357805483236122E-002
   5.8175237696931050E-003  -1.9697262871955011E-003   6.4515170898923502E-002
   5.6551089673500116E-003  -1.8469119107008547E-003   6.4915362669668381E-002
  -1.7044532984412941E-004  -1.8374905298720878E-004   6.5450952955397795E-002
  -7.7563886882080907E-005  -3.4949766774257374E-004   6.5119922184285611E-002
   1.5317556079969333E-005  -4.2711635427981204E-004   6.5056657548726179E-002
   1.0819899904201871E-004  -4.1660511259888379E-004   6.5261159048719403E-002
   2.0108044200406808E-004  -3.1796394269972827E-004   6.5733426684265406E-002
   2.2080455350774367E-002  -6.4337558147039564E-003   6.2400897232708252E-002
   2.0715321988157898E-002  -6.2623340711589759E-003   6.0989090781040839E-002
   1.9350188625541442E-002  -6.1138456327656521E-003   5.9970479509102448E-002
   1.7985055262924973E-002  -5.9882904995240752E-003   5.9345063416893079E-002
   1.6619921900308504E-002  -5.8856686714341966E-003   5.9112842504412566E-002
   1.6594796421735156E-002  -4.9048078467029688E-003   6.3249097943889748E-002
   1.5601515141089282E-002  -4.7492966511306078E-003   6.1797693574765500E-002
   1.4608233860443402E-002  -4.6284487255989146E-003   6.0696798189853365E-002
   1.3614952579797519E-002  -4.5422640701082272E-003   5.9946411789153352E-002
   1.2621671299151649E-002  -4.4907426846583220E-003   5.9546534372665438E-002
   1.1119680960593709E-002  -3.3758598787018701E-003   6.4087253089543300E-002
   1.0455565566401575E-002  -3.2362592311022259E-003   6.2584520838072893E-002
   9.7914501722094482E-003  -3.1430518184324546E-003   6.1389611375297901E-002
   9.1273347780173181E-003  -3.0962376406924348E-003   6.0502524701218301E-002
   8.4632193838251879E-003  -3.0958166978823087E-003   5.9923260815833906E-002
   5.6551089673500116E-003  -1.8469119107008547E-003   6.4915362669668381E-002
   5.2774732640947968E-003  -1.7232218110739342E-003   6.3349572570963020E-002
   4.8998375608395785E-003  -1.6576549112658837E-003   6.2048919065436109E-002
   4.5222018575843638E-003  -1.6502112112767257E-003   6.1013402153087919E-002
   4.1445661543291455E-003  -1.7008907111063093E-003   6.0243021833917942E-002
   2.0108044200406808E-004  -3.1796394269972827E-004   6.5733426684265406E-002
   6.7238234168931488E-005  -2.1018439104547593E-004   6.4092848773436017E-002
  -6.6603973666206837E-005  -1.7225800409929881E-004   6.2674721260268240E-002
  -2.0044618150134082E-004  -2.0418478186083264E-004   6.1479044144762116E-002
  -3.3428838933648175E-004  -3.0596472433042088E-004   6.0505817426917685E-002
   1.6619921900308504E-002  -5.8856686714341966E-003   5.9112842504412566E-002
   1.7951260213261447E-002  -5.6815253388091680E-003   6.4445491722866011E-002
   1.9282598526214362E-002  -5.2514056919619190E-003   6.9316183257208452E-002
   2.0613936839167284E-002  -4.5953097308925051E-003   7.3724917107439836E-002
   2.1945275152120206E-002  -3.7132374556008707E-003   7.7671693273560216E-002
   1.2621671299151649E-002  -4.4907426846583220E-003   5.9546534372665438E-002
   1.3521497087616685E-002  -4.3840921897675134E-003   6.4934876338144681E-002
   1.4421322876081701E-002  -4.1325202059538935E-003   6.9922150938759225E-002
   1.5321148664546730E-002  -3.7360267332180175E-003   7.4508358174508876E-002
   1.6220974453011738E-002  -3.1946117715594968E-003   7.8693498045393773E-002
   8.4632193838251879E-003  -3.0958166978823087E-003   5.9923260815833906E-002
   8.9924229670485072E-003  -3.0866590407256367E-003   6.5286240703039344E-002
   9.5216265502718299E-003  -3.0136347199459790E-003   7.0309043544626304E-002
   1.0050830133495146E-002  -2.8767437355433079E-003   7.4991669340594605E-002
   1.0580033716718461E-002  -2.6759860875178731E-003   7.9334118090944303E-002
   4.1445661543291455E-003  -1.7008907111063093E-003   6.0243021833917942E-002
   4.3640378515569503E-003  -1.7892258916839265E-003   6.5499584817550111E-002
   4.5835095487847480E-003  -1.8947492339379535E-003   7.0476861074809938E-002
   4.8029812460125441E-003  -2.0174607378688758E-003   7.5174850605697313E-002
   5.0224529432403480E-003  -2.1573604034762633E-003   7.9593553410212167E-002
  -3.3428838933648175E-004  -3.0596472433042088E-004   6.0505817426917685E-002
  -3.6365825885801423E-004  -4.9179274264207762E-004   6.5574908681676869E-002
  -3.9302812837954670E-004  -7.7586374793003898E-004   7.0425603529309933E-002
  -4.2239799790107745E-004  -1.1581777401940829E-003   7.5057901969816515E-002
  -4.5176786742261166E-004  -1.6387347194347646E-003   7.9471804003197200E-002
   2.1945275152120206E-002  -3.7132374556008707E-003   7.7671693273560216E-002
   1.8018883086184920E-002  -2.8410024433067615E-003   6.9302901898988134E-002
   1.4092491020249627E-002  -2.2144182712288824E-003   6.2170928488936822E-002
   1.0166098954314331E-002  -1.8334849393683746E-003   5.6275773043405766E-002
   6.2397068883789930E-003  -1.6982024477243396E-003   5.1617435562395508E-002
   1.6220974453011738E-002  -3.1946117715594968E-003   7.8693498045393773E-002
   1.3466112858418311E-002  -2.6667520076021356E-003   7.0133937778187105E-002
   1.0711251263824849E-002  -2.3109241279696269E-003   6.2680620489143718E-002
   7.9563896692313937E-003  -2.1271281326624703E-003   5.6333546178263250E-002
   5.2015280746379455E-003  -2.1153640216801106E-003   5.1092714845546117E-002
   1.0580033716718461E-002  -2.6759860875178731E-003   7.9334118090944303E-002
   8.8661276071093538E-003  -2.4925015718975096E-003   7.0657407886994816E-002
   7.1522214975002513E-003  -2.4074299847103089E-003   6.2956365674851272E-002
   5.4383153878911272E-003  -2.4207713259565087E-003   5.6230991454513213E-002
   3.7244092782820204E-003  -2.5325255956359927E-003   5.0481285225980610E-002
   5.0224529432403480E-003  -2.1573604034762633E-003   7.9593553410212167E-002
   4.2189273322580630E-003  -2.3182511361929392E-003   7.0873312225411877E-002
   3.4154017212757828E-003  -2.5039358414510222E-003   6.2998164046059651E-002
   2.6118761102935008E-003  -2.7144145192505758E-003   5.5968108872155468E-002
   1.8083504993112107E-003  -2.9496871695917637E-003   4.9783146703699363E-002
  -4.5176786742261166E-004  -1.6387347194347646E-003   7.9471804003197200E-002
  -4.7548796613558139E-004  -2.1440007004883688E-003   7.0781650793437567E-002
  -4.9920806484853378E-004  -2.6004416981916245E-003   6.2806015602768495E-002
  -5.2292816356149310E-004  -3.0080577125446151E-003   5.5544898431190204E-002
  -5.4664826227446284E-004  -3.3668487435476457E-003   4.8998299278702362E-002
  -3.8114567702781169E-006   0.0000000000000000        2.8448356354045544E-002
  -6.1875213804452739E-006  -1.5196463974175359E-006   3.3410371890842117E-002
  -8.5635859906132983E-006   4.1509794666480526E-007   3.8379618972067604E-002
  -1.0939650600781323E-005   5.8042330322478908E-006   4.3356097597722007E-002
  -1.3315715210949347E-005   1.4647758859337792E-005   4.8339807767805332E-002
  -6.8030834808219141E-003   0.0000000000000000        2.8509837899457560E-002
  -6.8373702201673962E-003   1.4580807436326369E-004   3.3547800775298883E-002
  -6.8716569595128783E-003   3.3081243226862692E-004   3.8514710757240653E-002
  -6.9059436988583604E-003   5.5501307371608449E-004   4.3410567845282889E-002
  -6.9402304382038416E-003   8.1840999870564160E-004   4.8235372039425572E-002
  -1.3508591283806375E-002   0.0000000000000000        2.8700776219229972E-002
  -1.3653073136215632E-002   2.9313579512394447E-004   3.3850428326916628E-002
  -1.3797554988624890E-002   6.6120976659058556E-004   3.8850743102375289E-002
  -1.3942036841034147E-002   1.1042219143999211E-003   4.3701720545605928E-002
  -1.4086518693443406E-002   1.6221722385519584E-003   4.8403360656608579E-002
  -2.0120334865723660E-002   0.0000000000000000        2.9021171313362758E-002
  -2.0453296269525151E-002   4.4046351588462548E-004   3.4318254545695356E-002
  -2.0786257673326643E-002   9.9160710091254507E-004   3.9387716007471485E-002
  -2.1119219077128135E-002   1.6534307550837611E-003   4.4229555698691171E-002
  -2.1452180480929634E-002   2.4259344783982705E-003   4.8843773619354366E-002
  -2.6638314226573766E-002   0.0000000000000000        2.9471023181855929E-002
  -2.7238039620095959E-002   5.8779123664530648E-004   3.4951279431635070E-002
  -2.7837765013618145E-002   1.3220044352345063E-003   4.0125629472529276E-002
  -2.8437490407140338E-002   2.2026395957675960E-003   4.4994073304538570E-002
  -2.9037215800662521E-002   3.2296967182445816E-003   4.9556610927662927E-002
  -1.3315715210949347E-005   1.4647758859337792E-005   4.8339807767805332E-002
  -1.4589814755473773E-005   2.1498855124335060E-005   5.1504742552854255E-002
  -1.5863914299999067E-005   2.0910701523628537E-005   5.4532126529910942E-002
  -1.7138013844522626E-005   1.2883298057226136E-005   5.7421959698975414E-002
  -1.8412113389048787E-005  -2.5833552748377731E-006   6.0174242060047650E-002
  -6.9402304382038416E-003   8.1840999870564160E-004   4.8235372039425572E-002
  -7.0494246610014848E-003   1.0778344789759927E-003   5.1183273765543831E-002
  -7.1586188837991279E-003   1.2901177862658401E-003   5.4052886053148098E-002
  -7.2678131065967728E-003   1.4552599205751901E-003   5.6844208902238347E-002
  -7.3770073293944159E-003   1.5732608819040220E-003   5.9557242312814590E-002
  -1.4086518693443406E-002   1.6221722385519584E-003   4.8403360656608579E-002
  -1.4244371670015948E-002   2.1341701028276786E-003   5.1094527400681364E-002
  -1.4402224646588496E-002   2.5593248710080721E-003   5.3766666075718353E-002
  -1.4560077623161040E-002   2.8976365430931402E-003   5.6419776681719533E-002
  -1.4717930599733585E-002   3.1491051190828678E-003   5.9053859218684952E-002
  -2.1452180480929634E-002   2.4259344783982705E-003   4.8843773619354366E-002
  -2.1599430841798859E-002   3.1905057266793605E-003   5.1238503458266860E-002
  -2.1746681202668094E-002   3.8285319557502871E-003   5.3673466597621775E-002
  -2.1893931563537326E-002   4.3400131656110867E-003   5.6148663037419111E-002
  -2.2041181924406555E-002   4.7249493562617206E-003   5.8664092777658869E-002
  -2.9037215800662521E-002   3.2296967182445816E-003   4.9556610927662927E-002
  -2.9114602176350229E-002   4.2468413505310264E-003   5.1615201938300312E-002
  -2.9191988552037928E-002   5.0977390404925152E-003   5.3773287618858322E-002
  -2.9269374927725626E-002   5.7823897881290401E-003   5.6030867969336970E-002
  -2.9346761303413328E-002   6.3007935934405804E-003   5.8387942989736270E-002
  -1.8412113389048787E-005  -2.5833552748377731E-006   6.0174242060047650E-002
  -2.6258774465531994E-005  -1.0720285739576618E-005   6.1069557735828804E-002
  -3.4105435542016067E-005   3.2414793961002553E-006   6.2104365386993224E-002
  -4.1952096618499274E-005   3.9301940132104377E-005   6.3278665013540930E-002
  -4.9798757694983348E-005   9.7461096468576258E-005   6.4592456615471888E-002
  -7.3770073293944159E-003   1.5732608819040220E-003   5.9557242312814590E-002
  -7.2576038422593912E-003   1.6660656605902123E-003   6.0467411858737941E-002
  -7.1382003551243691E-003   1.7556192469715872E-003   6.1492589725701062E-002
  -7.0187968679893400E-003   1.8419216410482261E-003   6.2632775913703878E-002
  -6.8993933808543205E-003   1.9249728428201440E-003   6.3887970422746465E-002
  -1.4717930599733585E-002   3.1491051190828678E-003   5.9053859218684952E-002
  -1.4495760618730598E-002   3.3428516069199735E-003   5.9953532746845402E-002
  -1.4273590637727609E-002   3.5079970145471574E-003   6.0943730941702037E-002
  -1.4051420656724625E-002   3.6445413419643894E-003   6.2024453803254845E-002
  -1.3829250675721633E-002   3.7524845891717118E-003   6.3195701331503873E-002
  -2.2041181924406555E-002   4.7249493562617206E-003   5.8664092777658869E-002
  -2.1740729103879152E-002   5.0196375532497554E-003   5.9527920400151223E-002
  -2.1440276283351753E-002   5.2603747821226860E-003   6.0457789034996205E-002
  -2.1139823462824347E-002   5.4471610428805176E-003   6.1453698682193865E-002
  -2.0839370642296948E-002   5.5799963355232796E-003   6.2515649341744153E-002
  -2.9346761303413328E-002   6.3007935934405804E-003   5.8387942989736270E-002
  -2.8992509297705062E-002   6.6964234995795166E-003   5.9190574818655362E-002
  -2.8638257291996785E-002   7.0127525496982233E-003   6.0034764005583580E-002
  -2.8284005286288504E-002   7.2497807437966206E-003   6.0920510550520883E-002
  -2.7929753280580238E-002   7.4075080818748751E-003   6.1847814453467292E-002
  -4.9798757694983348E-005   9.7461096468576258E-005   6.4592456615471888E-002
  -7.9960400732274201E-005   1.3179184023006524E-004   6.4698464967816866E-002
  -1.1012204376955638E-004   9.6367063241210860E-005   6.4876883808586167E-002
  -1.4028368680684463E-004  -8.8132344977977922E-006   6.5127713137779791E-002
  -1.7044532984412941E-004  -1.8374905298720878E-004   6.5450952955397795E-002
  -6.8993933808543205E-003   1.9249728428201440E-003   6.3887970422746465E-002
  -6.8298745564972481E-003   1.9766974453422348E-003   6.3876407318880918E-002
  -6.7603557321401766E-003   1.9690200416696002E-003   6.3991794661379719E-002
  -6.6908369077831147E-003   1.9019406318022750E-003   6.4234132450242884E-002
  -6.6213180834260397E-003   1.7754592157401272E-003   6.4603420685470467E-002
  -1.3829250675721633E-002   3.7524845891717118E-003   6.3195701331503873E-002
  -1.3605511426030203E-002   3.8216030504544356E-003   6.3076920285983384E-002
  -1.3381772176338770E-002   3.8416730200979583E-003   6.3139629644767256E-002
  -1.3158032926647339E-002   3.8126944981023191E-003   6.3383829407855488E-002
  -1.2934293676955901E-002   3.7346674844674216E-003   6.3809519575248080E-002
  -2.0839370642296948E-002   5.5799963355232796E-003   6.2515649341744153E-002
  -2.0406871009331140E-002   5.6665086555666346E-003   6.2300003869124244E-002
  -1.9974371376365329E-002   5.7143259985263321E-003   6.2320388758748686E-002
  -1.9541871743399521E-002   5.7234483644024187E-003   6.2576804010617465E-002
  -1.9109372110433703E-002   5.6938757531947090E-003   6.3069249624730719E-002
  -2.7929753280580238E-002   7.4075080818748751E-003   6.1847814453467292E-002
  -2.7233953306400046E-002   7.5114142606788892E-003   6.1545658068303491E-002
  -2.6538153332219844E-002   7.5869789769546919E-003   6.1534072003324058E-002
  -2.5842353358039655E-002   7.6342022307024325E-003   6.1813056258529009E-002
  -2.5146553383859460E-002   7.6530840219220242E-003   6.2382610833918412E-002
  -1.7044532984412941E-004  -1.8374905298720878E-004   6.5450952955397795E-002
  -7.7563886882080907E-005  -3.4949766774257374E-004   6.5119922184285611E-002
   1.5317556079969333E-005  -4.2711635427981204E-004   6.5056657548726179E-002
   1.0819899904201871E-004  -4.1660511259888379E-004   6.5261159048719403E-002
   2.0108044200406808E-004  -3.1796394269972827E-004   6.5733426684265406E-002
  -6.6213180834260397E-003   1.7754592157401272E-003   6.4603420685470467E-002
  -6.2863115645233648E-003   1.6401697448323593E-003   6.4449603927159038E-002
  -5.9513050456206874E-003   1.5466661704278267E-003   6.4512271185176107E-002
  -5.6162985267180082E-003   1.4949484925268382E-003   6.4791422459521658E-002
  -5.2812920078153421E-003   1.4850167111291057E-003   6.5287057750195943E-002
  -1.2934293676955901E-002   3.7346674844674216E-003   6.3809519575248080E-002
  -1.2408444201336775E-002   3.6298371574072438E-003   6.3786572798022551E-002
  -1.1882594725717658E-002   3.5204486951355245E-003   6.3928827917901387E-002
  -1.1356745250098537E-002   3.4065020976524777E-003   6.4236284934884494E-002
  -1.0830895774479415E-002   3.2879973649579119E-003   6.4708943848972064E-002
  -1.9109372110433703E-002   5.6938757531947090E-003   6.3069249624730719E-002
  -1.8443961797322321E-002   5.6195045699821526E-003   6.3130828796876329E-002
  -1.7778551484210939E-002   5.4942312198432482E-003   6.3306327746902077E-002
  -1.7113141171099557E-002   5.3180557027781312E-003   6.3595746474807965E-002
  -1.6447730857988171E-002   5.0909780187867321E-003   6.3999084980594090E-002
  -2.5146553383859460E-002   7.6530840219220242E-003   6.2382610833918412E-002
  -2.4392864352479997E-002   7.6091719825570198E-003   6.2482371923720276E-002
  -2.3639175321100530E-002   7.4680137445508263E-003   6.2644770672178149E-002
  -2.2885486289721070E-002   7.2296093079038722E-003   6.2869807079292045E-002
  -2.2131797258341600E-002   6.8939586726156077E-003   6.3157481145061867E-002
   2.0108044200406808E-004  -3.1796394269972827E-004   6.5733426684265406E-002
   6.7238234168931488E-005  -2.1018439104547593E-004   6.4092848773436017E-002
  -6.6603973666206837E-005  -1.7225800409929881E-004   6.2674721260268240E-002
  -2.0044618150134082E-004  -2.0418478186083264E-004   6.1479044144762116E-002
  -3.3428838933648175E-004  -3.0596472433042088E-004   6.0505817426917685E-002
  -5.2812920078153421E-003   1.4850167111291057E-003   6.5287057750195943E-002
  -5.1526032203527642E-003   1.4856168416677445E-003   6.3574041501488612E-002
  -5.0239144328901881E-003   1.4654948995757588E-003   6.2163636845714937E-002
  -4.8952256454276146E-003   1.4246508848529960E-003   6.1055843782875152E-002
  -4.7665368579650341E-003   1.3630847974996918E-003   6.0250662312969078E-002
  -1.0830895774479415E-002   3.2879973649579119E-003   6.4708943848972064E-002
  -1.0359514796447030E-002   3.1814180743809928E-003   6.2972620354464132E-002
  -9.8881338184146315E-003   3.1032478032506430E-003   6.1619069648162016E-002
  -9.4167528403822452E-003   3.0534865515669338E-003   6.0648291730065779E-002
  -8.9453718623498536E-003   3.0321343193298045E-003   6.0060286600175400E-002
  -1.6447730857988171E-002   5.0909780187867321E-003   6.3999084980594090E-002
  -1.5553496494113861E-002   4.8772193070942826E-003   6.2288585332362784E-002
  -1.4659262130239558E-002   4.7410007069255584E-003   6.1041019667609352E-002
  -1.3765027766365255E-002   4.6823222182806505E-003   6.0256387986333960E-002
  -1.2870793402490945E-002   4.7011838411598339E-003   5.9934690288536388E-002
  -2.2131797258341600E-002   6.8939586726156077E-003   6.3157481145061867E-002
  -2.0734548313353279E-002   6.5730205398074337E-003   6.1521936435184443E-002
  -1.9337299368364948E-002   6.3787536106005849E-003   6.0429486904057028E-002
  -1.7940050423376631E-002   6.3111578849946726E-003   5.9880132551679732E-002
  -1.6542801478388304E-002   6.3702333629900298E-003   5.9873873378052500E-002
  -3.3428838933648175E-004  -3.0596472433042088E-004   6.0505817426917685E-002
  -3.6365825885801423E-004  -4.9179274264207762E-004   6.5574908681676869E-002
  -3.9302812837954670E-004  -7.7586374793003898E-004   7.0425603529309933E-002
  -4.2239799790107745E-004  -1.1581777401940829E-003   7.5057901969816515E-002
  -4.5176786742261166E-004  -1.6387347194347646E-003   7.9471804003197200E-002
  -4.7665368579650341E-003   1.3630847974996918E-003   6.0250662312969078E-002
  -5.0391357777746903E-003   1.2435934696696238E-003   6.5451648691160713E-002
  -5.3117346975843326E-003   1.0289737335169302E-003   7.0384573375902273E-002
  -5.5843336173939696E-003   7.1922558904152084E-004   7.5049436367193995E-002
  -5.8569325372036171E-003   3.1434903624361077E-004   7.9446237665035391E-002
  -8.9453718623498536E-003   3.0321343193298045E-003   6.0060286600175400E-002
  -9.5108651187713628E-003   2.9789796819814224E-003   6.5396282680453000E-002
  -1.0076358375192877E-002   2.8338112149639549E-003   7.0414551780956749E-002
  -1.0641851631614394E-002   2.5966289182775132E-003   7.5115093901686789E-002
  -1.1207344888035901E-002   2.2674327919219306E-003   7.9497909042643145E-002
  -1.2870793402490945E-002   4.7011838411598339E-003   5.9934690288536388E-002
  -1.3778846281848068E-002   4.7143658942931724E-003   6.5408810649553617E-002
  -1.4686899161205202E-002   4.6386486964109241E-003   7.0515538744473236E-002
  -1.5594952040562328E-002   4.4740322475133668E-003   7.5254874573295494E-002
  -1.6503004919919458E-002   4.2205165476001671E-003   7.9626818136020155E-002
  -1.6542801478388304E-002   6.3702333629900298E-003   5.9873873378052500E-002
  -1.7843079267004801E-002   6.4497521066049224E-003   6.5489232598462732E-002
  -1.9143357055621292E-002   6.4434861778579072E-003   7.0687534266451829E-002
  -2.0443634844237779E-002   6.3514355767491822E-003   7.5468778382019611E-002
  -2.1743912632854280E-002   6.1736003032785702E-003   7.9832964945166174E-002
  -4.5176786742261166E-004  -1.6387347194347646E-003   7.9471804003197200E-002
  -4.7548796613558139E-004  -2.1440007004883688E-003   7.0781650793437567E-002
  -4.9920806484853378E-004  -2.6004416981916245E-003   6.2806015602768495E-002
  -5.2292816356149310E-004  -3.0080577125446151E-003   5.5544898431190204E-002
  -5.4664826227446284E-004  -3.3668487435476457E-003   4.8998299278702362E-002
  -5.8569325372036171E-003   3.1434903624361077E-004   7.9446237665035391E-002
  -5.0984575867597803E-003  -9.3557273724592660E-005   7.0947460742957241E-002
  -4.3399826363159297E-003  -4.1239468971024373E-004   6.3298555900102055E-002
  -3.5815076858720929E-003  -6.4216321171348817E-004   5.6499523136470234E-002
  -2.8230327354282422E-003  -7.8286283973438842E-004   5.0550362452060682E-002
  -1.1207344888035901E-002   2.2674327919219306E-003   7.9497909042643145E-002
  -9.5313208283027730E-003   1.9568861530390724E-003   7.1230752318878460E-002
  -7.8552967685696536E-003   1.7756523187709150E-003   6.3948821734469377E-002
  -6.1792727088365211E-003   1.7237312891176387E-003   5.7652117289415716E-002
  -4.5032486491034321E-003   1.8011230640788689E-003   5.2340638983717436E-002
  -1.6503004919919458E-002   4.2205165476001671E-003   7.9626818136020155E-002
  -1.3774077690764571E-002   4.0073295798027930E-003   7.1631525521201028E-002
  -1.1045150461609686E-002   3.9636993272522403E-003   6.4756813105870240E-002
  -8.3162232324548151E-003   4.0896257899487101E-003   5.9002680890027352E-002
  -5.5872960032999162E-003   4.3851089678920707E-003   5.4369128873672470E-002
  -2.1743912632854280E-002   6.1736003032785702E-003   7.9832964945166174E-002
  -1.7826728174145164E-002   6.0577730065665136E-003   7.2149780349925363E-002
  -1.3909543715436044E-002   6.1517463357335517E-003   6.5722530014304920E-002
  -9.9923592567269254E-003   6.4555202907799168E-003   6.0551213938304996E-002
  -6.0751747980178072E-003   6.9690948717053836E-003   5.6635832121925356E-002
  -2.6638314226573766E-002   0.0000000000000000        2.9471023181855929E-002
  -2.7238039620095959E-002   5.8779123664530648E-004   3.4951279431635070E-002
  -2.7837765013618145E-002   1.3220044352345063E-003   4.0125629472529276E-002
  -2.8437490407140338E-002   2.2026395957675960E-003   4.4994073304538570E-002
  -2.9037215800662521E-002   3.2296967182445816E-003   4.9556610927662927E-002
  -3.3398596678428670E-002   0.0000000000000000        3.0183958866892839E-002
  -3.4239643191514853E-002   9.6212142261573649E-004   3.5274471092103368E-002
  -3.5080689704601035E-002   2.0259034616620193E-003   4.0188247287070843E-002
  -3.5921736217687211E-002   3.1913461171388406E-003   4.4925287451795269E-002
  -3.6762782730773380E-002   4.4584493890462186E-003   4.9485591586276648E-002
  -4.0737249533360345E-002   0.0000000000000000        3.1293605410656858E-002
  -4.1690446987368637E-002   1.3364516085861656E-003   3.5949612265785420E-002
  -4.2643644441376936E-002   2.7298024880895288E-003   4.0558053269312812E-002
  -4.3596841895385222E-002   4.1800526385100826E-003   4.5118928421239025E-002
  -4.4550039349393514E-002   5.6872020598478391E-003   4.9632237721564061E-002
  -4.8654272791368788E-002   0.0000000000000000        3.2799962813147981E-002
  -4.9590451007657313E-002   1.7107817945565965E-003   3.6976702952681240E-002
  -5.0526629223945858E-002   3.4337015145170361E-003   4.1235047419255183E-002
  -5.1462807440234383E-002   5.1687591598813219E-003   4.5574996212869832E-002
  -5.2398985656522908E-002   6.9159547306494673E-003   4.9996549333525195E-002
  -5.7149666452454007E-002   0.0000000000000000        3.4703031074366203E-002
  -5.7939655252380901E-002   2.0851119805270239E-003   3.8355743152790792E-002
  -5.8729644052307788E-002   4.1376005409445495E-003   4.2219229736897970E-002
  -5.9519632852234688E-002   6.1574656812525656E-003   4.6293490826687718E-002
  -6.0309621652161569E-002   8.1447074014510956E-003   5.0578526422160035E-002
  -2.9037215800662521E-002   3.2296967182445816E-003   4.9556610927662927E-002
  -2.9114602176350229E-002   4.2468413505310264E-003   5.1615201938300312E-002
  -2.9191988552037928E-002   5.0977390404925152E-003   5.3773287618858322E-002
  -2.9269374927725626E-002   5.7823897881290401E-003   5.6030867969336970E-002
  -2.9346761303413328E-002   6.3007935934405804E-003   5.8387942989736270E-002
  -3.6762782730773380E-002   4.4584493890462186E-003   4.9485591586276648E-002
  -3.6779107098246333E-002   5.6899795453147581E-003   5.1274533351682292E-002
  -3.6795431465719258E-002   6.7487028538751178E-003   5.3086104463596850E-002
  -3.6811755833192197E-002   7.6346193147273124E-003   5.4920304922020283E-002
  -3.6828080200665150E-002   8.3477289278713063E-003   5.6777134726952609E-002
  -4.4550039349393514E-002   5.6872020598478391E-003   4.9632237721564061E-002
  -4.4582167032063441E-002   7.1331177400984856E-003   5.1144970336354782E-002
  -4.4614294714733362E-002   8.3996666672577353E-003   5.2603466974242633E-002
  -4.4646422397403275E-002   9.4868488413255882E-003   5.4007727635227668E-002
  -4.4678550080073223E-002   1.0394664262302015E-002   5.5357752319309776E-002
  -5.2398985656522908E-002   6.9159547306494673E-003   4.9996549333525195E-002
  -5.2523781977801567E-002   8.5762559348822130E-003   5.1226512892317756E-002
  -5.2648578299080234E-002   1.0050630480640341E-002   5.2325375150795730E-002
  -5.2773374620358894E-002   1.1339078367923848E-002   5.3293136108959062E-002
  -5.2898170941637575E-002   1.2441599596732725E-002   5.4129795766807813E-002
  -6.0309621652161569E-002   8.1447074014510956E-003   5.0578526422160035E-002
  -6.0603951935460726E-002   1.0019394129665946E-002   5.1519161019571241E-002
  -6.0898282218759876E-002   1.1701594294022953E-002   5.2251828993256068E-002
  -6.1192612502059041E-002   1.3191307894522140E-002   5.2776530343214556E-002
  -6.1486942785358177E-002   1.4488534931163442E-002   5.3093265069446650E-002
  -2.9346761303413328E-002   6.3007935934405804E-003   5.8387942989736270E-002
  -2.8992509297705062E-002   6.6964234995795166E-003   5.9190574818655362E-002
  -2.8638257291996785E-002   7.0127525496982233E-003   6.0034764005583580E-002
  -2.8284005286288504E-002   7.2497807437966206E-003   6.0920510550520883E-002
  -2.7929753280580238E-002   7.4075080818748751E-003   6.1847814453467292E-002
  -3.6828080200665150E-002   8.3477289278713063E-003   5.6777134726952609E-002
  -3.6382531091130661E-002   8.8959340262887085E-003   5.7142203800649945E-002
  -3.5936981981596200E-002   9.2871369429611619E-003   5.7648309723990571E-002
  -3.5491432872061725E-002   9.5213376778887030E-003   5.8295452496974542E-002
  -3.5045883762527250E-002   9.5985362310712224E-003   5.9083632119601770E-002
  -4.4678550080073223E-002   1.0394664262302015E-002   5.5357752319309776E-002
  -4.4042224375078341E-002   1.1095444552997904E-002   5.5207557312060625E-002
  -4.3405898670083452E-002   1.1561521336224168E-002   5.5297878646088997E-002
  -4.2769572965088598E-002   1.1792894611980716E-002   5.5628716321394864E-002
  -4.2133247260093709E-002   1.1789564380267611E-002   5.6200070337978233E-002
  -5.2898170941637575E-002   1.2441599596732725E-002   5.4129795766807813E-002
  -5.1971589149548095E-002   1.3294955079707097E-002   5.3386635352887478E-002
  -5.1045007357458608E-002   1.3835905729487149E-002   5.2983470771878850E-002
  -5.0118425565369121E-002   1.4064451546072720E-002   5.2920302023781923E-002
  -4.9191843773279627E-002   1.3980592529463994E-002   5.3197129108596711E-002
  -6.1486942785358177E-002   1.4488534931163442E-002   5.3093265069446650E-002
  -6.0170625414539880E-002   1.5494465606416267E-002   5.1679437923130400E-002
  -5.8854308043721590E-002   1.6110290122750108E-002   5.0705086101360083E-002
  -5.7537990672903279E-002   1.6336008480164768E-002   5.0170209604135672E-002
  -5.6221673302084996E-002   1.6171620678660362E-002   5.0074808431457188E-002
  -2.7929753280580238E-002   7.4075080818748751E-003   6.1847814453467292E-002
  -2.7233953306400046E-002   7.5114142606788892E-003   6.1545658068303491E-002
  -2.6538153332219844E-002   7.5869789769546919E-003   6.1534072003324058E-002
  -2.5842353358039655E-002   7.6342022307024325E-003   6.1813056258529009E-002
  -2.5146553383859460E-002   7.6530840219220242E-003   6.2382610833918412E-002
  -3.5045883762527250E-002   9.5985362310712224E-003   5.9083632119601770E-002
  -3.4078287562087507E-002   9.5856599509355697E-003   5.8765724151183855E-002
  -3.3110691361647758E-002   9.5496361859083619E-003   5.8700838315100673E-002
  -3.2143095161208002E-002   9.4904649359897168E-003   5.8888974611352167E-002
  -3.1175498960768253E-002   9.4081462011796346E-003   5.9330133039938462E-002
  -4.2133247260093709E-002   1.1789564380267611E-002   5.6200070337978233E-002
  -4.0931403021244088E-002   1.1659905641192278E-002   5.5871604763942859E-002
  -3.9729558782394467E-002   1.1512293394862060E-002   5.5758613134392558E-002
  -3.8527714543544839E-002   1.1346727641277031E-002   5.5861095449327325E-002
  -3.7325870304695218E-002   1.1163208380437203E-002   5.6179051708747076E-002
  -4.9191843773279627E-002   1.3980592529463994E-002   5.3197129108596711E-002
  -4.7793299683869792E-002   1.3734151331448972E-002   5.2863299906580563E-002
  -4.6394755594459963E-002   1.3474950603815743E-002   5.2707396461199797E-002
  -4.4996211505050128E-002   1.3202990346564358E-002   5.2729418772454385E-002
  -4.3597667415640272E-002   1.2918270559694793E-002   5.2929366840344334E-002
  -5.6221673302084996E-002   1.6171620678660362E-002   5.0074808431457188E-002
  -5.4663977549964639E-002   1.5808397021705667E-002   4.9740809579096865E-002
  -5.3106281797844254E-002   1.5437607812769403E-002   4.9547188295522300E-002
  -5.1548586045723897E-002   1.5059253051851677E-002   4.9493944580733348E-002
  -4.9990890293603527E-002   1.4673332738952383E-002   4.9581078434730197E-002
  -2.5146553383859460E-002   7.6530840219220242E-003   6.2382610833918412E-002
  -2.4392864352479997E-002   7.6091719825570198E-003   6.2482371923720276E-002
  -2.3639175321100530E-002   7.4680137445508263E-003   6.2644770672178149E-002
  -2.2885486289721070E-002   7.2296093079038722E-003   6.2869807079292045E-002
  -2.2131797258341600E-002   6.8939586726156077E-003   6.3157481145061867E-002
  -3.1175498960768253E-002   9.4081462011796346E-003   5.9330133039938462E-002
  -3.0326658192990116E-002   9.2759718293698029E-003   5.9254077446590406E-002
  -2.9477817425211987E-002   9.0672336684520655E-003   5.9305687667383665E-002
  -2.8628976657433865E-002   8.7819317184264327E-003   5.9484963702318247E-002
  -2.7780135889655725E-002   8.4200659792929011E-003   5.9791905551394187E-002
  -3.7325870304695218E-002   1.1163208380437203E-002   5.6179051708747076E-002
  -3.6316849645033053E-002   1.0942771676182579E-002   5.5947861841782243E-002
  -3.5307828985370916E-002   1.0666453592353169E-002   5.5909365944444081E-002
  -3.4298808325708745E-002   1.0334254128949078E-002   5.6063564016732619E-002
  -3.3289787666046608E-002   9.9461732859701668E-003   5.6410456058647890E-002
  -4.3597667415640272E-002   1.2918270559694793E-002   5.2929366840344334E-002
  -4.2363438708608758E-002   1.2609571522995373E-002   5.2563725109295842E-002
  -4.1129210001577245E-002   1.2265673516254313E-002   5.2455805503359432E-002
  -3.9894981294545724E-002   1.1886576539471708E-002   5.2605608022535000E-002
  -3.8660752587514197E-002   1.1472280592647474E-002   5.3013132666822727E-002
  -4.9990890293603527E-002   1.4673332738952383E-002   4.9581078434730197E-002
  -4.8466425383717274E-002   1.4276371369808152E-002   4.9101667249131231E-002
  -4.6941960473831042E-002   1.3864893440155457E-002   4.8945006344129710E-002
  -4.5417495563944782E-002   1.3438898949994352E-002   4.9111095719725564E-002
  -4.3893030654058529E-002   1.2998387899324726E-002   4.9599935375918780E-002
  -2.2131797258341600E-002   6.8939586726156077E-003   6.3157481145061867E-002
  -2.0734548313353279E-002   6.5730205398074337E-003   6.1521936435184443E-002
  -1.9337299368364948E-002   6.3787536106005849E-003   6.0429486904057028E-002
  -1.7940050423376631E-002   6.3111578849946726E-003   5.9880132551679732E-002
  -1.6542801478388304E-002   6.3702333629900298E-003   5.9873873378052500E-002
  -2.7780135889655725E-002   8.4200659792929011E-003   5.9791905551394187E-002
  -2.5900574207170617E-002   8.0702756608761195E-003   5.8347958172258074E-002
  -2.4021012524685505E-002   7.8211999730008752E-003   5.7325541089365370E-002
  -2.2141450842200382E-002   7.6728389156669255E-003   5.6724654302716233E-002
  -2.0261889159715284E-002   7.6251924888744438E-003   5.6545297812310602E-002
  -3.3289787666046608E-002   9.9461732859701668E-003   5.6410456058647890E-002
  -3.1049478128571263E-002   9.5675307819447636E-003   5.5132149437193204E-002
  -2.8809168591095911E-002   9.2636463354012211E-003   5.4153808229475617E-002
  -2.6568859053620532E-002   9.0345199463392339E-003   5.3475432435494866E-002
  -2.4328549516145211E-002   8.8801516147589687E-003   5.3097022055251089E-002
  -3.8660752587514197E-002   1.1472280592647474E-002   5.3013132666822727E-002
  -3.6181260077555170E-002   1.1064785903013429E-002   5.1874510229989977E-002
  -3.3701767567596137E-002   1.0706092697801595E-002   5.0914288324387581E-002
  -3.1222275057637101E-002   1.0396200977011570E-002   5.0132466950015601E-002
  -2.8742782547678085E-002   1.0135110740643521E-002   4.9529046106874072E-002
  -4.3893030654058529E-002   1.2998387899324726E-002   4.9599935375918780E-002
  -4.1295920054122373E-002   1.2562041024082121E-002   4.8575040550648152E-002
  -3.8698809454186217E-002   1.2148539060201871E-002   4.7606981374101437E-002
  -3.6101698854250068E-002   1.1757882007683910E-002   4.6695757846278399E-002
  -3.3504588254313891E-002   1.1390069866527963E-002   4.5841369967179357E-002
  -1.6542801478388304E-002   6.3702333629900298E-003   5.9873873378052500E-002
  -1.7843079267004801E-002   6.4497521066049224E-003   6.5489232598462732E-002
  -1.9143357055621292E-002   6.4434861778579072E-003   7.0687534266451829E-002
  -2.0443634844237779E-002   6.3514355767491822E-003   7.5468778382019611E-002
  -2.1743912632854280E-002   6.1736003032785702E-003   7.9832964945166174E-002
  -2.0261889159715284E-002   7.6251924888744438E-003   5.6545297812310602E-002
  -2.1931227276780645E-002   7.5616810533511436E-003   6.1751966921407747E-002
  -2.3600565393846022E-002   7.3657249698243499E-003   6.6637572926028288E-002
  -2.5269903510911386E-002   7.0373242382942292E-003   7.1202115826172210E-002
  -2.6939241627976764E-002   6.5764788587608369E-003   7.5445595621839834E-002
  -2.4328549516145211E-002   8.8801516147589687E-003   5.3097022055251089E-002
  -2.6270953513714737E-002   8.6736100000972538E-003   5.7848341077393561E-002
  -2.8213357511284252E-002   8.2879637617906191E-003   6.2374591443004244E-002
  -3.0155761508853771E-002   7.7232128998391634E-003   6.6675773152083062E-002
  -3.2098165506423318E-002   6.9793574142430204E-003   7.0751886204630035E-002
  -2.8742782547678085E-002   1.0135110740643521E-002   4.9529046106874072E-002
  -3.0862257977807030E-002   9.7855389468433085E-003   5.3778355066420383E-002
  -3.2981733407936004E-002   9.2102025537570305E-003   5.7898589817379519E-002
  -3.5101208838064939E-002   8.4091015613843752E-003   6.1889750359751618E-002
  -3.7220684268193929E-002   7.3822359697252454E-003   6.5751836693536722E-002
  -3.3504588254313891E-002   1.1390069866527963E-002   4.5841369967179357E-002
  -3.5705140669057597E-002   1.0897467893589557E-002   4.9542008888487976E-002
  -3.7905693083801241E-002   1.0132441345723317E-002   5.3209568049154332E-002
  -4.0106245498544912E-002   9.0949902229291411E-003   5.6844047449178356E-002
  -4.2306797913288577E-002   7.7851145252075815E-003   6.0445447088559923E-002
  -2.1743912632854280E-002   6.1736003032785702E-003   7.9832964945166174E-002
  -1.7826728174145164E-002   6.0577730065665136E-003   7.2149780349925363E-002
  -1.3909543715436044E-002   6.1517463357335517E-003   6.5722530014304920E-002
  -9.9923592567269254E-003   6.4555202907799168E-003   6.0551213938304996E-002
  -6.0751747980178072E-003   6.9690948717053836E-003   5.6635832121925356E-002
  -2.6939241627976764E-002   6.5764788587608369E-003   7.5445595621839834E-002
  -2.1901260443393945E-002   6.1564468519210436E-003   6.7875614619163166E-002
  -1.6863279258811110E-002   5.9504862384718998E-003   6.1291292808613534E-002
  -1.1825298074228283E-002   5.9585970184137700E-003   5.5692630190190370E-002
  -6.7873168896454283E-003   6.1807791917461996E-003   5.1079626763894659E-002
  -3.2098165506423318E-002   6.9793574142430204E-003   7.0751886204630035E-002
  -2.6209662663460302E-002   6.2551206972756290E-003   6.3299379562029010E-002
  -2.0321159820497245E-002   5.7492261412103660E-003   5.6562257044061377E-002
  -1.4432656977534236E-002   5.4616737460475694E-003   5.0540518650727492E-002
  -8.5441541345712343E-003   5.3924635117871267E-003   4.5234164382026543E-002
  -3.7220684268193929E-002   7.3822359697252454E-003   6.5751836693536722E-002
  -3.0751934834344258E-002   6.3537945426300757E-003   5.8421075178522977E-002
  -2.4283185400494525E-002   5.5479660439488286E-003   5.1535422720649232E-002
  -1.7814435966644827E-002   4.9647504736813957E-003   4.5094879319915057E-002
  -1.1345686532795154E-002   4.6041478318279982E-003   3.9099444976321424E-002
  -4.2306797913288577E-002   7.7851145252075815E-003   6.0445447088559923E-002
  -3.5528076956045734E-002   6.4524683879847999E-003   5.3240701468645069E-002
  -2.8749355998802899E-002   5.3467059466870970E-003   4.6210789838376565E-002
  -2.1970635041560087E-002   4.4678272013153122E-003   3.9355712197754467E-002
  -1.5191914084317248E-002   3.8158321518688698E-003   3.2675468546778941E-002
  -5.7149666452454007E-002   0.0000000000000000        3.4703031074366203E-002
  -5.7939655252380901E-002   2.0851119805270239E-003   3.8355743152790792E-002
  -5.8729644052307788E-002   4.1376005409445495E-003   4.2219229736897970E-002
  -5.9519632852234688E-002   6.1574656812525656E-003   4.6293490826687718E-002
  -6.0309621652161569E-002   8.1447074014510956E-003   5.0578526422160035E-002
  -6.5813516453926788E-002   0.0000000000000000        3.7224939606050014E-002
  -6.6621107366423293E-002   2.9135428434578304E-003   4.0845570549141279E-002
  -6.7428698278919813E-002   5.7693846282596550E-003   4.4220222761410730E-002
  -6.8236289191416319E-002   8.5675253544054680E-003   4.7348896242858374E-002
  -6.9043880103912839E-002   1.1307965021895273E-002   5.0231590993484204E-002
  -7.4235908733097933E-002   0.0000000000000000        4.0587817819937873E-002
  -7.5517854994668468E-002   3.7419737063886355E-003   4.4151289989149314E-002
  -7.6799801256238989E-002   7.4011687155747571E-003   4.7012030191034546E-002
  -7.8081747517809511E-002   1.0977585027558367E-002   4.9170038425593574E-002
  -7.9363693779380046E-002   1.4471222642339458E-002   5.0625314692826398E-002
  -8.2416843289967484E-002   0.0000000000000000        4.4791665716029792E-002
  -8.4629898137116383E-002   4.5704045693194398E-003   4.8272901472814912E-002
  -8.6842952984265337E-002   9.0329528028898626E-003   5.0594652025769411E-002
  -8.9056007831414277E-002   1.3387644700711262E-002   5.1756917374893317E-002
  -9.1269062678563190E-002   1.7634480262783640E-002   5.1759697520186609E-002
  -9.0356320124535372E-002   0.0000000000000000        4.9836483294325773E-002
  -9.3957236793767107E-002   5.3988354322502471E-003   5.3210405000138038E-002
  -9.7558153462998815E-002   1.0664736890204968E-002   5.4968088265615306E-002
 -0.10115907013223054        1.5797704373864161E-002   5.5109533090757605E-002
 -0.10475998680146227        2.0797737883227828E-002   5.3634739475564901E-002
  -6.0309621652161569E-002   8.1447074014510956E-003   5.0578526422160035E-002
  -6.0603951935460726E-002   1.0019394129665946E-002   5.1519161019571241E-002
  -6.0898282218759876E-002   1.1701594294022953E-002   5.2251828993256068E-002
  -6.1192612502059041E-002   1.3191307894522140E-002   5.2776530343214556E-002
  -6.1486942785358177E-002   1.4488534931163442E-002   5.3093265069446650E-002
  -6.9043880103912839E-002   1.1307965021895273E-002   5.0231590993484204E-002
  -6.9309908175617857E-002   1.3750815938353804E-002   4.9457957698867773E-002
  -6.9575936247322862E-002   1.5656190411405830E-002   4.8948895451165993E-002
  -6.9841964319027894E-002   1.7024088441051317E-002   4.8704404250378863E-002
  -7.0107992390732898E-002   1.7854510027290244E-002   4.8724484096506343E-002
  -7.9363693779380046E-002   1.4471222642339458E-002   5.0625314692826398E-002
  -7.9128881968849915E-002   1.7482237747041690E-002   4.7792423626633648E-002
  -7.8894070158319771E-002   1.9610786528788691E-002   4.5696641277996566E-002
  -7.8659258347789626E-002   2.0856868987580476E-002   4.4337967646915138E-002
  -7.8424446537259510E-002   2.1220485123417034E-002   4.3716402733389358E-002
  -9.1269062678563190E-002   1.7634480262783640E-002   5.1759697520186609E-002
  -9.0060873315156900E-002   2.1213659555729555E-002   4.6522558802868881E-002
  -8.8852683951750625E-002   2.3565382646171560E-002   4.2495066473747803E-002
  -8.7644494588344349E-002   2.4689649534109660E-002   3.9677220532823382E-002
  -8.6436305224938031E-002   2.4586460219543825E-002   3.8069020980095590E-002
 -0.10475998680146227        2.0797737883227828E-002   5.3634739475564901E-002
 -0.10210588221453884        2.4945081364417442E-002   4.5648363227573430E-002
  -9.9451777627615368E-002   2.7519978763554435E-002   3.9344171038419681E-002
  -9.6797673040691909E-002   2.8522430080638837E-002   3.4722162908103538E-002
  -9.4143568453768478E-002   2.7952435315670626E-002   3.1782338836625110E-002
  -6.1486942785358177E-002   1.4488534931163442E-002   5.3093265069446650E-002
  -6.0170625414539880E-002   1.5494465606416267E-002   5.1679437923130400E-002
  -5.8854308043721590E-002   1.6110290122750108E-002   5.0705086101360083E-002
  -5.7537990672903279E-002   1.6336008480164768E-002   5.0170209604135672E-002
  -5.6221673302084996E-002   1.6171620678660362E-002   5.0074808431457188E-002
  -7.0107992390732898E-002   1.7854510027290244E-002   4.8724484096506343E-002
  -6.8394403768478440E-002   1.8306763415591933E-002   4.7268565280234952E-002
  -6.6680815146224010E-002   1.8540156851425748E-002   4.6167713642289936E-002
  -6.4967226523969537E-002   1.8554690334791697E-002   4.5421929182671288E-002
  -6.3253637901715107E-002   1.8350363865689681E-002   4.5031211901379070E-002
  -7.8424446537259510E-002   2.1220485123417034E-002   4.3716402733389358E-002
  -7.6397994809788428E-002   2.1119061224767616E-002   4.2389638453613959E-002
  -7.4371543082317360E-002   2.0970023580101454E-002   4.1333533205945405E-002
  -7.2345091354846264E-002   2.0773372189418583E-002   4.0548086990383744E-002
  -7.0318639627375196E-002   2.0529107052718994E-002   4.0033299806928907E-002
  -8.6436305224938031E-002   2.4586460219543825E-002   3.8069020980095590E-002
  -8.4181398538469870E-002   2.3931359033943278E-002   3.7042657443267346E-002
  -8.1926491852001682E-002   2.3399890308777156E-002   3.6202544792326541E-002
  -7.9671585165533479E-002   2.2992054044045519E-002   3.5548683027273022E-002
  -7.7416678479065332E-002   2.2707850239748310E-002   3.5081072148106830E-002
  -9.4143568453768478E-002   2.7952435315670626E-002   3.1782338836625110E-002
  -9.1744614954522713E-002   2.6743656843118930E-002   3.1227622249195286E-002
  -8.9345661455276948E-002   2.5829757037452810E-002   3.0774748401433273E-002
  -8.6946707956031169E-002   2.5210735898672423E-002   3.0423717293339082E-002
  -8.4547754456785432E-002   2.4886593426777612E-002   3.0174528924912666E-002
  -5.6221673302084996E-002   1.6171620678660362E-002   5.0074808431457188E-002
  -5.4663977549964639E-002   1.5808397021705667E-002   4.9740809579096865E-002
  -5.3106281797844254E-002   1.5437607812769403E-002   4.9547188295522300E-002
  -5.1548586045723897E-002   1.5059253051851677E-002   4.9493944580733348E-002
  -4.9990890293603527E-002   1.4673332738952383E-002   4.9581078434730197E-002
  -6.3253637901715107E-002   1.8350363865689681E-002   4.5031211901379070E-002
  -6.1543112050315929E-002   1.8011871006204959E-002   4.4648109263342360E-002
  -5.9832586198916737E-002   1.7623905318422766E-002   4.4430289255077568E-002
  -5.8122060347517546E-002   1.7186466802343012E-002   4.4377751876584708E-002
  -5.6411534496118396E-002   1.6699555457965753E-002   4.4490497127863696E-002
  -7.0318639627375196E-002   2.0529107052718994E-002   4.0033299806928907E-002
  -6.8430378615710996E-002   2.0215344990704265E-002   3.9559186106899819E-002
  -6.6542117604046797E-002   1.9810202824076042E-002   3.9275260097628842E-002
  -6.4653856592382639E-002   1.9313680552834358E-002   3.9181521779115963E-002
  -6.2765595580718439E-002   1.8725778176979152E-002   3.9277971151361279E-002
  -7.7416678479065332E-002   2.2707850239748310E-002   3.5081072148106830E-002
  -7.5325777246149875E-002   2.2418818975203592E-002   3.4474040109769288E-002
  -7.3234876013234432E-002   2.1996500329729336E-002   3.4082100823176156E-002
  -7.1143974780318989E-002   2.1440894303325672E-002   3.3905254288327392E-002
  -6.9053073547403546E-002   2.0752000895992509E-002   3.3943500505222900E-002
  -8.4547754456785432E-002   2.4886593426777612E-002   3.0174528924912666E-002
  -8.2229307941632537E-002   2.4622292959702863E-002   2.9392671271950763E-002
  -7.9910861426479629E-002   2.4182797835382668E-002   2.8850811431719463E-002
  -7.7592414911326749E-002   2.3568108053817077E-002   2.8548949404218791E-002
  -7.5273968396173868E-002   2.2778223615005921E-002   2.8487085189448563E-002
  -4.9990890293603527E-002   1.4673332738952383E-002   4.9581078434730197E-002
  -4.8466425383717274E-002   1.4276371369808152E-002   4.9101667249131231E-002
  -4.6941960473831042E-002   1.3864893440155457E-002   4.8945006344129710E-002
  -4.5417495563944782E-002   1.3438898949994352E-002   4.9111095719725564E-002
  -4.3893030654058529E-002   1.2998387899324726E-002   4.9599935375918780E-002
  -5.6411534496118396E-002   1.6699555457965753E-002   4.4490497127863696E-002
  -5.4592402628303678E-002   1.6188803132588317E-002   4.4043222890405145E-002
  -5.2773270760488926E-002   1.5679841673508096E-002   4.3862532288206128E-002
  -5.0954138892674181E-002   1.5172671080725102E-002   4.3948425321266665E-002
  -4.9135007024859470E-002   1.4667291354239276E-002   4.4300901989586833E-002
  -6.2765595580718439E-002   1.8725778176979152E-002   3.9277971151361279E-002
  -6.0707963400312981E-002   1.8101234895368613E-002   3.8879141288848618E-002
  -5.8650331219907537E-002   1.7494789906860847E-002   3.8690728416257723E-002
  -5.6592699039502134E-002   1.6906443211455881E-002   3.8712732533588590E-002
  -5.4535066859096662E-002   1.6336194809153715E-002   3.8945153640841293E-002
  -6.9053073547403546E-002   2.0752000895992509E-002   3.3943500505222900E-002
  -6.6813107699745258E-002   2.0013666658148788E-002   3.3609422444461814E-002
  -6.4573141852086943E-002   1.9309738140213570E-002   3.3429594728284606E-002
  -6.2333176004428621E-002   1.8640215342186590E-002   3.3404017356691448E-002
  -6.0093210156770369E-002   1.8005098264068153E-002   3.3532690329682341E-002
  -7.5273968396173868E-002   2.2778223615005921E-002   2.8487085189448563E-002
  -7.2907835526600490E-002   2.1926098420929074E-002   2.8234066357244569E-002
  -7.0541702657027097E-002   2.1124686373566237E-002   2.8079131224286846E-002
  -6.8175569787453705E-002   2.0373987472917410E-002   2.8022279790575158E-002
  -6.5809436917880354E-002   1.9674001718982648E-002   2.8063512056109741E-002
  -4.3893030654058529E-002   1.2998387899324726E-002   4.9599935375918780E-002
  -4.1295920054122373E-002   1.2562041024082121E-002   4.8575040550648152E-002
  -3.8698809454186217E-002   1.2148539060201871E-002   4.7606981374101437E-002
  -3.6101698854250068E-002   1.1757882007683910E-002   4.6695757846278399E-002
  -3.3504588254313891E-002   1.1390069866527963E-002   4.5841369967179357E-002
  -4.9135007024859470E-002   1.4667291354239276E-002   4.4300901989586833E-002
  -4.6408483296015240E-002   1.4179886456143959E-002   4.3219003031987085E-002
  -4.3681959567170997E-002   1.3726640348532451E-002   4.2339094683479572E-002
  -4.0955435838326774E-002   1.3307553031404854E-002   4.1661176944064356E-002
  -3.8228912109482538E-002   1.2922624504760949E-002   4.1185249813741415E-002
  -5.4535066859096662E-002   1.6336194809153715E-002   3.8945153640841293E-002
  -5.1533975040976024E-002   1.5797731888205616E-002   3.7817564430034006E-002
  -4.8532883222855358E-002   1.5304741636862969E-002   3.7037120788687435E-002
  -4.5531791404734720E-002   1.4857224055125741E-002   3.6603822716801418E-002
  -4.2530699586614054E-002   1.4455179142993962E-002   3.6517670214376116E-002
  -6.0093210156770369E-002   1.8005098264068153E-002   3.3532690329682341E-002
  -5.6672395289004841E-002   1.7415577320267252E-002   3.2370724744789067E-002
  -5.3251580421239265E-002   1.6882842925193490E-002   3.1701059689724906E-002
  -4.9830765553473710E-002   1.6406895078846712E-002   3.1523695164489683E-002
  -4.6409950685708225E-002   1.5987733781226851E-002   3.1838631169083795E-002
  -6.5809436917880354E-002   1.9674001718982648E-002   2.8063512056109741E-002
  -6.1823744040101561E-002   1.9033422752329054E-002   2.6878483976252088E-002
  -5.7838051162322740E-002   1.8460944213524066E-002   2.6330911386591993E-002
  -5.3852358284543947E-002   1.7956566102567628E-002   2.6420794287129276E-002
  -4.9866665406765154E-002   1.7520288419459906E-002   2.7148132677864090E-002
  -3.3504588254313891E-002   1.1390069866527963E-002   4.5841369967179357E-002
  -3.5705140669057597E-002   1.0897467893589557E-002   4.9542008888487976E-002
  -3.7905693083801241E-002   1.0132441345723317E-002   5.3209568049154332E-002
  -4.0106245498544912E-002   9.0949902229291411E-003   5.6844047449178356E-002
  -4.2306797913288577E-002   7.7851145252075815E-003   6.0445447088559923E-002
  -3.8228912109482538E-002   1.2922624504760949E-002   4.1185249813741415E-002
  -4.0570004603854085E-002   1.2425384812948526E-002   4.4935361946227437E-002
  -4.2911097098225513E-002   1.1669364000315138E-002   4.8437473680100249E-002
  -4.5252189592596984E-002   1.0654562066860686E-002   5.1691585015359733E-002
  -4.7593282086968475E-002   9.3809790125850556E-003   5.4697695952006076E-002
  -4.2530699586614054E-002   1.4455179142993962E-002   3.6517670214376116E-002
  -4.5227252798584208E-002   1.3953301732307674E-002   4.0330899012146357E-002
  -4.7923806010554425E-002   1.3206286654907078E-002   4.3681206773332211E-002
  -5.0620359222524586E-002   1.2214133910792067E-002   4.6568593497934005E-002
  -5.3316912434494740E-002   1.0976843499962585E-002   4.8993059185951565E-002
  -4.6409950685708225E-002   1.5987733781226851E-002   3.1838631169083795E-002
  -4.9676885253248072E-002   1.5481218651666677E-002   3.5728620086244625E-002
  -5.2943819820787857E-002   1.4743209309498847E-002   3.8940767328850386E-002
  -5.6210754388327684E-002   1.3773705754723309E-002   4.1475072896901097E-002
  -5.9477688955867497E-002   1.2572707987340032E-002   4.3331536790396676E-002
  -4.9866665406765154E-002   1.7520288419459906E-002   2.7148132677864090E-002
  -5.3918901967845545E-002   1.7009135571025819E-002   3.1128525168522381E-002
  -5.7971138528925908E-002   1.6280131964090824E-002   3.4216155346654703E-002
  -6.2023375090006230E-002   1.5333277598654823E-002   3.6411023212260987E-002
  -6.6075611651086663E-002   1.4168572474717589E-002   3.7713128765341275E-002
  -4.2306797913288577E-002   7.7851145252075815E-003   6.0445447088559923E-002
  -3.5528076956045734E-002   6.4524683879847999E-003   5.3240701468645069E-002
  -2.8749355998802899E-002   5.3467059466870970E-003   4.6210789838376565E-002
  -2.1970635041560087E-002   4.4678272013153122E-003   3.9355712197754467E-002
  -1.5191914084317248E-002   3.8158321518688698E-003   3.2675468546778941E-002
  -4.7593282086968475E-002   9.3809790125850556E-003   5.4697695952006076E-002
  -4.0378601502944075E-002   8.1040169345832358E-003   4.7556383180027001E-002
  -3.3163920918919725E-002   7.0790779299500506E-003   4.1112155671964662E-002
  -2.5949240334895329E-002   6.3061619986854583E-003   3.5365013427818864E-002
  -1.8734559750871044E-002   5.7852691407896950E-003   3.0314956447589858E-002
  -5.3316912434494740E-002   1.0976843499962585E-002   4.8993059185951565E-002
  -4.5144020949418544E-002   9.7555654811818659E-003   4.1940318639351548E-002
  -3.6971129464342334E-002   8.8114499132129903E-003   3.6106914630938389E-002
  -2.8798237979266148E-002   8.1444967960557120E-003   3.1492847160712212E-002
  -2.0625346494189914E-002   7.7547061297104092E-003   2.8098116228673087E-002
  -5.9477688955867497E-002   1.2572707987340032E-002   4.3331536790396676E-002
  -4.9824335295469091E-002   1.1407114027780454E-002   3.6392507846618669E-002
  -4.0170981635070678E-002   1.0543821896475715E-002   3.1195066715298012E-002
  -3.0517627974672206E-002   9.9828315934261339E-003   2.7739213396434606E-002
  -2.0864274314273852E-002   9.7241431186310678E-003   2.6024947890028655E-002
  -6.6075611651086663E-002   1.4168572474717589E-002   3.7713128765341275E-002
  -5.4419544541095710E-002   1.3058662574379043E-002   3.0912950801828487E-002
  -4.2763477431104757E-002   1.2276193879738717E-002   2.6376611925043369E-002
  -3.1107410321113887E-002   1.1821166390796098E-002   2.4104112134985894E-002
  -1.9451343211122962E-002   1.1693580107551949E-002   2.4095451431656256E-002
  -9.0356320124535372E-002   0.0000000000000000        4.9836483294325773E-002
  -9.3957236793767107E-002   5.3988354322502471E-003   5.3210405000138038E-002
  -9.7558153462998815E-002   1.0664736890204968E-002   5.4968088265615306E-002
 -0.10115907013223054        1.5797704373864161E-002   5.5109533090757605E-002
 -0.10475998680146227        2.0797737883227828E-002   5.3634739475564901E-002
 -0.10329081920618946        0.0000000000000000        5.8658042701496826E-002
 -0.10682706035023008        1.0880929105497133E-002   5.2118021879766441E-002
 -0.11036330149427072        1.9168083632100340E-002   4.7323590548753243E-002
 -0.11389954263831137        2.4861463579809603E-002   4.4274748708457226E-002
 -0.11743578378235198        2.7961068948624920E-002   4.2971496358878376E-002
 -0.12645682050431756        0.0000000000000000        7.4192116084213985E-002
 -0.12656655819211493        1.6363022778744025E-002   5.5277312130342537E-002
 -0.12667629587991230        2.7671430373995713E-002   4.1469925598240448E-002
 -0.12678603356770965        3.3925222785755049E-002   3.2769956487907724E-002
 -0.12689577125550705        3.5124400014022020E-002   2.9177404799344366E-002
 -0.15985432401891966        0.0000000000000000        9.6438703442477236E-002
 -0.15317573031942158        2.1845116451990925E-002   6.2688275751866307E-002
 -0.14649713661992353        3.6174777115891080E-002   3.7407093414076914E-002
 -0.13981854292042545        4.2988981991700474E-002   2.0595156429109061E-002
 -0.13313994922092731        4.2287731079419140E-002   1.2252464796962763E-002
 -0.20348332974999578        0.0000000000000000       0.12539780477628659     
 -0.18665457673215008        2.7327210125237814E-002   7.4350912744337777E-002
 -0.16982582371430438        4.4678123857786460E-002   3.5135093996262683E-002
 -0.15299707069645868        5.2052741197645927E-002   7.7503485320612603E-003
 -0.13616831767861298        4.9451062144816219E-002  -7.8033236482664137E-003
 -0.10475998680146227        2.0797737883227828E-002   5.3634739475564901E-002
 -0.10210588221453884        2.4945081364417442E-002   4.5648363227573430E-002
  -9.9451777627615368E-002   2.7519978763554435E-002   3.9344171038419681E-002
  -9.6797673040691909E-002   2.8522430080638837E-002   3.4722162908103538E-002
  -9.4143568453768478E-002   2.7952435315670626E-002   3.1782338836625110E-002
 -0.11743578378235198        2.7961068948624920E-002   4.2971496358878376E-002
 -0.11348479311105476        2.9437036887777393E-002   3.6702658462915566E-002
 -0.10953380243975751        3.0259504546498010E-002   3.1345408676862627E-002
 -0.10558281176846027        3.0428471924786836E-002   2.6899747000719620E-002
 -0.10163182109716300        2.9943939022643834E-002   2.3365673434486558E-002
 -0.12689577125550705        3.5124400014022020E-002   2.9177404799344366E-002
 -0.12241849044876370        3.3928992411137296E-002   2.5545051057030910E-002
 -0.11794120964202046        3.2999030329441584E-002   2.2053689475699630E-002
 -0.11346392883527717        3.2334513768934856E-002   1.8703320055350470E-002
 -0.10898664802853390        3.1935442729617083E-002   1.5493942795983564E-002
 -0.13313994922092731        4.2287731079419140E-002   1.2252464796962763E-002
 -0.12890697422766578        3.8420947934497275E-002   1.2175541009919459E-002
 -0.12467399923440420        3.5738556112385161E-002   1.1469013434930612E-002
 -0.12044102424114266        3.4240555613082813E-002   1.0132882071996245E-002
 -0.11620804924788108        3.3926946436590333E-002   8.1671469211161904E-003
 -0.13616831767861298        4.9451062144816219E-002  -7.8033236482664137E-003
 -0.13295024444776088        4.2912903457857199E-002  -3.4058716784186385E-003
 -0.12973217121690878        3.8478081895328718E-002  -4.0861944544432621E-004
 -0.12651409798605670        3.6146597457230888E-002   1.1884330506567783E-003
 -0.12329602475520460        3.5918450143563541E-002   1.3852858098844789E-003
  -9.4143568453768478E-002   2.7952435315670626E-002   3.1782338836625110E-002
  -9.1744614954522713E-002   2.6743656843118930E-002   3.1227622249195286E-002
  -8.9345661455276948E-002   2.5829757037452810E-002   3.0774748401433273E-002
  -8.6946707956031169E-002   2.5210735898672423E-002   3.0423717293339082E-002
  -8.4547754456785432E-002   2.4886593426777612E-002   3.0174528924912666E-002
 -0.10163182109716300        2.9943939022643834E-002   2.3365673434486558E-002
  -9.9127261234672498E-002   2.9164279553270743E-002   2.3127209089085950E-002
  -9.6622701372181929E-002   2.8447867229869209E-002   2.2998114730507058E-002
  -9.4118141509691403E-002   2.7794702052439269E-002   2.2978390358749944E-002
  -9.1613581647200834E-002   2.7204784020980866E-002   2.3068035973814557E-002
 -0.10898664802853390        3.1935442729617083E-002   1.5493942795983564E-002
 -0.10636895455564464        3.1584902263422553E-002   1.5340099171698124E-002
 -0.10375126108275540        3.1065977422285611E-002   1.5303152781388439E-002
 -0.10113356760986617        3.0378668206206088E-002   1.5383103625054444E-002
  -9.8515874136976905E-002   2.9522974615184126E-002   1.5579951702695955E-002
 -0.11620804924788108        3.3926946436590333E-002   8.1671469211161904E-003
 -0.11346969491743922        3.4005524973574439E-002   7.8662924970319282E-003
 -0.11073134058699734        3.3684087614701951E-002   7.6898625540772914E-003
 -0.10799298625655544        3.2962634359972993E-002   7.6378570922521908E-003
 -0.10525463192611359        3.1841165209387443E-002   7.7102761115567511E-003
 -0.12329602475520460        3.5918450143563541E-002   1.3852858098844789E-003
 -0.12042948232005615        3.6426147683726193E-002   7.0578906508732275E-004
 -0.11756293988490772        3.6302197807118297E-002   1.5824404857352897E-004
 -0.11469639744975929        3.5546600513739798E-002  -2.5734923965652946E-004
 -0.11182985501461085        3.4159355803590641E-002  -5.4099079960318042E-004
  -8.4547754456785432E-002   2.4886593426777612E-002   3.0174528924912666E-002
  -8.2229307941632537E-002   2.4622292959702863E-002   2.9392671271950763E-002
  -7.9910861426479629E-002   2.4182797835382668E-002   2.8850811431719463E-002
  -7.7592414911326749E-002   2.3568108053817077E-002   2.8548949404218791E-002
  -7.5273968396173868E-002   2.2778223615005921E-002   2.8487085189448563E-002
  -9.1613581647200834E-002   2.7204784020980866E-002   2.3068035973814557E-002
  -8.9050636455563603E-002   2.6617579798095939E-002   2.2337706792210824E-002
  -8.6487691263926275E-002   2.5972556046386153E-002   2.1856377150845235E-002
  -8.3924746072289017E-002   2.5269712765851562E-002   2.1624047049717869E-002
  -8.1361800880651758E-002   2.4509049956492224E-002   2.1640716488828787E-002
  -9.8515874136976905E-002   2.9522974615184126E-002   1.5579951702695955E-002
  -9.5699428541347595E-002   2.8612866636488959E-002   1.5018526120870894E-002
  -9.2882982945718270E-002   2.7762314257389557E-002   1.4715101806791730E-002
  -9.0066537350088946E-002   2.6971317477886048E-002   1.4669678760458417E-002
  -8.7250091754459635E-002   2.6239876297978415E-002   1.4882256981871081E-002
 -0.10525463192611359        3.1841165209387443E-002   7.7102761115567511E-003
 -0.10217568419898455        3.0608153474881938E-002   7.4351292579311022E-003
  -9.9096736471855532E-002   2.9552072468393014E-002   7.4269853995590201E-003
  -9.6017788744726495E-002   2.8672922189920552E-002   7.6858445364403971E-003
  -9.2938841017597473E-002   2.7970702639464717E-002   8.2117066685753262E-003
 -0.11182985501461085        3.4159355803590641E-002  -5.4099079960318042E-004
 -0.10847940342847451        3.2603440313274973E-002  -4.1248379660868695E-004
 -0.10512895184233811        3.1341830679396415E-002  -7.9720708529018580E-006
 -0.10177850025620172        3.0374526901954989E-002   6.7254437766378627E-004
  -9.8428048670065382E-002   2.9701528980951020E-002   1.6290655489419326E-003
  -7.5273968396173868E-002   2.2778223615005921E-002   2.8487085189448563E-002
  -7.2907835526600490E-002   2.1926098420929074E-002   2.8234066357244569E-002
  -7.0541702657027097E-002   2.1124686373566237E-002   2.8079131224286846E-002
  -6.8175569787453705E-002   2.0373987472917410E-002   2.8022279790575158E-002
  -6.5809436917880354E-002   1.9674001718982648E-002   2.8063512056109741E-002
  -8.1361800880651758E-002   2.4509049956492224E-002   2.1640716488828787E-002
  -7.8890907884066788E-002   2.3708045253018728E-002   2.1607840138715514E-002
  -7.6420014887481846E-002   2.2884176290142111E-002   2.1686400343379320E-002
  -7.3949121890896849E-002   2.2037443067862039E-002   2.1876397102820071E-002
  -7.1478228894311949E-002   2.1167845586178846E-002   2.2177830417037803E-002
  -8.7250091754459635E-002   2.6239876297978415E-002   1.4882256981871081E-002
  -8.4661085775332268E-002   2.5489992085108382E-002   1.4995945707731245E-002
  -8.2072079796204928E-002   2.4643666206717985E-002   1.5234423843899433E-002
  -7.9483073817077601E-002   2.3700898662806835E-002   1.5597691390375333E-002
  -7.6894067837950275E-002   2.2661689453375183E-002   1.6085748347158882E-002
  -9.2938841017597473E-002   2.7970702639464717E-002   8.2117066685753262E-003
  -9.0218369200396956E-002   2.7271938917198202E-002   8.3983830642918728E-003
  -8.7497897383196396E-002   2.6403156123293831E-002   8.7232017258469987E-003
  -8.4777425565995837E-002   2.5364354257751631E-002   9.1861626532406988E-003
  -8.2056953748795333E-002   2.4155533320571451E-002   9.7872658464728569E-003
  -9.8428048670065382E-002   2.9701528980951020E-002   1.6290655489419326E-003
  -9.5562758159260852E-002   2.9053885749287661E-002   1.8151522083972582E-003
  -9.2697467648456267E-002   2.8162646039869649E-002   2.1527339892220693E-003
  -8.9832177137651736E-002   2.7027809852696184E-002   2.6418108914163414E-003
  -8.6966886626847151E-002   2.5649377187767830E-002   3.2823829149796757E-003
  -6.5809436917880354E-002   1.9674001718982648E-002   2.8063512056109741E-002
  -6.1823744040101561E-002   1.9033422752329054E-002   2.6878483976252088E-002
  -5.7838051162322740E-002   1.8460944213524066E-002   2.6330911386591993E-002
  -5.3852358284543947E-002   1.7956566102567628E-002   2.6420794287129276E-002
  -4.9866665406765154E-002   1.7520288419459906E-002   2.7148132677864090E-002
  -7.1478228894311949E-002   2.1167845586178846E-002   2.2177830417037803E-002
  -6.7022950051926572E-002   2.0363924310470002E-002   2.1189044393982878E-002
  -6.2567671209541237E-002   1.9714219706113256E-002   2.0501974809943535E-002
  -5.8112392367155860E-002   1.9218731773108552E-002   2.0116621664919947E-002
  -5.3657113524770511E-002   1.8877460511455890E-002   2.0032984958911870E-002
  -7.6894067837950275E-002   2.2661689453375183E-002   1.6085748347158882E-002
  -7.2304942082140222E-002   2.1694425868611006E-002   1.5379320624410192E-002
  -6.7715816326330142E-002   2.0967495198702391E-002   1.4638870289495169E-002
  -6.3126690570520019E-002   2.0480897443649365E-002   1.3864397342413917E-002
  -5.8537564814709994E-002   2.0234632603451902E-002   1.3055901783166526E-002
  -8.2056953748795333E-002   2.4155533320571451E-002   9.7872658464728569E-003
  -7.7669720130742387E-002   2.3024927426751843E-002   9.4493126675336964E-003
  -7.3282486512689454E-002   2.2220770691291442E-002   8.7415978252465380E-003
  -6.8895252894636522E-002   2.1743063114190178E-002   7.6641213196112085E-003
  -6.4508019276583589E-002   2.1591804695447955E-002   6.2168831506279852E-003
  -8.6966886626847151E-002   2.5649377187767830E-002   3.2823829149796757E-003
  -8.3117284197733232E-002   2.4355428984892791E-002   3.3990205233537796E-003
  -7.9267681768619203E-002   2.3474046183880742E-002   2.8101574171979088E-003
  -7.5418079339505256E-002   2.3005228784730998E-002   1.5157935965122958E-003
  -7.1568476910391254E-002   2.2948976787444009E-002  -4.8407093870328488E-004
  -4.9866665406765154E-002   1.7520288419459906E-002   2.7148132677864090E-002
  -5.3918901967845545E-002   1.7009135571025819E-002   3.1128525168522381E-002
  -5.7971138528925908E-002   1.6280131964090824E-002   3.4216155346654703E-002
  -6.2023375090006230E-002   1.5333277598654823E-002   3.6411023212260987E-002
  -6.6075611651086663E-002   1.4168572474717589E-002   3.7713128765341275E-002
  -5.3657113524770511E-002   1.8877460511455890E-002   2.0032984958911870E-002
  -5.8190434549551182E-002   1.8455896919477077E-002   2.3068726081208968E-002
  -6.2723755574331796E-002   1.7719531995493629E-002   2.6035060588631545E-002
  -6.7257076599112481E-002   1.6668365739505874E-002   2.8931988481179623E-002
  -7.1790397623893082E-002   1.5302398151513408E-002   3.1759509758853111E-002
  -5.8537564814709994E-002   2.0234632603451902E-002   1.3055901783166526E-002
  -6.2728614605539496E-002   1.9902658267928156E-002   1.5050040963598812E-002
  -6.6919664396368927E-002   1.9158932026896662E-002   1.7798129226808450E-002
  -7.1110714187198332E-002   1.8003453880356873E-002   2.1300166572794581E-002
  -7.5301763978027847E-002   1.6436223828309005E-002   2.5556153001558057E-002
  -6.4508019276583589E-002   2.1591804695447955E-002   6.2168831506279852E-003
  -6.7533442135810404E-002   2.1349419616379324E-002   7.0724698156923761E-003
  -7.0558864995037163E-002   2.0598332058299470E-002   9.5053612611852804E-003
  -7.3584287854263936E-002   1.9338542021207730E-002   1.3515557487106207E-002
  -7.6609710713490736E-002   1.7570049505104712E-002   1.9103058493455734E-002
  -7.1568476910391254E-002   2.2948976787444009E-002  -4.8407093870328488E-004
  -7.2604917140363878E-002   2.2796180964830604E-002  -8.6398736251075414E-004
  -7.3641357370336613E-002   2.2037732089702389E-002   1.1567566917618510E-003
  -7.4677797600309265E-002   2.0673630162059226E-002   5.5781612241139755E-003
  -7.5714237830281972E-002   1.8703875181900642E-002   1.2400226234546396E-002
  -6.6075611651086663E-002   1.4168572474717589E-002   3.7713128765341275E-002
  -5.4419544541095710E-002   1.3058662574379043E-002   3.0912950801828487E-002
  -4.2763477431104757E-002   1.2276193879738717E-002   2.6376611925043369E-002
  -3.1107410321113887E-002   1.1821166390796098E-002   2.4104112134985894E-002
  -1.9451343211122962E-002   1.1693580107551949E-002   2.4095451431656256E-002
  -7.1790397623893082E-002   1.5302398151513408E-002   3.1759509758853111E-002
  -5.8792409462207332E-002   1.3980586185303512E-002   2.6606110269613292E-002
  -4.5794421300521540E-002   1.3061886794663205E-002   2.1872713797035481E-002
  -3.2796433138835672E-002   1.2546299979592519E-002   1.7559320341119483E-002
  -1.9798444977149943E-002   1.2433825740091775E-002   1.3665929901865992E-002
  -7.5301763978027847E-002   1.6436223828309005E-002   2.5556153001558057E-002
  -6.2805690834712713E-002   1.4902509796227925E-002   2.2125203356462564E-002
  -5.0309617691397551E-002   1.3847579709587748E-002   1.7270420657963567E-002
  -3.7813544548082535E-002   1.3271433568388995E-002   1.0991804906061053E-002
  -2.5317471404767325E-002   1.3174071372631602E-002   3.2893561007552030E-003
  -7.6609710713490736E-002   1.7570049505104712E-002   1.9103058493455734E-002
  -6.6459388658611840E-002   1.5824433407152533E-002   1.7470230062376250E-002
  -5.6309066603733096E-002   1.4633272624512486E-002   1.2569732507827489E-002
  -4.6158744548854297E-002   1.3996567157185776E-002   4.4015658298098923E-003
  -3.6008422493975387E-002   1.3914317005171206E-002  -7.0342699716768181E-003
  -7.5714237830281972E-002   1.8703875181900642E-002   1.2400226234546396E-002
  -6.9753502933904921E-002   1.6746357018076918E-002   1.2641190387354451E-002
  -6.3792768037527980E-002   1.5418965539437057E-002   7.7706493466277449E-003
  -5.7832033141151012E-002   1.4721700745981572E-002  -2.2113968876337486E-003
  -5.1871298244773989E-002   1.4654562637711255E-002  -1.7304948315429503E-002
 </DataArray>
 </PointData>
 </Piece>
 <Piece  NumberOfPoints="          1600 "  NumberOfCells="         1024 ">
 <Points>
 <DataArray  type="Float64" NumberOfComponents="3"  format="ascii" >
  0.50000000000000000        0.0000000000000000        0.0000000000000000     
  0.53125000000000000        0.0000000000000000        0.0000000000000000     
  0.56250000000000000        0.0000000000000000        0.0000000000000000     
  0.59375000000000000        0.0000000000000000        0.0000000000000000     
  0.62500000000000000        0.0000000000000000        0.0000000000000000     
  0.50000000000000000        3.1250000000000000E-002   0.0000000000000000     
  0.53125000000000000        3.1250000000000000E-002   0.0000000000000000     
  0.56250000000000000        3.1250000000000000E-002   0.0000000000000000     
  0.59375000000000000        3.1250000000000000E-002   0.0000000000000000     
  0.62500000000000000        3.1250000000000000E-002   0.0000000000000000     
  0.50000000000000000        6.2500000000000000E-002   0.0000000000000000     
  0.53125000000000000        6.2500000000000000E-002   0.0000000000000000     
  0.56250000000000000        6.2500000000000000E-002   0.0000000000000000     
  0.59375000000000000        6.2500000000000000E-002   0.0000000000000000     
  0.62500000000000000        6.2500000000000000E-002   0.0000000000000000     
  0.50000000000000000        9.3750000000000000E-002   0.0000000000000000     
  0.53125000000000000        9.3750000000000000E-002   0.0000000000000000     
  0.56250000000000000        9.3750000000000000E-002   0.0000000000000000     
  0.59375000000000000        9.3750000000000000E-002   0.0000000000000000     
  0.62500000000000000        9.3750000000000000E-002   0.0000000000000000     
  0.50000000000000000       0.12500000000000000        0.0000000000000000     
  0.53125000000000000       0.12500000000000000        0.0000000000000000     
  0.56250000000000000       0.12500000000000000        0.0000000000000000     
  0.59375000000000000       0.12500000000000000        0.0000000000000000     
  0.62500000000000000       0.12500000000000000        0.0000000000000000     
  0.62500000000000000        0.0000000000000000        0.0000000000000000     
  0.65625000000000000        0.0000000000000000        0.0000000000000000     
  0.68750000000000000        0.0000000000000000        0.0000000000000000     
  0.71875000000000000        0.0000000000000000        0.0000000000000000     
  0.75000000000000000        0.0000000000000000        0.0000000000000000     
  0.62500000000000000        3.1250000000000000E-002   0.0000000000000000     
  0.65625000000000000        3.1250000000000000E-002   0.0000000000000000     
  0.68750000000000000        3.1250000000000000E-002   0.0000000000000000     
  0.71875000000000000        3.1250000000000000E-002   0.0000000000000000     
  0.75000000000000000        3.1250000000000000E-002   0.0000000000000000     
  0.62500000000000000        6.2500000000000000E-002   0.0000000000000000     
  0.65625000000000000        6.2500000000000000E-002   0.0000000000000000     
  0.68750000000000000        6.2500000000000000E-002   0.0000000000000000     
  0.71875000000000000        6.2500000000000000E-002   0.0000000000000000     
  0.75000000000000000        6.2500000000000000E-002   0.0000000000000000     
  0.62500000000000000        9.3750000000000000E-002   0.0000000000000000     
  0.65625000000000000        9.3750000000000000E-002   0.0000000000000000     
  0.68750000000000000        9.3750000000000000E-002   0.0000000000000000     
  0.71875000000000000        9.3750000000000000E-002   0.0000000000000000     
  0.75000000000000000        9.3750000000000000E-002   0.0000000000000000     
  0.62500000000000000       0.12500000000000000        0.0000000000000000     
  0.65625000000000000       0.12500000000000000        0.0000000000000000     
  0.68750000000000000       0.12500000000000000        0.0000000000000000     
  0.71875000000000000       0.12500000000000000        0.0000000000000000     
  0.75000000000000000       0.12500000000000000        0.0000000000000000     
  0.75000000000000000        0.0000000000000000        0.0000000000000000     
  0.78125000000000000        0.0000000000000000        0.0000000000000000     
  0.81250000000000000        0.0000000000000000        0.0000000000000000     
  0.84375000000000000        0.0000000000000000        0.0000000000000000     
  0.87500000000000000        0.0000000000000000        0.0000000000000000     
  0.75000000000000000        3.1250000000000000E-002   0.0000000000000000     
  0.78125000000000000        3.1250000000000000E-002   0.0000000000000000     
  0.81250000000000000        3.1250000000000000E-002   0.0000000000000000     
  0.84375000000000000        3.1250000000000000E-002   0.0000000000000000     
  0.87500000000000000        3.1250000000000000E-002   0.0000000000000000     
  0.75000000000000000        6.2500000000000000E-002   0.0000000000000000     
  0.78125000000000000        6.2500000000000000E-002   0.0000000000000000     
  0.81250000000000000        6.2500000000000000E-002   0.0000000000000000     
  0.84375000000000000        6.2500000000000000E-002   0.0000000000000000     
  0.87500000000000000        6.2500000000000000E-002   0.0000000000000000     
  0.75000000000000000        9.3750000000000000E-002   0.0000000000000000     
  0.78125000000000000        9.3750000000000000E-002   0.0000000000000000     
  0.81250000000000000        9.3750000000000000E-002   0.0000000000000000     
  0.84375000000000000        9.3750000000000000E-002   0.0000000000000000     
  0.87500000000000000        9.3750000000000000E-002   0.0000000000000000     
  0.75000000000000000       0.12500000000000000        0.0000000000000000     
  0.78125000000000000       0.12500000000000000        0.0000000000000000     
  0.81250000000000000       0.12500000000000000        0.0000000000000000     
  0.84375000000000000       0.12500000000000000        0.0000000000000000     
  0.87500000000000000       0.12500000000000000        0.0000000000000000     
  0.87500000000000000        0.0000000000000000        0.0000000000000000     
  0.90625000000000000        0.0000000000000000        0.0000000000000000     
  0.93750000000000000        0.0000000000000000        0.0000000000000000     
  0.96875000000000000        0.0000000000000000        0.0000000000000000     
   1.0000000000000000        0.0000000000000000        0.0000000000000000     
  0.87500000000000000        3.1250000000000000E-002   0.0000000000000000     
  0.90625000000000000        3.1250000000000000E-002   0.0000000000000000     
  0.93750000000000000        3.1250000000000000E-002   0.0000000000000000     
  0.96875000000000000        3.1250000000000000E-002   0.0000000000000000     
   1.0000000000000000        3.1250000000000000E-002   0.0000000000000000     
  0.87500000000000000        6.2500000000000000E-002   0.0000000000000000     
  0.90625000000000000        6.2500000000000000E-002   0.0000000000000000     
  0.93750000000000000        6.2500000000000000E-002   0.0000000000000000     
  0.96875000000000000        6.2500000000000000E-002   0.0000000000000000     
   1.0000000000000000        6.2500000000000000E-002   0.0000000000000000     
  0.87500000000000000        9.3750000000000000E-002   0.0000000000000000     
  0.90625000000000000        9.3750000000000000E-002   0.0000000000000000     
  0.93750000000000000        9.3750000000000000E-002   0.0000000000000000     
  0.96875000000000000        9.3750000000000000E-002   0.0000000000000000     
   1.0000000000000000        9.3750000000000000E-002   0.0000000000000000     
  0.87500000000000000       0.12500000000000000        0.0000000000000000     
  0.90625000000000000       0.12500000000000000        0.0000000000000000     
  0.93750000000000000       0.12500000000000000        0.0000000000000000     
  0.96875000000000000       0.12500000000000000        0.0000000000000000     
   1.0000000000000000       0.12500000000000000        0.0000000000000000     
   1.0000000000000000        0.0000000000000000        0.0000000000000000     
   1.0312500000000000        0.0000000000000000        0.0000000000000000     
   1.0625000000000000        0.0000000000000000        0.0000000000000000     
   1.0937500000000000        0.0000000000000000        0.0000000000000000     
   1.1250000000000000        0.0000000000000000        0.0000000000000000     
   1.0000000000000000        3.1250000000000000E-002   0.0000000000000000     
   1.0312500000000000        3.1250000000000000E-002   0.0000000000000000     
   1.0625000000000000        3.1250000000000000E-002   0.0000000000000000     
   1.0937500000000000        3.1250000000000000E-002   0.0000000000000000     
   1.1250000000000000        3.1250000000000000E-002   0.0000000000000000     
   1.0000000000000000        6.2500000000000000E-002   0.0000000000000000     
   1.0312500000000000        6.2500000000000000E-002   0.0000000000000000     
   1.0625000000000000        6.2500000000000000E-002   0.0000000000000000     
   1.0937500000000000        6.2500000000000000E-002   0.0000000000000000     
   1.1250000000000000        6.2500000000000000E-002   0.0000000000000000     
   1.0000000000000000        9.3750000000000000E-002   0.0000000000000000     
   1.0312500000000000        9.3750000000000000E-002   0.0000000000000000     
   1.0625000000000000        9.3750000000000000E-002   0.0000000000000000     
   1.0937500000000000        9.3750000000000000E-002   0.0000000000000000     
   1.1250000000000000        9.3750000000000000E-002   0.0000000000000000     
   1.0000000000000000       0.12500000000000000        0.0000000000000000     
   1.0312500000000000       0.12500000000000000        0.0000000000000000     
   1.0625000000000000       0.12500000000000000        0.0000000000000000     
   1.0937500000000000       0.12500000000000000        0.0000000000000000     
   1.1250000000000000       0.12500000000000000        0.0000000000000000     
   1.1250000000000000        0.0000000000000000        0.0000000000000000     
   1.1562500000000000        0.0000000000000000        0.0000000000000000     
   1.1875000000000000        0.0000000000000000        0.0000000000000000     
   1.2187500000000000        0.0000000000000000        0.0000000000000000     
   1.2500000000000000        0.0000000000000000        0.0000000000000000     
   1.1250000000000000        3.1250000000000000E-002   0.0000000000000000     
   1.1562500000000000        3.1250000000000000E-002   0.0000000000000000     
   1.1875000000000000        3.1250000000000000E-002   0.0000000000000000     
   1.2187500000000000        3.1250000000000000E-002   0.0000000000000000     
   1.2500000000000000        3.1250000000000000E-002   0.0000000000000000     
   1.1250000000000000        6.2500000000000000E-002   0.0000000000000000     
   1.1562500000000000        6.2500000000000000E-002   0.0000000000000000     
   1.1875000000000000        6.2500000000000000E-002   0.0000000000000000     
   1.2187500000000000        6.2500000000000000E-002   0.0000000000000000     
   1.2500000000000000        6.2500000000000000E-002   0.0000000000000000     
   1.1250000000000000        9.3750000000000000E-002   0.0000000000000000     
   1.1562500000000000        9.3750000000000000E-002   0.0000000000000000     
   1.1875000000000000        9.3750000000000000E-002   0.0000000000000000     
   1.2187500000000000        9.3750000000000000E-002   0.0000000000000000     
   1.2500000000000000        9.3750000000000000E-002   0.0000000000000000     
   1.1250000000000000       0.12500000000000000        0.0000000000000000     
   1.1562500000000000       0.12500000000000000        0.0000000000000000     
   1.1875000000000000       0.12500000000000000        0.0000000000000000     
   1.2187500000000000       0.12500000000000000        0.0000000000000000     
   1.2500000000000000       0.12500000000000000        0.0000000000000000     
   1.2500000000000000        0.0000000000000000        0.0000000000000000     
   1.2812500000000000        0.0000000000000000        0.0000000000000000     
   1.3125000000000000        0.0000000000000000        0.0000000000000000     
   1.3437500000000000        0.0000000000000000        0.0000000000000000     
   1.3750000000000000        0.0000000000000000        0.0000000000000000     
   1.2500000000000000        3.1250000000000000E-002   0.0000000000000000     
   1.2812500000000000        3.1250000000000000E-002   0.0000000000000000     
   1.3125000000000000        3.1250000000000000E-002   0.0000000000000000     
   1.3437500000000000        3.1250000000000000E-002   0.0000000000000000     
   1.3750000000000000        3.1250000000000000E-002   0.0000000000000000     
   1.2500000000000000        6.2500000000000000E-002   0.0000000000000000     
   1.2812500000000000        6.2500000000000000E-002   0.0000000000000000     
   1.3125000000000000        6.2500000000000000E-002   0.0000000000000000     
   1.3437500000000000        6.2500000000000000E-002   0.0000000000000000     
   1.3750000000000000        6.2500000000000000E-002   0.0000000000000000     
   1.2500000000000000        9.3750000000000000E-002   0.0000000000000000     
   1.2812500000000000        9.3750000000000000E-002   0.0000000000000000     
   1.3125000000000000        9.3750000000000000E-002   0.0000000000000000     
   1.3437500000000000        9.3750000000000000E-002   0.0000000000000000     
   1.3750000000000000        9.3750000000000000E-002   0.0000000000000000     
   1.2500000000000000       0.12500000000000000        0.0000000000000000     
   1.2812500000000000       0.12500000000000000        0.0000000000000000     
   1.3125000000000000       0.12500000000000000        0.0000000000000000     
   1.3437500000000000       0.12500000000000000        0.0000000000000000     
   1.3750000000000000       0.12500000000000000        0.0000000000000000     
   1.3750000000000000        0.0000000000000000        0.0000000000000000     
   1.4062500000000000        0.0000000000000000        0.0000000000000000     
   1.4375000000000000        0.0000000000000000        0.0000000000000000     
   1.4687500000000000        0.0000000000000000        0.0000000000000000     
   1.5000000000000000        0.0000000000000000        0.0000000000000000     
   1.3750000000000000        3.1250000000000000E-002   0.0000000000000000     
   1.4062500000000000        3.1250000000000000E-002   0.0000000000000000     
   1.4375000000000000        3.1250000000000000E-002   0.0000000000000000     
   1.4687500000000000        3.1250000000000000E-002   0.0000000000000000     
   1.5000000000000000        3.1250000000000000E-002   0.0000000000000000     
   1.3750000000000000        6.2500000000000000E-002   0.0000000000000000     
   1.4062500000000000        6.2500000000000000E-002   0.0000000000000000     
   1.4375000000000000        6.2500000000000000E-002   0.0000000000000000     
   1.4687500000000000        6.2500000000000000E-002   0.0000000000000000     
   1.5000000000000000        6.2500000000000000E-002   0.0000000000000000     
   1.3750000000000000        9.3750000000000000E-002   0.0000000000000000     
   1.4062500000000000        9.3750000000000000E-002   0.0000000000000000     
   1.4375000000000000        9.3750000000000000E-002   0.0000000000000000     
   1.4687500000000000        9.3750000000000000E-002   0.0000000000000000     
   1.5000000000000000        9.3750000000000000E-002   0.0000000000000000     
   1.3750000000000000       0.12500000000000000        0.0000000000000000     
   1.4062500000000000       0.12500000000000000        0.0000000000000000     
   1.4375000000000000       0.12500000000000000        0.0000000000000000     
   1.4687500000000000       0.12500000000000000        0.0000000000000000     
   1.5000000000000000       0.12500000000000000        0.0000000000000000     
  0.50000000000000000       0.12500000000000000        0.0000000000000000     
  0.53125000000000000       0.12500000000000000        0.0000000000000000     
  0.56250000000000000       0.12500000000000000        0.0000000000000000     
  0.59375000000000000       0.12500000000000000        0.0000000000000000     
  0.62500000000000000       0.12500000000000000        0.0000000000000000     
  0.50000000000000000       0.15625000000000000        0.0000000000000000     
  0.53125000000000000       0.15625000000000000        0.0000000000000000     
  0.56250000000000000       0.15625000000000000        0.0000000000000000     
  0.59375000000000000       0.15625000000000000        0.0000000000000000     
  0.62500000000000000       0.15625000000000000        0.0000000000000000     
  0.50000000000000000       0.18750000000000000        0.0000000000000000     
  0.53125000000000000       0.18750000000000000        0.0000000000000000     
  0.56250000000000000       0.18750000000000000        0.0000000000000000     
  0.59375000000000000       0.18750000000000000        0.0000000000000000     
  0.62500000000000000       0.18750000000000000        0.0000000000000000     
  0.50000000000000000       0.21875000000000000        0.0000000000000000     
  0.53125000000000000       0.21875000000000000        0.0000000000000000     
  0.56250000000000000       0.21875000000000000        0.0000000000000000     
  0.59375000000000000       0.21875000000000000        0.0000000000000000     
  0.62500000000000000       0.21875000000000000        0.0000000000000000     
  0.50000000000000000       0.25000000000000000        0.0000000000000000     
  0.53125000000000000       0.25000000000000000        0.0000000000000000     
  0.56250000000000000       0.25000000000000000        0.0000000000000000     
  0.59375000000000000       0.25000000000000000        0.0000000000000000     
  0.62500000000000000       0.25000000000000000        0.0000000000000000     
  0.62500000000000000       0.12500000000000000        0.0000000000000000     
  0.65625000000000000       0.12500000000000000        0.0000000000000000     
  0.68750000000000000       0.12500000000000000        0.0000000000000000     
  0.71875000000000000       0.12500000000000000        0.0000000000000000     
  0.75000000000000000       0.12500000000000000        0.0000000000000000     
  0.62500000000000000       0.15625000000000000        0.0000000000000000     
  0.65625000000000000       0.15625000000000000        0.0000000000000000     
  0.68750000000000000       0.15625000000000000        0.0000000000000000     
  0.71875000000000000       0.15625000000000000        0.0000000000000000     
  0.75000000000000000       0.15625000000000000        0.0000000000000000     
  0.62500000000000000       0.18750000000000000        0.0000000000000000     
  0.65625000000000000       0.18750000000000000        0.0000000000000000     
  0.68750000000000000       0.18750000000000000        0.0000000000000000     
  0.71875000000000000       0.18750000000000000        0.0000000000000000     
  0.75000000000000000       0.18750000000000000        0.0000000000000000     
  0.62500000000000000       0.21875000000000000        0.0000000000000000     
  0.65625000000000000       0.21875000000000000        0.0000000000000000     
  0.68750000000000000       0.21875000000000000        0.0000000000000000     
  0.71875000000000000       0.21875000000000000        0.0000000000000000     
  0.75000000000000000       0.21875000000000000        0.0000000000000000     
  0.62500000000000000       0.25000000000000000        0.0000000000000000     
  0.65625000000000000       0.25000000000000000        0.0000000000000000     
  0.68750000000000000       0.25000000000000000        0.0000000000000000     
  0.71875000000000000       0.25000000000000000        0.0000000000000000     
  0.75000000000000000       0.25000000000000000        0.0000000000000000     
  0.75000000000000000       0.12500000000000000        0.0000000000000000     
  0.78125000000000000       0.12500000000000000        0.0000000000000000     
  0.81250000000000000       0.12500000000000000        0.0000000000000000     
  0.84375000000000000       0.12500000000000000        0.0000000000000000     
  0.87500000000000000       0.12500000000000000        0.0000000000000000     
  0.75000000000000000       0.15625000000000000        0.0000000000000000     
  0.78125000000000000       0.15625000000000000        0.0000000000000000     
  0.81250000000000000       0.15625000000000000        0.0000000000000000     
  0.84375000000000000       0.15625000000000000        0.0000000000000000     
  0.87500000000000000       0.15625000000000000        0.0000000000000000     
  0.75000000000000000       0.18750000000000000        0.0000000000000000     
  0.78125000000000000       0.18750000000000000        0.0000000000000000     
  0.81250000000000000       0.18750000000000000        0.0000000000000000     
  0.84375000000000000       0.18750000000000000        0.0000000000000000     
  0.87500000000000000       0.18750000000000000        0.0000000000000000     
  0.75000000000000000       0.21875000000000000        0.0000000000000000     
  0.78125000000000000       0.21875000000000000        0.0000000000000000     
  0.81250000000000000       0.21875000000000000        0.0000000000000000     
  0.84375000000000000       0.21875000000000000        0.0000000000000000     
  0.87500000000000000       0.21875000000000000        0.0000000000000000     
  0.75000000000000000       0.25000000000000000        0.0000000000000000     
  0.78125000000000000       0.25000000000000000        0.0000000000000000     
  0.81250000000000000       0.25000000000000000        0.0000000000000000     
  0.84375000000000000       0.25000000000000000        0.0000000000000000     
  0.87500000000000000       0.25000000000000000        0.0000000000000000     
  0.87500000000000000       0.12500000000000000        0.0000000000000000     
  0.90625000000000000       0.12500000000000000        0.0000000000000000     
  0.93750000000000000       0.12500000000000000        0.0000000000000000     
  0.96875000000000000       0.12500000000000000        0.0000000000000000     
   1.0000000000000000       0.12500000000000000        0.0000000000000000     
  0.87500000000000000       0.15625000000000000        0.0000000000000000     
  0.90625000000000000       0.15625000000000000        0.0000000000000000     
  0.93750000000000000       0.15625000000000000        0.0000000000000000     
  0.96875000000000000       0.15625000000000000        0.0000000000000000     
   1.0000000000000000       0.15625000000000000        0.0000000000000000     
  0.87500000000000000       0.18750000000000000        0.0000000000000000     
  0.90625000000000000       0.18750000000000000        0.0000000000000000     
  0.93750000000000000       0.18750000000000000        0.0000000000000000     
  0.96875000000000000       0.18750000000000000        0.0000000000000000     
   1.0000000000000000       0.18750000000000000        0.0000000000000000     
  0.87500000000000000       0.21875000000000000        0.0000000000000000     
  0.90625000000000000       0.21875000000000000        0.0000000000000000     
  0.93750000000000000       0.21875000000000000        0.0000000000000000     
  0.96875000000000000       0.21875000000000000        0.0000000000000000     
   1.0000000000000000       0.21875000000000000        0.0000000000000000     
  0.87500000000000000       0.25000000000000000        0.0000000000000000     
  0.90625000000000000       0.25000000000000000        0.0000000000000000     
  0.93750000000000000       0.25000000000000000        0.0000000000000000     
  0.96875000000000000       0.25000000000000000        0.0000000000000000     
   1.0000000000000000       0.25000000000000000        0.0000000000000000     
   1.0000000000000000       0.12500000000000000        0.0000000000000000     
   1.0312500000000000       0.12500000000000000        0.0000000000000000     
   1.0625000000000000       0.12500000000000000        0.0000000000000000     
   1.0937500000000000       0.12500000000000000        0.0000000000000000     
   1.1250000000000000       0.12500000000000000        0.0000000000000000     
   1.0000000000000000       0.15625000000000000        0.0000000000000000     
   1.0312500000000000       0.15625000000000000        0.0000000000000000     
   1.0625000000000000       0.15625000000000000        0.0000000000000000     
   1.0937500000000000       0.15625000000000000        0.0000000000000000     
   1.1250000000000000       0.15625000000000000        0.0000000000000000     
   1.0000000000000000       0.18750000000000000        0.0000000000000000     
   1.0312500000000000       0.18750000000000000        0.0000000000000000     
   1.0625000000000000       0.18750000000000000        0.0000000000000000     
   1.0937500000000000       0.18750000000000000        0.0000000000000000     
   1.1250000000000000       0.18750000000000000        0.0000000000000000     
   1.0000000000000000       0.21875000000000000        0.0000000000000000     
   1.0312500000000000       0.21875000000000000        0.0000000000000000     
   1.0625000000000000       0.21875000000000000        0.0000000000000000     
   1.0937500000000000       0.21875000000000000        0.0000000000000000     
   1.1250000000000000       0.21875000000000000        0.0000000000000000     
   1.0000000000000000       0.25000000000000000        0.0000000000000000     
   1.0312500000000000       0.25000000000000000        0.0000000000000000     
   1.0625000000000000       0.25000000000000000        0.0000000000000000     
   1.0937500000000000       0.25000000000000000        0.0000000000000000     
   1.1250000000000000       0.25000000000000000        0.0000000000000000     
   1.1250000000000000       0.12500000000000000        0.0000000000000000     
   1.1562500000000000       0.12500000000000000        0.0000000000000000     
   1.1875000000000000       0.12500000000000000        0.0000000000000000     
   1.2187500000000000       0.12500000000000000        0.0000000000000000     
   1.2500000000000000       0.12500000000000000        0.0000000000000000     
   1.1250000000000000       0.15625000000000000        0.0000000000000000     
   1.1562500000000000       0.15625000000000000        0.0000000000000000     
   1.1875000000000000       0.15625000000000000        0.0000000000000000     
   1.2187500000000000       0.15625000000000000        0.0000000000000000     
   1.2500000000000000       0.15625000000000000        0.0000000000000000     
   1.1250000000000000       0.18750000000000000        0.0000000000000000     
   1.1562500000000000       0.18750000000000000        0.0000000000000000     
   1.1875000000000000       0.18750000000000000        0.0000000000000000     
   1.2187500000000000       0.18750000000000000        0.0000000000000000     
   1.2500000000000000       0.18750000000000000        0.0000000000000000     
   1.1250000000000000       0.21875000000000000        0.0000000000000000     
   1.1562500000000000       0.21875000000000000        0.0000000000000000     
   1.1875000000000000       0.21875000000000000        0.0000000000000000     
   1.2187500000000000       0.21875000000000000        0.0000000000000000     
   1.2500000000000000       0.21875000000000000        0.0000000000000000     
   1.1250000000000000       0.25000000000000000        0.0000000000000000     
   1.1562500000000000       0.25000000000000000        0.0000000000000000     
   1.1875000000000000       0.25000000000000000        0.0000000000000000     
   1.2187500000000000       0.25000000000000000        0.0000000000000000     
   1.2500000000000000       0.25000000000000000        0.0000000000000000     
   1.2500000000000000       0.12500000000000000        0.0000000000000000     
   1.2812500000000000       0.12500000000000000        0.0000000000000000     
   1.3125000000000000       0.12500000000000000        0.0000000000000000     
   1.3437500000000000       0.12500000000000000        0.0000000000000000     
   1.3750000000000000       0.12500000000000000        0.0000000000000000     
   1.2500000000000000       0.15625000000000000        0.0000000000000000     
   1.2812500000000000       0.15625000000000000        0.0000000000000000     
   1.3125000000000000       0.15625000000000000        0.0000000000000000     
   1.3437500000000000       0.15625000000000000        0.0000000000000000     
   1.3750000000000000       0.15625000000000000        0.0000000000000000     
   1.2500000000000000       0.18750000000000000        0.0000000000000000     
   1.2812500000000000       0.18750000000000000        0.0000000000000000     
   1.3125000000000000       0.18750000000000000        0.0000000000000000     
   1.3437500000000000       0.18750000000000000        0.0000000000000000     
   1.3750000000000000       0.18750000000000000        0.0000000000000000     
   1.2500000000000000       0.21875000000000000        0.0000000000000000     
   1.2812500000000000       0.21875000000000000        0.0000000000000000     
   1.3125000000000000       0.21875000000000000        0.0000000000000000     
   1.3437500000000000       0.21875000000000000        0.0000000000000000     
   1.3750000000000000       0.21875000000000000        0.0000000000000000     
   1.2500000000000000       0.25000000000000000        0.0000000000000000     
   1.2812500000000000       0.25000000000000000        0.0000000000000000     
   1.3125000000000000       0.25000000000000000        0.0000000000000000     
   1.3437500000000000       0.25000000000000000        0.0000000000000000     
   1.3750000000000000       0.25000000000000000        0.0000000000000000     
   1.3750000000000000       0.12500000000000000        0.0000000000000000     
   1.4062500000000000       0.12500000000000000        0.0000000000000000     
   1.4375000000000000       0.12500000000000000        0.0000000000000000     
   1.4687500000000000       0.12500000000000000        0.0000000000000000     
   1.5000000000000000       0.12500000000000000        0.0000000000000000     
   1.3750000000000000       0.15625000000000000        0.0000000000000000     
   1.4062500000000000       0.15625000000000000        0.0000000000000000     
   1.4375000000000000       0.15625000000000000        0.0000000000000000     
   1.4687500000000000       0.15625000000000000        0.0000000000000000     
   1.5000000000000000       0.15625000000000000        0.0000000000000000     
   1.3750000000000000       0.18750000000000000        0.0000000000000000     
   1.4062500000000000       0.18750000000000000        0.0000000000000000     
   1.4375000000000000       0.18750000000000000        0.0000000000000000     
   1.4687500000000000       0.18750000000000000        0.0000000000000000     
   1.5000000000000000       0.18750000000000000        0.0000000000000000     
   1.3750000000000000       0.21875000000000000        0.0000000000000000     
   1.4062500000000000       0.21875000000000000        0.0000000000000000     
   1.4375000000000000       0.21875000000000000        0.0000000000000000     
   1.4687500000000000       0.21875000000000000        0.0000000000000000     
   1.5000000000000000       0.21875000000000000        0.0000000000000000     
   1.3750000000000000       0.25000000000000000        0.0000000000000000     
   1.4062500000000000       0.25000000000000000        0.0000000000000000     
   1.4375000000000000       0.25000000000000000        0.0000000000000000     
   1.4687500000000000       0.25000000000000000        0.0000000000000000     
   1.5000000000000000       0.25000000000000000        0.0000000000000000     
  0.50000000000000000       0.25000000000000000        0.0000000000000000     
  0.53125000000000000       0.25000000000000000        0.0000000000000000     
  0.56250000000000000       0.25000000000000000        0.0000000000000000     
  0.59375000000000000       0.25000000000000000        0.0000000000000000     
  0.62500000000000000       0.25000000000000000        0.0000000000000000     
  0.50000000000000000       0.28125000000000000        0.0000000000000000     
  0.53125000000000000       0.28125000000000000        0.0000000000000000     
  0.56250000000000000       0.28125000000000000        0.0000000000000000     
  0.59375000000000000       0.28125000000000000        0.0000000000000000     
  0.62500000000000000       0.28125000000000000        0.0000000000000000     
  0.50000000000000000       0.31250000000000000        0.0000000000000000     
  0.53125000000000000       0.31250000000000000        0.0000000000000000     
  0.56250000000000000       0.31250000000000000        0.0000000000000000     
  0.59375000000000000       0.31250000000000000        0.0000000000000000     
  0.62500000000000000       0.31250000000000000        0.0000000000000000     
  0.50000000000000000       0.34375000000000000        0.0000000000000000     
  0.53125000000000000       0.34375000000000000        0.0000000000000000     
  0.56250000000000000       0.34375000000000000        0.0000000000000000     
  0.59375000000000000       0.34375000000000000        0.0000000000000000     
  0.62500000000000000       0.34375000000000000        0.0000000000000000     
  0.50000000000000000       0.37500000000000000        0.0000000000000000     
  0.53125000000000000       0.37500000000000000        0.0000000000000000     
  0.56250000000000000       0.37500000000000000        0.0000000000000000     
  0.59375000000000000       0.37500000000000000        0.0000000000000000     
  0.62500000000000000       0.37500000000000000        0.0000000000000000     
  0.62500000000000000       0.25000000000000000        0.0000000000000000     
  0.65625000000000000       0.25000000000000000        0.0000000000000000     
  0.68750000000000000       0.25000000000000000        0.0000000000000000     
  0.71875000000000000       0.25000000000000000        0.0000000000000000     
  0.75000000000000000       0.25000000000000000        0.0000000000000000     
  0.62500000000000000       0.28125000000000000        0.0000000000000000     
  0.65625000000000000       0.28125000000000000        0.0000000000000000     
  0.68750000000000000       0.28125000000000000        0.0000000000000000     
  0.71875000000000000       0.28125000000000000        0.0000000000000000     
  0.75000000000000000       0.28125000000000000        0.0000000000000000     
  0.62500000000000000       0.31250000000000000        0.0000000000000000     
  0.65625000000000000       0.31250000000000000        0.0000000000000000     
  0.68750000000000000       0.31250000000000000        0.0000000000000000     
  0.71875000000000000       0.31250000000000000        0.0000000000000000     
  0.75000000000000000       0.31250000000000000        0.0000000000000000     
  0.62500000000000000       0.34375000000000000        0.0000000000000000     
  0.65625000000000000       0.34375000000000000        0.0000000000000000     
  0.68750000000000000       0.34375000000000000        0.0000000000000000     
  0.71875000000000000       0.34375000000000000        0.0000000000000000     
  0.75000000000000000       0.34375000000000000        0.0000000000000000     
  0.62500000000000000       0.37500000000000000        0.0000000000000000     
  0.65625000000000000       0.37500000000000000        0.0000000000000000     
  0.68750000000000000       0.37500000000000000        0.0000000000000000     
  0.71875000000000000       0.37500000000000000        0.0000000000000000     
  0.75000000000000000       0.37500000000000000        0.0000000000000000     
  0.75000000000000000       0.25000000000000000        0.0000000000000000     
  0.78125000000000000       0.25000000000000000        0.0000000000000000     
  0.81250000000000000       0.25000000000000000        0.0000000000000000     
  0.84375000000000000       0.25000000000000000        0.0000000000000000     
  0.87500000000000000       0.25000000000000000        0.0000000000000000     
  0.75000000000000000       0.28125000000000000        0.0000000000000000     
  0.78125000000000000       0.28125000000000000        0.0000000000000000     
  0.81250000000000000       0.28125000000000000        0.0000000000000000     
  0.84375000000000000       0.28125000000000000        0.0000000000000000     
  0.87500000000000000       0.28125000000000000        0.0000000000000000     
  0.75000000000000000       0.31250000000000000        0.0000000000000000     
  0.78125000000000000       0.31250000000000000        0.0000000000000000     
  0.81250000000000000       0.31250000000000000        0.0000000000000000     
  0.84375000000000000       0.31250000000000000        0.0000000000000000     
  0.87500000000000000       0.31250000000000000        0.0000000000000000     
  0.75000000000000000       0.34375000000000000        0.0000000000000000     
  0.78125000000000000       0.34375000000000000        0.0000000000000000     
  0.81250000000000000       0.34375000000000000        0.0000000000000000     
  0.84375000000000000       0.34375000000000000        0.0000000000000000     
  0.87500000000000000       0.34375000000000000        0.0000000000000000     
  0.75000000000000000       0.37500000000000000        0.0000000000000000     
  0.78125000000000000       0.37500000000000000        0.0000000000000000     
  0.81250000000000000       0.37500000000000000        0.0000000000000000     
  0.84375000000000000       0.37500000000000000        0.0000000000000000     
  0.87500000000000000       0.37500000000000000        0.0000000000000000     
  0.87500000000000000       0.25000000000000000        0.0000000000000000     
  0.90625000000000000       0.25000000000000000        0.0000000000000000     
  0.93750000000000000       0.25000000000000000        0.0000000000000000     
  0.96875000000000000       0.25000000000000000        0.0000000000000000     
   1.0000000000000000       0.25000000000000000        0.0000000000000000     
  0.87500000000000000       0.28125000000000000        0.0000000000000000     
  0.90625000000000000       0.28125000000000000        0.0000000000000000     
  0.93750000000000000       0.28125000000000000        0.0000000000000000     
  0.96875000000000000       0.28125000000000000        0.0000000000000000     
   1.0000000000000000       0.28125000000000000        0.0000000000000000     
  0.87500000000000000       0.31250000000000000        0.0000000000000000     
  0.90625000000000000       0.31250000000000000        0.0000000000000000     
  0.93750000000000000       0.31250000000000000        0.0000000000000000     
  0.96875000000000000       0.31250000000000000        0.0000000000000000     
   1.0000000000000000       0.31250000000000000        0.0000000000000000     
  0.87500000000000000       0.34375000000000000        0.0000000000000000     
  0.90625000000000000       0.34375000000000000        0.0000000000000000     
  0.93750000000000000       0.34375000000000000        0.0000000000000000     
  0.96875000000000000       0.34375000000000000        0.0000000000000000     
   1.0000000000000000       0.34375000000000000        0.0000000000000000     
  0.87500000000000000       0.37500000000000000        0.0000000000000000     
  0.90625000000000000       0.37500000000000000        0.0000000000000000     
  0.93750000000000000       0.37500000000000000        0.0000000000000000     
  0.96875000000000000       0.37500000000000000        0.0000000000000000     
   1.0000000000000000       0.37500000000000000        0.0000000000000000     
   1.0000000000000000       0.25000000000000000        0.0000000000000000     
   1.0312500000000000       0.25000000000000000        0.0000000000000000     
   1.0625000000000000       0.25000000000000000        0.0000000000000000     
   1.0937500000000000       0.25000000000000000        0.0000000000000000     
   1.1250000000000000       0.25000000000000000        0.0000000000000000     
   1.0000000000000000       0.28125000000000000        0.0000000000000000     
   1.0312500000000000       0.28125000000000000        0.0000000000000000     
   1.0625000000000000       0.28125000000000000        0.0000000000000000     
   1.0937500000000000       0.28125000000000000        0.0000000000000000     
   1.1250000000000000       0.28125000000000000        0.0000000000000000     
   1.0000000000000000       0.31250000000000000        0.0000000000000000     
   1.0312500000000000       0.31250000000000000        0.0000000000000000     
   1.0625000000000000       0.31250000000000000        0.0000000000000000     
   1.0937500000000000       0.31250000000000000        0.0000000000000000     
   1.1250000000000000       0.31250000000000000        0.0000000000000000     
   1.0000000000000000       0.34375000000000000        0.0000000000000000     
   1.0312500000000000       0.34375000000000000        0.0000000000000000     
   1.0625000000000000       0.34375000000000000        0.0000000000000000     
   1.0937500000000000       0.34375000000000000        0.0000000000000000     
   1.1250000000000000       0.34375000000000000        0.0000000000000000     
   1.0000000000000000       0.37500000000000000        0.0000000000000000     
   1.0312500000000000       0.37500000000000000        0.0000000000000000     
   1.0625000000000000       0.37500000000000000        0.0000000000000000     
   1.0937500000000000       0.37500000000000000        0.0000000000000000     
   1.1250000000000000       0.37500000000000000        0.0000000000000000     
   1.1250000000000000       0.25000000000000000        0.0000000000000000     
   1.1562500000000000       0.25000000000000000        0.0000000000000000     
   1.1875000000000000       0.25000000000000000        0.0000000000000000     
   1.2187500000000000       0.25000000000000000        0.0000000000000000     
   1.2500000000000000       0.25000000000000000        0.0000000000000000     
   1.1250000000000000       0.28125000000000000        0.0000000000000000     
   1.1562500000000000       0.28125000000000000        0.0000000000000000     
   1.1875000000000000       0.28125000000000000        0.0000000000000000     
   1.2187500000000000       0.28125000000000000        0.0000000000000000     
   1.2500000000000000       0.28125000000000000        0.0000000000000000     
   1.1250000000000000       0.31250000000000000        0.0000000000000000     
   1.1562500000000000       0.31250000000000000        0.0000000000000000     
   1.1875000000000000       0.31250000000000000        0.0000000000000000     
   1.2187500000000000       0.31250000000000000        0.0000000000000000     
   1.2500000000000000       0.31250000000000000        0.0000000000000000     
   1.1250000000000000       0.34375000000000000        0.0000000000000000     
   1.1562500000000000       0.34375000000000000        0.0000000000000000     
   1.1875000000000000       0.34375000000000000        0.0000000000000000     
   1.2187500000000000       0.34375000000000000        0.0000000000000000     
   1.2500000000000000       0.34375000000000000        0.0000000000000000     
   1.1250000000000000       0.37500000000000000        0.0000000000000000     
   1.1562500000000000       0.37500000000000000        0.0000000000000000     
   1.1875000000000000       0.37500000000000000        0.0000000000000000     
   1.2187500000000000       0.37500000000000000        0.0000000000000000     
   1.2500000000000000       0.37500000000000000        0.0000000000000000     
   1.2500000000000000       0.25000000000000000        0.0000000000000000     
   1.2812500000000000       0.25000000000000000        0.0000000000000000     
   1.3125000000000000       0.25000000000000000        0.0000000000000000     
   1.3437500000000000       0.25000000000000000        0.0000000000000000     
   1.3750000000000000       0.25000000000000000        0.0000000000000000     
   1.2500000000000000       0.28125000000000000        0.0000000000000000     
   1.2812500000000000       0.28125000000000000        0.0000000000000000     
   1.3125000000000000       0.28125000000000000        0.0000000000000000     
   1.3437500000000000       0.28125000000000000        0.0000000000000000     
   1.3750000000000000       0.28125000000000000        0.0000000000000000     
   1.2500000000000000       0.31250000000000000        0.0000000000000000     
   1.2812500000000000       0.31250000000000000        0.0000000000000000     
   1.3125000000000000       0.31250000000000000        0.0000000000000000     
   1.3437500000000000       0.31250000000000000        0.0000000000000000     
   1.3750000000000000       0.31250000000000000        0.0000000000000000     
   1.2500000000000000       0.34375000000000000        0.0000000000000000     
   1.2812500000000000       0.34375000000000000        0.0000000000000000     
   1.3125000000000000       0.34375000000000000        0.0000000000000000     
   1.3437500000000000       0.34375000000000000        0.0000000000000000     
   1.3750000000000000       0.34375000000000000        0.0000000000000000     
   1.2500000000000000       0.37500000000000000        0.0000000000000000     
   1.2812500000000000       0.37500000000000000        0.0000000000000000     
   1.3125000000000000       0.37500000000000000        0.0000000000000000     
   1.3437500000000000       0.37500000000000000        0.0000000000000000     
   1.3750000000000000       0.37500000000000000        0.0000000000000000     
   1.3750000000000000       0.25000000000000000        0.0000000000000000     
   1.4062500000000000       0.25000000000000000        0.0000000000000000     
   1.4375000000000000       0.25000000000000000        0.0000000000000000     
   1.4687500000000000       0.25000000000000000        0.0000000000000000     
   1.5000000000000000       0.25000000000000000        0.0000000000000000     
   1.3750000000000000       0.28125000000000000        0.0000000000000000     
   1.4062500000000000       0.28125000000000000        0.0000000000000000     
   1.4375000000000000       0.28125000000000000        0.0000000000000000     
   1.4687500000000000       0.28125000000000000        0.0000000000000000     
   1.5000000000000000       0.28125000000000000        0.0000000000000000     
   1.3750000000000000       0.31250000000000000        0.0000000000000000     
   1.4062500000000000       0.31250000000000000        0.0000000000000000     
   1.4375000000000000       0.31250000000000000        0.0000000000000000     
   1.4687500000000000       0.31250000000000000        0.0000000000000000     
   1.5000000000000000       0.31250000000000000        0.0000000000000000     
   1.3750000000000000       0.34375000000000000        0.0000000000000000     
   1.4062500000000000       0.34375000000000000        0.0000000000000000     
   1.4375000000000000       0.34375000000000000        0.0000000000000000     
   1.4687500000000000       0.34375000000000000        0.0000000000000000     
   1.5000000000000000       0.34375000000000000        0.0000000000000000     
   1.3750000000000000       0.37500000000000000        0.0000000000000000     
   1.4062500000000000       0.37500000000000000        0.0000000000000000     
   1.4375000000000000       0.37500000000000000        0.0000000000000000     
   1.4687500000000000       0.37500000000000000        0.0000000000000000     
   1.5000000000000000       0.37500000000000000        0.0000000000000000     
  0.50000000000000000       0.37500000000000000        0.0000000000000000     
  0.53125000000000000       0.37500000000000000        0.0000000000000000     
  0.56250000000000000       0.37500000000000000        0.0000000000000000     
  0.59375000000000000       0.37500000000000000        0.0000000000000000     
  0.62500000000000000       0.37500000000000000        0.0000000000000000     
  0.50000000000000000       0.40625000000000000        0.0000000000000000     
  0.53125000000000000       0.40625000000000000        0.0000000000000000     
  0.56250000000000000       0.40625000000000000        0.0000000000000000     
  0.59375000000000000       0.40625000000000000        0.0000000000000000     
  0.62500000000000000       0.40625000000000000        0.0000000000000000     
  0.50000000000000000       0.43750000000000000        0.0000000000000000     
  0.53125000000000000       0.43750000000000000        0.0000000000000000     
  0.56250000000000000       0.43750000000000000        0.0000000000000000     
  0.59375000000000000       0.43750000000000000        0.0000000000000000     
  0.62500000000000000       0.43750000000000000        0.0000000000000000     
  0.50000000000000000       0.46875000000000000        0.0000000000000000     
  0.53125000000000000       0.46875000000000000        0.0000000000000000     
  0.56250000000000000       0.46875000000000000        0.0000000000000000     
  0.59375000000000000       0.46875000000000000        0.0000000000000000     
  0.62500000000000000       0.46875000000000000        0.0000000000000000     
  0.50000000000000000       0.50000000000000000        0.0000000000000000     
  0.53125000000000000       0.50000000000000000        0.0000000000000000     
  0.56250000000000000       0.50000000000000000        0.0000000000000000     
  0.59375000000000000       0.50000000000000000        0.0000000000000000     
  0.62500000000000000       0.50000000000000000        0.0000000000000000     
  0.62500000000000000       0.37500000000000000        0.0000000000000000     
  0.65625000000000000       0.37500000000000000        0.0000000000000000     
  0.68750000000000000       0.37500000000000000        0.0000000000000000     
  0.71875000000000000       0.37500000000000000        0.0000000000000000     
  0.75000000000000000       0.37500000000000000        0.0000000000000000     
  0.62500000000000000       0.40625000000000000        0.0000000000000000     
  0.65625000000000000       0.40625000000000000        0.0000000000000000     
  0.68750000000000000       0.40625000000000000        0.0000000000000000     
  0.71875000000000000       0.40625000000000000        0.0000000000000000     
  0.75000000000000000       0.40625000000000000        0.0000000000000000     
  0.62500000000000000       0.43750000000000000        0.0000000000000000     
  0.65625000000000000       0.43750000000000000        0.0000000000000000     
  0.68750000000000000       0.43750000000000000        0.0000000000000000     
  0.71875000000000000       0.43750000000000000        0.0000000000000000     
  0.75000000000000000       0.43750000000000000        0.0000000000000000     
  0.62500000000000000       0.46875000000000000        0.0000000000000000     
  0.65625000000000000       0.46875000000000000        0.0000000000000000     
  0.68750000000000000       0.46875000000000000        0.0000000000000000     
  0.71875000000000000       0.46875000000000000        0.0000000000000000     
  0.75000000000000000       0.46875000000000000        0.0000000000000000     
  0.62500000000000000       0.50000000000000000        0.0000000000000000     
  0.65625000000000000       0.50000000000000000        0.0000000000000000     
  0.68750000000000000       0.50000000000000000        0.0000000000000000     
  0.71875000000000000       0.50000000000000000        0.0000000000000000     
  0.75000000000000000       0.50000000000000000        0.0000000000000000     
  0.75000000000000000       0.37500000000000000        0.0000000000000000     
  0.78125000000000000       0.37500000000000000        0.0000000000000000     
  0.81250000000000000       0.37500000000000000        0.0000000000000000     
  0.84375000000000000       0.37500000000000000        0.0000000000000000     
  0.87500000000000000       0.37500000000000000        0.0000000000000000     
  0.75000000000000000       0.40625000000000000        0.0000000000000000     
  0.78125000000000000       0.40625000000000000        0.0000000000000000     
  0.81250000000000000       0.40625000000000000        0.0000000000000000     
  0.84375000000000000       0.40625000000000000        0.0000000000000000     
  0.87500000000000000       0.40625000000000000        0.0000000000000000     
  0.75000000000000000       0.43750000000000000        0.0000000000000000     
  0.78125000000000000       0.43750000000000000        0.0000000000000000     
  0.81250000000000000       0.43750000000000000        0.0000000000000000     
  0.84375000000000000       0.43750000000000000        0.0000000000000000     
  0.87500000000000000       0.43750000000000000        0.0000000000000000     
  0.75000000000000000       0.46875000000000000        0.0000000000000000     
  0.78125000000000000       0.46875000000000000        0.0000000000000000     
  0.81250000000000000       0.46875000000000000        0.0000000000000000     
  0.84375000000000000       0.46875000000000000        0.0000000000000000     
  0.87500000000000000       0.46875000000000000        0.0000000000000000     
  0.75000000000000000       0.50000000000000000        0.0000000000000000     
  0.78125000000000000       0.50000000000000000        0.0000000000000000     
  0.81250000000000000       0.50000000000000000        0.0000000000000000     
  0.84375000000000000       0.50000000000000000        0.0000000000000000     
  0.87500000000000000       0.50000000000000000        0.0000000000000000     
  0.87500000000000000       0.37500000000000000        0.0000000000000000     
  0.90625000000000000       0.37500000000000000        0.0000000000000000     
  0.93750000000000000       0.37500000000000000        0.0000000000000000     
  0.96875000000000000       0.37500000000000000        0.0000000000000000     
   1.0000000000000000       0.37500000000000000        0.0000000000000000     
  0.87500000000000000       0.40625000000000000        0.0000000000000000     
  0.90625000000000000       0.40625000000000000        0.0000000000000000     
  0.93750000000000000       0.40625000000000000        0.0000000000000000     
  0.96875000000000000       0.40625000000000000        0.0000000000000000     
   1.0000000000000000       0.40625000000000000        0.0000000000000000     
  0.87500000000000000       0.43750000000000000        0.0000000000000000     
  0.90625000000000000       0.43750000000000000        0.0000000000000000     
  0.93750000000000000       0.43750000000000000        0.0000000000000000     
  0.96875000000000000       0.43750000000000000        0.0000000000000000     
   1.0000000000000000       0.43750000000000000        0.0000000000000000     
  0.87500000000000000       0.46875000000000000        0.0000000000000000     
  0.90625000000000000       0.46875000000000000        0.0000000000000000     
  0.93750000000000000       0.46875000000000000        0.0000000000000000     
  0.96875000000000000       0.46875000000000000        0.0000000000000000     
   1.0000000000000000       0.46875000000000000        0.0000000000000000     
  0.87500000000000000       0.50000000000000000        0.0000000000000000     
  0.90625000000000000       0.50000000000000000        0.0000000000000000     
  0.93750000000000000       0.50000000000000000        0.0000000000000000     
  0.96875000000000000       0.50000000000000000        0.0000000000000000     
   1.0000000000000000       0.50000000000000000        0.0000000000000000     
   1.0000000000000000       0.37500000000000000        0.0000000000000000     
   1.0312500000000000       0.37500000000000000        0.0000000000000000     
   1.0625000000000000       0.37500000000000000        0.0000000000000000     
   1.0937500000000000       0.37500000000000000        0.0000000000000000     
   1.1250000000000000       0.37500000000000000        0.0000000000000000     
   1.0000000000000000       0.40625000000000000        0.0000000000000000     
   1.0312500000000000       0.40625000000000000        0.0000000000000000     
   1.0625000000000000       0.40625000000000000        0.0000000000000000     
   1.0937500000000000       0.40625000000000000        0.0000000000000000     
   1.1250000000000000       0.40625000000000000        0.0000000000000000     
   1.0000000000000000       0.43750000000000000        0.0000000000000000     
   1.0312500000000000       0.43750000000000000        0.0000000000000000     
   1.0625000000000000       0.43750000000000000        0.0000000000000000     
   1.0937500000000000       0.43750000000000000        0.0000000000000000     
   1.1250000000000000       0.43750000000000000        0.0000000000000000     
   1.0000000000000000       0.46875000000000000        0.0000000000000000     
   1.0312500000000000       0.46875000000000000        0.0000000000000000     
   1.0625000000000000       0.46875000000000000        0.0000000000000000     
   1.0937500000000000       0.46875000000000000        0.0000000000000000     
   1.1250000000000000       0.46875000000000000        0.0000000000000000     
   1.0000000000000000       0.50000000000000000        0.0000000000000000     
   1.0312500000000000       0.50000000000000000        0.0000000000000000     
   1.0625000000000000       0.50000000000000000        0.0000000000000000     
   1.0937500000000000       0.50000000000000000        0.0000000000000000     
   1.1250000000000000       0.50000000000000000        0.0000000000000000     
   1.1250000000000000       0.37500000000000000        0.0000000000000000     
   1.1562500000000000       0.37500000000000000        0.0000000000000000     
   1.1875000000000000       0.37500000000000000        0.0000000000000000     
   1.2187500000000000       0.37500000000000000        0.0000000000000000     
   1.2500000000000000       0.37500000000000000        0.0000000000000000     
   1.1250000000000000       0.40625000000000000        0.0000000000000000     
   1.1562500000000000       0.40625000000000000        0.0000000000000000     
   1.1875000000000000       0.40625000000000000        0.0000000000000000     
   1.2187500000000000       0.40625000000000000        0.0000000000000000     
   1.2500000000000000       0.40625000000000000        0.0000000000000000     
   1.1250000000000000       0.43750000000000000        0.0000000000000000     
   1.1562500000000000       0.43750000000000000        0.0000000000000000     
   1.1875000000000000       0.43750000000000000        0.0000000000000000     
   1.2187500000000000       0.43750000000000000        0.0000000000000000     
   1.2500000000000000       0.43750000000000000        0.0000000000000000     
   1.1250000000000000       0.46875000000000000        0.0000000000000000     
   1.1562500000000000       0.46875000000000000        0.0000000000000000     
   1.1875000000000000       0.46875000000000000        0.0000000000000000     
   1.2187500000000000       0.46875000000000000        0.0000000000000000     
   1.2500000000000000       0.46875000000000000        0.0000000000000000     
   1.1250000000000000       0.50000000000000000        0.0000000000000000     
   1.1562500000000000       0.50000000000000000        0.0000000000000000     
   1.1875000000000000       0.50000000000000000        0.0000000000000000     
   1.2187500000000000       0.50000000000000000        0.0000000000000000     
   1.2500000000000000       0.50000000000000000        0.0000000000000000     
   1.2500000000000000       0.37500000000000000        0.0000000000000000     
   1.2812500000000000       0.37500000000000000        0.0000000000000000     
   1.3125000000000000       0.37500000000000000        0.0000000000000000     
   1.3437500000000000       0.37500000000000000        0.0000000000000000     
   1.3750000000000000       0.37500000000000000        0.0000000000000000     
   1.2500000000000000       0.40625000000000000        0.0000000000000000     
   1.2812500000000000       0.40625000000000000        0.0000000000000000     
   1.3125000000000000       0.40625000000000000        0.0000000000000000     
   1.3437500000000000       0.40625000000000000        0.0000000000000000     
   1.3750000000000000       0.40625000000000000        0.0000000000000000     
   1.2500000000000000       0.43750000000000000        0.0000000000000000     
   1.2812500000000000       0.43750000000000000        0.0000000000000000     
   1.3125000000000000       0.43750000000000000        0.0000000000000000     
   1.3437500000000000       0.43750000000000000        0.0000000000000000     
   1.3750000000000000       0.43750000000000000        0.0000000000000000     
   1.2500000000000000       0.46875000000000000        0.0000000000000000     
   1.2812500000000000       0.46875000000000000        0.0000000000000000     
   1.3125000000000000       0.46875000000000000        0.0000000000000000     
   1.3437500000000000       0.46875000000000000        0.0000000000000000     
   1.3750000000000000       0.46875000000000000        0.0000000000000000     
   1.2500000000000000       0.50000000000000000        0.0000000000000000     
   1.2812500000000000       0.50000000000000000        0.0000000000000000     
   1.3125000000000000       0.50000000000000000        0.0000000000000000     
   1.3437500000000000       0.50000000000000000        0.0000000000000000     
   1.3750000000000000       0.50000000000000000        0.0000000000000000     
   1.3750000000000000       0.37500000000000000        0.0000000000000000     
   1.4062500000000000       0.37500000000000000        0.0000000000000000     
   1.4375000000000000       0.37500000000000000        0.0000000000000000     
   1.4687500000000000       0.37500000000000000        0.0000000000000000     
   1.5000000000000000       0.37500000000000000        0.0000000000000000     
   1.3750000000000000       0.40625000000000000        0.0000000000000000     
   1.4062500000000000       0.40625000000000000        0.0000000000000000     
   1.4375000000000000       0.40625000000000000        0.0000000000000000     
   1.4687500000000000       0.40625000000000000        0.0000000000000000     
   1.5000000000000000       0.40625000000000000        0.0000000000000000     
   1.3750000000000000       0.43750000000000000        0.0000000000000000     
   1.4062500000000000       0.43750000000000000        0.0000000000000000     
   1.4375000000000000       0.43750000000000000        0.0000000000000000     
   1.4687500000000000       0.43750000000000000        0.0000000000000000     
   1.5000000000000000       0.43750000000000000        0.0000000000000000     
   1.3750000000000000       0.46875000000000000        0.0000000000000000     
   1.4062500000000000       0.46875000000000000        0.0000000000000000     
   1.4375000000000000       0.46875000000000000        0.0000000000000000     
   1.4687500000000000       0.46875000000000000        0.0000000000000000     
   1.5000000000000000       0.46875000000000000        0.0000000000000000     
   1.3750000000000000       0.50000000000000000        0.0000000000000000     
   1.4062500000000000       0.50000000000000000        0.0000000000000000     
   1.4375000000000000       0.50000000000000000        0.0000000000000000     
   1.4687500000000000       0.50000000000000000        0.0000000000000000     
   1.5000000000000000       0.50000000000000000        0.0000000000000000     
  0.50000000000000000       0.50000000000000000        0.0000000000000000     
  0.53125000000000000       0.50000000000000000        0.0000000000000000     
  0.56250000000000000       0.50000000000000000        0.0000000000000000     
  0.59375000000000000       0.50000000000000000        0.0000000000000000     
  0.62500000000000000       0.50000000000000000        0.0000000000000000     
  0.50000000000000000       0.53125000000000000        0.0000000000000000     
  0.53125000000000000       0.53125000000000000        0.0000000000000000     
  0.56250000000000000       0.53125000000000000        0.0000000000000000     
  0.59375000000000000       0.53125000000000000        0.0000000000000000     
  0.62500000000000000       0.53125000000000000        0.0000000000000000     
  0.50000000000000000       0.56250000000000000        0.0000000000000000     
  0.53125000000000000       0.56250000000000000        0.0000000000000000     
  0.56250000000000000       0.56250000000000000        0.0000000000000000     
  0.59375000000000000       0.56250000000000000        0.0000000000000000     
  0.62500000000000000       0.56250000000000000        0.0000000000000000     
  0.50000000000000000       0.59375000000000000        0.0000000000000000     
  0.53125000000000000       0.59375000000000000        0.0000000000000000     
  0.56250000000000000       0.59375000000000000        0.0000000000000000     
  0.59375000000000000       0.59375000000000000        0.0000000000000000     
  0.62500000000000000       0.59375000000000000        0.0000000000000000     
  0.50000000000000000       0.62500000000000000        0.0000000000000000     
  0.53125000000000000       0.62500000000000000        0.0000000000000000     
  0.56250000000000000       0.62500000000000000        0.0000000000000000     
  0.59375000000000000       0.62500000000000000        0.0000000000000000     
  0.62500000000000000       0.62500000000000000        0.0000000000000000     
  0.62500000000000000       0.50000000000000000        0.0000000000000000     
  0.65625000000000000       0.50000000000000000        0.0000000000000000     
  0.68750000000000000       0.50000000000000000        0.0000000000000000     
  0.71875000000000000       0.50000000000000000        0.0000000000000000     
  0.75000000000000000       0.50000000000000000        0.0000000000000000     
  0.62500000000000000       0.53125000000000000        0.0000000000000000     
  0.65625000000000000       0.53125000000000000        0.0000000000000000     
  0.68750000000000000       0.53125000000000000        0.0000000000000000     
  0.71875000000000000       0.53125000000000000        0.0000000000000000     
  0.75000000000000000       0.53125000000000000        0.0000000000000000     
  0.62500000000000000       0.56250000000000000        0.0000000000000000     
  0.65625000000000000       0.56250000000000000        0.0000000000000000     
  0.68750000000000000       0.56250000000000000        0.0000000000000000     
  0.71875000000000000       0.56250000000000000        0.0000000000000000     
  0.75000000000000000       0.56250000000000000        0.0000000000000000     
  0.62500000000000000       0.59375000000000000        0.0000000000000000     
  0.65625000000000000       0.59375000000000000        0.0000000000000000     
  0.68750000000000000       0.59375000000000000        0.0000000000000000     
  0.71875000000000000       0.59375000000000000        0.0000000000000000     
  0.75000000000000000       0.59375000000000000        0.0000000000000000     
  0.62500000000000000       0.62500000000000000        0.0000000000000000     
  0.65625000000000000       0.62500000000000000        0.0000000000000000     
  0.68750000000000000       0.62500000000000000        0.0000000000000000     
  0.71875000000000000       0.62500000000000000        0.0000000000000000     
  0.75000000000000000       0.62500000000000000        0.0000000000000000     
  0.75000000000000000       0.50000000000000000        0.0000000000000000     
  0.78125000000000000       0.50000000000000000        0.0000000000000000     
  0.81250000000000000       0.50000000000000000        0.0000000000000000     
  0.84375000000000000       0.50000000000000000        0.0000000000000000     
  0.87500000000000000       0.50000000000000000        0.0000000000000000     
  0.75000000000000000       0.53125000000000000        0.0000000000000000     
  0.78125000000000000       0.53125000000000000        0.0000000000000000     
  0.81250000000000000       0.53125000000000000        0.0000000000000000     
  0.84375000000000000       0.53125000000000000        0.0000000000000000     
  0.87500000000000000       0.53125000000000000        0.0000000000000000     
  0.75000000000000000       0.56250000000000000        0.0000000000000000     
  0.78125000000000000       0.56250000000000000        0.0000000000000000     
  0.81250000000000000       0.56250000000000000        0.0000000000000000     
  0.84375000000000000       0.56250000000000000        0.0000000000000000     
  0.87500000000000000       0.56250000000000000        0.0000000000000000     
  0.75000000000000000       0.59375000000000000        0.0000000000000000     
  0.78125000000000000       0.59375000000000000        0.0000000000000000     
  0.81250000000000000       0.59375000000000000        0.0000000000000000     
  0.84375000000000000       0.59375000000000000        0.0000000000000000     
  0.87500000000000000       0.59375000000000000        0.0000000000000000     
  0.75000000000000000       0.62500000000000000        0.0000000000000000     
  0.78125000000000000       0.62500000000000000        0.0000000000000000     
  0.81250000000000000       0.62500000000000000        0.0000000000000000     
  0.84375000000000000       0.62500000000000000        0.0000000000000000     
  0.87500000000000000       0.62500000000000000        0.0000000000000000     
  0.87500000000000000       0.50000000000000000        0.0000000000000000     
  0.90625000000000000       0.50000000000000000        0.0000000000000000     
  0.93750000000000000       0.50000000000000000        0.0000000000000000     
  0.96875000000000000       0.50000000000000000        0.0000000000000000     
   1.0000000000000000       0.50000000000000000        0.0000000000000000     
  0.87500000000000000       0.53125000000000000        0.0000000000000000     
  0.90625000000000000       0.53125000000000000        0.0000000000000000     
  0.93750000000000000       0.53125000000000000        0.0000000000000000     
  0.96875000000000000       0.53125000000000000        0.0000000000000000     
   1.0000000000000000       0.53125000000000000        0.0000000000000000     
  0.87500000000000000       0.56250000000000000        0.0000000000000000     
  0.90625000000000000       0.56250000000000000        0.0000000000000000     
  0.93750000000000000       0.56250000000000000        0.0000000000000000     
  0.96875000000000000       0.56250000000000000        0.0000000000000000     
   1.0000000000000000       0.56250000000000000        0.0000000000000000     
  0.87500000000000000       0.59375000000000000        0.0000000000000000     
  0.90625000000000000       0.59375000000000000        0.0000000000000000     
  0.93750000000000000       0.59375000000000000        0.0000000000000000     
  0.96875000000000000       0.59375000000000000        0.0000000000000000     
   1.0000000000000000       0.59375000000000000        0.0000000000000000     
  0.87500000000000000       0.62500000000000000        0.0000000000000000     
  0.90625000000000000       0.62500000000000000        0.0000000000000000     
  0.93750000000000000       0.62500000000000000        0.0000000000000000     
  0.96875000000000000       0.62500000000000000        0.0000000000000000     
   1.0000000000000000       0.62500000000000000        0.0000000000000000     
   1.0000000000000000       0.50000000000000000        0.0000000000000000     
   1.0312500000000000       0.50000000000000000        0.0000000000000000     
   1.0625000000000000       0.50000000000000000        0.0000000000000000     
   1.0937500000000000       0.50000000000000000        0.0000000000000000     
   1.1250000000000000       0.50000000000000000        0.0000000000000000     
   1.0000000000000000       0.53125000000000000        0.0000000000000000     
   1.0312500000000000       0.53125000000000000        0.0000000000000000     
   1.0625000000000000       0.53125000000000000        0.0000000000000000     
   1.0937500000000000       0.53125000000000000        0.0000000000000000     
   1.1250000000000000       0.53125000000000000        0.0000000000000000     
   1.0000000000000000       0.56250000000000000        0.0000000000000000     
   1.0312500000000000       0.56250000000000000        0.0000000000000000     
   1.0625000000000000       0.56250000000000000        0.0000000000000000     
   1.0937500000000000       0.56250000000000000        0.0000000000000000     
   1.1250000000000000       0.56250000000000000        0.0000000000000000     
   1.0000000000000000       0.59375000000000000        0.0000000000000000     
   1.0312500000000000       0.59375000000000000        0.0000000000000000     
   1.0625000000000000       0.59375000000000000        0.0000000000000000     
   1.0937500000000000       0.59375000000000000        0.0000000000000000     
   1.1250000000000000       0.59375000000000000        0.0000000000000000     
   1.0000000000000000       0.62500000000000000        0.0000000000000000     
   1.0312500000000000       0.62500000000000000        0.0000000000000000     
   1.0625000000000000       0.62500000000000000        0.0000000000000000     
   1.0937500000000000       0.62500000000000000        0.0000000000000000     
   1.1250000000000000       0.62500000000000000        0.0000000000000000     
   1.1250000000000000       0.50000000000000000        0.0000000000000000     
   1.1562500000000000       0.50000000000000000        0.0000000000000000     
   1.1875000000000000       0.50000000000000000        0.0000000000000000     
   1.2187500000000000       0.50000000000000000        0.0000000000000000     
   1.2500000000000000       0.50000000000000000        0.0000000000000000     
   1.1250000000000000       0.53125000000000000        0.0000000000000000     
   1.1562500000000000       0.53125000000000000        0.0000000000000000     
   1.1875000000000000       0.53125000000000000        0.0000000000000000     
   1.2187500000000000       0.53125000000000000        0.0000000000000000     
   1.2500000000000000       0.53125000000000000        0.0000000000000000     
   1.1250000000000000       0.56250000000000000        0.0000000000000000     
   1.1562500000000000       0.56250000000000000        0.0000000000000000     
   1.1875000000000000       0.56250000000000000        0.0000000000000000     
   1.2187500000000000       0.56250000000000000        0.0000000000000000     
   1.2500000000000000       0.56250000000000000        0.0000000000000000     
   1.1250000000000000       0.59375000000000000        0.0000000000000000     
   1.1562500000000000       0.59375000000000000        0.0000000000000000     
   1.1875000000000000       0.59375000000000000        0.0000000000000000     
   1.2187500000000000       0.59375000000000000        0.0000000000000000     
   1.2500000000000000       0.59375000000000000        0.0000000000000000     
   1.1250000000000000       0.62500000000000000        0.0000000000000000     
   1.1562500000000000       0.62500000000000000        0.0000000000000000     
   1.1875000000000000       0.62500000000000000        0.0000000000000000     
   1.2187500000000000       0.62500000000000000        0.0000000000000000     
   1.2500000000000000       0.62500000000000000        0.0000000000000000     
   1.2500000000000000       0.50000000000000000        0.0000000000000000     
   1.2812500000000000       0.50000000000000000        0.0000000000000000     
   1.3125000000000000       0.50000000000000000        0.0000000000000000     
   1.3437500000000000       0.50000000000000000        0.0000000000000000     
   1.3750000000000000       0.50000000000000000        0.0000000000000000     
   1.2500000000000000       0.53125000000000000        0.0000000000000000     
   1.2812500000000000       0.53125000000000000        0.0000000000000000     
   1.3125000000000000       0.53125000000000000        0.0000000000000000     
   1.3437500000000000       0.53125000000000000        0.0000000000000000     
   1.3750000000000000       0.53125000000000000        0.0000000000000000     
   1.2500000000000000       0.56250000000000000        0.0000000000000000     
   1.2812500000000000       0.56250000000000000        0.0000000000000000     
   1.3125000000000000       0.56250000000000000        0.0000000000000000     
   1.3437500000000000       0.56250000000000000        0.0000000000000000     
   1.3750000000000000       0.56250000000000000        0.0000000000000000     
   1.2500000000000000       0.59375000000000000        0.0000000000000000     
   1.2812500000000000       0.59375000000000000        0.0000000000000000     
   1.3125000000000000       0.59375000000000000        0.0000000000000000     
   1.3437500000000000       0.59375000000000000        0.0000000000000000     
   1.3750000000000000       0.59375000000000000        0.0000000000000000     
   1.2500000000000000       0.62500000000000000        0.0000000000000000     
   1.2812500000000000       0.62500000000000000        0.0000000000000000     
   1.3125000000000000       0.62500000000000000        0.0000000000000000     
   1.3437500000000000       0.62500000000000000        0.0000000000000000     
   1.3750000000000000       0.62500000000000000        0.0000000000000000     
   1.3750000000000000       0.50000000000000000        0.0000000000000000     
   1.4062500000000000       0.50000000000000000        0.0000000000000000     
   1.4375000000000000       0.50000000000000000        0.0000000000000000     
   1.4687500000000000       0.50000000000000000        0.0000000000000000     
   1.5000000000000000       0.50000000000000000        0.0000000000000000     
   1.3750000000000000       0.53125000000000000        0.0000000000000000     
   1.4062500000000000       0.53125000000000000        0.0000000000000000     
   1.4375000000000000       0.53125000000000000        0.0000000000000000     
   1.4687500000000000       0.53125000000000000        0.0000000000000000     
   1.5000000000000000       0.53125000000000000        0.0000000000000000     
   1.3750000000000000       0.56250000000000000        0.0000000000000000     
   1.4062500000000000       0.56250000000000000        0.0000000000000000     
   1.4375000000000000       0.56250000000000000        0.0000000000000000     
   1.4687500000000000       0.56250000000000000        0.0000000000000000     
   1.5000000000000000       0.56250000000000000        0.0000000000000000     
   1.3750000000000000       0.59375000000000000        0.0000000000000000     
   1.4062500000000000       0.59375000000000000        0.0000000000000000     
   1.4375000000000000       0.59375000000000000        0.0000000000000000     
   1.4687500000000000       0.59375000000000000        0.0000000000000000     
   1.5000000000000000       0.59375000000000000        0.0000000000000000     
   1.3750000000000000       0.62500000000000000        0.0000000000000000     
   1.4062500000000000       0.62500000000000000        0.0000000000000000     
   1.4375000000000000       0.62500000000000000        0.0000000000000000     
   1.4687500000000000       0.62500000000000000        0.0000000000000000     
   1.5000000000000000       0.62500000000000000        0.0000000000000000     
  0.50000000000000000       0.62500000000000000        0.0000000000000000     
  0.53125000000000000       0.62500000000000000        0.0000000000000000     
  0.56250000000000000       0.62500000000000000        0.0000000000000000     
  0.59375000000000000       0.62500000000000000        0.0000000000000000     
  0.62500000000000000       0.62500000000000000        0.0000000000000000     
  0.50000000000000000       0.65625000000000000        0.0000000000000000     
  0.53125000000000000       0.65625000000000000        0.0000000000000000     
  0.56250000000000000       0.65625000000000000        0.0000000000000000     
  0.59375000000000000       0.65625000000000000        0.0000000000000000     
  0.62500000000000000       0.65625000000000000        0.0000000000000000     
  0.50000000000000000       0.68750000000000000        0.0000000000000000     
  0.53125000000000000       0.68750000000000000        0.0000000000000000     
  0.56250000000000000       0.68750000000000000        0.0000000000000000     
  0.59375000000000000       0.68750000000000000        0.0000000000000000     
  0.62500000000000000       0.68750000000000000        0.0000000000000000     
  0.50000000000000000       0.71875000000000000        0.0000000000000000     
  0.53125000000000000       0.71875000000000000        0.0000000000000000     
  0.56250000000000000       0.71875000000000000        0.0000000000000000     
  0.59375000000000000       0.71875000000000000        0.0000000000000000     
  0.62500000000000000       0.71875000000000000        0.0000000000000000     
  0.50000000000000000       0.75000000000000000        0.0000000000000000     
  0.53125000000000000       0.75000000000000000        0.0000000000000000     
  0.56250000000000000       0.75000000000000000        0.0000000000000000     
  0.59375000000000000       0.75000000000000000        0.0000000000000000     
  0.62500000000000000       0.75000000000000000        0.0000000000000000     
  0.62500000000000000       0.62500000000000000        0.0000000000000000     
  0.65625000000000000       0.62500000000000000        0.0000000000000000     
  0.68750000000000000       0.62500000000000000        0.0000000000000000     
  0.71875000000000000       0.62500000000000000        0.0000000000000000     
  0.75000000000000000       0.62500000000000000        0.0000000000000000     
  0.62500000000000000       0.65625000000000000        0.0000000000000000     
  0.65625000000000000       0.65625000000000000        0.0000000000000000     
  0.68750000000000000       0.65625000000000000        0.0000000000000000     
  0.71875000000000000       0.65625000000000000        0.0000000000000000     
  0.75000000000000000       0.65625000000000000        0.0000000000000000     
  0.62500000000000000       0.68750000000000000        0.0000000000000000     
  0.65625000000000000       0.68750000000000000        0.0000000000000000     
  0.68750000000000000       0.68750000000000000        0.0000000000000000     
  0.71875000000000000       0.68750000000000000        0.0000000000000000     
  0.75000000000000000       0.68750000000000000        0.0000000000000000     
  0.62500000000000000       0.71875000000000000        0.0000000000000000     
  0.65625000000000000       0.71875000000000000        0.0000000000000000     
  0.68750000000000000       0.71875000000000000        0.0000000000000000     
  0.71875000000000000       0.71875000000000000        0.0000000000000000     
  0.75000000000000000       0.71875000000000000        0.0000000000000000     
  0.62500000000000000       0.75000000000000000        0.0000000000000000     
  0.65625000000000000       0.75000000000000000        0.0000000000000000     
  0.68750000000000000       0.75000000000000000        0.0000000000000000     
  0.71875000000000000       0.75000000000000000        0.0000000000000000     
  0.75000000000000000       0.75000000000000000        0.0000000000000000     
  0.75000000000000000       0.62500000000000000        0.0000000000000000     
  0.78125000000000000       0.62500000000000000        0.0000000000000000     
  0.81250000000000000       0.62500000000000000        0.0000000000000000     
  0.84375000000000000       0.62500000000000000        0.0000000000000000     
  0.87500000000000000       0.62500000000000000        0.0000000000000000     
  0.75000000000000000       0.65625000000000000        0.0000000000000000     
  0.78125000000000000       0.65625000000000000        0.0000000000000000     
  0.81250000000000000       0.65625000000000000        0.0000000000000000     
  0.84375000000000000       0.65625000000000000        0.0000000000000000     
  0.87500000000000000       0.65625000000000000        0.0000000000000000     
  0.75000000000000000       0.68750000000000000        0.0000000000000000     
  0.78125000000000000       0.68750000000000000        0.0000000000000000     
  0.81250000000000000       0.68750000000000000        0.0000000000000000     
  0.84375000000000000       0.68750000000000000        0.0000000000000000     
  0.87500000000000000       0.68750000000000000        0.0000000000000000     
  0.75000000000000000       0.71875000000000000        0.0000000000000000     
  0.78125000000000000       0.71875000000000000        0.0000000000000000     
  0.81250000000000000       0.71875000000000000        0.0000000000000000     
  0.84375000000000000       0.71875000000000000        0.0000000000000000     
  0.87500000000000000       0.71875000000000000        0.0000000000000000     
  0.75000000000000000       0.75000000000000000        0.0000000000000000     
  0.78125000000000000       0.75000000000000000        0.0000000000000000     
  0.81250000000000000       0.75000000000000000        0.0000000000000000     
  0.84375000000000000       0.75000000000000000        0.0000000000000000     
  0.87500000000000000       0.75000000000000000        0.0000000000000000     
  0.87500000000000000       0.62500000000000000        0.0000000000000000     
  0.90625000000000000       0.62500000000000000        0.0000000000000000     
  0.93750000000000000       0.62500000000000000        0.0000000000000000     
  0.96875000000000000       0.62500000000000000        0.0000000000000000     
   1.0000000000000000       0.62500000000000000        0.0000000000000000     
  0.87500000000000000       0.65625000000000000        0.0000000000000000     
  0.90625000000000000       0.65625000000000000        0.0000000000000000     
  0.93750000000000000       0.65625000000000000        0.0000000000000000     
  0.96875000000000000       0.65625000000000000        0.0000000000000000     
   1.0000000000000000       0.65625000000000000        0.0000000000000000     
  0.87500000000000000       0.68750000000000000        0.0000000000000000     
  0.90625000000000000       0.68750000000000000        0.0000000000000000     
  0.93750000000000000       0.68750000000000000        0.0000000000000000     
  0.96875000000000000       0.68750000000000000        0.0000000000000000     
   1.0000000000000000       0.68750000000000000        0.0000000000000000     
  0.87500000000000000       0.71875000000000000        0.0000000000000000     
  0.90625000000000000       0.71875000000000000        0.0000000000000000     
  0.93750000000000000       0.71875000000000000        0.0000000000000000     
  0.96875000000000000       0.71875000000000000        0.0000000000000000     
   1.0000000000000000       0.71875000000000000        0.0000000000000000     
  0.87500000000000000       0.75000000000000000        0.0000000000000000     
  0.90625000000000000       0.75000000000000000        0.0000000000000000     
  0.93750000000000000       0.75000000000000000        0.0000000000000000     
  0.96875000000000000       0.75000000000000000        0.0000000000000000     
   1.0000000000000000       0.75000000000000000        0.0000000000000000     
   1.0000000000000000       0.62500000000000000        0.0000000000000000     
   1.0312500000000000       0.62500000000000000        0.0000000000000000     
   1.0625000000000000       0.62500000000000000        0.0000000000000000     
   1.0937500000000000       0.62500000000000000        0.0000000000000000     
   1.1250000000000000       0.62500000000000000        0.0000000000000000     
   1.0000000000000000       0.65625000000000000        0.0000000000000000     
   1.0312500000000000       0.65625000000000000        0.0000000000000000     
   1.0625000000000000       0.65625000000000000        0.0000000000000000     
   1.0937500000000000       0.65625000000000000        0.0000000000000000     
   1.1250000000000000       0.65625000000000000        0.0000000000000000     
   1.0000000000000000       0.68750000000000000        0.0000000000000000     
   1.0312500000000000       0.68750000000000000        0.0000000000000000     
   1.0625000000000000       0.68750000000000000        0.0000000000000000     
   1.0937500000000000       0.68750000000000000        0.0000000000000000     
   1.1250000000000000       0.68750000000000000        0.0000000000000000     
   1.0000000000000000       0.71875000000000000        0.0000000000000000     
   1.0312500000000000       0.71875000000000000        0.0000000000000000     
   1.0625000000000000       0.71875000000000000        0.0000000000000000     
   1.0937500000000000       0.71875000000000000        0.0000000000000000     
   1.1250000000000000       0.71875000000000000        0.0000000000000000     
   1.0000000000000000       0.75000000000000000        0.0000000000000000     
   1.0312500000000000       0.75000000000000000        0.0000000000000000     
   1.0625000000000000       0.75000000000000000        0.0000000000000000     
   1.0937500000000000       0.75000000000000000        0.0000000000000000     
   1.1250000000000000       0.75000000000000000        0.0000000000000000     
   1.1250000000000000       0.62500000000000000        0.0000000000000000     
   1.1562500000000000       0.62500000000000000        0.0000000000000000     
   1.1875000000000000       0.62500000000000000        0.0000000000000000     
   1.2187500000000000       0.62500000000000000        0.0000000000000000     
   1.2500000000000000       0.62500000000000000        0.0000000000000000     
   1.1250000000000000       0.65625000000000000        0.0000000000000000     
   1.1562500000000000       0.65625000000000000        0.0000000000000000     
   1.1875000000000000       0.65625000000000000        0.0000000000000000     
   1.2187500000000000       0.65625000000000000        0.0000000000000000     
   1.2500000000000000       0.65625000000000000        0.0000000000000000     
   1.1250000000000000       0.68750000000000000        0.0000000000000000     
   1.1562500000000000       0.68750000000000000        0.0000000000000000     
   1.1875000000000000       0.68750000000000000        0.0000000000000000     
   1.2187500000000000       0.68750000000000000        0.0000000000000000     
   1.2500000000000000       0.68750000000000000        0.0000000000000000     
   1.1250000000000000       0.71875000000000000        0.0000000000000000     
   1.1562500000000000       0.71875000000000000        0.0000000000000000     
   1.1875000000000000       0.71875000000000000        0.0000000000000000     
   1.2187500000000000       0.71875000000000000        0.0000000000000000     
   1.2500000000000000       0.71875000000000000        0.0000000000000000     
   1.1250000000000000       0.75000000000000000        0.0000000000000000     
   1.1562500000000000       0.75000000000000000        0.0000000000000000     
   1.1875000000000000       0.75000000000000000        0.0000000000000000     
   1.2187500000000000       0.75000000000000000        0.0000000000000000     
   1.2500000000000000       0.75000000000000000        0.0000000000000000     
   1.2500000000000000       0.62500000000000000        0.0000000000000000     
   1.2812500000000000       0.62500000000000000        0.0000000000000000     
   1.3125000000000000       0.62500000000000000        0.0000000000000000     
   1.3437500000000000       0.62500000000000000        0.0000000000000000     
   1.3750000000000000       0.62500000000000000        0.0000000000000000     
   1.2500000000000000       0.65625000000000000        0.0000000000000000     
   1.2812500000000000       0.65625000000000000        0.0000000000000000     
   1.3125000000000000       0.65625000000000000        0.0000000000000000     
   1.3437500000000000       0.65625000000000000        0.0000000000000000     
   1.3750000000000000       0.65625000000000000        0.0000000000000000     
   1.2500000000000000       0.68750000000000000        0.0000000000000000     
   1.2812500000000000       0.68750000000000000        0.0000000000000000     
   1.3125000000000000       0.68750000000000000        0.0000000000000000     
   1.3437500000000000       0.68750000000000000        0.0000000000000000     
   1.3750000000000000       0.68750000000000000        0.0000000000000000     
   1.2500000000000000       0.71875000000000000        0.0000000000000000     
   1.2812500000000000       0.71875000000000000        0.0000000000000000     
   1.3125000000000000       0.71875000000000000        0.0000000000000000     
   1.3437500000000000       0.71875000000000000        0.0000000000000000     
   1.3750000000000000       0.71875000000000000        0.0000000000000000     
   1.2500000000000000       0.75000000000000000        0.0000000000000000     
   1.2812500000000000       0.75000000000000000        0.0000000000000000     
   1.3125000000000000       0.75000000000000000        0.0000000000000000     
   1.3437500000000000       0.75000000000000000        0.0000000000000000     
   1.3750000000000000       0.75000000000000000        0.0000000000000000     
   1.3750000000000000       0.62500000000000000        0.0000000000000000     
   1.4062500000000000       0.62500000000000000        0.0000000000000000     
   1.4375000000000000       0.62500000000000000        0.0000000000000000     
   1.4687500000000000       0.62500000000000000        0.0000000000000000     
   1.5000000000000000       0.62500000000000000        0.0000000000000000     
   1.3750000000000000       0.65625000000000000        0.0000000000000000     
   1.4062500000000000       0.65625000000000000        0.0000000000000000     
   1.4375000000000000       0.65625000000000000        0.0000000000000000     
   1.4687500000000000       0.65625000000000000        0.0000000000000000     
   1.5000000000000000       0.65625000000000000        0.0000000000000000     
   1.3750000000000000       0.68750000000000000        0.0000000000000000     
   1.4062500000000000       0.68750000000000000        0.0000000000000000     
   1.4375000000000000       0.68750000000000000        0.0000000000000000     
   1.4687500000000000       0.68750000000000000        0.0000000000000000     
   1.5000000000000000       0.68750000000000000        0.0000000000000000     
   1.3750000000000000       0.71875000000000000        0.0000000000000000     
   1.4062500000000000       0.71875000000000000        0.0000000000000000     
   1.4375000000000000       0.71875000000000000        0.0000000000000000     
   1.4687500000000000       0.71875000000000000        0.0000000000000000     
   1.5000000000000000       0.71875000000000000        0.0000000000000000     
   1.3750000000000000       0.75000000000000000        0.0000000000000000     
   1.4062500000000000       0.75000000000000000        0.0000000000000000     
   1.4375000000000000       0.75000000000000000        0.0000000000000000     
   1.4687500000000000       0.75000000000000000        0.0000000000000000     
   1.5000000000000000       0.75000000000000000        0.0000000000000000     
  0.50000000000000000       0.75000000000000000        0.0000000000000000     
  0.53125000000000000       0.75000000000000000        0.0000000000000000     
  0.56250000000000000       0.75000000000000000        0.0000000000000000     
  0.59375000000000000       0.75000000000000000        0.0000000000000000     
  0.62500000000000000       0.75000000000000000        0.0000000000000000     
  0.50000000000000000       0.78125000000000000        0.0000000000000000     
  0.53125000000000000       0.78125000000000000        0.0000000000000000     
  0.56250000000000000       0.78125000000000000        0.0000000000000000     
  0.59375000000000000       0.78125000000000000        0.0000000000000000     
  0.62500000000000000       0.78125000000000000        0.0000000000000000     
  0.50000000000000000       0.81250000000000000        0.0000000000000000     
  0.53125000000000000       0.81250000000000000        0.0000000000000000     
  0.56250000000000000       0.81250000000000000        0.0000000000000000     
  0.59375000000000000       0.81250000000000000        0.0000000000000000     
  0.62500000000000000       0.81250000000000000        0.0000000000000000     
  0.50000000000000000       0.84375000000000000        0.0000000000000000     
  0.53125000000000000       0.84375000000000000        0.0000000000000000     
  0.56250000000000000       0.84375000000000000        0.0000000000000000     
  0.59375000000000000       0.84375000000000000        0.0000000000000000     
  0.62500000000000000       0.84375000000000000        0.0000000000000000     
  0.50000000000000000       0.87500000000000000        0.0000000000000000     
  0.53125000000000000       0.87500000000000000        0.0000000000000000     
  0.56250000000000000       0.87500000000000000        0.0000000000000000     
  0.59375000000000000       0.87500000000000000        0.0000000000000000     
  0.62500000000000000       0.87500000000000000        0.0000000000000000     
  0.62500000000000000       0.75000000000000000        0.0000000000000000     
  0.65625000000000000       0.75000000000000000        0.0000000000000000     
  0.68750000000000000       0.75000000000000000        0.0000000000000000     
  0.71875000000000000       0.75000000000000000        0.0000000000000000     
  0.75000000000000000       0.75000000000000000        0.0000000000000000     
  0.62500000000000000       0.78125000000000000        0.0000000000000000     
  0.65625000000000000       0.78125000000000000        0.0000000000000000     
  0.68750000000000000       0.78125000000000000        0.0000000000000000     
  0.71875000000000000       0.78125000000000000        0.0000000000000000     
  0.75000000000000000       0.78125000000000000        0.0000000000000000     
  0.62500000000000000       0.81250000000000000        0.0000000000000000     
  0.65625000000000000       0.81250000000000000        0.0000000000000000     
  0.68750000000000000       0.81250000000000000        0.0000000000000000     
  0.71875000000000000       0.81250000000000000        0.0000000000000000     
  0.75000000000000000       0.81250000000000000        0.0000000000000000     
  0.62500000000000000       0.84375000000000000        0.0000000000000000     
  0.65625000000000000       0.84375000000000000        0.0000000000000000     
  0.68750000000000000       0.84375000000000000        0.0000000000000000     
  0.71875000000000000       0.84375000000000000        0.0000000000000000     
  0.75000000000000000       0.84375000000000000        0.0000000000000000     
  0.62500000000000000       0.87500000000000000        0.0000000000000000     
  0.65625000000000000       0.87500000000000000        0.0000000000000000     
  0.68750000000000000       0.87500000000000000        0.0000000000000000     
  0.71875000000000000       0.87500000000000000        0.0000000000000000     
  0.75000000000000000       0.87500000000000000        0.0000000000000000     
  0.75000000000000000       0.75000000000000000        0.0000000000000000     
  0.78125000000000000       0.75000000000000000        0.0000000000000000     
  0.81250000000000000       0.75000000000000000        0.0000000000000000     
  0.84375000000000000       0.75000000000000000        0.0000000000000000     
  0.87500000000000000       0.75000000000000000        0.0000000000000000     
  0.75000000000000000       0.78125000000000000        0.0000000000000000     
  0.78125000000000000       0.78125000000000000        0.0000000000000000     
  0.81250000000000000       0.78125000000000000        0.0000000000000000     
  0.84375000000000000       0.78125000000000000        0.0000000000000000     
  0.87500000000000000       0.78125000000000000        0.0000000000000000     
  0.75000000000000000       0.81250000000000000        0.0000000000000000     
  0.78125000000000000       0.81250000000000000        0.0000000000000000     
  0.81250000000000000       0.81250000000000000        0.0000000000000000     
  0.84375000000000000       0.81250000000000000        0.0000000000000000     
  0.87500000000000000       0.81250000000000000        0.0000000000000000     
  0.75000000000000000       0.84375000000000000        0.0000000000000000     
  0.78125000000000000       0.84375000000000000        0.0000000000000000     
  0.81250000000000000       0.84375000000000000        0.0000000000000000     
  0.84375000000000000       0.84375000000000000        0.0000000000000000     
  0.87500000000000000       0.84375000000000000        0.0000000000000000     
  0.75000000000000000       0.87500000000000000        0.0000000000000000     
  0.78125000000000000       0.87500000000000000        0.0000000000000000     
  0.81250000000000000       0.87500000000000000        0.0000000000000000     
  0.84375000000000000       0.87500000000000000        0.0000000000000000     
  0.87500000000000000       0.87500000000000000        0.0000000000000000     
  0.87500000000000000       0.75000000000000000        0.0000000000000000     
  0.90625000000000000       0.75000000000000000        0.0000000000000000     
  0.93750000000000000       0.75000000000000000        0.0000000000000000     
  0.96875000000000000       0.75000000000000000        0.0000000000000000     
   1.0000000000000000       0.75000000000000000        0.0000000000000000     
  0.87500000000000000       0.78125000000000000        0.0000000000000000     
  0.90625000000000000       0.78125000000000000        0.0000000000000000     
  0.93750000000000000       0.78125000000000000        0.0000000000000000     
  0.96875000000000000       0.78125000000000000        0.0000000000000000     
   1.0000000000000000       0.78125000000000000        0.0000000000000000     
  0.87500000000000000       0.81250000000000000        0.0000000000000000     
  0.90625000000000000       0.81250000000000000        0.0000000000000000     
  0.93750000000000000       0.81250000000000000        0.0000000000000000     
  0.96875000000000000       0.81250000000000000        0.0000000000000000     
   1.0000000000000000       0.81250000000000000        0.0000000000000000     
  0.87500000000000000       0.84375000000000000        0.0000000000000000     
  0.90625000000000000       0.84375000000000000        0.0000000000000000     
  0.93750000000000000       0.84375000000000000        0.0000000000000000     
  0.96875000000000000       0.84375000000000000        0.0000000000000000     
   1.0000000000000000       0.84375000000000000        0.0000000000000000     
  0.87500000000000000       0.87500000000000000        0.0000000000000000     
  0.90625000000000000       0.87500000000000000        0.0000000000000000     
  0.93750000000000000       0.87500000000000000        0.0000000000000000     
  0.96875000000000000       0.87500000000000000        0.0000000000000000     
   1.0000000000000000       0.87500000000000000        0.0000000000000000     
   1.0000000000000000       0.75000000000000000        0.0000000000000000     
   1.0312500000000000       0.75000000000000000        0.0000000000000000     
   1.0625000000000000       0.75000000000000000        0.0000000000000000     
   1.0937500000000000       0.75000000000000000        0.0000000000000000     
   1.1250000000000000       0.75000000000000000        0.0000000000000000     
   1.0000000000000000       0.78125000000000000        0.0000000000000000     
   1.0312500000000000       0.78125000000000000        0.0000000000000000     
   1.0625000000000000       0.78125000000000000        0.0000000000000000     
   1.0937500000000000       0.78125000000000000        0.0000000000000000     
   1.1250000000000000       0.78125000000000000        0.0000000000000000     
   1.0000000000000000       0.81250000000000000        0.0000000000000000     
   1.0312500000000000       0.81250000000000000        0.0000000000000000     
   1.0625000000000000       0.81250000000000000        0.0000000000000000     
   1.0937500000000000       0.81250000000000000        0.0000000000000000     
   1.1250000000000000       0.81250000000000000        0.0000000000000000     
   1.0000000000000000       0.84375000000000000        0.0000000000000000     
   1.0312500000000000       0.84375000000000000        0.0000000000000000     
   1.0625000000000000       0.84375000000000000        0.0000000000000000     
   1.0937500000000000       0.84375000000000000        0.0000000000000000     
   1.1250000000000000       0.84375000000000000        0.0000000000000000     
   1.0000000000000000       0.87500000000000000        0.0000000000000000     
   1.0312500000000000       0.87500000000000000        0.0000000000000000     
   1.0625000000000000       0.87500000000000000        0.0000000000000000     
   1.0937500000000000       0.87500000000000000        0.0000000000000000     
   1.1250000000000000       0.87500000000000000        0.0000000000000000     
   1.1250000000000000       0.75000000000000000        0.0000000000000000     
   1.1562500000000000       0.75000000000000000        0.0000000000000000     
   1.1875000000000000       0.75000000000000000        0.0000000000000000     
   1.2187500000000000       0.75000000000000000        0.0000000000000000     
   1.2500000000000000       0.75000000000000000        0.0000000000000000     
   1.1250000000000000       0.78125000000000000        0.0000000000000000     
   1.1562500000000000       0.78125000000000000        0.0000000000000000     
   1.1875000000000000       0.78125000000000000        0.0000000000000000     
   1.2187500000000000       0.78125000000000000        0.0000000000000000     
   1.2500000000000000       0.78125000000000000        0.0000000000000000     
   1.1250000000000000       0.81250000000000000        0.0000000000000000     
   1.1562500000000000       0.81250000000000000        0.0000000000000000     
   1.1875000000000000       0.81250000000000000        0.0000000000000000     
   1.2187500000000000       0.81250000000000000        0.0000000000000000     
   1.2500000000000000       0.81250000000000000        0.0000000000000000     
   1.1250000000000000       0.84375000000000000        0.0000000000000000     
   1.1562500000000000       0.84375000000000000        0.0000000000000000     
   1.1875000000000000       0.84375000000000000        0.0000000000000000     
   1.2187500000000000       0.84375000000000000        0.0000000000000000     
   1.2500000000000000       0.84375000000000000        0.0000000000000000     
   1.1250000000000000       0.87500000000000000        0.0000000000000000     
   1.1562500000000000       0.87500000000000000        0.0000000000000000     
   1.1875000000000000       0.87500000000000000        0.0000000000000000     
   1.2187500000000000       0.87500000000000000        0.0000000000000000     
   1.2500000000000000       0.87500000000000000        0.0000000000000000     
   1.2500000000000000       0.75000000000000000        0.0000000000000000     
   1.2812500000000000       0.75000000000000000        0.0000000000000000     
   1.3125000000000000       0.75000000000000000        0.0000000000000000     
   1.3437500000000000       0.75000000000000000        0.0000000000000000     
   1.3750000000000000       0.75000000000000000        0.0000000000000000     
   1.2500000000000000       0.78125000000000000        0.0000000000000000     
   1.2812500000000000       0.78125000000000000        0.0000000000000000     
   1.3125000000000000       0.78125000000000000        0.0000000000000000     
   1.3437500000000000       0.78125000000000000        0.0000000000000000     
   1.3750000000000000       0.78125000000000000        0.0000000000000000     
   1.2500000000000000       0.81250000000000000        0.0000000000000000     
   1.2812500000000000       0.81250000000000000        0.0000000000000000     
   1.3125000000000000       0.81250000000000000        0.0000000000000000     
   1.3437500000000000       0.81250000000000000        0.0000000000000000     
   1.3750000000000000       0.81250000000000000        0.0000000000000000     
   1.2500000000000000       0.84375000000000000        0.0000000000000000     
   1.2812500000000000       0.84375000000000000        0.0000000000000000     
   1.3125000000000000       0.84375000000000000        0.0000000000000000     
   1.3437500000000000       0.84375000000000000        0.0000000000000000     
   1.3750000000000000       0.84375000000000000        0.0000000000000000     
   1.2500000000000000       0.87500000000000000        0.0000000000000000     
   1.2812500000000000       0.87500000000000000        0.0000000000000000     
   1.3125000000000000       0.87500000000000000        0.0000000000000000     
   1.3437500000000000       0.87500000000000000        0.0000000000000000     
   1.3750000000000000       0.87500000000000000        0.0000000000000000     
   1.3750000000000000       0.75000000000000000        0.0000000000000000     
   1.4062500000000000       0.75000000000000000        0.0000000000000000     
   1.4375000000000000       0.75000000000000000        0.0000000000000000     
   1.4687500000000000       0.75000000000000000        0.0000000000000000     
   1.5000000000000000       0.75000000000000000        0.0000000000000000     
   1.3750000000000000       0.78125000000000000        0.0000000000000000     
   1.4062500000000000       0.78125000000000000        0.0000000000000000     
   1.4375000000000000       0.78125000000000000        0.0000000000000000     
   1.4687500000000000       0.78125000000000000        0.0000000000000000     
   1.5000000000000000       0.78125000000000000        0.0000000000000000     
   1.3750000000000000       0.81250000000000000        0.0000000000000000     
   1.4062500000000000       0.81250000000000000        0.0000000000000000     
   1.4375000000000000       0.81250000000000000        0.0000000000000000     
   1.4687500000000000       0.81250000000000000        0.0000000000000000     
   1.5000000000000000       0.81250000000000000        0.0000000000000000     
   1.3750000000000000       0.84375000000000000        0.0000000000000000     
   1.4062500000000000       0.84375000000000000        0.0000000000000000     
   1.4375000000000000       0.84375000000000000        0.0000000000000000     
   1.4687500000000000       0.84375000000000000        0.0000000000000000     
   1.5000000000000000       0.84375000000000000        0.0000000000000000     
   1.3750000000000000       0.87500000000000000        0.0000000000000000     
   1.4062500000000000       0.87500000000000000        0.0000000000000000     
   1.4375000000000000       0.87500000000000000        0.0000000000000000     
   1.4687500000000000       0.87500000000000000        0.0000000000000000     
   1.5000000000000000       0.87500000000000000        0.0000000000000000     
  0.50000000000000000       0.87500000000000000        0.0000000000000000     
  0.53125000000000000       0.87500000000000000        0.0000000000000000     
  0.56250000000000000       0.87500000000000000        0.0000000000000000     
  0.59375000000000000       0.87500000000000000        0.0000000000000000     
  0.62500000000000000       0.87500000000000000        0.0000000000000000     
  0.50000000000000000       0.90625000000000000        0.0000000000000000     
  0.53125000000000000       0.90625000000000000        0.0000000000000000     
  0.56250000000000000       0.90625000000000000        0.0000000000000000     
  0.59375000000000000       0.90625000000000000        0.0000000000000000     
  0.62500000000000000       0.90625000000000000        0.0000000000000000     
  0.50000000000000000       0.93750000000000000        0.0000000000000000     
  0.53125000000000000       0.93750000000000000        0.0000000000000000     
  0.56250000000000000       0.93750000000000000        0.0000000000000000     
  0.59375000000000000       0.93750000000000000        0.0000000000000000     
  0.62500000000000000       0.93750000000000000        0.0000000000000000     
  0.50000000000000000       0.96875000000000000        0.0000000000000000     
  0.53125000000000000       0.96875000000000000        0.0000000000000000     
  0.56250000000000000       0.96875000000000000        0.0000000000000000     
  0.59375000000000000       0.96875000000000000        0.0000000000000000     
  0.62500000000000000       0.96875000000000000        0.0000000000000000     
  0.50000000000000000        1.0000000000000000        0.0000000000000000     
  0.53125000000000000        1.0000000000000000        0.0000000000000000     
  0.56250000000000000        1.0000000000000000        0.0000000000000000     
  0.59375000000000000        1.0000000000000000        0.0000000000000000     
  0.62500000000000000        1.0000000000000000        0.0000000000000000     
  0.62500000000000000       0.87500000000000000        0.0000000000000000     
  0.65625000000000000       0.87500000000000000        0.0000000000000000     
  0.68750000000000000       0.87500000000000000        0.0000000000000000     
  0.71875000000000000       0.87500000000000000        0.0000000000000000     
  0.75000000000000000       0.87500000000000000        0.0000000000000000     
  0.62500000000000000       0.90625000000000000        0.0000000000000000     
  0.65625000000000000       0.90625000000000000        0.0000000000000000     
  0.68750000000000000       0.90625000000000000        0.0000000000000000     
  0.71875000000000000       0.90625000000000000        0.0000000000000000     
  0.75000000000000000       0.90625000000000000        0.0000000000000000     
  0.62500000000000000       0.93750000000000000        0.0000000000000000     
  0.65625000000000000       0.93750000000000000        0.0000000000000000     
  0.68750000000000000       0.93750000000000000        0.0000000000000000     
  0.71875000000000000       0.93750000000000000        0.0000000000000000     
  0.75000000000000000       0.93750000000000000        0.0000000000000000     
  0.62500000000000000       0.96875000000000000        0.0000000000000000     
  0.65625000000000000       0.96875000000000000        0.0000000000000000     
  0.68750000000000000       0.96875000000000000        0.0000000000000000     
  0.71875000000000000       0.96875000000000000        0.0000000000000000     
  0.75000000000000000       0.96875000000000000        0.0000000000000000     
  0.62500000000000000        1.0000000000000000        0.0000000000000000     
  0.65625000000000000        1.0000000000000000        0.0000000000000000     
  0.68750000000000000        1.0000000000000000        0.0000000000000000     
  0.71875000000000000        1.0000000000000000        0.0000000000000000     
  0.75000000000000000        1.0000000000000000        0.0000000000000000     
  0.75000000000000000       0.87500000000000000        0.0000000000000000     
  0.78125000000000000       0.87500000000000000        0.0000000000000000     
  0.81250000000000000       0.87500000000000000        0.0000000000000000     
  0.84375000000000000       0.87500000000000000        0.0000000000000000     
  0.87500000000000000       0.87500000000000000        0.0000000000000000     
  0.75000000000000000       0.90625000000000000        0.0000000000000000     
  0.78125000000000000       0.90625000000000000        0.0000000000000000     
  0.81250000000000000       0.90625000000000000        0.0000000000000000     
  0.84375000000000000       0.90625000000000000        0.0000000000000000     
  0.87500000000000000       0.90625000000000000        0.0000000000000000     
  0.75000000000000000       0.93750000000000000        0.0000000000000000     
  0.78125000000000000       0.93750000000000000        0.0000000000000000     
  0.81250000000000000       0.93750000000000000        0.0000000000000000     
  0.84375000000000000       0.93750000000000000        0.0000000000000000     
  0.87500000000000000       0.93750000000000000        0.0000000000000000     
  0.75000000000000000       0.96875000000000000        0.0000000000000000     
  0.78125000000000000       0.96875000000000000        0.0000000000000000     
  0.81250000000000000       0.96875000000000000        0.0000000000000000     
  0.84375000000000000       0.96875000000000000        0.0000000000000000     
  0.87500000000000000       0.96875000000000000        0.0000000000000000     
  0.75000000000000000        1.0000000000000000        0.0000000000000000     
  0.78125000000000000        1.0000000000000000        0.0000000000000000     
  0.81250000000000000        1.0000000000000000        0.0000000000000000     
  0.84375000000000000        1.0000000000000000        0.0000000000000000     
  0.87500000000000000        1.0000000000000000        0.0000000000000000     
  0.87500000000000000       0.87500000000000000        0.0000000000000000     
  0.90625000000000000       0.87500000000000000        0.0000000000000000     
  0.93750000000000000       0.87500000000000000        0.0000000000000000     
  0.96875000000000000       0.87500000000000000        0.0000000000000000     
   1.0000000000000000       0.87500000000000000        0.0000000000000000     
  0.87500000000000000       0.90625000000000000        0.0000000000000000     
  0.90625000000000000       0.90625000000000000        0.0000000000000000     
  0.93750000000000000       0.90625000000000000        0.0000000000000000     
  0.96875000000000000       0.90625000000000000        0.0000000000000000     
   1.0000000000000000       0.90625000000000000        0.0000000000000000     
  0.87500000000000000       0.93750000000000000        0.0000000000000000     
  0.90625000000000000       0.93750000000000000        0.0000000000000000     
  0.93750000000000000       0.93750000000000000        0.0000000000000000     
  0.96875000000000000       0.93750000000000000        0.0000000000000000     
   1.0000000000000000       0.93750000000000000        0.0000000000000000     
  0.87500000000000000       0.96875000000000000        0.0000000000000000     
  0.90625000000000000       0.96875000000000000        0.0000000000000000     
  0.93750000000000000       0.96875000000000000        0.0000000000000000     
  0.96875000000000000       0.96875000000000000        0.0000000000000000     
   1.0000000000000000       0.96875000000000000        0.0000000000000000     
  0.87500000000000000        1.0000000000000000        0.0000000000000000     
  0.90625000000000000        1.0000000000000000        0.0000000000000000     
  0.93750000000000000        1.0000000000000000        0.0000000000000000     
  0.96875000000000000        1.0000000000000000        0.0000000000000000     
   1.0000000000000000        1.0000000000000000        0.0000000000000000     
   1.0000000000000000       0.87500000000000000        0.0000000000000000     
   1.0312500000000000       0.87500000000000000        0.0000000000000000     
   1.0625000000000000       0.87500000000000000        0.0000000000000000     
   1.0937500000000000       0.87500000000000000        0.0000000000000000     
   1.1250000000000000       0.87500000000000000        0.0000000000000000     
   1.0000000000000000       0.90625000000000000        0.0000000000000000     
   1.0312500000000000       0.90625000000000000        0.0000000000000000     
   1.0625000000000000       0.90625000000000000        0.0000000000000000     
   1.0937500000000000       0.90625000000000000        0.0000000000000000     
   1.1250000000000000       0.90625000000000000        0.0000000000000000     
   1.0000000000000000       0.93750000000000000        0.0000000000000000     
   1.0312500000000000       0.93750000000000000        0.0000000000000000     
   1.0625000000000000       0.93750000000000000        0.0000000000000000     
   1.0937500000000000       0.93750000000000000        0.0000000000000000     
   1.1250000000000000       0.93750000000000000        0.0000000000000000     
   1.0000000000000000       0.96875000000000000        0.0000000000000000     
   1.0312500000000000       0.96875000000000000        0.0000000000000000     
   1.0625000000000000       0.96875000000000000        0.0000000000000000     
   1.0937500000000000       0.96875000000000000        0.0000000000000000     
   1.1250000000000000       0.96875000000000000        0.0000000000000000     
   1.0000000000000000        1.0000000000000000        0.0000000000000000     
   1.0312500000000000        1.0000000000000000        0.0000000000000000     
   1.0625000000000000        1.0000000000000000        0.0000000000000000     
   1.0937500000000000        1.0000000000000000        0.0000000000000000     
   1.1250000000000000        1.0000000000000000        0.0000000000000000     
   1.1250000000000000       0.87500000000000000        0.0000000000000000     
   1.1562500000000000       0.87500000000000000        0.0000000000000000     
   1.1875000000000000       0.87500000000000000        0.0000000000000000     
   1.2187500000000000       0.87500000000000000        0.0000000000000000     
   1.2500000000000000       0.87500000000000000        0.0000000000000000     
   1.1250000000000000       0.90625000000000000        0.0000000000000000     
   1.1562500000000000       0.90625000000000000        0.0000000000000000     
   1.1875000000000000       0.90625000000000000        0.0000000000000000     
   1.2187500000000000       0.90625000000000000        0.0000000000000000     
   1.2500000000000000       0.90625000000000000        0.0000000000000000     
   1.1250000000000000       0.93750000000000000        0.0000000000000000     
   1.1562500000000000       0.93750000000000000        0.0000000000000000     
   1.1875000000000000       0.93750000000000000        0.0000000000000000     
   1.2187500000000000       0.93750000000000000        0.0000000000000000     
   1.2500000000000000       0.93750000000000000        0.0000000000000000     
   1.1250000000000000       0.96875000000000000        0.0000000000000000     
   1.1562500000000000       0.96875000000000000        0.0000000000000000     
   1.1875000000000000       0.96875000000000000        0.0000000000000000     
   1.2187500000000000       0.96875000000000000        0.0000000000000000     
   1.2500000000000000       0.96875000000000000        0.0000000000000000     
   1.1250000000000000        1.0000000000000000        0.0000000000000000     
   1.1562500000000000        1.0000000000000000        0.0000000000000000     
   1.1875000000000000        1.0000000000000000        0.0000000000000000     
   1.2187500000000000        1.0000000000000000        0.0000000000000000     
   1.2500000000000000        1.0000000000000000        0.0000000000000000     
   1.2500000000000000       0.87500000000000000        0.0000000000000000     
   1.2812500000000000       0.87500000000000000        0.0000000000000000     
   1.3125000000000000       0.87500000000000000        0.0000000000000000     
   1.3437500000000000       0.87500000000000000        0.0000000000000000     
   1.3750000000000000       0.87500000000000000        0.0000000000000000     
   1.2500000000000000       0.90625000000000000        0.0000000000000000     
   1.2812500000000000       0.90625000000000000        0.0000000000000000     
   1.3125000000000000       0.90625000000000000        0.0000000000000000     
   1.3437500000000000       0.90625000000000000        0.0000000000000000     
   1.3750000000000000       0.90625000000000000        0.0000000000000000     
   1.2500000000000000       0.93750000000000000        0.0000000000000000     
   1.2812500000000000       0.93750000000000000        0.0000000000000000     
   1.3125000000000000       0.93750000000000000        0.0000000000000000     
   1.3437500000000000       0.93750000000000000        0.0000000000000000     
   1.3750000000000000       0.93750000000000000        0.0000000000000000     
   1.2500000000000000       0.96875000000000000        0.0000000000000000     
   1.2812500000000000       0.96875000000000000        0.0000000000000000     
   1.3125000000000000       0.96875000000000000        0.0000000000000000     
   1.3437500000000000       0.96875000000000000        0.0000000000000000     
   1.3750000000000000       0.96875000000000000        0.0000000000000000     
   1.2500000000000000        1.0000000000000000        0.0000000000000000     
   1.2812500000000000        1.0000000000000000        0.0000000000000000     
   1.3125000000000000        1.0000000000000000        0.0000000000000000     
   1.3437500000000000        1.0000000000000000        0.0000000000000000     
   1.3750000000000000        1.0000000000000000        0.0000000000000000     
   1.3750000000000000       0.87500000000000000        0.0000000000000000     
   1.4062500000000000       0.87500000000000000        0.0000000000000000     
   1.4375000000000000       0.87500000000000000        0.0000000000000000     
   1.4687500000000000       0.87500000000000000        0.0000000000000000     
   1.5000000000000000       0.87500000000000000        0.0000000000000000     
   1.3750000000000000       0.90625000000000000        0.0000000000000000     
   1.4062500000000000       0.90625000000000000        0.0000000000000000     
   1.4375000000000000       0.90625000000000000        0.0000000000000000     
   1.4687500000000000       0.90625000000000000        0.0000000000000000     
   1.5000000000000000       0.90625000000000000        0.0000000000000000     
   1.3750000000000000       0.93750000000000000        0.0000000000000000     
   1.4062500000000000       0.93750000000000000        0.0000000000000000     
   1.4375000000000000       0.93750000000000000        0.0000000000000000     
   1.4687500000000000       0.93750000000000000        0.0000000000000000     
   1.5000000000000000       0.93750000000000000        0.0000000000000000     
   1.3750000000000000       0.96875000000000000        0.0000000000000000     
   1.4062500000000000       0.96875000000000000        0.0000000000000000     
   1.4375000000000000       0.96875000000000000        0.0000000000000000     
   1.4687500000000000       0.96875000000000000        0.0000000000000000     
   1.5000000000000000       0.96875000000000000        0.0000000000000000     
   1.3750000000000000        1.0000000000000000        0.0000000000000000     
   1.4062500000000000        1.0000000000000000        0.0000000000000000     
   1.4375000000000000        1.0000000000000000        0.0000000000000000     
   1.4687500000000000        1.0000000000000000        0.0000000000000000     
   1.5000000000000000        1.0000000000000000        0.0000000000000000     
 </DataArray>
 </Points>
 <Cells>
 <DataArray  type="Int32"  Name="connectivity"  format="ascii">
           0           1           6           5
           1           2           7           6
           2           3           8           7
           3           4           9           8
           5           6          11          10
           6           7          12          11
           7           8          13          12
           8           9          14          13
          10          11          16          15
          11          12          17          16
          12          13          18          17
          13          14          19          18
          15          16          21          20
          16          17          22          21
          17          18          23          22
          18          19          24          23
          25          26          31          30
          26          27          32          31
          27          28          33          32
          28          29          34          33
          30          31          36          35
          31          32          37          36
          32          33          38          37
          33          34          39          38
          35          36          41          40
          36          37          42          41
          37          38          43          42
          38          39          44          43
          40          41          46          45
          41          42          47          46
          42          43          48          47
          43          44          49          48
          50          51          56          55
          51          52          57          56
          52          53          58          57
          53          54          59          58
          55          56          61          60
          56          57          62          61
          57          58          63          62
          58          59          64          63
          60          61          66          65
          61          62          67          66
          62          63          68          67
          63          64          69          68
          65          66          71          70
          66          67          72          71
          67          68          73          72
          68          69          74          73
          75          76          81          80
          76          77          82          81
          77          78          83          82
          78          79          84          83
          80          81          86          85
          81          82          87          86
          82          83          88          87
          83          84          89          88
          85          86          91          90
          86          87          92          91
          87          88          93          92
          88          89          94          93
          90          91          96          95
          91          92          97          96
          92          93          98          97
          93          94          99          98
         100         101         106         105
         101         102         107         106
         102         103         108         107
         103         104         109         108
         105         106         111         110
         106         107         112         111
         107         108         113         112
         108         109         114         113
         110         111         116         115
         111         112         117         116
         112         113         118         117
         113         114         119         118
         115         116         121         120
         116         117         122         121
         117         118         123         122
         118         119         124         123
         125         126         131         130
         126         127         132         131
         127         128         133         132
         128         129         134         133
         130         131         136         135
         131         132         137         136
         132         133         138         137
         133         134         139         138
         135         136         141         140
         136         137         142         141
         137         138         143         142
         138         139         144         143
         140         141         146         145
         141         142         147         146
         142         143         148         147
         143         144         149         148
         150         151         156         155
         151         152         157         156
         152         153         158         157
         153         154         159         158
         155         156         161         160
         156         157         162         161
         157         158         163         162
         158         159         164         163
         160         161         166         165
         161         162         167         166
         162         163         168         167
         163         164         169         168
         165         166         171         170
         166         167         172         171
         167         168         173         172
         168         169         174         173
         175         176         181         180
         176         177         182         181
         177         178         183         182
         178         179         184         183
         180         181         186         185
         181         182         187         186
         182         183         188         187
         183         184         189         188
         185         186         191         190
         186         187         192         191
         187         188         193         192
         188         189         194         193
         190         191         196         195
         191         192         197         196
         192         193         198         197
         193         194         199         198
         200         201         206         205
         201         202         207         206
         202         203         208         207
         203         204         209         208
         205         206         211         210
         206         207         212         211
         207         208         213         212
         208         209         214         213
         210         211         216         215
         211         212         217         216
         212         213         218         217
         213         214         219         218
         215         216         221         220
         216         217         222         221
         217         218         223         222
         218         219         224         223
         225         226         231         230
         226         227         232         231
         227         228         233         232
         228         229         234         233
         230         231         236         235
         231         232         237         236
         232         233         238         237
         233         234         239         238
         235         236         241         240
         236         237         242         241
         237         238         243         242
         238         239         244         243
         240         241         246         245
         241         242         247         246
         242         243         248         247
         243         244         249         248
         250         251         256         255
         251         252         257         256
         252         253         258         257
         253         254         259         258
         255         256         261         260
         256         257         262         261
         257         258         263         262
         258         259         264         263
         260         261         266         265
         261         262         267         266
         262         263         268         267
         263         264         269         268
         265         266         271         270
         266         267         272         271
         267         268         273         272
         268         269         274         273
         275         276         281         280
         276         277         282         281
         277         278         283         282
         278         279         284         283
         280         281         286         285
         281         282         287         286
         282         283         288         287
         283         284         289         288
         285         286         291         290
         286         287         292         291
         287         288         293         292
         288         289         294         293
         290         291         296         295
         291         292         297         296
         292         293         298         297
         293         294         299         298
         300         301         306         305
         301         302         307         306
         302         303         308         307
         303         304         309         308
         305         306         311         310
         306         307         312         311
         307         308         313         312
         308         309         314         313
         310         311         316         315
         311         312         317         316
         312         313         318         317
         313         314         319         318
         315         316         321         320
         316         317         322         321
         317         318         323         322
         318         319         324         323
         325         326         331         330
         326         327         332         331
         327         328         333         332
         328         329         334         333
         330         331         336         335
         331         332         337         336
         332         333         338         337
         333         334         339         338
         335         336         341         340
         336         337         342         341
         337         338         343         342
         338         339         344         343
         340         341         346         345
         341         342         347         346
         342         343         348         347
         343         344         349         348
         350         351         356         355
         351         352         357         356
         352         353         358         357
         353         354         359         358
         355         356         361         360
         356         357         362         361
         357         358         363         362
         358         359         364         363
         360         361         366         365
         361         362         367         366
         362         363         368         367
         363         364         369         368
         365         366         371         370
         366         367         372         371
         367         368         373         372
         368         369         374         373
         375         376         381         380
         376         377         382         381
         377         378         383         382
         378         379         384         383
         380         381         386         385
         381         382         387         386
         382         383         388         387
         383         384         389         388
         385         386         391         390
         386         387         392         391
         387         388         393         392
         388         389         394         393
         390         391         396         395
         391         392         397         396
         392         393         398         397
         393         394         399         398
         400         401         406         405
         401         402         407         406
         402         403         408         407
         403         404         409         408
         405         406         411         410
         406         407         412         411
         407         408         413         412
         408         409         414         413
         410         411         416         415
         411         412         417         416
         412         413         418         417
         413         414         419         418
         415         416         421         420
         416         417         422         421
         417         418         423         422
         418         419         424         423
         425         426         431         430
         426         427         432         431
         427         428         433         432
         428         429         434         433
         430         431         436         435
         431         432         437         436
         432         433         438         437
         433         434         439         438
         435         436         441         440
         436         437         442         441
         437         438         443         442
         438         439         444         443
         440         441         446         445
         441         442         447         446
         442         443         448         447
         443         444         449         448
         450         451         456         455
         451         452         457         456
         452         453         458         457
         453         454         459         458
         455         456         461         460
         456         457         462         461
         457         458         463         462
         458         459         464         463
         460         461         466         465
         461         462         467         466
         462         463         468         467
         463         464         469         468
         465         466         471         470
         466         467         472         471
         467         468         473         472
         468         469         474         473
         475         476         481         480
         476         477         482         481
         477         478         483         482
         478         479         484         483
         480         481         486         485
         481         482         487         486
         482         483         488         487
         483         484         489         488
         485         486         491         490
         486         487         492         491
         487         488         493         492
         488         489         494         493
         490         491         496         495
         491         492         497         496
         492         493         498         497
         493         494         499         498
         500         501         506         505
         501         502         507         506
         502         503         508         507
         503         504         509         508
         505         506         511         510
         506         507         512         511
         507         508         513         512
         508         509         514         513
         510         511         516         515
         511         512         517         516
         512         513         518         517
         513         514         519         518
         515         516         521         520
         516         517         522         521
         517         518         523         522
         518         519         524         523
         525         526         531         530
         526         527         532         531
         527         528         533         532
         528         529         534         533
         530         531         536         535
         531         532         537         536
         532         533         538         537
         533         534         539         538
         535         536         541         540
         536         537         542         541
         537         538         543         542
         538         539         544         543
         540         541         546         545
         541         542         547         546
         542         543         548         547
         543         544         549         548
         550         551         556         555
         551         552         557         556
         552         553         558         557
         553         554         559         558
         555         556         561         560
         556         557         562         561
         557         558         563         562
         558         559         564         563
         560         561         566         565
         561         562         567         566
         562         563         568         567
         563         564         569         568
         565         566         571         570
         566         567         572         571
         567         568         573         572
         568         569         574         573
         575         576         581         580
         576         577         582         581
         577         578         583         582
         578         579         584         583
         580         581         586         585
         581         582         587         586
         582         583         588         587
         583         584         589         588
         585         586         591         590
         586         587         592         591
         587         588         593         592
         588         589         594         593
         590         591         596         595
         591         592         597         596
         592         593         598         597
         593         594         599         598
         600         601         606         605
         601         602         607         606
         602         603         608         607
         603         604         609         608
         605         606         611         610
         606         607         612         611
         607         608         613         612
         608         609         614         613
         610         611         616         615
         611         612         617         616
         612         613         618         617
         613         614         619         618
         615         616         621         620
         616         617         622         621
         617         618         623         622
         618         619         624         623
         625         626         631         630
         626         627         632         631
         627         628         633         632
         628         629         634         633
         630         631         636         635
         631         632         637         636
         632         633         638         637
         633         634         639         638
         635         636         641         640
         636         637         642         641
         637         638         643         642
         638         639         644         643
         640         641         646         645
         641         642         647         646
         642         643         648         647
         643         644         649         648
         650         651         656         655
         651         652         657         656
         652         653         658         657
         653         654         659         658
         655         656         661         660
         656         657         662         661
         657         658         663         662
         658         659         664         663
         660         661         666         665
         661         662         667         666
         662         663         668         667
         663         664         669         668
         665         666         671         670
         666         667         672         671
         667         668         673         672
         668         669         674         673
         675         676         681         680
         676         677         682         681
         677         678         683         682
         678         679         684         683
         680         681         686         685
         681         682         687         686
         682         683         688         687
         683         684         689         688
         685         686         691         690
         686         687         692         691
         687         688         693         692
         688         689         694         693
         690         691         696         695
         691         692         697         696
         692         693         698         697
         693         694         699         698
         700         701         706         705
         701         702         707         706
         702         703         708         707
         703         704         709         708
         705         706         711         710
         706         707         712         711
         707         708         713         712
         708         709         714         713
         710         711         716         715
         711         712         717         716
         712         713         718         717
         713         714         719         718
         715         716         721         720
         716         717         722         721
         717         718         723         722
         718         719         724         723
         725         726         731         730
         726         727         732         731
         727         728         733         732
         728         729         734         733
         730         731         736         735
         731         732         737         736
         732         733         738         737
         733         734         739         738
         735         736         741         740
         736         737         742         741
         737         738         743         742
         738         739         744         743
         740         741         746         745
         741         742         747         746
         742         743         748         747
         743         744         749         748
         750         751         756         755
         751         752         757         756
         752         753         758         757
         753         754         759         758
         755         756         761         760
         756         757         762         761
         757         758         763         762
         758         759         764         763
         760         761         766         765
         761         762         767         766
         762         763         768         767
         763         764         769         768
         765         766         771         770
         766         767         772         771
         767         768         773         772
         768         769         774         773
         775         776         781         780
         776         777         782         781
         777         778         783         782
         778         779         784         783
         780         781         786         785
         781         782         787         786
         782         783         788         787
         783         784         789         788
         785         786         791         790
         786         787         792         791
         787         788         793         792
         788         789         794         793
         790         791         796         795
         791         792         797         796
         792         793         798         797
         793         794         799         798
         800         801         806         805
         801         802         807         806
         802         803         808         807
         803         804         809         808
         805         806         811         810
         806         807         812         811
         807         808         813         812
         808         809         814         813
         810         811         816         815
         811         812         817         816
         812         813         818         817
         813         814         819         818
         815         816         821         820
         816         817         822         821
         817         818         823         822
         818         819         824         823
         825         826         831         830
         826         827         832         831
         827         828         833         832
         828         829         834         833
         830         831         836         835
         831         832         837         836
         832         833         838         837
         833         834         839         838
         835         836         841         840
         836         837         842         841
         837         838         843         842
         838         839         844         843
         840         841         846         845
         841         842         847         846
         842         843         848         847
         843         844         849         848
         850         851         856         855
         851         852         857         856
         852         853         858         857
         853         854         859         858
         855         856         861         860
         856         857         862         861
         857         858         863         862
         858         859         864         863
         860         861         866         865
         861         862         867         866
         862         863         868         867
         863         864         869         868
         865         866         871         870
         866         867         872         871
         867         868         873         872
         868         869         874         873
         875         876         881         880
         876         877         882         881
         877         878         883         882
         878         879         884         883
         880         881         886         885
         881         882         887         886
         882         883         888         887
         883         884         889         888
         885         886         891         890
         886         887         892         891
         887         888         893         892
         888         889         894         893
         890         891         896         895
         891         892         897         896
         892         893         898         897
         893         894         899         898
         900         901         906         905
         901         902         907         906
         902         903         908         907
         903         904         909         908
         905         906         911         910
         906         907         912         911
         907         908         913         912
         908         909         914         913
         910         911         916         915
         911         912         917         916
         912         913         918         917
         913         914         919         918
         915         916         921         920
         916         917         922         921
         917         918         923         922
         918         919         924         923
         925         926         931         930
         926         927         932         931
         927         928         933         932
         928         929         934         933
         930         931         936         935
         931         932         937         936
         932         933         938         937
         933         934         939         938
         935         936         941         940
         936         937         942         941
         937         938         943         942
         938         939         944         943
         940         941         946         945
         941         942         947         946
         942         943         948         947
         943         944         949         948
         950         951         956         955
         951         952         957         956
         952         953         958         957
         953         954         959         958
         955         956         961         960
         956         957         962         961
         957         958         963         962
         958         959         964         963
         960         961         966         965
         961         962         967         966
         962         963         968         967
         963         964         969         968
         965         966         971         970
         966         967         972         971
         967         968         973         972
         968         969         974         973
         975         976         981         980
         976         977         982         981
         977         978         983         982
         978         979         984         983
         980         981         986         985
         981         982         987         986
         982         983         988         987
         983         984         989         988
         985         986         991         990
         986         987         992         991
         987         988         993         992
         988         989         994         993
         990         991         996         995
         991         992         997         996
         992         993         998         997
         993         994         999         998
        1000        1001        1006        1005
        1001        1002        1007        1006
        1002        1003        1008        1007
        1003        1004        1009        1008
        1005        1006        1011        1010
        1006        1007        1012        1011
        1007        1008        1013        1012
        1008        1009        1014        1013
        1010        1011        1016        1015
        1011        1012        1017        1016
        1012        1013        1018        1017
        1013        1014        1019        1018
        1015        1016        1021        1020
        1016        1017        1022        1021
        1017        1018        1023        1022
        1018        1019        1024        1023
        1025        1026        1031        1030
        1026        1027        1032        1031
        1027        1028        1033        1032
        1028        1029        1034        1033
        1030        1031        1036        1035
        1031        1032        1037        1036
        1032        1033        1038        1037
        1033        1034        1039        1038
        1035        1036        1041        1040
        1036        1037        1042        1041
        1037        1038        1043        1042
        1038        1039        1044        1043
        1040        1041        1046        1045
        1041        1042        1047        1046
        1042        1043        1048        1047
        1043        1044        1049        1048
        1050        1051        1056        1055
        1051        1052        1057        1056
        1052        1053        1058        1057
        1053        1054        1059        1058
        1055        1056        1061        1060
        1056        1057        1062        1061
        1057        1058        1063        1062
        1058        1059        1064        1063
        1060        1061        1066        1065
        1061        1062        1067        1066
        1062        1063        1068        1067
        1063        1064        1069        1068
        1065        1066        1071        1070
        1066        1067        1072        1071
        1067        1068        1073        1072
        1068        1069        1074        1073
        1075        1076        1081        1080
        1076        1077        1082        1081
        1077        1078        1083        1082
        1078        1079        1084        1083
        1080        1081        1086        1085
        1081        1082        1087        1086
        1082        1083        1088        1087
        1083        1084        1089        1088
        1085        1086        1091        1090
        1086        1087        1092        1091
        1087        1088        1093        1092
        1088        1089        1094        1093
        1090        1091        1096        1095
        1091        1092        1097        1096
        1092        1093        1098        1097
        1093        1094        1099        1098
        1100        1101        1106        1105
        1101        1102        1107        1106
        1102        1103        1108        1107
        1103        1104        1109        1108
        1105        1106        1111        1110
        1106        1107        1112        1111
        1107        1108        1113        1112
        1108        1109        1114        1113
        1110        1111        1116        1115
        1111        1112        1117        1116
        1112        1113        1118        1117
        1113        1114        1119        1118
        1115        1116        1121        1120
        1116        1117        1122        1121
        1117        1118        1123        1122
        1118        1119        1124        1123
        1125        1126        1131        1130
        1126        1127        1132        1131
        1127        1128        1133        1132
        1128        1129        1134        1133
        1130        1131        1136        1135
        1131        1132        1137        1136
        1132        1133        1138        1137
        1133        1134        1139        1138
        1135        1136        1141        1140
        1136        1137        1142        1141
        1137        1138        1143        1142
        1138        1139        1144        1143
        1140        1141        1146        1145
        1141        1142        1147        1146
        1142        1143        1148        1147
        1143        1144        1149        1148
        1150        1151        1156        1155
        1151        1152        1157        1156
        1152        1153        1158        1157
        1153        1154        1159        1158
        1155        1156        1161        1160
        1156        1157        1162        1161
        1157        1158        1163        1162
        1158        1159        1164        1163
        1160        1161        1166        1165
        1161        1162        1167        1166
        1162        1163        1168        1167
        1163        1164        1169        1168
        1165        1166        1171        1170
        1166        1167        1172        1171
        1167        1168        1173        1172
        1168        1169        1174        1173
        1175        1176        1181        1180
        1176        1177        1182        1181
        1177        1178        1183        1182
        1178        1179        1184        1183
        1180        1181        1186        1185
        1181        1182        1187        1186
        1182        1183        1188        1187
        1183        1184        1189        1188
        1185        1186        1191        1190
        1186        1187        1192        1191
        1187        1188        1193        1192
        1188        1189        1194        1193
        1190        1191        1196        1195
        1191        1192        1197        1196
        1192        1193        1198        1197
        1193        1194        1199        1198
        1200        1201        1206        1205
        1201        1202        1207        1206
        1202        1203        1208        1207
        1203        1204        1209        1208
        1205        1206        1211        1210
        1206        1207        1212        1211
        1207        1208        1213        1212
        1208        1209        1214        1213
        1210        1211        1216        1215
        1211        1212        1217        1216
        1212        1213        1218        1217
        1213        1214        1219        1218
        1215        1216        1221        1220
        1216        1217        1222        1221
        1217        1218        1223        1222
        1218        1219        1224        1223
        1225        1226        1231        1230
        1226        1227        1232        1231
        1227        1228        1233        1232
        1228        1229        1234        1233
        1230        1231        1236        1235
        1231        1232        1237        1236
        1232        1233        1238        1237
        1233        1234        1239        1238
        1235        1236        1241        1240
        1236        1237        1242        1241
        1237        1238        1243        1242
        1238        1239        1244        1243
        1240        1241        1246        1245
        1241        1242        1247        1246
        1242        1243        1248        1247
        1243        1244        1249        1248
        1250        1251        1256        1255
        1251        1252        1257        1256
        1252        1253        1258        1257
        1253        1254        1259        1258
        1255        1256        1261        1260
        1256        1257        1262        1261
        1257        1258        1263        1262
        1258        1259        1264        1263
        1260        1261        1266        1265
        1261        1262        1267        1266
        1262        1263        1268        1267
        1263        1264        1269        1268
        1265        1266        1271        1270
        1266        1267        1272        1271
        1267        1268        1273        1272
        1268        1269        1274        1273
        1275        1276        1281        1280
        1276        1277        1282        1281
        1277        1278        1283        1282
        1278        1279        1284        1283
        1280        1281        1286        1285
        1281        1282        1287        1286
        1282        1283        1288        1287
        1283        1284        1289        1288
        1285        1286        1291        1290
        1286        1287        1292        1291
        1287        1288        1293        1292
        1288        1289        1294        1293
        1290        1291        1296        1295
        1291        1292        1297        1296
        1292        1293        1298        1297
        1293        1294        1299        1298
        1300        1301        1306        1305
        1301        1302        1307        1306
        1302        1303        1308        1307
        1303        1304        1309        1308
        1305        1306        1311        1310
        1306        1307        1312        1311
        1307        1308        1313        1312
        1308        1309        1314        1313
        1310        1311        1316        1315
        1311        1312        1317        1316
        1312        1313        1318        1317
        1313        1314        1319        1318
        1315        1316        1321        1320
        1316        1317        1322        1321
        1317        1318        1323        1322
        1318        1319        1324        1323
        1325        1326        1331        1330
        1326        1327        1332        1331
        1327        1328        1333        1332
        1328        1329        1334        1333
        1330        1331        1336        1335
        1331        1332        1337        1336
        1332        1333        1338        1337
        1333        1334        1339        1338
        1335        1336        1341        1340
        1336        1337        1342        1341
        1337        1338        1343        1342
        1338        1339        1344        1343
        1340        1341        1346        1345
        1341        1342        1347        1346
        1342        1343        1348        1347
        1343        1344        1349        1348
        1350        1351        1356        1355
        1351        1352        1357        1356
        1352        1353        1358        1357
        1353        1354        1359        1358
        1355        1356        1361        1360
        1356        1357        1362        1361
        1357        1358        1363        1362
        1358        1359        1364        1363
        1360        1361        1366        1365
        1361        1362        1367        1366
        1362        1363        1368        1367
        1363        1364        1369        1368
        1365        1366        1371        1370
        1366        1367        1372        1371
        1367        1368        1373        1372
        1368        1369        1374        1373
        1375        1376        1381        1380
        1376        1377        1382        1381
        1377        1378        1383        1382
        1378        1379        1384        1383
        1380        1381        1386        1385
        1381        1382        1387        1386
        1382        1383        1388        1387
        1383        1384        1389        1388
        1385        1386        1391        1390
        1386        1387        1392        1391
        1387        1388        1393        1392
        1388        1389        1394        1393
        1390        1391        1396        1395
        1391        1392        1397        1396
        1392        1393        1398        1397
        1393        1394        1399        1398
        1400        1401        1406        1405
        1401        1402        1407        1406
        1402        1403        1408        1407
        1403        1404        1409        1408
        1405        1406        1411        1410
        1406        1407        1412        1411
        1407        1408        1413        1412
        1408        1409        1414        1413
        1410        1411        1416        1415
        1411        1412        1417        1416
        1412        1413        1418        1417
        1413        1414        1419        1418
        1415        1416        1421        1420
        1416        1417        1422        1421
        1417        1418        1423        1422
        1418        1419        1424        1423
        1425        1426        1431        1430
        1426        1427        1432        1431
        1427        1428        1433        1432
        1428        1429        1434        1433
        1430        1431        1436        1435
        1431        1432        1437        1436
        1432        1433        1438        1437
        1433        1434        1439        1438
        1435        1436        1441        1440
        1436        1437        1442        1441
        1437        1438        1443        1442
        1438        1439        1444        1443
        1440        1441        1446        1445
        1441        1442        1447        1446
        1442        1443        1448        1447
        1443        1444        1449        1448
        1450        1451        1456        1455
        1451        1452        1457        1456
        1452        1453        1458        1457
        1453        1454        1459        1458
        1455        1456        1461        1460
        1456        1457        1462        1461
        1457        1458        1463        1462
        1458        1459        1464        1463
        1460        1461        1466        1465
        1461        1462        1467        1466
        1462        1463        1468        1467
        1463        1464        1469        1468
        1465        1466        1471        1470
        1466        1467        1472        1471
        1467        1468        1473        1472
        1468        1469        1474        1473
        1475        1476        1481        1480
        1476        1477        1482        1481
        1477        1478        1483        1482
        1478        1479        1484        1483
        1480        1481        1486        1485
        1481        1482        1487        1486
        1482        1483        1488        1487
        1483        1484        1489        1488
        1485        1486        1491        1490
        1486        1487        1492        1491
        1487        1488        1493        1492
        1488        1489        1494        1493
        1490        1491        1496        1495
        1491        1492        1497        1496
        1492        1493        1498        1497
        1493        1494        1499        1498
        1500        1501        1506        1505
        1501        1502        1507        1506
        1502        1503        1508        1507
        1503        1504        1509        1508
        1505        1506        1511        1510
        1506        1507        1512        1511
        1507        1508        1513        1512
        1508        1509        1514        1513
        1510        1511        1516        1515
        1511        1512        1517        1516
        1512        1513        1518        1517
        1513        1514        1519        1518
        1515        1516        1521        1520
        1516        1517        1522        1521
        1517        1518        1523        1522
        1518        1519        1524        1523
        1525        1526        1531        1530
        1526        1527        1532        1531
        1527        1528        1533        1532
        1528        1529        1534        1533
        1530        1531        1536        1535
        1531        1532        1537        1536
        1532        1533        1538        1537
        1533        1534        1539        1538
        1535        1536        1541        1540
        1536        1537        1542        1541
        1537        1538        1543        1542
        1538        1539        1544        1543
        1540        1541        1546        1545
        1541        1542        1547        1546
        1542        1543        1548        1547
        1543        1544        1549        1548
        1550        1551        1556        1555
        1551        1552        1557        1556
        1552        1553        1558        1557
        1553        1554        1559        1558
        1555        1556        1561        1560
        1556        1557        1562        1561
        1557        1558        1563        1562
        1558        1559        1564        1563
        1560        1561        1566        1565
        1561        1562        1567        1566
        1562        1563        1568        1567
        1563        1564        1569        1568
        1565        1566        1571        1570
        1566        1567        1572        1571
        1567        1568        1573        1572
        1568        1569        1574        1573
        1575        1576        1581        1580
        1576        1577        1582        1581
        1577        1578        1583        1582
        1578        1579        1584        1583
        1580        1581        1586        1585
        1581        1582        1587        1586
        1582        1583        1588        1587
        1583        1584        1589        1588
        1585        1586        1591        1590
        1586        1587        1592        1591
        1587        1588        1593        1592
        1588        1589        1594        1593
        1590        1591        1596        1595
        1591        1592        1597        1596
        1592        1593        1598        1597
        1593        1594        1599        1598
 </DataArray>
 <DataArray  type="Int32"  Name="offsets"  format="ascii"> 
           4
           8
          12
          16
          20
          24
          28
          32
          36
          40
          44
          48
          52
          56
          60
          64
          68
          72
          76
          80
          84
          88
          92
          96
         100
         104
         108
         112
         116
         120
         124
         128
         132
         136
         140
         144
         148
         152
         156
         160
         164
         168
         172
         176
         180
         184
         188
         192
         196
         200
         204
         208
         212
         216
         220
         224
         228
         232
         236
         240
         244
         248
         252
         256
         260
         264
         268
         272
         276
         280
         284
         288
         292
         296
         300
         304
         308
         312
         316
         320
         324
         328
         332
         336
         340
         344
         348
         352
         356
         360
         364
         368
         372
         376
         380
         384
         388
         392
         396
         400
         404
         408
         412
         416
         420
         424
         428
         432
         436
         440
         444
         448
         452
         456
         460
         464
         468
         472
         476
         480
         484
         488
         492
         496
         500
         504
         508
         512
         516
         520
         524
         528
         532
         536
         540
         544
         548
         552
         556
         560
         564
         568
         572
         576
         580
         584
         588
         592
         596
         600
         604
         608
         612
         616
         620
         624
         628
         632
         636
         640
         644
         648
         652
         656
         660
         664
         668
         672
         676
         680
         684
         688
         692
         696
         700
         704
         708
         712
         716
         720
         724
         728
         732
         736
         740
         744
         748
         752
         756
         760
         764
         768
         772
         776
         780
         784
         788
         792
         796
         800
         804
         808
         812
         816
         820
         824
         828
         832
         836
         840
         844
         848
         852
         856
         860
         864
         868
         872
         876
         880
         884
         888
         892
         896
         900
         904
         908
         912
         916
         920
         924
         928
         932
         936
         940
         944
         948
         952
         956
         960
         964
         968
         972
         976
         980
         984
         988
         992
         996
        1000
        1004
        1008
        1012
        1016
        1020
        1024
        1028
        1032
        1036
        1040
        1044
        1048
        1052
        1056
        1060
        1064
        1068
        1072
        1076
        1080
        1084
        1088
        1092
        1096
        1100
        1104
        1108
        1112
        1116
        1120
        1124
        1128
        1132
        1136
        1140
        1144
        1148
        1152
        1156
        1160
        1164
        1168
        1172
        1176
        1180
        1184
        1188
        1192
        1196
        1200
        1204
        1208
        1212
        1216
        1220
        1224
        1228
        1232
        1236
        1240
        1244
        1248
        1252
        1256
        1260
        1264
        1268
        1272
        1276
        1280
        1284
        1288
        1292
        1296
        1300
        1304
        1308
        1312
        1316
        1320
        1324
        1328
        1332
        1336
        1340
        1344
        1348
        1352
        1356
        1360
        1364
        1368
        1372
        1376
        1380
        1384
        1388
        1392
        1396
        1400
        1404
        1408
        1412
        1416
        1420
        1424
        1428
        1432
        1436
        1440
        1444
        1448
        1452
        1456
        1460
        1464
        1468
        1472
        1476
        1480
        1484
        1488
        1492
        1496
        1500
        1504
        1508
        1512
        1516
        1520
        1524
        1528
        1532
        1536
        1540
        1544
        1548
        1552
        1556
        1560
        1564
        1568
        1572
        1576
        1580
        1584
        1588
        1592
        1596
        1600
        1604
        1608
        1612
        1616
        1620
        1624
        1628
        1632
        1636
        1640
        1644
        1648
        1652
        1656
        1660
        1664
        1668
        1672
        1676
        1680
        1684
        1688
        1692
        1696
        1700
        1704
        1708
        1712
        1716
        1720
        1724
        1728
        1732
        1736
        1740
        1744
        1748
        1752
        1756
        1760
        1764
        1768
        1772
        1776
        1780
        1784
        1788
        1792
        1796
        1800
        1804
        1808
        1812
        1816
        1820
        1824
        1828
        1832
        1836
        1840
        1844
        1848
        1852
        1856
        1860
        1864
        1868
        1872
        1876
        1880
        1884
        1888
        1892
        1896
        1900
        1904
        1908
        1912
        1916
        1920
        1924
        1928
        1932
        1936
        1940
        1944
        1948
        1952
        1956
        1960
        1964
        1968
        1972
        1976
        1980
        1984
        1988
        1992
        1996
        2000
        2004
        2008
        2012
        2016
        2020
        2024
        2028
        2032
        2036
        2040
        2044
        2048
        2052
        2056
        2060
        2064
        2068
        2072
        2076
        2080
        2084
        2088
        2092
        2096
        2100
        2104
        2108
        2112
        2116
        2120
        2124
        2128
        2132
        2136
        2140
        2144
        2148
        2152
        2156
        2160
        2164
        2168
        2172
        2176
        2180
        2184
        2188
        2192
        2196
        2200
        2204
        2208
        2212
        2216
        2220
        2224
        2228
        2232
        2236
        2240
        2244
        2248
        2252
        2256
        2260
        2264
        2268
        2272
        2276
        2280
        2284
        2288
        2292
        2296
        2300
        2304
        2308
        2312
        2316
        2320
        2324
        2328
        2332
        2336
        2340
        2344
        2348
        2352
        2356
        2360
        2364
        2368
        2372
        2376
        2380
        2384
        2388
        2392
        2396
        2400
        2404
        2408
        2412
        2416
        2420
        2424
        2428
        2432
        2436
        2440
        2444
        2448
        2452
        2456
        2460
        2464
        2468
        2472
        2476
        2480
        2484
        2488
        2492
        2496
        2500
        2504
        2508
        2512
        2516
        2520
        2524
        2528
        2532
        2536
        2540
        2544
        2548
        2552
        2556
        2560
        2564
        2568
        2572
        2576
        2580
        2584
        2588
        2592
        2596
        2600
        2604
        2608
        2612
        2616
        2620
        2624
        2628
        2632
        2636
        2640
        2644
        2648
        2652
        2656
        2660
        2664
        2668
        2672
        2676
        2680
        2684
        2688
        2692
        2696
        2700
        2704
        2708
        2712
        2716
        2720
        2724
        2728
        2732
        2736
        2740
        2744
        2748
        2752
        2756
        2760
        2764
        2768
        2772
        2776
        2780
        2784
        2788
        2792
        2796
        2800
        2804
        2808
        2812
        2816
        2820
        2824
        2828
        2832
        2836
        2840
        2844
        2848
        2852
        2856
        2860
        2864
        2868
        2872
        2876
        2880
        2884
        2888
        2892
        2896
        2900
        2904
        2908
        2912
        2916
        2920
        2924
        2928
        2932
        2936
        2940
        2944
        2948
        2952
        2956
        2960
        2964
        2968
        2972
        2976
        2980
        2984
        2988
        2992
        2996
        3000
        3004
        3008
        3012
        3016
        3020
        3024
        3028
        3032
        3036
        3040
        3044
        3048
        3052
        3056
        3060
        3064
        3068
        3072
        3076
        3080
        3084
        3088
        3092
        3096
        3100
        3104
        3108
        3112
        3116
        3120
        3124
        3128
        3132
        3136
        3140
        3144
        3148
        3152
        3156
        3160
        3164
        3168
        3172
        3176
        3180
        3184
        3188
        3192
        3196
        3200
        3204
        3208
        3212
        3216
        3220
        3224
        3228
        3232
        3236
        3240
        3244
        3248
        3252
        3256
        3260
        3264
        3268
        3272
        3276
        3280
        3284
        3288
        3292
        3296
        3300
        3304
        3308
        3312
        3316
        3320
        3324
        3328
        3332
        3336
        3340
        3344
        3348
        3352
        3356
        3360
        3364
        3368
        3372
        3376
        3380
        3384
        3388
        3392
        3396
        3400
        3404
        3408
        3412
        3416
        3420
        3424
        3428
        3432
        3436
        3440
        3444
        3448
        3452
        3456
        3460
        3464
        3468
        3472
        3476
        3480
        3484
        3488
        3492
        3496
        3500
        3504
        3508
        3512
        3516
        3520
        3524
        3528
        3532
        3536
        3540
        3544
        3548
        3552
        3556
        3560
        3564
        3568
        3572
        3576
        3580
        3584
        3588
        3592
        3596
        3600
        3604
        3608
        3612
        3616
        3620
        3624
        3628
        3632
        3636
        3640
        3644
        3648
        3652
        3656
        3660
        3664
        3668
        3672
        3676
        3680
        3684
        3688
        3692
        3696
        3700
        3704
        3708
        3712
        3716
        3720
        3724
        3728
        3732
        3736
        3740
        3744
        3748
        3752
        3756
        3760
        3764
        3768
        3772
        3776
        3780
        3784
        3788
        3792
        3796
        3800
        3804
        3808
        3812
        3816
        3820
        3824
        3828
        3832
        3836
        3840
        3844
        3848
        3852
        3856
        3860
        3864
        3868
        3872
        3876
        3880
        3884
        3888
        3892
        3896
        3900
        3904
        3908
        3912
        3916
        3920
        3924
        3928
        3932
        3936
        3940
        3944
        3948
        3952
        3956
        3960
        3964
        3968
        3972
        3976
        3980
        3984
        3988
        3992
        3996
        4000
        4004
        4008
        4012
        4016
        4020
        4024
        4028
        4032
        4036
        4040
        4044
        4048
        4052
        4056
        4060
        4064
        4068
        4072
        4076
        4080
        4084
        4088
        4092
        4096
 </DataArray>
 <DataArray  type="UInt8"  Name="types"  format="ascii">
 9
 9
 9
 9
 9
 9
 9
 9
 9
 9
 9
 9
 9
 9
 9
 9
 9
 9
 9
 9
 9
 9
 9
 9
 9
 9
 9
 9
 9
 9
 9
 9
 9
 9
 9
 9
 9
 9
 9
 9
 9
 9
 9
 9
 9
 9
 9
 9
 9
 9
 9
 9
 9
 9
 9
 9
 9
 9
 9
 9
 9
 9
 9
 9
 9
 9
 9
 9
 9
 9
 9
 9
 9
 9
 9
 9
 9
 9
 9
 9
 9
 9
 9
 9
 9
 9
 9
 9
 9
 9
 9
 9
 9
 9
 9
 9
 9
 9
 9
 9
 9
 9
 9
 9
 9
 9
 9
 9
 9
 9
 9
 9
 9
 9
 9
 9
 9
 9
 9
 9
 9
 9
 9
 9
 9
 9
 9
 9
 9
 9
 9
 9
 9
 9
 9
 9
 9
 9
 9
 9
 9
 9
 9
 9
 9
 9
 9
 9
 9
 9
 9
 9
 9
 9
 9
 9
 9
 9
 9
 9
 9
 9
 9
 9
 9
 9
 9
 9
 9
 9
 9
 9
 9
 9
 9
 9
 9
 9
 9
 9
 9
 9
 9
 9
 9
 9
 9
 9
 9
 9
 9
 9
 9
 9
 9
 9
 9
 9
 9
 9
 9
 9
 9
 9
 9
 9
 9
 9
 9
 9
 9
 9
 9
 9
 9
 9
 9
 9
 9
 9
 9
 9
 9
 9
 9
 9
 9
 9
 9
 9
 9
 9
 9
 9
 9
 9
 9
 9
 9
 9
 9
 9
 9
 9
 9
 9
 9
 9
 9
 9
 9
 9
 9
 9
 9
 9
 9
 9
 9
 9
 9
 9
 9
 9
 9
 9
 9
 9
 9
 9
 9
 9
 9
 9
 9
 9
 9
 9
 9
 9
 9
 9
 9
 9
 9
 9
 9
 9
 9
 9
 9
 9
 9
 9
 9
 9
 9
 9
 9
 9
 9
 9
 9
 9
 9
 9
 9
 9
 9
 9
 9
 9
 9
 9
 9
 9
 9
 9
 9
 9
 9
 9
 9
 9
 9
 9
 9
 9
 9
 9
 9
 9
 9
 9
 9
 9
 9
 9
 9
 9
 9
 9
 9
 9
 9
 9
 9
 9
 9
 9
 9
 9
 9
 9
 9
 9
 9
 9
 9
 9
 9
 9
 9
 9
 9
 9
 9
 9
 9
 9
 9
 9
 9
 9
 9
 9
 9
 9
 9
 9
 9
 9
 9
 9
 9
 9
 9
 9
 9
 9
 9
 9
 9
 9
 9
 9
 9
 9
 9
 9
 9
 9
 9
 9
 9
 9
 9
 9
 9
 9
 9
 9
 9
 9
 9
 9
 9
 9
 9
 9
 9
 9
 9
 9
 9
 9
 9
 9
 9
 9
 9
 9
 9
 9
 9
 9
 9
 9
 9
 9
 9
 9
 9
 9
 9
 9
 9
 9
 9
 9
 9
 9
 9
 9
 9
 9
 9
 9
 9
 9
 9
 9
 9
 9
 9
 9
 9
 9
 9
 9
 9
 9
 9
 9
 9
 9
 9
 9
 9
 9
 9
 9
 9
 9
 9
 9
 9
 9
 9
 9
 9
 9
 9
 9
 9
 9
 9
 9
 9
 9
 9
 9
 9
 9
 9
 9
 9
 9
 9
 9
 9
 9
 9
 9
 9
 9
 9
 9
 9
 9
 9
 9
 9
 9
 9
 9
 9
 9
 9
 9
 9
 9
 9
 9
 9
 9
 9
 9
 9
 9
 9
 9
 9
 9
 9
 9
 9
 9
 9
 9
 9
 9
 9
 9
 9
 9
 9
 9
 9
 9
 9
 9
 9
 9
 9
 9
 9
 9
 9
 9
 9
 9
 9
 9
 9
 9
 9
 9
 9
 9
 9
 9
 9
 9
 9
 9
 9
 9
 9
 9
 9
 9
 9
 9
 9
 9
 9
 9
 9
 9
 9
 9
 9
 9
 9
 9
 9
 9
 9
 9
 9
 9
 9
 9
 9
 9
 9
 9
 9
 9
 9
 9
 9
 9
 9
 9
 9
 9
 9
 9
 9
 9
 9
 9
 9
 9
 9
 9
 9
 9
 9
 9
 9
 9
 9
 9
 9
 9
 9
 9
 9
 9
 9
 9
 9
 9
 9
 9
 9
 9
 9
 9
 9
 9
 9
 9
 9
 9
 9
 9
 9
 9
 9
 9
 9
 9
 9
 9
 9
 9
 9
 9
 9
 9
 9
 9
 9
 9
 9
 9
 9
 9
 9
 9
 9
 9
 9
 9
 9
 9
 9
 9
 9
 9
 9
 9
 9
 9
 9
 9
 9
 9
 9
 9
 9
 9
 9
 9
 9
 9
 9
 9
 9
 9
 9
 9
 9
 9
 9
 9
 9
 9
 9
 9
 9
 9
 9
 9
 9
 9
 9
 9
 9
 9
 9
 9
 9
 9
 9
 9
 9
 9
 9
 9
 9
 9
 9
 9
 9
 9
 9
 9
 9
 9
 9
 9
 9
 9
 9
 9
 9
 9
 9
 9
 9
 9
 9
 9
 9
 9
 9
 9
 9
 9
 9
 9
 9
 9
 9
 9
 9
 9
 9
 9
 9
 9
 9
 9
 9
 9
 9
 9
 9
 9
 9
 9
 9
 9
 9
 9
 9
 9
 9
 9
 9
 9
 9
 9
 9
 9
 9
 9
 9
 9
 9
 9
 9
 9
 9
 9
 9
 9
 9
 9
 9
 9
 9
 9
 9
 9
 9
 9
 9
 9
 9
 9
 9
 9
 9
 9
 9
 9
 9
 9
 9
 9
 9
 9
 9
 9
 9
 9
 9
 9
 9
 9
 9
 9
 9
 9
 9
 9
 9
 9
 9
 9
 9
 9
 9
 9
 9
 9
 9
 9
 9
 9
 9
 9
 9
 9
 9
 9
 9
 9
 9
 9
 9
 9
 9
 9
 9
 9
 9
 9
 9
 9
 9
 9
 9
 9
 9
 9
 9
 9
 9
 9
 9
 9
 9
 9
 9
 9
 9
 9
 9
 9
 9
 9
 9
 9
 9
 9
 9
 9
 9
 9
 9
 9
 9
 9
 9
 9
 9
 9
 9
 9
 9
 9
 9
 9
 9
 9
 9
 9
 9
 9
 9
 9
 9
 9
 9
 9
 9
 9
 9
 9
 9
 9
 9
 9
 9
 9
 9
 9
 9
 9
 9
 9
 9
 9
 9
 9
 9
 9
 9
 9
 9
 9
 9
 9
 9
 9
 9
 9
 9
 9
 9
 9
 9
 9
 9
 9
 9
 9
 9
 9
 9
 9
 9
 9
 9
 9
 9
 9
 9
 9
 9
 9
 9
 9
 9
 9
 9
 9
 </DataArray>
 </Cells> 
 <PointData>
 <DataArray  type="Float64" Name="disp" NumberOfComponents="3" format="ascii">
   6.4775408041245472E-002   6.2777884844346599E-002   0.0000000000000000     
   6.8417501994932933E-002   6.8180058992759834E-002   0.0000000000000000     
   7.1765732833056456E-002   7.3769086023902017E-002   0.0000000000000000     
   7.4820100555616068E-002   7.9544965937773160E-002   0.0000000000000000     
   7.7580605162611740E-002   8.5507698734373264E-002   0.0000000000000000     
   5.9987810886568849E-002   6.1892193440835908E-002   0.0000000000000000     
   6.3026998546273305E-002   6.7301058753223203E-002   0.0000000000000000     
   6.5931491782861132E-002   7.2904032408398781E-002   0.0000000000000000     
   6.8701290596332315E-002   7.8701114406362654E-002   0.0000000000000000     
   7.1336394986686869E-002   8.4692304747114783E-002   0.0000000000000000     
   5.5245194417168575E-002   6.1053972798007068E-002   0.0000000000000000     
   5.7838916537615546E-002   6.6476809548826468E-002   0.0000000000000000     
   6.0398602126332551E-002   7.2098166455265469E-002   0.0000000000000000     
   6.2924251183319541E-002   7.7918043517324079E-002   0.0000000000000000     
   6.5415863708576549E-002   8.3936440735002310E-002   0.0000000000000000     
   5.0547558633044623E-002   6.0263222915860060E-002   0.0000000000000000     
   5.2853255968959657E-002   6.5707311379569616E-002   0.0000000000000000     
   5.5167063863470700E-002   7.1351488164502097E-002   0.0000000000000000     
   5.7488982316577744E-002   7.7195753270657488E-002   0.0000000000000000     
   5.9819011328280797E-002   8.3240106698035790E-002   0.0000000000000000     
   4.5894903534197014E-002   5.9519943794394896E-002   0.0000000000000000     
   4.8070016840305617E-002   6.4992564245452647E-002   0.0000000000000000     
   5.0236876994275585E-002   7.0663997536108622E-002   0.0000000000000000     
   5.2395483996106912E-002   7.6534243666362842E-002   0.0000000000000000     
   5.4545837845799611E-002   8.2603302636215278E-002   0.0000000000000000     
   7.7580605162611740E-002   8.5507698734373264E-002   0.0000000000000000     
   8.0173581574235930E-002   9.1646684693229535E-002   0.0000000000000000     
   8.2725364710681065E-002   9.7951324093869196E-002   0.0000000000000000     
   8.5235954571947145E-002  0.10442161693629225        0.0000000000000000     
   8.7705351158034184E-002  0.11105756322049870        0.0000000000000000     
   7.1336394986686869E-002   8.4692304747114783E-002   0.0000000000000000     
   7.3874951319898574E-002   9.0863485522175852E-002   0.0000000000000000     
   7.6355105961941228E-002   9.7200538823066465E-002   0.0000000000000000     
   7.8776858912814857E-002  0.10370346464978668        0.0000000000000000     
   8.1140210172519434E-002  0.11037226300233641        0.0000000000000000     
   6.5415863708576549E-002   8.3936440735002310E-002   0.0000000000000000     
   6.7856606439396894E-002   9.0137007786669693E-002   0.0000000000000000     
   7.0229646113073918E-002   9.6503394350695895E-002   0.0000000000000000     
   7.2534982729607636E-002  0.10303560042708086        0.0000000000000000     
   7.4772616288998034E-002  0.10973362601582463        0.0000000000000000     
   5.9819011328280797E-002   8.3240106698035790E-002   0.0000000000000000     
   6.2118546932730903E-002   8.9467251486711100E-002   0.0000000000000000     
   6.4348985164079137E-002   9.5859890676757445E-002   0.0000000000000000     
   6.6510326022325497E-002  0.10241802426817491        0.0000000000000000     
   6.8602569507469957E-002  0.10914165226096340        0.0000000000000000     
   5.4545837845799611E-002   8.2603302636215278E-002   0.0000000000000000     
   5.6660772799900616E-002   8.8854216622300003E-002   0.0000000000000000     
   5.8713123114956897E-002   9.5270027801251170E-002   0.0000000000000000     
   6.0702888790968440E-002  0.10185073617306871        0.0000000000000000     
   6.2630069827935245E-002  0.10859634173775268        0.0000000000000000     
   8.7705351158034184E-002  0.11105756322049870        0.0000000000000000     
   9.0070578639725479E-002  0.11782344702452063        0.0000000000000000     
   9.2268661187804329E-002  0.12468355242639019        0.0000000000000000     
   9.4299598802270790E-002  0.13163787942610733        0.0000000000000000     
   9.6163391483124833E-002  0.13868642802367206        0.0000000000000000     
   8.1140210172519434E-002  0.11037226300233641        0.0000000000000000     
   8.3387243084466503E-002  0.11717055258814052        0.0000000000000000     
   8.5460040992067637E-002  0.12406195211462386        0.0000000000000000     
   8.7358603895322809E-002  0.13104646158178634        0.0000000000000000     
   8.9082931794232045E-002  0.13812408098962806        0.0000000000000000     
   7.4772616288998034E-002  0.10973362601582463        0.0000000000000000     
   7.6889156975604445E-002  0.11656087237513028        0.0000000000000000     
   7.8831214973786284E-002  0.12348074076320084        0.0000000000000000     
   8.0598790283543498E-002  0.13049323118003639        0.0000000000000000     
   8.2191882904876098E-002  0.13759834362563683        0.0000000000000000     
   6.8602569507469957E-002  0.10914165226096340        0.0000000000000000     
   7.0576320313139304E-002  0.11599440638548987        0.0000000000000000     
   7.2382183132960257E-002  0.12293991837212119        0.0000000000000000     
   7.4020157966932829E-002  0.12997818822085738        0.0000000000000000     
   7.5490244815057034E-002  0.13710921593169847        0.0000000000000000     
   6.2630069827935245E-002  0.10859634173775268        0.0000000000000000     
   6.4448733097071054E-002  0.11547115461921929        0.0000000000000000     
   6.6112945469589582E-002  0.12243948494138486        0.0000000000000000     
   6.7622706945490843E-002  0.12950133270424941        0.0000000000000000     
   6.8978017524774837E-002  0.13665669790781285        0.0000000000000000     
   9.6163391483124833E-002  0.13868642802367206        0.0000000000000000     
   9.7922888630622290E-002  0.14585370168341719        0.0000000000000000     
   9.9640939645018967E-002  0.15316420386967541        0.0000000000000000     
  0.10131754452631490       0.16061793458244678        0.0000000000000000     
  0.10295270327451007       0.16821489382173122        0.0000000000000000     
   8.9082931794232045E-002  0.13812408098962806        0.0000000000000000     
   9.0706682885246831E-002  0.14531888096474072        0.0000000000000000     
   9.2303515364818733E-002  0.15265493213371603        0.0000000000000000     
   9.3873429232947725E-002  0.16013223449655406        0.0000000000000000     
   9.5416424489633833E-002  0.16775078805325480        0.0000000000000000     
   8.2191882904876098E-002  0.13759834362563683        0.0000000000000000     
   8.3688932384086812E-002  0.14481958758345004        0.0000000000000000     
   8.5168378267478376E-002  0.15218047253692368        0.0000000000000000     
   8.6630220555050749E-002  0.15968099848605780        0.0000000000000000     
   8.8074459246803946E-002  0.16732116543085238        0.0000000000000000     
   7.5490244815057034E-002  0.13710921593169847        0.0000000000000000     
   7.6869637127142260E-002  0.14435582153954513        0.0000000000000000     
   7.8235528352997907E-002  0.15174082507929831        0.0000000000000000     
   7.9587918492623935E-002  0.15926422655095793        0.0000000000000000     
   8.0926807546020413E-002  0.16692602595452405        0.0000000000000000     
   6.8978017524774837E-002  0.13665669790781285        0.0000000000000000     
   7.0248797114413120E-002  0.14392758283302612        0.0000000000000000     
   7.1504965621377273E-002  0.15133598976084001        0.0000000000000000     
   7.2746523045667311E-002  0.15888191869125451        0.0000000000000000     
   7.3973469387283247E-002  0.16656536962426965        0.0000000000000000     
  0.10295270327451007       0.16821489382173122        0.0000000000000000     
  0.10451972198293738       0.17592108990332647        0.0000000000000000     
  0.10599190674492964       0.18370253114303031        0.0000000000000000     
  0.10736925756048692       0.19155921754084262        0.0000000000000000     
  0.10865177442960919       0.19949114909676346        0.0000000000000000     
   9.5416424489633833E-002  0.16775078805325480        0.0000000000000000     
   9.6897477680789601E-002  0.17547893027396660        0.0000000000000000     
   9.8281565352327668E-002  0.18328499862883782        0.0000000000000000     
   9.9568687504247952E-002  0.19116899311786847        0.0000000000000000     
  0.10075884413655052       0.19913091374105860        0.0000000000000000     
   8.8074459246803946E-002  0.16732116543085238        0.0000000000000000     
   8.9461604692670546E-002  0.17507115996679265        0.0000000000000000     
   9.0752167242583101E-002  0.18290116868936379        0.0000000000000000     
   9.1946146896541597E-002  0.19081119159856572        0.0000000000000000     
   9.3043543654546049E-002  0.19880122869439854        0.0000000000000000     
   8.0926807546020413E-002  0.16692602595452405        0.0000000000000000     
   8.2212103018580146E-002  0.17469777898180472        0.0000000000000000     
   8.3403712415695941E-002  0.18255104132460814        0.0000000000000000     
   8.4501635737367825E-002  0.19048581298293432        0.0000000000000000     
   8.5505872983595785E-002  0.19850209395678328        0.0000000000000000     
   7.3973469387283247E-002  0.16656536962426965        0.0000000000000000     
   7.5148972658518401E-002  0.17435878731900267        0.0000000000000000     
   7.6236200871666202E-002  0.18223461653457090        0.0000000000000000     
   7.7235154026726621E-002  0.19019285727097435        0.0000000000000000     
   7.8145832123699688E-002  0.19823350952821286        0.0000000000000000     
  0.10865177442960919       0.19949114909676346        0.0000000000000000     
  0.10985107857213643       0.20750470741631391        0.0000000000000000     
  0.11097879120790866       0.21560627410501496        0.0000000000000000     
  0.11203491233692586       0.22379584916286668        0.0000000000000000     
  0.11301944195918803       0.23207343258986904        0.0000000000000000     
  0.10075884413655052       0.19913091374105860        0.0000000000000000     
  0.10186586169124920       0.20717298091809785        0.0000000000000000     
  0.10290356661035785       0.21529741506867606        0.0000000000000000     
  0.10387195889387647       0.22350421619279315        0.0000000000000000     
  0.10477103854180508       0.23179338429044918        0.0000000000000000     
   9.3043543654546049E-002  0.19880122869439854        0.0000000000000000     
   9.4058486122261142E-002  0.20687059962392623        0.0000000000000000     
   9.5005102905351607E-002  0.21501862403421287        0.0000000000000000     
   9.5883394003817388E-002  0.22324530192525849        0.0000000000000000     
   9.6693359417658525E-002  0.23155063329706299        0.0000000000000000     
   8.5505872983595785E-002  0.19850209395678328        0.0000000000000000     
   8.6428951865172299E-002  0.20659756353379899        0.0000000000000000     
   8.7283400092889887E-002  0.21476990100162541        0.0000000000000000     
   8.8069217666748592E-002  0.22301910636026254        0.0000000000000000     
   8.8786404586748358E-002  0.23134517960971043        0.0000000000000000     
   7.8145832123699688E-002  0.19823350952821286        0.0000000000000000     
   7.8977258919982640E-002  0.20635387264771615        0.0000000000000000     
   7.9738458172972773E-002  0.21455124597091368        0.0000000000000000     
   8.0429429882670073E-002  0.22282562949780541        0.0000000000000000     
   8.1050174049074553E-002  0.23117702322839143        0.0000000000000000     
  0.11301944195918803       0.23207343258986904        0.0000000000000000     
  0.11395786539329138       0.24045125249265123        0.0000000000000000     
  0.11487566795783209       0.24894153697784252        0.0000000000000000     
  0.11577284965281015       0.25754428604544288        0.0000000000000000     
  0.11664941047822558       0.26625949969545226        0.0000000000000000     
  0.10477103854180508       0.23179338429044918        0.0000000000000000     
  0.10560333444996417       0.24018519801174937        0.0000000000000000     
  0.10637137551417421       0.24869993600679893        0.0000000000000000     
  0.10707516173443524       0.25733759827559788        0.0000000000000000     
  0.10771469311074719       0.26609818481814612        0.0000000000000000     
   9.6693359417658525E-002  0.23155063329706299        0.0000000000000000     
   9.7423562072634959E-002  0.23995881985828435        0.0000000000000000     
   9.8062564894506682E-002  0.24849406331758037        0.0000000000000000     
   9.8610367883273625E-002  0.25715636367495115        0.0000000000000000     
   9.9066971038935844E-002  0.26594572093039659        0.0000000000000000     
   8.8786404586748358E-002  0.23134517960971043        0.0000000000000000     
   8.9418548261303771E-002  0.23977211803225615        0.0000000000000000     
   8.9949236098829446E-002  0.24832391891018693        0.0000000000000000     
   9.0378468099325357E-002  0.25700058224350281        0.0000000000000000     
   9.0706244262791544E-002  0.26580210803220372        0.0000000000000000     
   8.1050174049074553E-002  0.23117702322839143        0.0000000000000000     
   8.1588293015970578E-002  0.23962509253366479        0.0000000000000000     
   8.2031389127142543E-002  0.24818950278461857        0.0000000000000000     
   8.2379462382590432E-002  0.25687025398125274        0.0000000000000000     
   8.2632512782314260E-002  0.26566734612356740        0.0000000000000000     
  0.11664941047822558       0.26625949969545226        0.0000000000000000     
  0.11744691754496323       0.27525360242915370        0.0000000000000000     
  0.11810693796390796       0.28469301874782998        0.0000000000000000     
  0.11862947173505978       0.29457774865148117        0.0000000000000000     
  0.11901451885841867       0.30490779214010721        0.0000000000000000     
  0.10771469311074719       0.26609818481814612        0.0000000000000000     
  0.10827175288292078       0.27511494086690202        0.0000000000000000     
  0.10872812429076657       0.28452111165432370        0.0000000000000000     
  0.10908380733428460       0.29431669718041115        0.0000000000000000     
  0.10933880201347487       0.30450169744516442        0.0000000000000000     
   9.9066971038935844E-002  0.26594572093039659        0.0000000000000000     
   9.9443848271138557E-002  0.27496099049917827        0.0000000000000000     
   9.9752473489526997E-002  0.28430102779655764        0.0000000000000000     
   9.9992846694101148E-002  0.29396583282253480        0.0000000000000000     
  0.10016496788486104       0.30395540557710965        0.0000000000000000     
   9.0706244262791544E-002  0.26580210803220372        0.0000000000000000     
   9.0963203709616594E-002  0.27479175132598249        0.0000000000000000     
   9.1179985560189247E-002  0.28403276717453191        0.0000000000000000     
   9.1356589814509434E-002  0.29352515557785203        0.0000000000000000     
   9.1493016472577168E-002  0.30326891653594290        0.0000000000000000     
   8.2632512782314260E-002  0.26566734612356740        0.0000000000000000     
   8.2829819198354901E-002  0.27460722334731458        0.0000000000000000     
   8.3010660502753270E-002  0.28371632978824640        0.0000000000000000     
   8.3175036695509394E-002  0.29299466544636293        0.0000000000000000     
   8.3322947776623246E-002  0.30244223032166406        0.0000000000000000     
   4.5894903534197014E-002   5.9519943794394896E-002   0.0000000000000000     
   4.8070016840305617E-002   6.4992564245452647E-002   0.0000000000000000     
   5.0236876994275585E-002   7.0663997536108622E-002   0.0000000000000000     
   5.2395483996106912E-002   7.6534243666362842E-002   0.0000000000000000     
   5.4545837845799611E-002   8.2603302636215278E-002   0.0000000000000000     
   4.1362627108267595E-002   5.8833650029834567E-002   0.0000000000000000     
   4.3461336807687087E-002   6.4335422819978755E-002   0.0000000000000000     
   4.5515013146159973E-002   7.0033926775909777E-002   0.0000000000000000     
   4.7523656123686246E-002   7.5929161897627689E-002   0.0000000000000000     
   4.9487265740265921E-002   8.2021128185132436E-002   0.0000000000000000     
   3.7026127342898216E-002   5.8213856218402055E-002   0.0000000000000000     
   3.8999353527137716E-002   6.3738741776651092E-002   0.0000000000000000     
   4.0908443946536630E-002   6.9459508089730268E-002   0.0000000000000000     
   4.2753398601094936E-002   7.5376155157639554E-002   0.0000000000000000     
   4.4534217490812648E-002   8.1488682980378993E-002   0.0000000000000000     
   3.2885404238088868E-002   5.7660562360097388E-002   0.0000000000000000     
   3.4684066998657524E-002   6.3202521115469687E-002   0.0000000000000000     
   3.6417169395405569E-002   6.8940741477570053E-002   0.0000000000000000     
   3.8084711428332994E-002   7.4875223446398464E-002   0.0000000000000000     
   3.9686693097439808E-002   8.1005967021954922E-002   0.0000000000000000     
   2.8940457793839566E-002   5.7173768454920532E-002   0.0000000000000000     
   3.0515477222246491E-002   6.2726760836434539E-002   0.0000000000000000     
   3.2041189492766770E-002   6.8477626939429159E-002   0.0000000000000000     
   3.3517594605400408E-002   7.4426366763904378E-002   0.0000000000000000     
   3.4944692560147400E-002   8.0572980309860223E-002   0.0000000000000000     
   5.4545837845799611E-002   8.2603302636215278E-002   0.0000000000000000     
   5.6660772799900616E-002   8.8854216622300003E-002   0.0000000000000000     
   5.8713123114956897E-002   9.5270027801251170E-002   0.0000000000000000     
   6.0702888790968440E-002  0.10185073617306871        0.0000000000000000     
   6.2630069827935245E-002  0.10859634173775268        0.0000000000000000     
   4.9487265740265921E-002   8.2021128185132436E-002   0.0000000000000000     
   5.1401772601133364E-002   8.8293653149672482E-002   0.0000000000000000     
   5.3263107311522978E-002   9.4730564302496295E-002   0.0000000000000000     
   5.5071269871434771E-002  0.10133186164360386        0.0000000000000000     
   5.6826260280868728E-002  0.10809754517299518        0.0000000000000000     
   4.4534217490812648E-002   8.1488682980378993E-002   0.0000000000000000     
   4.6260034896656491E-002   8.7781311025064521E-002   0.0000000000000000     
   4.7939985099593206E-002   9.4238258758812130E-002   0.0000000000000000     
   4.9574068099622788E-002  0.10085952618162182        0.0000000000000000     
   5.1162283896745243E-002  0.10764511329349361        0.0000000000000000     
   3.9686693097439808E-002   8.1005967021954922E-002   0.0000000000000000     
   4.1235559686470004E-002   8.7317190248476090E-002   0.0000000000000000     
   4.2743756479167574E-002   9.3793111170198659E-002   0.0000000000000000     
   4.4211283475532506E-002  0.10043372978712263        0.0000000000000000     
   4.5638140675564820E-002  0.10723904609924796        0.0000000000000000     
   3.4944692560147400E-002   8.0572980309860223E-002   0.0000000000000000     
   3.6328346970573910E-002   8.6901290819907218E-002   0.0000000000000000     
   3.7674421450246090E-002   9.3395121536655898E-002   0.0000000000000000     
   3.8982915999163932E-002  0.10005447246010624        0.0000000000000000     
   4.0253830617327437E-002  0.10687934359025826        0.0000000000000000     
   6.2630069827935245E-002  0.10859634173775268        0.0000000000000000     
   6.4448733097071054E-002  0.11547115461921929        0.0000000000000000     
   6.6112945469589582E-002  0.12243948494138486        0.0000000000000000     
   6.7622706945490843E-002  0.12950133270424941        0.0000000000000000     
   6.8978017524774837E-002  0.13665669790781285        0.0000000000000000     
   5.6826260280868728E-002  0.10809754517299518        0.0000000000000000     
   5.8485397196534936E-002  0.11499250936395750        0.0000000000000000     
   6.0005999275143537E-002  0.12198164868977809        0.0000000000000000     
   6.1388066516694498E-002  0.12906496315045698        0.0000000000000000     
   6.2631598921187803E-002  0.13624245274599414        0.0000000000000000     
   5.1162283896745243E-002  0.10764511329349361        0.0000000000000000     
   5.2665314480666234E-002  0.11455986290734339        0.0000000000000000     
   5.4043841841091386E-002  0.12156861783608711        0.0000000000000000     
   5.5297865978020749E-002  0.12867137807972473        0.0000000000000000     
   5.6427386891454295E-002  0.13586814363825631        0.0000000000000000     
   4.5638140675564820E-002  0.10723904609924796        0.0000000000000000     
   4.6988484949464907E-002  0.11417321524937696        0.0000000000000000     
   4.8226473167433177E-002  0.12120039238031188        0.0000000000000000     
   4.9352105329469639E-002  0.12832057749205270        0.0000000000000000     
   5.0365381435574293E-002  0.13553377058459942        0.0000000000000000     
   4.0253830617327437E-002  0.10687934359025826        0.0000000000000000     
   4.1454908602930961E-002  0.11383256639005823        0.0000000000000000     
   4.2553893254168862E-002  0.12087697232245243        0.0000000000000000     
   4.3550784571041133E-002  0.12801256138744080        0.0000000000000000     
   4.4445582553547767E-002  0.13523933358502346        0.0000000000000000     
   6.8978017524774837E-002  0.13665669790781285        0.0000000000000000     
   7.0248797114413120E-002  0.14392758283302612        0.0000000000000000     
   7.1504965621377273E-002  0.15133598976084001        0.0000000000000000     
   7.2746523045667311E-002  0.15888191869125451        0.0000000000000000     
   7.3973469387283247E-002  0.16656536962426965        0.0000000000000000     
   6.2631598921187803E-002  0.13624245274599414        0.0000000000000000     
   6.3797147728952550E-002  0.14353563690674065        0.0000000000000000     
   6.4945264180317749E-002  0.15096603506304770        0.0000000000000000     
   6.6075948275283417E-002  0.15853364721491525        0.0000000000000000     
   6.7189200013849537E-002  0.16623847336234326        0.0000000000000000     
   5.6427386891454295E-002  0.13586814363825631        0.0000000000000000     
   5.7485424353813652E-002  0.14318074920353663        0.0000000000000000     
   5.8524998137520469E-002  0.15063102946742049        0.0000000000000000     
   5.9546108242574711E-002  0.15821898442990792        0.0000000000000000     
   6.0548754668976412E-002  0.16594461409099884        0.0000000000000000     
   5.0365381435574293E-002  0.13553377058459942        0.0000000000000000     
   5.1313626988996427E-002  0.14286291972341400        0.0000000000000000     
   5.2244167492985424E-002  0.15033097297395837        0.0000000000000000     
   5.3157002947541228E-002  0.15793793033623246        0.0000000000000000     
   5.4052133352663873E-002  0.16568379181023637        0.0000000000000000     
   4.4445582553547767E-002  0.13523933358502346        0.0000000000000000     
   4.5281755634500889E-002  0.14258214846637279        0.0000000000000000     
   4.6102772246712630E-002  0.15006586558266130        0.0000000000000000     
   4.6908632390182961E-002  0.15769048493388899        0.0000000000000000     
   4.7699336064911918E-002  0.16545600652005585        0.0000000000000000     
   7.3973469387283247E-002  0.16656536962426965        0.0000000000000000     
   7.5148972658518401E-002  0.17435878731900267        0.0000000000000000     
   7.6236200871666202E-002  0.18223461653457090        0.0000000000000000     
   7.7235154026726621E-002  0.19019285727097435        0.0000000000000000     
   7.8145832123699688E-002  0.19823350952821286        0.0000000000000000     
   6.7189200013849537E-002  0.16623847336234326        0.0000000000000000     
   6.8252853209925413E-002  0.17405334561275310        0.0000000000000000     
   6.9234741677420372E-002  0.18195109607356605        0.0000000000000000     
   7.0134865416334347E-002  0.18993172474478212        0.0000000000000000     
   7.0953224426667433E-002  0.19799523162640134        0.0000000000000000     
   6.0548754668976412E-002  0.16594461409099884        0.0000000000000000     
   6.1504384270241241E-002  0.17378061449742235        0.0000000000000000     
   6.2384443899884900E-002  0.18169968169590756        0.0000000000000000     
   6.3188933557907376E-002  0.18970181568645431        0.0000000000000000     
   6.3917853244308667E-002  0.19778701646906272        0.0000000000000000     
   5.4052133352663873E-002  0.16568379181023637        0.0000000000000000     
   5.4903565839465880E-002  0.17354059397301050        0.0000000000000000     
   5.5685307539059807E-002  0.18148037340159526        0.0000000000000000     
   5.6397358451445646E-002  0.18950313009599079        0.0000000000000000     
   5.7039718576623412E-002  0.19760886405619701        0.0000000000000000     
   4.7699336064911918E-002  0.16545600652005585        0.0000000000000000     
   4.8450397917599343E-002  0.17333328403951745        0.0000000000000000     
   4.9137332594945106E-002  0.18129317119062938        0.0000000000000000     
   4.9760140096949207E-002  0.18933566797339166        0.0000000000000000     
   5.0318820423611653E-002  0.19746077438780421        0.0000000000000000     
   7.8145832123699688E-002  0.19823350952821286        0.0000000000000000     
   7.8977258919982640E-002  0.20635387264771615        0.0000000000000000     
   7.9738458172972773E-002  0.21455124597091368        0.0000000000000000     
   8.0429429882670073E-002  0.22282562949780541        0.0000000000000000     
   8.1050174049074553E-002  0.23117702322839143        0.0000000000000000     
   7.0953224426667433E-002  0.19799523162640134        0.0000000000000000     
   7.1695112512307604E-002  0.20613896011049054        0.0000000000000000     
   7.2365823477142946E-002  0.21436025358911687        0.0000000000000000     
   7.2965357321173430E-002  0.22265911206228012        0.0000000000000000     
   7.3493714044399083E-002  0.23103553552998046        0.0000000000000000     
   6.3917853244308667E-002  0.19778701646906272        0.0000000000000000     
   6.4574217867762670E-002  0.20595225906693518        0.0000000000000000     
   6.5161042336943198E-002  0.21419451850327420        0.0000000000000000     
   6.5678326651850277E-002  0.22251379477807978        0.0000000000000000     
   6.6126070812483895E-002  0.23091008789135192        0.0000000000000000     
   5.7039718576623412E-002  0.19760886405619701        0.0000000000000000     
   5.7614574986347811E-002  0.20579376951704995        0.0000000000000000     
   5.8124114752373529E-002  0.21405404071338571        0.0000000000000000     
   5.8568337874700602E-002  0.22238967764520429        0.0000000000000000     
   5.8947244353328987E-002  0.23080068031250572        0.0000000000000000     
   5.0318820423611653E-002  0.19746077438780421        0.0000000000000000     
   5.0816183868063039E-002  0.20566349146083485        0.0000000000000000     
   5.1255040723433946E-002  0.21393882021945138        0.0000000000000000     
   5.1635390989724389E-002  0.22228676066365374        0.0000000000000000     
   5.1957234666934374E-002  0.23070731279344192        0.0000000000000000     
   8.1050174049074553E-002  0.23117702322839143        0.0000000000000000     
   8.1588293015970578E-002  0.23962509253366479        0.0000000000000000     
   8.2031389127142543E-002  0.24818950278461857        0.0000000000000000     
   8.2379462382590432E-002  0.25687025398125274        0.0000000000000000     
   8.2632512782314260E-002  0.26566734612356740        0.0000000000000000     
   7.3493714044399083E-002  0.23103553552998046        0.0000000000000000     
   7.3946070687754203E-002  0.23950260595310882        0.0000000000000000     
   7.4317604292173045E-002  0.24807340529255628        0.0000000000000000     
   7.4608314857655691E-002  0.25674793354832282        0.0000000000000000     
   7.4818202384202073E-002  0.26552619072040845        0.0000000000000000     
   6.6126070812483895E-002  0.23091008789135192        0.0000000000000000     
   6.6505155627773385E-002  0.23938952088118692        0.0000000000000000     
   6.6816461906648097E-002  0.24795821678568117        0.0000000000000000     
   6.7059989649107976E-002  0.25661617560483468        0.0000000000000000     
   6.7235738855153077E-002  0.26536339733864750        0.0000000000000000     
   5.8947244353328987E-002  0.23080068031250572        0.0000000000000000     
   5.9265547836028186E-002  0.23928583731789901        0.0000000000000000     
   5.9527961970567624E-002  0.24784393726399326        0.0000000000000000     
   5.9734486756947328E-002  0.25647498015078840        0.0000000000000000     
   5.9885122195167249E-002  0.26517896597828455        0.0000000000000000     
   5.1957234666934374E-002  0.23070731279344192        0.0000000000000000     
   5.2227247312518571E-002  0.23919155526324515        0.0000000000000000     
   5.2452104483931686E-002  0.24773056672749252        0.0000000000000000     
   5.2631806181173690E-002  0.25632434718618402        0.0000000000000000     
   5.2766352404244612E-002  0.26497289663931967        0.0000000000000000     
   8.2632512782314260E-002  0.26566734612356740        0.0000000000000000     
   8.2829819198354901E-002  0.27460722334731458        0.0000000000000000     
   8.3010660502753270E-002  0.28371632978824640        0.0000000000000000     
   8.3175036695509394E-002  0.29299466544636293        0.0000000000000000     
   8.3322947776623246E-002  0.30244223032166406        0.0000000000000000     
   7.4818202384202073E-002  0.26552619072040845        0.0000000000000000     
   7.4988581420156047E-002  0.27440183386848893        0.0000000000000000     
   7.5160766513861416E-002  0.28336852005223995        0.0000000000000000     
   7.5334757665318219E-002  0.29242624927166166        0.0000000000000000     
   7.5510554874526417E-002  0.30157502152675397        0.0000000000000000     
   6.7235738855153077E-002  0.26536339733864750        0.0000000000000000     
   6.7384377057822631E-002  0.27417001019481962        0.0000000000000000     
   6.7546571790155954E-002  0.28300614238105132        0.0000000000000000     
   6.7722323052153005E-002  0.29187179389734252        0.0000000000000000     
   6.7911630843813811E-002  0.30076696474369319        0.0000000000000000     
   5.9885122195167249E-002  0.26517896597828455        0.0000000000000000     
   6.0017206111354693E-002  0.27391175232630682        0.0000000000000000     
   6.0168076331636865E-002  0.28262919677468046        0.0000000000000000     
   6.0337732856013786E-002  0.29133129932340551        0.0000000000000000     
   6.0526175684485449E-002  0.30001805997248188        0.0000000000000000     
   5.2766352404244612E-002  0.26497289663931967        0.0000000000000000     
   5.2887068580752192E-002  0.27362706026295047        0.0000000000000000     
   5.3025280138304168E-002  0.28223768323312742        0.0000000000000000     
   5.3180987076900527E-002  0.29080476554985063        0.0000000000000000     
   5.3354189396541310E-002  0.29932830721311987        0.0000000000000000     
   2.8940457793839566E-002   5.7173768454920532E-002   0.0000000000000000     
   3.0515477222246491E-002   6.2726760836434539E-002   0.0000000000000000     
   3.2041189492766770E-002   6.8477626939429159E-002   0.0000000000000000     
   3.3517594605400408E-002   7.4426366763904378E-002   0.0000000000000000     
   3.4944692560147400E-002   8.0572980309860223E-002   0.0000000000000000     
   2.5116726916270163E-002   5.6743284935172181E-002   0.0000000000000000     
   2.6454736924859612E-002   6.2304376651115934E-002   0.0000000000000000     
   2.7764652488311094E-002   6.8065530756172901E-002   0.0000000000000000     
   2.9046473606624615E-002   7.4026747250343111E-002   0.0000000000000000     
   3.0300200279800165E-002   8.0188026133626522E-002   0.0000000000000000     
   2.1339650511500528E-002   5.6358922233152961E-002   0.0000000000000000     
   2.2462998833451892E-002   6.1928284271084169E-002   0.0000000000000000     
   2.3571706631729403E-002   6.7699819208666648E-002   0.0000000000000000     
   2.4665773906333059E-002   7.3673527045900397E-002   0.0000000000000000     
   2.5745200657262855E-002   7.9849407782785417E-002   0.0000000000000000     
   1.7609228579530650E-002   5.6020680348862907E-002   0.0000000000000000     
   1.8540262948023314E-002   6.1598483696339267E-002   0.0000000000000000     
   1.9462351923021676E-002   6.7380492296910385E-002   0.0000000000000000     
   2.0375495504525738E-002   7.3366706150576250E-002   0.0000000000000000     
   2.1279693692535479E-002   7.9557125257336908E-002   0.0000000000000000     
   1.3925461120360536E-002   5.5728559282301984E-002   0.0000000000000000     
   1.4686529268573899E-002   6.1314974926881212E-002   0.0000000000000000     
   1.5436588362187939E-002   6.7107550020904128E-002   0.0000000000000000     
   1.6175638401202647E-002   7.3106284564370710E-002   0.0000000000000000     
   1.6903679385618028E-002   7.9311178557280995E-002   0.0000000000000000     
   3.4944692560147400E-002   8.0572980309860223E-002   0.0000000000000000     
   3.6328346970573910E-002   8.6901290819907218E-002   0.0000000000000000     
   3.7674421450246090E-002   9.3395121536655898E-002   0.0000000000000000     
   3.8982915999163932E-002  0.10005447246010624        0.0000000000000000     
   4.0253830617327437E-002  0.10687934359025826        0.0000000000000000     
   3.0300200279800165E-002   8.0188026133626522E-002   0.0000000000000000     
   3.1522357158747003E-002   8.6532470364138636E-002   0.0000000000000000     
   3.2709468894374379E-002   9.3043182899994900E-002   0.0000000000000000     
   3.3861535486682283E-002   9.9720163741195300E-002   0.0000000000000000     
   3.4978556935670729E-002  0.10656341288773984        0.0000000000000000     
   2.5745200657262855E-002   7.9849407782785417E-002   0.0000000000000000     
   2.6801550660768107E-002   8.6209586505951091E-002   0.0000000000000000     
   2.7826387693098097E-002   9.2736188302026762E-002   0.0000000000000000     
   2.8819711754252832E-002   9.9429213171012415E-002   0.0000000000000000     
   2.9781522844232307E-002  0.10628866111290808        0.0000000000000000     
   2.1279693692535479E-002   7.9557125257336908E-002   0.0000000000000000     
   2.2165927476637218E-002   8.5932639245344555E-002   0.0000000000000000     
   2.3025177846417246E-002   9.2474137742751428E-002   0.0000000000000000     
   2.3857444801875571E-002   9.9181620749557567E-002   0.0000000000000000     
   2.4662728343012180E-002  0.10605508826576295        0.0000000000000000     
   1.6903679385618028E-002   7.9311178557280995E-002   0.0000000000000000     
   1.7615487606354337E-002   8.5701628582319042E-002   0.0000000000000000     
   1.8305839354331825E-002   9.2257031222168981E-002   0.0000000000000000     
   1.8974734629550495E-002   9.8977386476830770E-002   0.0000000000000000     
   1.9622173432010344E-002  0.10586269434630446        0.0000000000000000     
   4.0253830617327437E-002  0.10687934359025826        0.0000000000000000     
   4.1454908602930961E-002  0.11383256639005823        0.0000000000000000     
   4.2553893254168862E-002  0.12087697232245243        0.0000000000000000     
   4.3550784571041133E-002  0.12801256138744080        0.0000000000000000     
   4.4445582553547767E-002  0.13523933358502346        0.0000000000000000     
   3.4978556935670729E-002  0.10656341288773984        0.0000000000000000     
   3.6031970603823626E-002  0.11353434874318838        0.0000000000000000     
   3.6993213853624918E-002  0.12059438971110073        0.0000000000000000     
   3.7862286685074596E-002  0.12774353579147693        0.0000000000000000     
   3.8639189098172669E-002  0.13498178698431695        0.0000000000000000     
   2.9781522844232307E-002  0.10628866111290808        0.0000000000000000     
   3.0687056114902099E-002  0.11327499472256859        0.0000000000000000     
   3.1511546718127795E-002  0.12034867659484884        0.0000000000000000     
   3.2254994653909401E-002  0.12750970672974879        0.0000000000000000     
   3.2917399922246897E-002  0.13475808512726845        0.0000000000000000     
   2.4662728343012180E-002  0.10605508826576295        0.0000000000000000     
   2.5420165136166389E-002  0.11305450432819887        0.0000000000000000     
   2.6108891847677503E-002  0.12013983297369669        0.0000000000000000     
   2.6728908477545527E-002  0.12731107420225640        0.0000000000000000     
   2.7280215025770448E-002  0.13456822801387797        0.0000000000000000     
   1.9622173432010344E-002  0.10586269434630446        0.0000000000000000     
   2.0231297667616489E-002  0.11287287756007924        0.0000000000000000     
   2.0785249242274036E-002  0.11996785884764433        0.0000000000000000     
   2.1284028155982987E-002  0.12714763820899974        0.0000000000000000     
   2.1727634408743340E-002  0.13441221564414543        0.0000000000000000     
   4.4445582553547767E-002  0.13523933358502346        0.0000000000000000     
   4.5281755634500889E-002  0.14258214846637279        0.0000000000000000     
   4.6102772246712630E-002  0.15006586558266130        0.0000000000000000     
   4.6908632390182961E-002  0.15769048493388899        0.0000000000000000     
   4.7699336064911918E-002  0.16545600652005585        0.0000000000000000     
   3.8639189098172669E-002  0.13498178698431695        0.0000000000000000     
   3.9363961699440009E-002  0.14233618151177871        0.0000000000000000     
   4.0076645095397510E-002  0.14983375759602005        0.0000000000000000     
   4.0777239286045180E-002  0.15747451523704098        0.0000000000000000     
   4.1465744271383012E-002  0.16525845443484152        0.0000000000000000     
   3.2917399922246897E-002  0.13475808512726845        0.0000000000000000     
   3.3534396592926778E-002  0.14212276493899745        0.0000000000000000     
   3.4141618735735527E-002  0.14963269931652529        0.0000000000000000     
   3.4739066350673142E-002  0.15728788825985199        0.0000000000000000     
   3.5326739437739625E-002  0.16508833176897761        0.0000000000000000     
   2.7280215025770448E-002  0.13456822801387797        0.0000000000000000     
   2.7793060314961194E-002  0.14194189874802898        0.0000000000000000     
   2.8297693167726658E-002  0.14946269074417703        0.0000000000000000     
   2.8794113584066847E-002  0.15713060400232209        0.0000000000000000     
   2.9282321563981754E-002  0.16494563852246419        0.0000000000000000     
   2.1727634408743340E-002  0.13441221564414543        0.0000000000000000     
   2.2139952865543263E-002  0.14179358293887331        0.0000000000000000     
   2.2544868391370914E-002  0.14932373187897527        0.0000000000000000     
   2.2942380986226290E-002  0.15700266246445121        0.0000000000000000     
   2.3332490650109401E-002  0.16483037469530121        0.0000000000000000     
   4.7699336064911918E-002  0.16545600652005585        0.0000000000000000     
   4.8450397917599343E-002  0.17333328403951745        0.0000000000000000     
   4.9137332594945106E-002  0.18129317119062938        0.0000000000000000     
   4.9760140096949207E-002  0.18933566797339166        0.0000000000000000     
   5.0318820423611653E-002  0.19746077438780421        0.0000000000000000     
   4.1465744271383012E-002  0.16525845443484152        0.0000000000000000     
   4.2119051595214653E-002  0.17315500317617102        0.0000000000000000     
   4.2714052801343744E-002  0.18113358944777883        0.0000000000000000     
   4.3250747889770277E-002  0.18919421324966501        0.0000000000000000     
   4.3729136860494261E-002  0.19733687458182944        0.0000000000000000     
   3.5326739437739625E-002  0.16508833176897761        0.0000000000000000     
   3.5883697962884847E-002  0.17300206986219896        0.0000000000000000     
   3.6389001892058667E-002  0.18099714255781277        0.0000000000000000     
   3.6842651225261092E-002  0.18907354985581906        0.0000000000000000     
   3.7244645962492128E-002  0.19723129175621781        0.0000000000000000     
   2.9282321563981754E-002  0.16494563852246419        0.0000000000000000     
   2.9744337020609923E-002  0.17287448409760123        0.0000000000000000     
   3.0162179867089901E-002  0.18088383052073112        0.0000000000000000     
   3.0535850103421667E-002  0.18897367779185381        0.0000000000000000     
   3.0865347729605242E-002  0.19714402591096936        0.0000000000000000     
   2.3332490650109401E-002  0.16483037469530121        0.0000000000000000     
   2.3700968768389893E-002  0.17277224588237788        0.0000000000000000     
   2.4033586726437423E-002  0.18079365333653391        0.0000000000000000     
   2.4330344524252000E-002  0.18889459705776929        0.0000000000000000     
   2.4591242161833612E-002  0.19707507704608407        0.0000000000000000     
   5.0318820423611653E-002  0.19746077438780421        0.0000000000000000     
   5.0816183868063039E-002  0.20566349146083485        0.0000000000000000     
   5.1255040723433946E-002  0.21393882021945138        0.0000000000000000     
   5.1635390989724389E-002  0.22228676066365374        0.0000000000000000     
   5.1957234666934374E-002  0.23070731279344192        0.0000000000000000     
   4.3729136860494261E-002  0.19733687458182944        0.0000000000000000     
   4.4153114552066636E-002  0.20555519950774848        0.0000000000000000     
   4.4526575803038336E-002  0.21384281409089842        0.0000000000000000     
   4.4849520613409369E-002  0.22219971833127919        0.0000000000000000     
   4.5121948983179720E-002  0.23062591222889087        0.0000000000000000     
   3.7244645962492128E-002  0.19723129175621781        0.0000000000000000     
   3.7599437077516909E-002  0.20546266826724940        0.0000000000000000     
   3.7911475544100612E-002  0.21375997939715413        0.0000000000000000     
   3.8180761362243229E-002  0.22212322514593191        0.0000000000000000     
   3.8407294531944747E-002  0.23055240551358289        0.0000000000000000     
   3.0865347729605242E-002  0.19714402591096936        0.0000000000000000     
   3.1155151444413859E-002  0.20538589773933763        0.0000000000000000     
   3.1409739946620760E-002  0.21369031613821846        0.0000000000000000     
   3.1629113236225956E-002  0.22205728110761189        0.0000000000000000     
   3.1813271313229453E-002  0.23048679264751792        0.0000000000000000     
   2.4591242161833612E-002  0.19707507704608407        0.0000000000000000     
   2.4820257652757475E-002  0.20532488792401310        0.0000000000000000     
   2.5021369010598798E-002  0.21363382431409145        0.0000000000000000     
   2.5194576235357577E-002  0.22200188621631911        0.0000000000000000     
   2.5339879327033819E-002  0.23042907363069601        0.0000000000000000     
   5.1957234666934374E-002  0.23070731279344192        0.0000000000000000     
   5.2227247312518571E-002  0.23919155526324515        0.0000000000000000     
   5.2452104483931686E-002  0.24773056672749252        0.0000000000000000     
   5.2631806181173690E-002  0.25632434718618402        0.0000000000000000     
   5.2766352404244612E-002  0.26497289663931967        0.0000000000000000     
   4.5121948983179720E-002  0.23062591222889087        0.0000000000000000     
   4.5351229526932484E-002  0.23910532334010814        0.0000000000000000     
   4.5544730859250697E-002  0.24762187922130593        0.0000000000000000     
   4.5702452980134367E-002  0.25617557987248407        0.0000000000000000     
   4.5824395889583508E-002  0.26476642529364269        0.0000000000000000     
   3.8407294531944747E-002  0.23055240551358289        0.0000000000000000     
   3.8598469948957839E-002  0.23902579017137102        0.0000000000000000     
   3.8761682509035118E-002  0.24752164879056049        0.0000000000000000     
   3.8896932212176598E-002  0.25603998137115130        0.0000000000000000     
   3.9004219058382278E-002  0.26458078791314343        0.0000000000000000     
   3.1813271313229453E-002  0.23048679264751792        0.0000000000000000     
   3.1968968578594638E-002  0.23895295575703362        0.0000000000000000     
   3.2102959433284957E-002  0.24742987543525627        0.0000000000000000     
   3.2215243877300383E-002  0.25591755168218572        0.0000000000000000     
   3.2305821910640929E-002  0.26441598449782205        0.0000000000000000     
   2.5339879327033819E-002  0.23042907363069601        0.0000000000000000     
   2.5462725415842900E-002  0.23888682009709608        0.0000000000000000     
   2.5568561632000202E-002  0.24734655915539316        0.0000000000000000     
   2.5657387975505725E-002  0.25580829080558731        0.0000000000000000     
   2.5729204446359469E-002  0.26427201504767844        0.0000000000000000     
   5.2766352404244612E-002  0.26497289663931967        0.0000000000000000     
   5.2887068580752192E-002  0.27362706026295047        0.0000000000000000     
   5.3025280138304168E-002  0.28223768323312742        0.0000000000000000     
   5.3180987076900527E-002  0.29080476554985063        0.0000000000000000     
   5.3354189396541310E-002  0.29932830721311987        0.0000000000000000     
   4.5824395889583508E-002  0.26476642529364269        0.0000000000000000     
   4.5935190606809166E-002  0.27334461340073329        0.0000000000000000     
   4.6059468151022416E-002  0.28186034210970756        0.0000000000000000     
   4.6197228522223271E-002  0.29031361142056550        0.0000000000000000     
   4.6348471720411719E-002  0.29870442133330710        0.0000000000000000     
   3.9004219058382278E-002  0.26458078791314343        0.0000000000000000     
   3.9102798330319655E-002  0.27309309113563807        0.0000000000000000     
   3.9211925310656232E-002  0.28152591375773622        0.0000000000000000     
   3.9331599999392008E-002  0.28987925577943791        0.0000000000000000     
   3.9461822396526992E-002  0.29815311720074317        0.0000000000000000     
   3.2305821910640929E-002  0.26441598449782205        0.0000000000000000     
   3.2389891751283650E-002  0.27287249346766473        0.0000000000000000     
   3.2482651617205587E-002  0.28123439817721330        0.0000000000000000     
   3.2584101508406731E-002  0.28950169862646785        0.0000000000000000     
   3.2694241424887110E-002  0.29767439481542823        0.0000000000000000     
   2.5729204446359469E-002  0.26427201504767844        0.0000000000000000     
   2.5796470869701150E-002  0.27268282039681341        0.0000000000000000     
   2.5871647070670481E-002  0.28098579536813900        0.0000000000000000     
   2.5954733049267466E-002  0.28918093996165528        0.0000000000000000     
   2.6045728805492094E-002  0.29726825417736219        0.0000000000000000     
   1.3925461120360536E-002   5.5728559282301984E-002   0.0000000000000000     
   1.4686529268573899E-002   6.1314974926881212E-002   0.0000000000000000     
   1.5436588362187939E-002   6.7107550020904128E-002   0.0000000000000000     
   1.6175638401202647E-002   7.3106284564370710E-002   0.0000000000000000     
   1.6903679385618028E-002   7.9311178557280995E-002   0.0000000000000000     
   1.0317970705207524E-002   5.5506094912180247E-002   0.0000000000000000     
   1.0912380453369017E-002   6.1099713405593170E-002   0.0000000000000000     
   1.1491377256601449E-002   6.6900348135387450E-002   0.0000000000000000     
   1.2054961114904818E-002   7.2907999101563051E-002   0.0000000000000000     
   1.2603132028279123E-002   7.9122666304119987E-002   0.0000000000000000     
   6.8163799052889506E-003   5.5376823117207687E-002   0.0000000000000000     
   7.2283991606740469E-003   6.0974654575358313E-002   0.0000000000000000     
   7.6236799136354854E-003   6.6778242395099940E-002   0.0000000000000000     
   8.0022221641732668E-003   7.2787586576432570E-002   0.0000000000000000     
   8.3640259122873886E-003   7.9002687119356249E-002   0.0000000000000000     
   3.4206887206048153E-003   5.5340743897384331E-002   0.0000000000000000     
   3.6345853904889910E-003   6.0939798436176633E-002   0.0000000000000000     
   3.8334963332900514E-003   6.6741232800041628E-002   0.0000000000000000     
   4.0174215490079929E-003   7.2745046988979337E-002   0.0000000000000000     
   4.1863610376428198E-003   7.8951241002989739E-002   0.0000000000000000     
   1.3089715115511798E-004   5.5397857252710160E-002   0.0000000000000000     
   1.3093914281384999E-004   6.0995144988048124E-002   0.0000000000000000     
   1.2082651556514460E-004   6.6789319350212498E-002   0.0000000000000000     
   1.0055926940900041E-004   7.2780380339203296E-002   0.0000000000000000     
   7.0137404345418540E-005   7.8968327955020484E-002   0.0000000000000000     
   1.6903679385618028E-002   7.9311178557280995E-002   0.0000000000000000     
   1.7615487606354337E-002   8.5701628582319042E-002   0.0000000000000000     
   1.8305839354331825E-002   9.2257031222168981E-002   0.0000000000000000     
   1.8974734629550495E-002   9.8977386476830770E-002   0.0000000000000000     
   1.9622173432010344E-002  0.10586269434630446        0.0000000000000000     
   1.2603132028279123E-002   7.9122666304119987E-002   0.0000000000000000     
   1.3136129335972526E-002   8.5523231930317994E-002   0.0000000000000000     
   1.3654192377233171E-002   9.2088578167416765E-002   0.0000000000000000     
   1.4157321152061066E-002   9.8818705015416342E-002   0.0000000000000000     
   1.4645515660456208E-002  0.10571361247431671        0.0000000000000000     
   8.3640259122873886E-003   7.9002687119356249E-002   0.0000000000000000     
   8.7137509515448439E-003   8.5404126702784813E-002   0.0000000000000000     
   9.0560570755126267E-003   9.1972488005632277E-002   0.0000000000000000     
   9.3909442841907317E-003   9.8707771027898572E-002   0.0000000000000000     
   9.7184125775791625E-003  0.10560997576958375        0.0000000000000000     
   4.1863610376428198E-003   7.8951241002989739E-002   0.0000000000000000     
   4.3483524530712955E-003   8.5344312899719554E-002   0.0000000000000000     
   4.5114334491701867E-003   9.1908760736815448E-002   0.0000000000000000     
   4.6756040259394909E-003   9.8644584514277475E-002   0.0000000000000000     
   4.8408641833792140E-003  0.10555178423210562        0.0000000000000000     
   7.0137404345418540E-005   7.8968327955020484E-002   0.0000000000000000     
   3.9933840551876609E-005   8.5343790521122148E-002   0.0000000000000000     
   2.0321498205853265E-005   9.1897396360966332E-002   0.0000000000000000     
   1.1300377307348278E-005   9.8629145474553037E-002   0.0000000000000000     
   1.2870477856359846E-005  0.10553903786188226        0.0000000000000000     
   1.9622173432010344E-002  0.10586269434630446        0.0000000000000000     
   2.0231297667616489E-002  0.11287287756007924        0.0000000000000000     
   2.0785249242274036E-002  0.11996785884764433        0.0000000000000000     
   2.1284028155982987E-002  0.12714763820899974        0.0000000000000000     
   2.1727634408743340E-002  0.13441221564414543        0.0000000000000000     
   1.4645515660456208E-002  0.10571361247431671        0.0000000000000000     
   1.5105614491313046E-002  0.11273276926985518        0.0000000000000000     
   1.5524456233526033E-002  0.11983564412776905        0.0000000000000000     
   1.5902040887095171E-002  0.12702223704805840        0.0000000000000000     
   1.6238368452020459E-002  0.13429254803072316        0.0000000000000000     
   9.7184125775791625E-003  0.10560997576958375        0.0000000000000000     
   1.0028276389316701E-002  0.11263683430917217        0.0000000000000000     
   1.0310350153042141E-002  0.11974607872514823        0.0000000000000000     
   1.0564633868755471E-002  0.12693770901751195        0.0000000000000000     
   1.0791127536456698E-002  0.13421172518626329        0.0000000000000000     
   4.8408641833792140E-003  0.10555178423210562        0.0000000000000000     
   4.9992833616274643E-003  0.11258507267803027        0.0000000000000000     
   5.1429310008223551E-003  0.11969916263978184        0.0000000000000000     
   5.2718071009638873E-003  0.12689405411736035        0.0000000000000000     
   5.3859116620520609E-003  0.13416974711076582        0.0000000000000000     
   1.2870477856359846E-005  0.10553903786188226        0.0000000000000000     
   1.8635408245324617E-005  0.11257748437642942        0.0000000000000000     
   2.2198776866678375E-005  0.11969489587166988        0.0000000000000000     
   2.3560583720418191E-005  0.12689127234760367        0.0000000000000000     
   2.2720828806547209E-005  0.13416661380423073        0.0000000000000000     
   2.1727634408743340E-002  0.13441221564414543        0.0000000000000000     
   2.2139952865543263E-002  0.14179358293887331        0.0000000000000000     
   2.2544868391370914E-002  0.14932373187897527        0.0000000000000000     
   2.2942380986226290E-002  0.15700266246445121        0.0000000000000000     
   2.3332490650109401E-002  0.16483037469530121        0.0000000000000000     
   1.6238368452020459E-002  0.13429254803072316        0.0000000000000000     
   1.6550752972911968E-002  0.14167977785845731        0.0000000000000000     
   1.6856508494379772E-002  0.14921712731395489        0.0000000000000000     
   1.7155635016423879E-002  0.15690459639721585        0.0000000000000000     
   1.7448132539044280E-002  0.16474218510824024        0.0000000000000000     
   1.0791127536456698E-002  0.13421172518626329        0.0000000000000000     
   1.1001139365306289E-002  0.14160244385370774        0.0000000000000000     
   1.1205977564464726E-002  0.14914418164215085        0.0000000000000000     
   1.1405642133932000E-002  0.15683693855159253        0.0000000000000000     
   1.1600133073708115E-002  0.16468071458203290        0.0000000000000000     
   5.3859116620520609E-003  0.13416974711076582        0.0000000000000000     
   5.4911120427262343E-003  0.14156158092462454        0.0000000000000000     
   5.5932756016257639E-003  0.14910489486356307        0.0000000000000000     
   5.6924023387506543E-003  0.15679968892758128        0.0000000000000000     
   5.7884922541009028E-003  0.16464596311667923        0.0000000000000000     
   2.2720828806547209E-005  0.13416661380423073        0.0000000000000000     
   2.0671005171794951E-005  0.14155718907120782        0.0000000000000000     
   1.8402605862894946E-005  0.14909926697819159        0.0000000000000000     
   1.5915630879844404E-005  0.15679284752518199        0.0000000000000000     
   1.3210080222645845E-005  0.16463793071217914        0.0000000000000000     
   2.3332490650109401E-002  0.16483037469530121        0.0000000000000000     
   2.3700968768389893E-002  0.17277224588237788        0.0000000000000000     
   2.4033586726437423E-002  0.18079365333653391        0.0000000000000000     
   2.4330344524252000E-002  0.18889459705776929        0.0000000000000000     
   2.4591242161833612E-002  0.19707507704608407        0.0000000000000000     
   1.7448132539044280E-002  0.16474218510824024        0.0000000000000000     
   1.7723795045064057E-002  0.17269420849984810        0.0000000000000000     
   1.7972416517306286E-002  0.18072498162485975        0.0000000000000000     
   1.8193996955770973E-002  0.18883450448327507        0.0000000000000000     
   1.8388536360458119E-002  0.19702277707509411        0.0000000000000000     
   1.1600133073708115E-002  0.16468071458203290        0.0000000000000000     
   1.1783017689471736E-002  0.17263922523333131        0.0000000000000000     
   1.1947863286901532E-002  0.18067618600534729        0.0000000000000000     
   1.2094669865997502E-002  0.18879159689808078        0.0000000000000000     
   1.2223437426759645E-002  0.19698545791153177        0.0000000000000000     
   5.7884922541009028E-003  0.16464596311667923        0.0000000000000000     
   5.8786367016129279E-003  0.17260729608282740        0.0000000000000000     
   5.9599270352231519E-003  0.18064726647799642        0.0000000000000000     
   6.0323632549315730E-003  0.18876587430218636        0.0000000000000000     
   6.0959453607381938E-003  0.19696311955539711        0.0000000000000000     
   1.3210080222645845E-005  0.16463793071217914        0.0000000000000000     
   1.0652081487636401E-005  0.17259842104833642        0.0000000000000000     
   8.6077622711507084E-006  0.18063822304280736        0.0000000000000000     
   7.0771225731934573E-006  0.18875733669559186        0.0000000000000000     
   6.0601623937616388E-006  0.19695576200669004        0.0000000000000000     
   2.4591242161833612E-002  0.19707507704608407        0.0000000000000000     
   2.4820257652757475E-002  0.20532488792401310        0.0000000000000000     
   2.5021369010598798E-002  0.21363382431409145        0.0000000000000000     
   2.5194576235357577E-002  0.22200188621631911        0.0000000000000000     
   2.5339879327033819E-002  0.23042907363069601        0.0000000000000000     
   1.8388536360458119E-002  0.19702277707509411        0.0000000000000000     
   1.8559176952026978E-002  0.20527847024923113        0.0000000000000000     
   1.8709060951136811E-002  0.21359025485460043        0.0000000000000000     
   1.8838188357787625E-002  0.22195813089120198        0.0000000000000000     
   1.8946559171979422E-002  0.23038209835903575        0.0000000000000000     
   1.2223437426759645E-002  0.19698545791153177        0.0000000000000000     
   1.2336330591701581E-002  0.20524547614294689        0.0000000000000000     
   1.2435513983336921E-002  0.21355935868957263        0.0000000000000000     
   1.2520987601665669E-002  0.22192710555140893        0.0000000000000000     
   1.2592751446687821E-002  0.23034871672845586        0.0000000000000000     
   6.0959453607381938E-003  0.19696311955539711        0.0000000000000000     
   6.1517185717812834E-003  0.20522590560516046        0.0000000000000000     
   6.2007281071991185E-003  0.21354113581900808        0.0000000000000000     
   6.2429739669916965E-003  0.22190881019694003        0.0000000000000000     
   6.2784561511590184E-003  0.23032892873895625        0.0000000000000000     
   6.0601623937616388E-006  0.19695576200669004        0.0000000000000000     
   5.3408922660884341E-006  0.20521975863587172        0.0000000000000000     
   4.7033227234047478E-006  0.21353558624290675        0.0000000000000000     
   4.1474537657129379E-006  0.22190324482779514        0.0000000000000000     
   3.6732853930104836E-006  0.23032273439053691        0.0000000000000000     
   2.5339879327033819E-002  0.23042907363069601        0.0000000000000000     
   2.5462725415842900E-002  0.23888682009709608        0.0000000000000000     
   2.5568561632000202E-002  0.24734655915539316        0.0000000000000000     
   2.5657387975505725E-002  0.25580829080558731        0.0000000000000000     
   2.5729204446359469E-002  0.26427201504767844        0.0000000000000000     
   1.8946559171979422E-002  0.23038209835903575        0.0000000000000000     
   1.9038049723679208E-002  0.23883192580610421        0.0000000000000000     
   1.9116536342853999E-002  0.24727738178040981        0.0000000000000000     
   1.9182019029503797E-002  0.25571846628195238        0.0000000000000000     
   1.9234497783628606E-002  0.26415517931073212        0.0000000000000000     
   1.2592751446687821E-002  0.23034871672845586        0.0000000000000000     
   1.2653250765080164E-002  0.23879281549860421        0.0000000000000000     
   1.2704930803519483E-002  0.24722802513974473        0.0000000000000000     
   1.2747791562005777E-002  0.25565434565187756        0.0000000000000000     
   1.2781833040539044E-002  0.26407177703500256        0.0000000000000000     
   6.2784561511590184E-003  0.23032892873895625        0.0000000000000000     
   6.3083285400457739E-003  0.23876948917459589        0.0000000000000000     
   6.3337450139966554E-003  0.24719848923339804        0.0000000000000000     
   6.3547055730116602E-003  0.25561592891536267        0.0000000000000000     
   6.3712102170907911E-003  0.26402180822048987        0.0000000000000000     
   3.6732853930104836E-006  0.23032273439053691        0.0000000000000000     
   3.2830485760331450E-006  0.23876194683407936        0.0000000000000000     
   2.9789742855127789E-006  0.24718877406136963        0.0000000000000000     
   2.7610625214490600E-006  0.25560321607240788        0.0000000000000000     
   2.6293132838425305E-006  0.26400527286719394        0.0000000000000000     
   2.5729204446359469E-002  0.26427201504767844        0.0000000000000000     
   2.5796470869701150E-002  0.27268282039681341        0.0000000000000000     
   2.5871647070670481E-002  0.28098579536813900        0.0000000000000000     
   2.5954733049267466E-002  0.28918093996165528        0.0000000000000000     
   2.6045728805492094E-002  0.29726825417736219        0.0000000000000000     
   1.9234497783628606E-002  0.26415517931073212        0.0000000000000000     
   1.9284091453882903E-002  0.27253041872431405        0.0000000000000000     
   1.9340918888921175E-002  0.28078708238026351        0.0000000000000000     
   1.9404980088743425E-002  0.28892517027858050        0.0000000000000000     
   1.9476275053349645E-002  0.29694468241926492        0.0000000000000000     
   1.2781833040539044E-002  0.26407177703500256        0.0000000000000000     
   1.2814309272139640E-002  0.27242163525139679        0.0000000000000000     
   1.2852474289827913E-002  0.28064523626333715        0.0000000000000000     
   1.2896328093603865E-002  0.28874258007082354        0.0000000000000000     
   1.2945870683467493E-002  0.29671366667385624        0.0000000000000000     
   6.3712102170907911E-003  0.26402180822048987        0.0000000000000000     
   6.3871243244713631E-003  0.27235646997806157        0.0000000000000000     
   6.4063132733906923E-003  0.28056025701735982        0.0000000000000000     
   6.4287770638487814E-003  0.28863316933838479        0.0000000000000000     
   6.4545156958456286E-003  0.29657520694113620        0.0000000000000000     
   2.6293132838425305E-006  0.26400527286719394        0.0000000000000000     
   2.5366108780721167E-006  0.27233492290430839        0.0000000000000000     
   2.4358396095184795E-006  0.28053214464233173        0.0000000000000000     
   2.3269994781803180E-006  0.28859693808126385        0.0000000000000000     
   2.2100904840558974E-006  0.29652930322110477        0.0000000000000000     
   1.3089715115511798E-004   5.5397857252710160E-002   0.0000000000000000     
   1.3093914281384999E-004   6.0995144988048124E-002   0.0000000000000000     
   1.2082651556514460E-004   6.6789319350212498E-002   0.0000000000000000     
   1.0055926940900041E-004   7.2780380339203296E-002   0.0000000000000000     
   7.0137404345418540E-005   7.8968327955020484E-002   0.0000000000000000     
  -3.1765193128834232E-003   5.5502684226352447E-002   0.0000000000000000     
  -3.3903310874841639E-003   6.1096644932592731E-002   0.0000000000000000     
  -3.6080315094343830E-003   6.6882829698077947E-002   0.0000000000000000     
  -3.8296205787340825E-003   7.2861238522808083E-002   0.0000000000000000     
  -4.0550982953832596E-003   7.9031871406783194E-002   0.0000000000000000     
  -6.6250851813340937E-003   5.5609745861478453E-002   0.0000000000000000     
  -7.0370168055378379E-003   6.1200248971430345E-002   0.0000000000000000     
  -7.4467797116036811E-003   6.6982091496103319E-002   0.0000000000000000     
  -7.8543738995316241E-003   7.2955273435497375E-002   0.0000000000000000     
  -8.2597993693216635E-003   7.9119794789612549E-002   0.0000000000000000     
  -1.0214800454196891E-002   5.5719042158088171E-002   0.0000000000000000     
  -1.0809118011347174E-002   6.1305957104560986E-002   0.0000000000000000     
  -1.1395418090942753E-002   6.7087104744288653E-002   0.0000000000000000     
  -1.1973700692983624E-002   7.3062485077271186E-002   0.0000000000000000     
  -1.2543965817469790E-002   7.9232098103508564E-002   0.0000000000000000     
  -1.3945665131471816E-002   5.5830573116181621E-002   0.0000000000000000     
  -1.4706634704912168E-002   6.1413769331984655E-002   0.0000000000000000     
  -1.5453946647451592E-002   6.7197869442633937E-002   0.0000000000000000     
  -1.6187600959090085E-002   7.3182873448129460E-002   0.0000000000000000     
  -1.6907597639827646E-002   7.9368781348471210E-002   0.0000000000000000     
   7.0137404345418540E-005   7.8968327955020484E-002   0.0000000000000000     
   3.9933840551876609E-005   8.5343790521122148E-002   0.0000000000000000     
   2.0321498205853265E-005   9.1897396360966332E-002   0.0000000000000000     
   1.1300377307348278E-005   9.8629145474553037E-002   0.0000000000000000     
   1.2870477856359846E-005  0.10553903786188226        0.0000000000000000     
  -4.0550982953832596E-003   7.9031871406783194E-002   0.0000000000000000     
  -4.2732349628914479E-003   8.5390425232229311E-002   0.0000000000000000     
  -4.4728008847681779E-003   9.1932596881372591E-002   0.0000000000000000     
  -4.6537960610134477E-003   9.8658386354213021E-002   0.0000000000000000     
  -4.8162204916272575E-003  0.10556779365075059        0.0000000000000000     
  -8.2597993693216635E-003   7.9119794789612549E-002   0.0000000000000000     
  -8.6528840341367208E-003   8.5472082698277718E-002   0.0000000000000000     
  -9.0234558071397106E-003   9.2008564301321941E-002   0.0000000000000000     
  -9.3715146883306382E-003   9.8729239598745161E-002   0.0000000000000000     
  -9.6970606777095000E-003  0.10563410859054741        0.0000000000000000     
  -1.2543965817469790E-002   7.9232098103508564E-002   0.0000000000000000     
  -1.3099013373183940E-002   8.5588762919267425E-002   0.0000000000000000     
  -1.3631643268908750E-002   9.2125298620814394E-002   0.0000000000000000     
  -1.4141855504644226E-002   9.8841705208149486E-002   0.0000000000000000     
  -1.4629650080390364E-002  0.10573798268127270        0.0000000000000000     
  -1.6907597639827646E-002   7.9368781348471210E-002   0.0000000000000000     
  -1.7611622980033104E-002   8.5740465895198334E-002   0.0000000000000000     
  -1.8297363270075293E-002   9.2282799839849924E-002   0.0000000000000000     
  -1.8964818509954209E-002   9.8995783182425981E-002   0.0000000000000000     
  -1.9613988699669852E-002  0.10587941592292649        0.0000000000000000     
   1.2870477856359846E-005  0.10553903786188226        0.0000000000000000     
   1.8635408245324617E-005  0.11257748437642942        0.0000000000000000     
   2.2198776866678375E-005  0.11969489587166988        0.0000000000000000     
   2.3560583720418191E-005  0.12689127234760367        0.0000000000000000     
   2.2720828806547209E-005  0.13416661380423073        0.0000000000000000     
  -4.8162204916272575E-003  0.10556779365075059        0.0000000000000000     
  -4.9640073786285620E-003  0.11260791592715867        0.0000000000000000     
  -5.1010899240363089E-003  0.11972585033961058        0.0000000000000000     
  -5.2274681278505000E-003  0.12692159688810639        0.0000000000000000     
  -5.3431419900711354E-003  0.13419515557264605        0.0000000000000000     
  -9.6970606777095000E-003  0.10563410859054741        0.0000000000000000     
  -9.9989849067930441E-003  0.11267021385300696        0.0000000000000000     
  -1.0276178507098022E-002  0.11978459796240223        0.0000000000000000     
  -1.0528641478624439E-002  0.12697726091873313        0.0000000000000000     
  -1.0756373821372282E-002  0.13424820272199975        0.0000000000000000     
  -1.4629650080390364E-002  0.10573798268127270        0.0000000000000000     
  -1.5086297176248126E-002  0.11276437815397435        0.0000000000000000     
  -1.5503066972318468E-002  0.11987113874004475        0.0000000000000000     
  -1.5879959468601396E-002  0.12705826443948390        0.0000000000000000     
  -1.6216974665096896E-002  0.13432575525229176        0.0000000000000000     
  -1.9613988699669852E-002  0.10587941592292649        0.0000000000000000     
  -2.0225944186993805E-002  0.11289040883006080        0.0000000000000000     
  -2.0781755319697642E-002  0.11998547267253819        0.0000000000000000     
  -2.1281422097781368E-002  0.12716460745035865        0.0000000000000000     
  -2.1724944521244970E-002  0.13442781316352220        0.0000000000000000     
   2.2720828806547209E-005  0.13416661380423073        0.0000000000000000     
   2.0671005171794951E-005  0.14155718907120782        0.0000000000000000     
   1.8402605862894946E-005  0.14909926697819159        0.0000000000000000     
   1.5915630879844404E-005  0.15679284752518199        0.0000000000000000     
   1.3210080222645845E-005  0.16463793071217914        0.0000000000000000     
  -5.3431419900711354E-003  0.13419515557264605        0.0000000000000000     
  -5.4521480325140041E-003  0.14158320733498334        0.0000000000000000     
  -5.5585227769948953E-003  0.14912243311687190        0.0000000000000000     
  -5.6622662235138064E-003  0.15681283291831180        0.0000000000000000     
  -5.7633783720707401E-003  0.16465440673930304        0.0000000000000000     
  -1.0756373821372282E-002  0.13424820272199975        0.0000000000000000     
  -1.0969309355488146E-002  0.14163357475747693        0.0000000000000000     
  -1.1177381901118612E-002  0.14916952841043957        0.0000000000000000     
  -1.1380591458263679E-002  0.15685606368088761        0.0000000000000000     
  -1.1578938026923346E-002  0.16469318056882118        0.0000000000000000     
  -1.6216974665096896E-002  0.13432575525229176        0.0000000000000000     
  -1.6530812963750630E-002  0.14170829133868862        0.0000000000000000     
  -1.6838174766508261E-002  0.14924055285889454        0.0000000000000000     
  -1.7139060073369766E-002  0.15692253981290955        0.0000000000000000     
  -1.7433468884335172E-002  0.16475425220073356        0.0000000000000000     
  -2.1724944521244970E-002  0.13442781316352220        0.0000000000000000     
  -2.2136658857301459E-002  0.14180735707861841        0.0000000000000000     
  -2.2540901373163832E-002  0.14933550646223681        0.0000000000000000     
  -2.2937672068832078E-002  0.15701226131437743        0.0000000000000000     
  -2.3326970944306205E-002  0.16483762163504029        0.0000000000000000     
   1.3210080222645845E-005  0.16463793071217914        0.0000000000000000     
   1.0652081487636401E-005  0.17259842104833642        0.0000000000000000     
   8.6077622711507084E-006  0.18063822304280736        0.0000000000000000     
   7.0771225731934573E-006  0.18875733669559186        0.0000000000000000     
   6.0601623937616388E-006  0.19695576200669004        0.0000000000000000     
  -5.7633783720707401E-003  0.16465440673930304        0.0000000000000000     
  -5.8582773997131014E-003  0.17261159460106207        0.0000000000000000     
  -5.9433814834882852E-003  0.18064883652480543        0.0000000000000000     
  -6.0186906233962965E-003  0.18876613251053312        0.0000000000000000     
  -6.0842048194371355E-003  0.19696348255824508        0.0000000000000000     
  -1.1578938026923346E-002  0.16469318056882118        0.0000000000000000     
  -1.1765492970798239E-002  0.17264581121220812        0.0000000000000000     
  -1.1933327653588972E-002  0.18067888774901633        0.0000000000000000     
  -1.2082442075295553E-002  0.18879241017924592        0.0000000000000000     
  -1.2212836235917983E-002  0.19698637850289677        0.0000000000000000     
  -1.7433468884335172E-002  0.16475425220073356        0.0000000000000000     
  -1.7710994631767774E-002  0.17270107088177450        0.0000000000000000     
  -1.7961230748030910E-002  0.18072837671544009        0.0000000000000000     
  -1.8184177233124578E-002  0.18883616970173026        0.0000000000000000     
  -1.8379834087048779E-002  0.19702444984064504        0.0000000000000000     
  -2.3326970944306205E-002  0.16483762163504029        0.0000000000000000     
  -2.3694782382621717E-002  0.17277737360976134        0.0000000000000000     
  -2.4027090766814099E-002  0.18079730342407663        0.0000000000000000     
  -2.4323896096883370E-002  0.18889741107798616        0.0000000000000000     
  -2.4585198372829523E-002  0.19707769657148994        0.0000000000000000     
   6.0601623937616388E-006  0.19695576200669004        0.0000000000000000     
   5.3408922660884341E-006  0.20521975863587172        0.0000000000000000     
   4.7033227234047478E-006  0.21353558624290675        0.0000000000000000     
   4.1474537657129379E-006  0.22190324482779514        0.0000000000000000     
   3.6732853930104836E-006  0.23032273439053691        0.0000000000000000     
  -6.0842048194371355E-003  0.19696348255824508        0.0000000000000000     
  -6.1413596598612662E-003  0.20522692059349723        0.0000000000000000     
  -6.1915907329191553E-003  0.21354248054184552        0.0000000000000000     
  -6.2348980386108012E-003  0.22191016240328981        0.0000000000000000     
  -6.2712815769362055E-003  0.23032996617783016        0.0000000000000000     
  -1.2212836235917983E-002  0.19698637850289677        0.0000000000000000     
  -1.2326940297618034E-002  0.20524727683645363        0.0000000000000000     
  -1.2427184422557495E-002  0.21356158929640112        0.0000000000000000     
  -1.2513568610736365E-002  0.22192931588273926        0.0000000000000000     
  -1.2586092862154645E-002  0.23035045659546802        0.0000000000000000     
  -1.8379834087048779E-002  0.19702444984064504        0.0000000000000000     
  -1.8551401021004218E-002  0.20528082736474074        0.0000000000000000     
  -1.8702077746191627E-002  0.21359291250657356        0.0000000000000000     
  -1.8831864262610982E-002  0.22196070526614353        0.0000000000000000     
  -1.8940760570262300E-002  0.23038420564345063        0.0000000000000000     
  -2.4585198372829523E-002  0.19707769657148994        0.0000000000000000     
  -2.4814741830019825E-002  0.20532757217835862        0.0000000000000000     
  -2.5016270703821529E-002  0.21363645017236285        0.0000000000000000     
  -2.5189784994234646E-002  0.22200433055350260        0.0000000000000000     
  -2.5335284701259172E-002  0.23043121332177791        0.0000000000000000     
   3.6732853930104836E-006  0.23032273439053691        0.0000000000000000     
   3.2830485760331450E-006  0.23876194683407936        0.0000000000000000     
   2.9789742855127789E-006  0.24718877406136963        0.0000000000000000     
   2.7610625214490600E-006  0.25560321607240788        0.0000000000000000     
   2.6293132838425305E-006  0.26400527286719394        0.0000000000000000     
  -6.2712815769362055E-003  0.23032996617783016        0.0000000000000000     
  -6.3018949254922399E-003  0.23877012821152585        0.0000000000000000     
  -6.3278916618757725E-003  0.24719888485043640        0.0000000000000000     
  -6.3492717860868034E-003  0.25561623609456169        0.0000000000000000     
  -6.3660352981253290E-003  0.26402218194390165        0.0000000000000000     
  -1.2586092862154645E-002  0.23035045659546802        0.0000000000000000     
  -1.2647214598322231E-002  0.23879397304140687        0.0000000000000000     
  -1.2699391240749027E-002  0.24722882682737510        0.0000000000000000     
  -1.2742622789435037E-002  0.25565501795337275        0.0000000000000000     
  -1.2776909244380255E-002  0.26407254641939981        0.0000000000000000     
  -1.8940760570262300E-002  0.23038420564345063        0.0000000000000000     
  -1.9032675969913936E-002  0.23883348132372223        0.0000000000000000     
  -1.9111519762334255E-002  0.24727859999218577        0.0000000000000000     
  -1.9177291947523246E-002  0.25571956164884124        0.0000000000000000     
  -1.9229992525480931E-002  0.26415636629368844        0.0000000000000000     
  -2.5335284701259172E-002  0.23043121332177791        0.0000000000000000     
  -2.5458279040267359E-002  0.23888865305847209        0.0000000000000000     
  -2.5564277226631450E-002  0.24734820434486840        0.0000000000000000     
  -2.5653279260351457E-002  0.25580986718096688        0.0000000000000000     
  -2.5725285141427360E-002  0.26427364156676758        0.0000000000000000     
   2.6293132838425305E-006  0.26400527286719394        0.0000000000000000     
   2.5366108780721167E-006  0.27233492290430839        0.0000000000000000     
   2.4358396095184795E-006  0.28053214464233173        0.0000000000000000     
   2.3269994781803180E-006  0.28859693808126385        0.0000000000000000     
   2.2100904840558974E-006  0.29652930322110477        0.0000000000000000     
  -6.3660352981253290E-003  0.26402218194390165        0.0000000000000000     
  -6.3821348741826709E-003  0.27235697415009702        0.0000000000000000     
  -6.4015231904501445E-003  0.28056086446478828        0.0000000000000000     
  -6.4242002469277488E-003  0.28863385288797549        0.0000000000000000     
  -6.4501660436154821E-003  0.29657593941965860        0.0000000000000000     
  -1.2776909244380255E-002  0.26407254641939981        0.0000000000000000     
  -1.2809571136253309E-002  0.27242260383538713        0.0000000000000000     
  -1.2847928995722827E-002  0.28064638181126522        0.0000000000000000     
  -1.2891982822788802E-002  0.28874388034703435        0.0000000000000000     
  -1.2941732617451244E-002  0.29671509944269442        0.0000000000000000     
  -1.9229992525480931E-002  0.26415636629368844        0.0000000000000000     
  -1.9279772175333838E-002  0.27253181196017867        0.0000000000000000     
  -1.9336781576208526E-002  0.28078869668176265        0.0000000000000000     
  -1.9401020728104984E-002  0.28892702045844049        0.0000000000000000     
  -1.9472489631023222E-002  0.29694678329021212        0.0000000000000000     
  -2.5725285141427360E-002  0.26427364156676758        0.0000000000000000     
  -2.5792737991424265E-002  0.27268459852447163        0.0000000000000000     
  -2.5868080931907244E-002  0.28098780907628040        0.0000000000000000     
  -2.5951313962876296E-002  0.28918327322219373        0.0000000000000000     
  -2.6042437084331425E-002  0.29727099096221188        0.0000000000000000     
  -1.3945665131471816E-002   5.5830573116181621E-002   0.0000000000000000     
  -1.4706634704912168E-002   6.1413769331984655E-002   0.0000000000000000     
  -1.5453946647451592E-002   6.7197869442633937E-002   0.0000000000000000     
  -1.6187600959090085E-002   7.3182873448129460E-002   0.0000000000000000     
  -1.6907597639827646E-002   7.9368781348471210E-002   0.0000000000000000     
  -1.7740809732998328E-002   5.5994951200566967E-002   0.0000000000000000     
  -1.8671729925794901E-002   6.1573299196636511E-002   0.0000000000000000     
  -1.9582121660115605E-002   6.7359145874821419E-002   0.0000000000000000     
  -2.0471984935960443E-002   7.3352491235121678E-002   0.0000000000000000     
  -2.1341319753329410E-002   7.9553335277537315E-002   0.0000000000000000     
  -2.1523364778615894E-002   5.6262788876052405E-002   0.0000000000000000     
  -2.2646566713557442E-002   6.1834160241451656E-002   0.0000000000000000     
  -2.3739699407920190E-002   6.7615694324533293E-002   0.0000000000000000     
  -2.4802762861704138E-002   7.3607391125297267E-002   0.0000000000000000     
  -2.5835757074909278E-002   7.9809250643743626E-002   0.0000000000000000     
  -2.5293330268324504E-002   5.6634086142637936E-002   0.0000000000000000     
  -2.6631145068199798E-002   6.2196352466430134E-002   0.0000000000000000     
  -2.7926679890865353E-002   6.7967514791769559E-002   0.0000000000000000     
  -2.9179934736321172E-002   7.3947573118656240E-002   0.0000000000000000     
  -3.0390909604567248E-002   8.0136527447090156E-002   0.0000000000000000     
  -2.9050706202124164E-002   5.7108843000323553E-002   0.0000000000000000     
  -3.0625464989721959E-002   6.2659875871571916E-002   0.0000000000000000     
  -3.2143063108951084E-002   6.8414607276530259E-002   0.0000000000000000     
  -3.3603500559811532E-002   7.4373037215198584E-002   0.0000000000000000     
  -3.5006777342303320E-002   8.0535165687576904E-002   0.0000000000000000     
  -1.6907597639827646E-002   7.9368781348471210E-002   0.0000000000000000     
  -1.7611622980033104E-002   8.5740465895198334E-002   0.0000000000000000     
  -1.8297363270075293E-002   9.2282799839849924E-002   0.0000000000000000     
  -1.8964818509954209E-002   9.8995783182425981E-002   0.0000000000000000     
  -1.9613988699669852E-002  0.10587941592292649        0.0000000000000000     
  -2.1341319753329410E-002   7.9553335277537315E-002   0.0000000000000000     
  -2.2193189808321367E-002   8.5938548910796914E-002   0.0000000000000000     
  -2.3030658797035149E-002   9.2485003043629041E-002   0.0000000000000000     
  -2.3853726719470770E-002   9.9192697676033698E-002   0.0000000000000000     
  -2.4662393575628227E-002  0.10606163280801090        0.0000000000000000     
  -2.5835757074909278E-002   7.9809250643743626E-002   0.0000000000000000     
  -2.6846190811685867E-002   8.6194369250789563E-002   0.0000000000000000     
  -2.7841572836184134E-002   9.2735843317352282E-002   0.0000000000000000     
  -2.8821903148404094E-002   9.9433672843431756E-002   0.0000000000000000     
  -2.9787181748345742E-002  0.10628785782902800        0.0000000000000000     
  -3.0390909604567248E-002   8.0136527447090156E-002   0.0000000000000000     
  -3.1570625990126611E-002   8.6507926915176281E-002   0.0000000000000000     
  -3.2730105387522246E-002   9.3035320661019591E-002   0.0000000000000000     
  -3.3869347796754178E-002   9.9718708684620100E-002   0.0000000000000000     
  -3.4988353217822392E-002  0.10655809098597781        0.0000000000000000     
  -3.5006777342303320E-002   8.0535165687576904E-002   0.0000000000000000     
  -3.6366495343643584E-002   8.6879221903957082E-002   0.0000000000000000     
  -3.7696256451049487E-002   9.3383435074631038E-002   0.0000000000000000     
  -3.8996060664521028E-002  0.10004780519959880        0.0000000000000000     
  -4.0265907984058193E-002  0.10687233227886031        0.0000000000000000     
  -1.9613988699669852E-002  0.10587941592292649        0.0000000000000000     
  -2.0225944186993805E-002  0.11289040883006080        0.0000000000000000     
  -2.0781755319697642E-002  0.11998547267253819        0.0000000000000000     
  -2.1281422097781368E-002  0.12716460745035865        0.0000000000000000     
  -2.1724944521244970E-002  0.13442781316352220        0.0000000000000000     
  -2.4662393575628227E-002  0.10606163280801090        0.0000000000000000     
  -2.5428014067714527E-002  0.11305517019665454        0.0000000000000000     
  -2.6121942897936706E-002  0.12013667159905851        0.0000000000000000     
  -2.6744180066294747E-002  0.12730613701522284        0.0000000000000000     
  -2.7294725572788649E-002  0.13456356644514747        0.0000000000000000     
  -2.9787181748345742E-002  0.10628785782902800        0.0000000000000000     
  -3.0702594947094757E-002  0.11326552656914372        0.0000000000000000     
  -3.1533329055736810E-002  0.12033380735878162        0.0000000000000000     
  -3.2279384074271909E-002  0.12749270019794173        0.0000000000000000     
  -3.2940760002700062E-002  0.13474220508662399        0.0000000000000000     
  -3.4988353217822392E-002  0.10655809098597781        0.0000000000000000     
  -3.6049686825134472E-002  0.11352147794752840        0.0000000000000000     
  -3.7015913793097967E-002  0.12057687995170761        0.0000000000000000     
  -3.7887034121712883E-002  0.12772429699851542        0.0000000000000000     
  -3.8663047810979213E-002  0.13496372908795190        0.0000000000000000     
  -4.0265907984058193E-002  0.10687233227886031        0.0000000000000000     
  -4.1469289701833681E-002  0.11382302433180852        0.0000000000000000     
  -4.2569697110020163E-002  0.12086588937783641        0.0000000000000000     
  -4.3567130208617640E-002  0.12800092741694391        0.0000000000000000     
  -4.4461588997626117E-002  0.13522813844913106        0.0000000000000000     
  -2.1724944521244970E-002  0.13442781316352220        0.0000000000000000     
  -2.2136658857301459E-002  0.14180735707861841        0.0000000000000000     
  -2.2540901373163832E-002  0.14933550646223681        0.0000000000000000     
  -2.2937672068832078E-002  0.15701226131437743        0.0000000000000000     
  -2.3326970944306205E-002  0.16483762163504029        0.0000000000000000     
  -2.7294725572788649E-002  0.13456356644514747        0.0000000000000000     
  -2.7805176592835948E-002  0.14193858651297220        0.0000000000000000     
  -2.8307130301854153E-002  0.14946082384283677        0.0000000000000000     
  -2.8800586699843270E-002  0.15713027843474117        0.0000000000000000     
  -2.9285545786803292E-002  0.16494695028868545        0.0000000000000000     
  -3.2940760002700062E-002  0.13474220508662399        0.0000000000000000     
  -3.3554695727049395E-002  0.14210979417745587        0.0000000000000000     
  -3.4158430133348031E-002  0.14962293962306472        0.0000000000000000     
  -3.4751963221595988E-002  0.15728164142345052        0.0000000000000000     
  -3.5335294991793255E-002  0.16508589957861333        0.0000000000000000     
  -3.8663047810979213E-002  0.13496372908795190        0.0000000000000000     
  -3.9385216259941812E-002  0.14232098007206948        0.0000000000000000     
  -4.0094800867645497E-002  0.14982185380292065        0.0000000000000000     
  -4.0791801634090255E-002  0.15746635028050551        0.0000000000000000     
  -4.1476218559276107E-002  0.16525446950482398        0.0000000000000000     
  -4.4461588997626117E-002  0.13522813844913106        0.0000000000000000     
  -4.5296738191513197E-002  0.14257214419681294        0.0000000000000000     
  -4.6116242504746524E-002  0.15005756638240461        0.0000000000000000     
  -4.6920101937326063E-002  0.15768440500590608        0.0000000000000000     
  -4.7708316489251841E-002  0.16545266006731735        0.0000000000000000     
  -2.3326970944306205E-002  0.16483762163504029        0.0000000000000000     
  -2.3694782382621717E-002  0.17277737360976134        0.0000000000000000     
  -2.4027090766814099E-002  0.18079730342407663        0.0000000000000000     
  -2.4323896096883370E-002  0.18889741107798616        0.0000000000000000     
  -2.4585198372829523E-002  0.19707769657148994        0.0000000000000000     
  -2.9285545786803292E-002  0.16494695028868545        0.0000000000000000     
  -2.9744611865058702E-002  0.17287718816475386        0.0000000000000000     
  -3.0160389236933975E-002  0.18088734082303085        0.0000000000000000     
  -3.0532877902429104E-002  0.18897740826351633        0.0000000000000000     
  -3.0862077861544095E-002  0.19714739048621038        0.0000000000000000     
  -3.5335294991793255E-002  0.16508589957861333        0.0000000000000000     
  -3.5888238720777399E-002  0.17300298331533753        0.0000000000000000     
  -3.6390607685385955E-002  0.18100016186040763        0.0000000000000000     
  -3.6842401885618957E-002  0.18907743521382350        0.0000000000000000     
  -3.7243621321476364E-002  0.19723480337558524        0.0000000000000000     
  -4.1476218559276107E-002  0.16525446950482398        0.0000000000000000     
  -4.2125662949777785E-002  0.17315475906151237        0.0000000000000000     
  -4.2717746112170059E-002  0.18113576653620692        0.0000000000000000     
  -4.3252468046452906E-002  0.18919749192890767        0.0000000000000000     
  -4.3729828752626335E-002  0.19733993523961457        0.0000000000000000     
  -4.7708316489251841E-002  0.16545266006731735        0.0000000000000000     
  -4.8456884552059896E-002  0.17333251540327826        0.0000000000000000     
  -4.9141804517286274E-002  0.18129415485042874        0.0000000000000000     
  -4.9763076384930972E-002  0.18933757840876875        0.0000000000000000     
  -5.0320700154994000E-002  0.19746278607829829        0.0000000000000000     
  -2.4585198372829523E-002  0.19707769657148994        0.0000000000000000     
  -2.4814741830019825E-002  0.20532757217835862        0.0000000000000000     
  -2.5016270703821529E-002  0.21363645017236285        0.0000000000000000     
  -2.5189784994234646E-002  0.22200433055350260        0.0000000000000000     
  -2.5335284701259172E-002  0.23043121332177791        0.0000000000000000     
  -3.0862077861544095E-002  0.19714739048621038        0.0000000000000000     
  -3.1151988322577047E-002  0.20538868397764243        0.0000000000000000     
  -3.1406608493826038E-002  0.21369268522434204        0.0000000000000000     
  -3.1625938375291089E-002  0.22205939422630908        0.0000000000000000     
  -3.1809977966972186E-002  0.23048881098354371        0.0000000000000000     
  -3.7243621321476364E-002  0.19723480337558524        0.0000000000000000     
  -3.7598166096588080E-002  0.20546533546292731        0.0000000000000000     
  -3.7909936314583968E-002  0.21376210059308404        0.0000000000000000     
  -3.8178931975464021E-002  0.22212509876605552        0.0000000000000000     
  -3.8405153079228253E-002  0.23055432998184175        0.0000000000000000     
  -4.3729828752626335E-002  0.19733993523961457        0.0000000000000000     
  -4.4153275152052932E-002  0.20555752663421312        0.0000000000000000     
  -4.4526254166095305E-002  0.21384469627858893        0.0000000000000000     
  -4.4848765794753442E-002  0.22220144417274190        0.0000000000000000     
  -4.5120810038027370E-002  0.23062777031667211        0.0000000000000000     
  -5.0320700154994000E-002  0.19746278607829829        0.0000000000000000     
  -5.0817315488971608E-002  0.20566525749150003        0.0000000000000000     
  -5.1255562048360070E-002  0.21394047228085669        0.0000000000000000     
  -5.1635439833159380E-002  0.22228843044636823        0.0000000000000000     
  -5.1956948843369544E-002  0.23070913198803467        0.0000000000000000     
  -2.5335284701259172E-002  0.23043121332177791        0.0000000000000000     
  -2.5458279040267359E-002  0.23888865305847209        0.0000000000000000     
  -2.5564277226631450E-002  0.24734820434486840        0.0000000000000000     
  -2.5653279260351457E-002  0.25580986718096688        0.0000000000000000     
  -2.5725285141427360E-002  0.26427364156676758        0.0000000000000000     
  -3.1809977966972186E-002  0.23048881098354371        0.0000000000000000     
  -3.1965562546786064E-002  0.23895496384823611        0.0000000000000000     
  -3.2099527392649457E-002  0.24743188117257664        0.0000000000000000     
  -3.2211872504562367E-002  0.25591956295656537        0.0000000000000000     
  -3.2302597882524792E-002  0.26441800920020220        0.0000000000000000     
  -3.8405153079228253E-002  0.23055432998184175        0.0000000000000000     
  -3.8596065226873623E-002  0.23902788929559413        0.0000000000000000     
  -3.8759134019397110E-002  0.24752387176246426        0.0000000000000000     
  -3.8894359456798734E-002  0.25604227738245194        0.0000000000000000     
  -3.9001741539078476E-002  0.26458310615555730        0.0000000000000000     
  -4.5120810038027370E-002  0.23062777031667211        0.0000000000000000     
  -4.5349787080530037E-002  0.23910742940054622        0.0000000000000000     
  -4.5543097106874424E-002  0.24762417611453105        0.0000000000000000     
  -4.5700740117060552E-002  0.25617801045862670        0.0000000000000000     
  -4.5822716111088409E-002  0.26476893243283295        0.0000000000000000     
  -5.1956948843369544E-002  0.23070913198803467        0.0000000000000000     
  -5.2226728107755291E-002  0.23919358416309228        0.0000000000000000     
  -5.2451416655081393E-002  0.24773279422877723        0.0000000000000000     
  -5.2631014485347814E-002  0.25632676218508949        0.0000000000000000     
  -5.2765521598554584E-002  0.26497548803202925        0.0000000000000000     
  -2.5725285141427360E-002  0.26427364156676758        0.0000000000000000     
  -2.5792737991424265E-002  0.27268459852447163        0.0000000000000000     
  -2.5868080931907244E-002  0.28098780907628040        0.0000000000000000     
  -2.5951313962876296E-002  0.28918327322219373        0.0000000000000000     
  -2.6042437084331425E-002  0.29727099096221188        0.0000000000000000     
  -3.2302597882524792E-002  0.26441800920020220        0.0000000000000000     
  -3.2386843181154708E-002  0.27287461093175819        0.0000000000000000     
  -3.2479748055070083E-002  0.28123675917950453        0.0000000000000000     
  -3.2581312504270918E-002  0.28950445394344132        0.0000000000000000     
  -3.2691536528757226E-002  0.29767769522356835        0.0000000000000000     
  -3.9001741539078476E-002  0.26458310615555730        0.0000000000000000     
  -3.9100462341155294E-002  0.27309549658553040        0.0000000000000000     
  -3.9209703937948148E-002  0.28152858717612134        0.0000000000000000     
  -3.9329466329457045E-002  0.28988237792733007        0.0000000000000000     
  -3.9459749515681992E-002  0.29815686883915665        0.0000000000000000     
  -4.5822716111088409E-002  0.26476893243283295        0.0000000000000000     
  -4.5933595471426024E-002  0.27334725548578820        0.0000000000000000     
  -4.6057948580541443E-002  0.28186329306613062        0.0000000000000000     
  -4.6195775438434693E-002  0.29031704517386003        0.0000000000000000     
  -4.6347076045105733E-002  0.29870851180897662        0.0000000000000000     
  -5.2765521598554584E-002  0.26497548803202925        0.0000000000000000     
  -5.2886242571966904E-002  0.27362988763253177        0.0000000000000000     
  -5.3024481982849980E-002  0.28224087684953236        0.0000000000000000     
  -5.3180239831203832E-002  0.29080845568303121        0.0000000000000000     
  -5.3353516117028439E-002  0.29933262413302825        0.0000000000000000     
  -2.9050706202124164E-002   5.7108843000323553E-002   0.0000000000000000     
  -3.0625464989721959E-002   6.2659875871571916E-002   0.0000000000000000     
  -3.2143063108951084E-002   6.8414607276530259E-002   0.0000000000000000     
  -3.3603500559811532E-002   7.4373037215198584E-002   0.0000000000000000     
  -3.5006777342303320E-002   8.0535165687576904E-002   0.0000000000000000     
  -3.2916127349692306E-002   5.7654493794260075E-002   0.0000000000000000     
  -3.4714502862287812E-002   6.3192033989729501E-002   0.0000000000000000     
  -3.6446689998833950E-002   6.8927236717608309E-002   0.0000000000000000     
  -3.8112688759330750E-002   7.4860101977896498E-002   0.0000000000000000     
  -3.9712499143778182E-002   8.0990629770594097E-002   0.0000000000000000     
  -3.7010228480706384E-002   5.8238472869598323E-002   0.0000000000000000     
  -3.8983235070061219E-002   6.3760130353755370E-002   0.0000000000000000     
  -4.0895401497170532E-002   6.9475668053796638E-002   0.0000000000000000     
  -4.2746727762034302E-002   7.5385085969722182E-002   0.0000000000000000     
  -4.4537213864652550E-002   8.1488384101532002E-002   0.0000000000000000     
  -4.1333009595166365E-002   5.8860780226338297E-002   0.0000000000000000     
  -4.3431661613042197E-002   6.4364164963649467E-002   0.0000000000000000     
  -4.5489197603960807E-002   7.0059901285095233E-002   0.0000000000000000     
  -4.7505617567922216E-002   7.5947989190675622E-002   0.0000000000000000     
  -4.9480921504926410E-002   8.2028428680390619E-002   0.0000000000000000     
  -4.5884470693072277E-002   5.9521415864479982E-002   0.0000000000000000     
  -4.8059782491230732E-002   6.5004137819411861E-002   0.0000000000000000     
  -5.0228078319204797E-002   7.0679936411504149E-002   0.0000000000000000     
  -5.2389358176994472E-002   7.6548811640756831E-002   0.0000000000000000     
  -5.4543622064599756E-002   8.2610763507169921E-002   0.0000000000000000     
  -3.5006777342303320E-002   8.0535165687576904E-002   0.0000000000000000     
  -3.6366495343643584E-002   8.6879221903957082E-002   0.0000000000000000     
  -3.7696256451049487E-002   9.3383435074631038E-002   0.0000000000000000     
  -3.8996060664521028E-002  0.10004780519959880        0.0000000000000000     
  -4.0265907984058193E-002  0.10687233227886031        0.0000000000000000     
  -3.9712499143778182E-002   8.0990629770594097E-002   0.0000000000000000     
  -4.1258681742246929E-002   8.7302742186028098E-002   0.0000000000000000     
  -4.2763797144807637E-002   9.3780361314525482E-002   0.0000000000000000     
  -4.4227845351460279E-002  0.10042348715608632        0.0000000000000000     
  -4.5650826362204897E-002  0.10723211971071056        0.0000000000000000     
  -4.4537213864652550E-002   8.1488384101532002E-002   0.0000000000000000     
  -4.6272068055946768E-002   8.7772975730285432E-002   0.0000000000000000     
  -4.7956498586838467E-002   9.4226274137041849E-002   0.0000000000000000     
  -4.9590505457327613E-002  0.10084827932180127        0.0000000000000000     
  -5.1174088667414255E-002  0.10763899128456365        0.0000000000000000     
  -4.9480921504926410E-002   8.2028428680390619E-002   0.0000000000000000     
  -5.1406654284743086E-002   8.8289922536729126E-002   0.0000000000000000     
  -5.3274360777141976E-002   9.4721173542180112E-002   0.0000000000000000     
  -5.5084040982123030E-002  0.10132218169674359        0.0000000000000000     
  -5.6835694899686304E-002  0.10809294700041952        0.0000000000000000     
  -5.4543622064599756E-002   8.2610763507169921E-002   0.0000000000000000     
  -5.6662440428635899E-002   8.8853582605359166E-002   0.0000000000000000     
  -5.8717383715718156E-002   9.5265059529940285E-002   0.0000000000000000     
  -6.0708451925846521E-002  0.10184519428091332        0.0000000000000000     
  -6.2635645059021000E-002  0.10859398685827826        0.0000000000000000     
  -4.0265907984058193E-002  0.10687233227886031        0.0000000000000000     
  -4.1469289701833681E-002  0.11382302433180852        0.0000000000000000     
  -4.2569697110020163E-002  0.12086588937783641        0.0000000000000000     
  -4.3567130208617640E-002  0.12800092741694391        0.0000000000000000     
  -4.4461588997626117E-002  0.13522813844913106        0.0000000000000000     
  -4.5650826362204897E-002  0.10723211971071056        0.0000000000000000     
  -4.6997708158143185E-002  0.11416940395732761        0.0000000000000000     
  -4.8233458720376890E-002  0.12119848487486683        0.0000000000000000     
  -4.9358078048905990E-002  0.12831936246332820        0.0000000000000000     
  -5.0371566143730506E-002  0.13553203672271177        0.0000000000000000     
  -5.1174088667414255E-002  0.10763899128456365        0.0000000000000000     
  -5.2671246775013787E-002  0.11455985505942909        0.0000000000000000     
  -5.4045978338041617E-002  0.12157231568049766        0.0000000000000000     
  -5.5298283356497745E-002  0.12867637314776939        0.0000000000000000     
  -5.6428161830382156E-002  0.13587202746124422        0.0000000000000000     
  -5.6835694899686304E-002  0.10809294700041952        0.0000000000000000     
  -5.8489905552445480E-002  0.11499437763811299        0.0000000000000000     
  -6.0007255963014351E-002  0.12198738179472893        0.0000000000000000     
  -6.1387746131392862E-002  0.12907195947026742        0.0000000000000000     
  -6.2631376057581054E-002  0.13624811066472836        0.0000000000000000     
  -6.2635645059021000E-002  0.10859398685827826        0.0000000000000000     
  -6.4453684490438271E-002  0.11547297169337928        0.0000000000000000     
  -6.6117291595295072E-002  0.12244368321756063        0.0000000000000000     
  -6.7626466373591376E-002  0.12950612143082230        0.0000000000000000     
  -6.8981208825327212E-002  0.13666028633316427        0.0000000000000000     
  -4.4461588997626117E-002  0.13522813844913106        0.0000000000000000     
  -4.5296738191513197E-002  0.14257214419681294        0.0000000000000000     
  -4.6116242504746524E-002  0.15005756638240461        0.0000000000000000     
  -4.6920101937326063E-002  0.15768440500590608        0.0000000000000000     
  -4.7708316489251841E-002  0.16545266006731735        0.0000000000000000     
  -5.0371566143730506E-002  0.13553203672271177        0.0000000000000000     
  -5.1320432999240016E-002  0.14286033171016399        0.0000000000000000     
  -5.2251188609824084E-002  0.15032807148283131        0.0000000000000000     
  -5.3163832975482744E-002  0.15793525604071382        0.0000000000000000     
  -5.4058366096215976E-002  0.16568188538381140        0.0000000000000000     
  -5.6428161830382156E-002  0.13587202746124422        0.0000000000000000     
  -5.7487472160598699E-002  0.14318258777060025        0.0000000000000000     
  -5.8528072748051191E-002  0.15063136322551557        0.0000000000000000     
  -5.9549963592739640E-002  0.15821835382599028        0.0000000000000000     
  -6.0553144694664031E-002  0.16594355957202417        0.0000000000000000     
  -6.2631376057581054E-002  0.13624811066472836        0.0000000000000000     
  -6.3797855675589238E-002  0.14353891237812177        0.0000000000000000     
  -6.4946894919427817E-002  0.15096744161045741        0.0000000000000000     
  -6.6078493789096707E-002  0.15853369836173539        0.0000000000000000     
  -6.7192652284596005E-002  0.16623768263195562        0.0000000000000000     
  -6.8981208825327212E-002  0.13666028633316427        0.0000000000000000     
  -7.0251583544211696E-002  0.14392930553272848        0.0000000000000000     
  -7.1507655123953975E-002  0.15133630663765682        0.0000000000000000     
  -7.2749423564554036E-002  0.15888128964794923        0.0000000000000000     
  -7.3976888866011919E-002  0.16656425456360580        0.0000000000000000     
  -4.7708316489251841E-002  0.16545266006731735        0.0000000000000000     
  -4.8456884552059896E-002  0.17333251540327826        0.0000000000000000     
  -4.9141804517286274E-002  0.18129415485042874        0.0000000000000000     
  -4.9763076384930972E-002  0.18933757840876875        0.0000000000000000     
  -5.0320700154994000E-002  0.19746278607829829        0.0000000000000000     
  -5.4058366096215976E-002  0.16568188538381140        0.0000000000000000     
  -5.4908977228034186E-002  0.17353963873125561        0.0000000000000000     
  -5.5689855626947810E-002  0.18148019530217779        0.0000000000000000     
  -5.6401001292956818E-002  0.18950355509657801        0.0000000000000000     
  -5.7042414226061239E-002  0.19760971811445616        0.0000000000000000     
  -6.0553144694664031E-002  0.16594355957202417        0.0000000000000000     
  -6.1509014678111172E-002  0.17377951543606462        0.0000000000000000     
  -6.2388972167367877E-002  0.18169875639055869        0.0000000000000000     
  -6.3193017162434126E-002  0.18970128243550649        0.0000000000000000     
  -6.3921149663309931E-002  0.19778709357090790        0.0000000000000000     
  -6.7192652284596005E-002  0.16623768263195562        0.0000000000000000     
  -6.8256996902290853E-002  0.17405214551770537        0.0000000000000000     
  -6.9239154138546477E-002  0.18194983811557150        0.0000000000000000     
  -7.0139123993362890E-002  0.18993076042555423        0.0000000000000000     
  -7.0956906466740091E-002  0.19799491244765346        0.0000000000000000     
  -7.3976888866011919E-002  0.16656425456360580        0.0000000000000000     
  -7.5152923900573224E-002  0.17435752897617773        0.0000000000000000     
  -7.6240401540483629E-002  0.18223344047721624        0.0000000000000000     
  -7.7239321785743123E-002  0.19019198906672130        0.0000000000000000     
  -7.8149684636351704E-002  0.19823317474469293        0.0000000000000000     
  -5.0320700154994000E-002  0.19746278607829829        0.0000000000000000     
  -5.0817315488971608E-002  0.20566525749150003        0.0000000000000000     
  -5.1255562048360070E-002  0.21394047228085669        0.0000000000000000     
  -5.1635439833159380E-002  0.22228843044636823        0.0000000000000000     
  -5.1956948843369544E-002  0.23070913198803467        0.0000000000000000     
  -5.7042414226061239E-002  0.19760971811445616        0.0000000000000000     
  -5.7616405696919580E-002  0.20579493762943440        0.0000000000000000     
  -5.8125286976190377E-002  0.21405546691513472        0.0000000000000000     
  -5.8569058063873643E-002  0.22239130597155712        0.0000000000000000     
  -5.8947718959969364E-002  0.23080245479870157        0.0000000000000000     
  -6.3921149663309931E-002  0.19778709357090790        0.0000000000000000     
  -6.4576664365472339E-002  0.20595297664266266        0.0000000000000000     
  -6.5162855964398386E-002  0.21419571849667041        0.0000000000000000     
  -6.5679724460088088E-002  0.22251531913293107        0.0000000000000000     
  -6.6127269852541443E-002  0.23091177855144476        0.0000000000000000     
  -7.0956906466740091E-002  0.19799491244765346        0.0000000000000000     
  -7.1698091494629884E-002  0.20613937453118480        0.0000000000000000     
  -7.2368269012984099E-002  0.21436122702546367        0.0000000000000000     
  -7.2967439021802721E-002  0.22266046993049018        0.0000000000000000     
  -7.3495601521085765E-002  0.23103710324626422        0.0000000000000000     
  -7.8149684636351704E-002  0.19823317474469293        0.0000000000000000     
  -7.8980687084392209E-002  0.20635413129500080        0.0000000000000000     
  -7.9741526121947487E-002  0.21455199250151460        0.0000000000000000     
  -8.0432201749017523E-002  0.22282675836423432        0.0000000000000000     
  -8.1052713965602333E-002  0.23117842888315995        0.0000000000000000     
  -5.1956948843369544E-002  0.23070913198803467        0.0000000000000000     
  -5.2226728107755291E-002  0.23919358416309228        0.0000000000000000     
  -5.2451416655081393E-002  0.24773279422877723        0.0000000000000000     
  -5.2631014485347814E-002  0.25632676218508949        0.0000000000000000     
  -5.2765521598554584E-002  0.26497548803202925        0.0000000000000000     
  -5.8947718959969364E-002  0.23080245479870157        0.0000000000000000     
  -5.9265886296813702E-002  0.23928775348630724        0.0000000000000000     
  -5.9528176706742854E-002  0.24784604212411324        0.0000000000000000     
  -5.9734590189756777E-002  0.25647732071211959        0.0000000000000000     
  -5.9885126745855499E-002  0.26518158925032620        0.0000000000000000     
  -6.6127269852541443E-002  0.23091177855144476        0.0000000000000000     
  -6.6506259635969567E-002  0.23939133727326609        0.0000000000000000     
  -6.6817461304583659E-002  0.24796023581944973        0.0000000000000000     
  -6.7060874858383662E-002  0.25661847418999573        0.0000000000000000     
  -6.7236500297369620E-002  0.26536605238490402        0.0000000000000000     
  -7.3495601521085765E-002  0.23103710324626422        0.0000000000000000     
  -7.3947848125222898E-002  0.23950433552396874        0.0000000000000000     
  -7.4319270448603814E-002  0.24807537531478666        0.0000000000000000     
  -7.4609868491228498E-002  0.25675022261871799        0.0000000000000000     
  -7.4819642253096952E-002  0.26552887743576264        0.0000000000000000     
  -8.1052713965602333E-002  0.23117842888315995        0.0000000000000000     
  -8.1590651764573668E-002  0.23962674823841529        0.0000000000000000     
  -8.2033604138803312E-002  0.24819146061012412        0.0000000000000000     
  -8.2381571088291264E-002  0.25687256599828640        0.0000000000000000     
  -8.2634552613037482E-002  0.26567006440290225        0.0000000000000000     
  -5.2765521598554584E-002  0.26497548803202925        0.0000000000000000     
  -5.2886242571966904E-002  0.27362988763253177        0.0000000000000000     
  -5.3024481982849980E-002  0.28224087684953236        0.0000000000000000     
  -5.3180239831203832E-002  0.29080845568303121        0.0000000000000000     
  -5.3353516117028439E-002  0.29933262413302825        0.0000000000000000     
  -5.9885126745855499E-002  0.26518158925032620        0.0000000000000000     
  -6.0017144008633450E-002  0.27391472064032263        0.0000000000000000     
  -6.0167999611685105E-002  0.28263258778369832        0.0000000000000000     
  -6.0337693555010417E-002  0.29133519068045316        0.0000000000000000     
  -6.0526225838609449E-002  0.30002252933058726        0.0000000000000000     
  -6.7236500297369620E-002  0.26536605238490402        0.0000000000000000     
  -6.7385040147281208E-002  0.27417308212372271        0.0000000000000000     
  -6.7547196933858134E-002  0.28300967512599984        0.0000000000000000     
  -6.7722970657100451E-002  0.29187583139173529        0.0000000000000000     
  -6.7912361317008091E-002  0.30077155092092922        0.0000000000000000     
  -7.4819642253096952E-002  0.26552887743576264        0.0000000000000000     
  -7.4989930987910181E-002  0.27440497208273196        0.0000000000000000     
  -7.5162073949369163E-002  0.28337213887643692        0.0000000000000000     
  -7.5336071137473870E-002  0.29243037781687770        0.0000000000000000     
  -7.5511922552224345E-002  0.30157968890405418        0.0000000000000000     
  -8.2634552613037482E-002  0.26567006440290225        0.0000000000000000     
  -8.2831816530520339E-002  0.27461039051735037        0.0000000000000000     
  -8.3012630658218067E-002  0.28371997903500978        0.0000000000000000     
  -8.3176994996130710E-002  0.29299882995588034        0.0000000000000000     
  -8.3324909544258238E-002  0.30244694327996213        0.0000000000000000     
  -4.5884470693072277E-002   5.9521415864479982E-002   0.0000000000000000     
  -4.8059782491230732E-002   6.5004137819411861E-002   0.0000000000000000     
  -5.0228078319204797E-002   7.0679936411504149E-002   0.0000000000000000     
  -5.2389358176994472E-002   7.6548811640756831E-002   0.0000000000000000     
  -5.4543622064599756E-002   8.2610763507169921E-002   0.0000000000000000     
  -5.0564110582995030E-002   6.0237719792701074E-002   0.0000000000000000     
  -5.2870217591875997E-002   6.5696136462054106E-002   0.0000000000000000     
  -5.5182465511732316E-002   7.1349749896103376E-002   0.0000000000000000     
  -5.7500854342564009E-002   7.7198560094848864E-002   0.0000000000000000     
  -5.9825384084371061E-002   8.3242567058290598E-002   0.0000000000000000     
  -5.5271428073505532E-002   6.1027032019679274E-002   0.0000000000000000     
  -5.7865586802227142E-002   6.6456248432587781E-002   0.0000000000000000     
  -6.0422781050373214E-002   7.2083318201972946E-002   0.0000000000000000     
  -6.2943010817943776E-002   7.7908241327834776E-002   0.0000000000000000     
  -6.5426276104938785E-002   8.3931017810173258E-002   0.0000000000000000     
  -6.0006423164603792E-002   6.1889352545414569E-002   0.0000000000000000     
  -6.3045890122284190E-002   6.7284473731012873E-002   0.0000000000000000     
  -6.5949024935127498E-002   7.2880641329112886E-002   0.0000000000000000     
  -6.8715827603133758E-002   7.8677855339714567E-002   0.0000000000000000     
  -7.1346298126302901E-002   8.4676115762817916E-002   0.0000000000000000     
  -6.4769095856289802E-002   6.2824681369906960E-002   0.0000000000000000     
  -6.8411127552047118E-002   6.8180812357329423E-002   0.0000000000000000     
  -7.1761197165995161E-002   7.3741719277523182E-002   0.0000000000000000     
  -7.4819304698133957E-002   7.9507402130488222E-002   0.0000000000000000     
  -7.7585450148463450E-002   8.5477860916224585E-002   0.0000000000000000     
  -5.4543622064599756E-002   8.2610763507169921E-002   0.0000000000000000     
  -5.6662440428635899E-002   8.8853582605359166E-002   0.0000000000000000     
  -5.8717383715718156E-002   9.5265059529940285E-002   0.0000000000000000     
  -6.0708451925846521E-002  0.10184519428091332        0.0000000000000000     
  -6.2635645059021000E-002  0.10859398685827826        0.0000000000000000     
  -5.9825384084371061E-002   8.3242567058290598E-002   0.0000000000000000     
  -6.2119808161395500E-002   8.9467434879700561E-002   0.0000000000000000     
  -6.4347879997879304E-002   9.5858827652350695E-002   0.0000000000000000     
  -6.6509599593822522E-002  0.10241674537624106        0.0000000000000000     
  -6.8604966949225119E-002  0.10914118805137164        0.0000000000000000     
  -6.5426276104938785E-002   8.3931017810173258E-002   0.0000000000000000     
  -6.7859139156792134E-002   9.0134958303278279E-002   0.0000000000000000     
  -7.0228162218937670E-002   9.6503373461439640E-002   0.0000000000000000     
  -7.2533345291375423E-002  0.10303626328465738        0.0000000000000000     
  -7.4774688374105419E-002  0.10973362777293152        0.0000000000000000     
  -7.1346298126302901E-002   8.4676115762817916E-002   0.0000000000000000     
  -7.3880433414825808E-002   9.0856152876092347E-002   0.0000000000000000     
  -7.6358230378893263E-002   9.7198696957207134E-002   0.0000000000000000     
  -7.8779689018505308E-002  0.10370374800616235        0.0000000000000000     
  -8.1144809333661888E-002  0.11037130602295796        0.0000000000000000     
  -7.7585450148463450E-002   8.5477860916224585E-002   0.0000000000000000     
  -8.0183690935496543E-002   9.1631018598142724E-002   0.0000000000000000     
  -8.2738084477746096E-002   9.7944798139653150E-002   0.0000000000000000     
  -8.5248630775212095E-002  0.10441919954075587        0.0000000000000000     
  -8.7715329827894567E-002  0.11105422280145090        0.0000000000000000     
  -6.2635645059021000E-002  0.10859398685827826        0.0000000000000000     
  -6.4453684490438271E-002  0.11547297169337928        0.0000000000000000     
  -6.6117291595295072E-002  0.12244368321756063        0.0000000000000000     
  -6.7626466373591376E-002  0.12950612143082230        0.0000000000000000     
  -6.8981208825327212E-002  0.13666028633316427        0.0000000000000000     
  -6.8604966949225119E-002  0.10914118805137164        0.0000000000000000     
  -7.0582404233350993E-002  0.11599496081661963        0.0000000000000000     
  -7.2390333615464056E-002  0.12294086881086232        0.0000000000000000     
  -7.4028755095564266E-002  0.12997891203409964        0.0000000000000000     
  -7.5497668673651652E-002  0.13710909048633169        0.0000000000000000     
  -7.4774688374105419E-002  0.10973362777293152        0.0000000000000000     
  -7.6895885425542487E-002  0.11655966859922569        0.0000000000000000     
  -7.8840630404101497E-002  0.12347858743650356        0.0000000000000000     
  -8.0608923309782490E-002  0.13049038428476509        0.0000000000000000     
  -8.2200764142585453E-002  0.13759505914401041        0.0000000000000000     
  -8.1144809333661888E-002  0.11037130602295796        0.0000000000000000     
  -8.3394128067012727E-002  0.11716709504119745        0.0000000000000000     
  -8.5468181961207437E-002  0.12405683909448435        0.0000000000000000     
  -8.7366971016246034E-002  0.13104053818281869        0.0000000000000000     
  -8.9090495232128544E-002  0.13811819230620037        0.0000000000000000     
  -8.7715329827894567E-002  0.11105422280145090        0.0000000000000000     
  -9.0077132157761725E-002  0.11781724014253495        0.0000000000000000     
  -9.2272988286781848E-002  0.12467562378480476        0.0000000000000000     
  -9.4302898214954925E-002  0.13162937372826031        0.0000000000000000     
  -9.6166861942280968E-002  0.13867848997290166        0.0000000000000000     
  -6.8981208825327212E-002  0.13666028633316427        0.0000000000000000     
  -7.0251583544211696E-002  0.14392930553272848        0.0000000000000000     
  -7.1507655123953975E-002  0.15133630663765682        0.0000000000000000     
  -7.2749423564554036E-002  0.15888128964794923        0.0000000000000000     
  -7.3976888866011919E-002  0.16656425456360580        0.0000000000000000     
  -7.5497668673651652E-002  0.13710909048633169        0.0000000000000000     
  -7.6875349762225723E-002  0.14435472988129833        0.0000000000000000     
  -7.8240073773785931E-002  0.15173915593273957        0.0000000000000000     
  -7.9591840708332334E-002  0.15926236864065529        0.0000000000000000     
  -8.0930650565864862E-002  0.16692436800504562        0.0000000000000000     
  -8.2200764142585453E-002  0.13759505914401041        0.0000000000000000     
  -8.3695848325391051E-002  0.14481614807070919        0.0000000000000000     
  -8.5173871281079991E-002  0.15217718712133144        0.0000000000000000     
  -8.6634833009652329E-002  0.15967817629587708        0.0000000000000000     
  -8.8078733511108023E-002  0.16731911559434615        0.0000000000000000     
  -8.9090495232128544E-002  0.13811819230620037        0.0000000000000000     
  -9.0713079233707680E-002  0.14531356010096108        0.0000000000000000     
  -9.2309047645836181E-002  0.15265040020343251        0.0000000000000000     
  -9.3878400468514062E-002  0.16012871261361458        0.0000000000000000     
  -9.5421137701741307E-002  0.16774849733150732        0.0000000000000000     
  -9.6166861942280968E-002  0.13867848997290166        0.0000000000000000     
  -9.7927042487175597E-002  0.14584696597205404        0.0000000000000000     
  -9.9645602868054461E-002  0.15315879517904274        0.0000000000000000     
 -0.10132254308491753       0.16061397759386781        0.0000000000000000     
 -0.10295786313776481       0.16821251321652916        0.0000000000000000     
  -7.3976888866011919E-002  0.16656425456360580        0.0000000000000000     
  -7.5152923900573224E-002  0.17435752897617773        0.0000000000000000     
  -7.6240401540483629E-002  0.18223344047721624        0.0000000000000000     
  -7.7239321785743123E-002  0.19019198906672130        0.0000000000000000     
  -7.8149684636351704E-002  0.19823317474469293        0.0000000000000000     
  -8.0930650565864862E-002  0.16692436800504562        0.0000000000000000     
  -8.2216097780601530E-002  0.17469651020939736        0.0000000000000000     
  -8.3407776786760243E-002  0.18255015143719724        0.0000000000000000     
  -8.4505687584341002E-002  0.19048529168844539        0.0000000000000000     
  -8.5509830173343834E-002  0.19850193096314173        0.0000000000000000     
  -8.8078733511108023E-002  0.16731911559434615        0.0000000000000000     
  -8.9465820650018998E-002  0.17506993361527978        0.0000000000000000     
  -9.0756342290957262E-002  0.18290055895721924        0.0000000000000000     
  -9.1950298433922786E-002  0.19081099162016443        0.0000000000000000     
  -9.3047689078915558E-002  0.19880123160411542        0.0000000000000000     
  -9.5421137701741307E-002  0.16774849733150732        0.0000000000000000     
  -9.6902092508825644E-002  0.17547779919382503        0.0000000000000000     
  -9.8286098053074658E-002  0.18328466303728211        0.0000000000000000     
  -9.9573154334488392E-002  0.19116908886187842        0.0000000000000000     
 -0.10076326135306685       0.19913107666761409        0.0000000000000000     
 -0.10295786313776481       0.16821251321652916        0.0000000000000000     
 -0.10452491335702142       0.17592010694503307        0.0000000000000000     
 -0.10599704407311245       0.18370246367738582        0.0000000000000000     
 -0.10737425528603789       0.19155958341358731        0.0000000000000000     
 -0.10865654699579774       0.19949146615363761        0.0000000000000000     
  -7.8149684636351704E-002  0.19823317474469293        0.0000000000000000     
  -7.8980687084392209E-002  0.20635413129500080        0.0000000000000000     
  -7.9741526121947487E-002  0.21455199250151460        0.0000000000000000     
  -8.0432201749017523E-002  0.22282675836423432        0.0000000000000000     
  -8.1052713965602333E-002  0.23117842888315995        0.0000000000000000     
  -8.5509830173343834E-002  0.19850193096314173        0.0000000000000000     
  -8.6432755328271688E-002  0.20659775282784240        0.0000000000000000     
  -8.7287013823627510E-002  0.21477044084910366        0.0000000000000000     
  -8.8072605659411315E-002  0.22301999502692527        0.0000000000000000     
  -8.8789530835623104E-002  0.23134641536130743        0.0000000000000000     
  -9.3047689078915558E-002  0.19880123160411542        0.0000000000000000     
  -9.4062600419780665E-002  0.20687074502344127        0.0000000000000000     
  -9.5009118650363100E-002  0.21501899799251101        0.0000000000000000     
  -9.5887243770662919E-002  0.22324599051132463        0.0000000000000000     
  -9.6696975780680081E-002  0.23155172257988207        0.0000000000000000     
 -0.10076326135306685       0.19913107666761409        0.0000000000000000     
 -0.10187022235891913       0.20717310788179744        0.0000000000000000     
 -0.10290784060215426       0.21529766393173683        0.0000000000000000     
 -0.10387611608277231       0.22350474481743235        0.0000000000000000     
 -0.10477504880077319       0.23179435053888386        0.0000000000000000     
 -0.10865654699579774       0.19949146615363761        0.0000000000000000     
 -0.10985562114568709       0.20750484140291081        0.0000000000000000     
 -0.11098317967900098       0.21560643866678109        0.0000000000000000     
 -0.11203922259573945       0.22379625794524846        0.0000000000000000     
 -0.11302374989590247       0.23207429923831288        0.0000000000000000     
  -8.1052713965602333E-002  0.23117842888315995        0.0000000000000000     
  -8.1590651764573668E-002  0.23962674823841529        0.0000000000000000     
  -8.2033604138803312E-002  0.24819146061012412        0.0000000000000000     
  -8.2381571088291264E-002  0.25687256599828640        0.0000000000000000     
  -8.2634552613037482E-002  0.26567006440290225        0.0000000000000000     
  -8.8789530835623104E-002  0.23134641536130743        0.0000000000000000     
  -8.9421431481980562E-002  0.23977370791786856        0.0000000000000000     
  -8.9951949728201294E-002  0.24832587876222703        0.0000000000000000     
  -9.0381085574285355E-002  0.25700292789438295        0.0000000000000000     
  -9.0708839020232704E-002  0.26580485531433623        0.0000000000000000     
  -9.6696975780680081E-002  0.23155172257988207        0.0000000000000000     
  -9.7426948205402181E-002  0.23996034706359140        0.0000000000000000     
  -9.8065794569816886E-002  0.24849601682786057        0.0000000000000000     
  -9.8613514873924168E-002  0.25715873187268956        0.0000000000000000     
  -9.9070109117724042E-002  0.26594849219807842        0.0000000000000000     
 -0.10477504880077319       0.23179435053888386        0.0000000000000000     
 -0.10560720193483859       0.24018666567558386        0.0000000000000000     
 -0.10637513866365009       0.24870187480702466        0.0000000000000000     
 -0.10707885898720776       0.25733997793320623        0.0000000000000000     
 -0.10771836290551148       0.26610097505412861        0.0000000000000000     
 -0.11302374989590247       0.23207429923831288        0.0000000000000000     
 -0.11396219267028973       0.24045266375384600        0.0000000000000000     
 -0.11487998200970091       0.24894345269971935        0.0000000000000000     
 -0.11577711791413603       0.25754666607593302        0.0000000000000000     
 -0.11665360038359507       0.26626230388248695        0.0000000000000000     
  -8.2634552613037482E-002  0.26567006440290225        0.0000000000000000     
  -8.2831816530520339E-002  0.27461039051735037        0.0000000000000000     
  -8.3012630658218067E-002  0.28371997903500978        0.0000000000000000     
  -8.3176994996130710E-002  0.29299882995588034        0.0000000000000000     
  -8.3324909544258238E-002  0.30244694327996213        0.0000000000000000     
  -9.0708839020232704E-002  0.26580485531433623        0.0000000000000000     
  -9.0965804990059559E-002  0.27479492981007075        0.0000000000000000     
  -9.1182578407782128E-002  0.28403642016957037        0.0000000000000000     
  -9.1359159273400395E-002  0.29352932639283497        0.0000000000000000     
  -9.1495547586914361E-002  0.30327364847986471        0.0000000000000000     
  -9.9070109117724042E-002  0.26594849219807842        0.0000000000000000     
  -9.9447004581475734E-002  0.27496418234338588        0.0000000000000000     
  -9.9755628545438527E-002  0.28430468684797094        0.0000000000000000     
  -9.9995981009612392E-002  0.29397000571183346        0.0000000000000000     
 -0.10016806197399736       0.30396013893497359        0.0000000000000000     
 -0.10771836290551148       0.26610097505412861        0.0000000000000000     
 -0.10827541530476884       0.27511814811729568        0.0000000000000000     
 -0.10873178107118724       0.28452477907021140        0.0000000000000000     
 -0.10908746020476669       0.29432086791287571        0.0000000000000000     
 -0.10934245270550720       0.30450641464528877        0.0000000000000000     
 -0.11665360038359507       0.26626230388248695        0.0000000000000000     
 -0.11745103715993886       0.27525682713180016        0.0000000000000000     
 -0.11811103598502826       0.28469669683629178        0.0000000000000000     
 -0.11863359685886328       0.29458191299596187        0.0000000000000000     
 -0.11901871978144390       0.30491247561081025        0.0000000000000000     
 </DataArray>
 <DataArray  type="Float64" Name="stress" NumberOfComponents="3" format="ascii">
   7418790279.6953373        479537658.91352320        368241385.64970183     
   6800702597.8518391        299969325.71095824        2869972.5172925531     
   6188107350.5092402        138709107.51143694       -223357495.03164867     
   5581004537.6675749       -4242995.6849939823       -310441016.99712569     
   4979394159.3268242       -128886983.87837744       -258380593.37913978     
   6008857454.3722591        147701671.82572865        403720119.84348017     
   5731206396.2503176        84242452.699073553        159970526.85987824     
   5457247837.6805744        33091565.413096905        12156903.291889070     
   5186981778.6630363       -5750990.0322060585       -39720750.860497639     
   4920408219.1977129       -32285213.636808395        4337564.4027245408     
   4992833000.5779905       -65961803.803420067        445625018.76737475     
   4932167205.6980066       -50347316.998044252        321397321.82575512     
   4873393975.4215174       -28424281.514377356        249897618.13188070     
   4816513309.7485189       -192697.35239863396        231125907.68575025     
   4761525208.6790094        34347435.487869978        265082190.48736757     
   4370716918.3125162       -161452767.97393370        493956082.42140740     
   4403585026.1949196       -103799983.38039064        487150357.41492540     
   4436545763.7320766       -45838433.270948887        489864649.48833525     
   4469599130.9240150        12431882.354406118        502098958.64162564     
   4502745127.7707319        71010963.495678902        523853284.87479895     
   4142509207.5758686       -138771220.68579626        548713310.80556786     
   4145459857.7410345       -76115546.447979689        657229633.62738752     
   4146703202.6122522       -19150889.856647730        732057997.36124170     
   4146239242.1895308        32122749.088219643        773198402.00711930     
   4144067976.4728694        77705370.386612892        780650847.56502569     
   4979394159.3268242       -128886983.87837744       -258380593.37913978     
   4913747989.2109184       -84070589.785453081       -160216808.49765536     
   4848326606.4526806       -38504904.500294447       -77680303.122272640     
   4783130011.0521069        7810071.9770789146       -10771077.252992909     
   4718158203.0092001        54874339.646663427        40510869.110190235     
   4920408219.1977129       -32285213.636808395        4337564.4027245408     
   4816676469.4010544       -4286889.4771325588        70618685.949288458     
   4712997278.2040882        23886630.014855385        127111580.30904552     
   4609370645.6068010        52235344.839100122        173816247.48200566     
   4505796571.6092072        80759254.995664835        210732687.46815187     
   4761525208.6790094        34347435.487869978        265082190.48736757     
   4636390885.8281622        50532591.702269793        299279715.14804202     
   4511136892.8190250        66318847.389057875        329528064.94119996     
   4385763229.6515903        81706202.548176527        355827239.86685306     
   4260269896.3258662        96694657.179672003        378177239.92499316     
   4502745127.7707319        71010963.495678902        523853284.87479895     
   4372891238.4922457        80387853.752783060        525766279.09860510     
   4242745450.2974977        88791747.622321367        529569150.77419442     
   4112307763.1864662        96222645.104265690        535261899.90156817     
   3981578177.1591735        102680546.19866204        542844526.48072660     
   4144067976.4728694        77705370.386612892        780650847.56502569     
   4026177527.3933096        85278896.674377441        750078377.80098462     
   3907822950.6394958        91305330.714638710        727234837.80802584     
   3789004246.2114301        95784672.507388830        712120227.58614337     
   3669721414.1091213        98716922.052650928        704734547.13533914     
   4718158203.0092001        54874339.646663427        40510869.110190235     
   4387104106.4768143        21088259.658179760        27348424.237533681     
   4055148962.5134354       -15701311.766930342        6423815.1352412021     
   3722292771.1190619       -55494374.628704309       -22262958.196707051     
   3388535532.2936916       -98290928.927121162       -58711895.758292504     
   4505796571.6092072        80759254.995664835        210732687.46815187     
   4157600096.4196258        35208365.511145592        187667980.86144751     
   3808897383.9818888       -12029981.467194796        161893949.40101734     
   3459688434.2960310       -60955785.939295769        133410593.08684559     
   3109973247.3620210       -111569047.90521729        102217911.91895249     
   4260269896.3258662        96694657.179672003        378177239.92499316     
   3909367726.4102511        43709963.378430605        345670883.46424538     
   3558354129.4293485       -9646153.9737520218        315508041.52568251     
   3207229105.3831725       -63373694.876849413        287688714.10930157     
   2855992654.2717071       -117472659.33091593        262212901.21509391     
   3981578177.1591735        102680546.19866204        542844526.48072660     
   3642406996.4487066        46593053.260077000        501357132.04592669     
   3303519198.8558116       -8549829.2866044044        467266091.50923234     
   2964914784.3804936       -62748101.441362381        440571404.87062353     
   2626593753.0227461       -116001763.20420408        421273072.13010728     
   3669721414.1091213        98716922.052650928        704734547.13533914     
   3356717906.5349817        43857635.156059146        654726726.60650098     
   3044392592.2612700       -8741007.4057644606        617168099.35166323     
   2732745471.2879958       -59079005.632810712        592058665.37083137     
   2421776543.6151490       -107156359.52508950        579398424.66400325     
   3388535532.2936916       -98290928.927121162       -58711895.758292504     
   3318854536.5863733       -65305662.773340464       -56525866.694039188     
   3247805762.4969420       -36879657.893245935       -41687204.023681790     
   3175389210.0253949       -13012914.286888003       -14195907.747213900     
   3101604879.1717281        6294568.0457488298        25948022.135337576     
   3109973247.3620210       -111569047.90521729        102217911.91895249     
   3070258645.0249257       -71671942.460994720        109622731.40399872     
   3029408648.3081012       -35559484.949212670        125830949.26993729     
   2987423257.2115202       -3231675.3699462414        150842565.51676500     
   2944302471.7352085        25311486.276883125        184657580.14450938     
   2855992654.2717071       -117472659.33091593        262212901.21509391     
   2835246630.3756709       -73963059.075017929        275107625.79036939     
   2813597596.1022792       -33463493.410306096        292956513.52133214     
   2791045551.4515185        4026037.6631776094        315759564.40798086     
   2767590496.4233994        38505534.145470858        343516778.45031333     
   2626593753.0227461       -116001763.20420408        421273072.13010728     
   2613818492.6386032       -72179012.615378022        439928816.46505535     
   2600372605.8794789       -30591683.276490092        459689488.73047507     
   2586256092.7453680        8760224.8124465942        480555088.92638046     
   2571468953.2362742        45876711.651443720        502525617.05276209     
   2421776543.6151490       -107156359.52508950        579398424.66400325     
   2405974231.8137302       -66319803.082086682        604086303.42805898     
   2389733677.6397085       -26944054.547760010        626029874.89738977     
   2373054881.0930753        10970886.077870965        645229139.07198203     
   2355937842.1738453        47425018.794825315        661684095.95185077     
   3101604879.1717281        6294568.0457488298        25948022.135337576     
   2915436549.7823467       -7329272.7347972393        20963964.175351862     
   2731152840.3887830       -14671046.862629294        13477502.567904586     
   2548753750.9911065       -15730754.337507844        3488637.3129970296     
   2368239281.5892420       -10508395.159657598       -9002631.5893951487     
   2944302471.7352085        25311486.276883125        184657580.14450938     
   2753577369.7410188        10140471.849823117        175788289.96290904     
   2564361586.6637917        520.47927248477936        166273233.80504167     
   2376655122.5035067       -5108367.8347848654        156112411.67093039     
   2190457977.2601900       -5186193.0922887325        145305823.56055209     
   2767590496.4233994        38505534.145470858        343516778.45031333     
   2577613300.8850060        23378749.790078044        330324404.78838873     
   2388770123.1846728        12032024.894882441        318342902.82142115     
   2201060963.3224230        4465359.4599595070        307572272.54938686     
   2014485821.2982125        678753.48516893387        298012513.97232115     
   2571468953.2362742        45876711.651443720        502525617.05276209     
   2387544343.2142839        32385561.085927010        484572308.65180957     
   2204378449.9514575        21423466.384296775        469686509.61701298     
   2021971273.4478078        12990427.546584606        457868219.94837594     
   1840322813.7033305        7086444.5727720261        449117439.64589548     
   2355937842.1738453        47425018.794825315        661684095.95185077     
   2183370496.7288451        37160905.737340927        638532001.55315650     
   2011186566.9641285        28174844.947457075        620304054.19183278     
   1839386052.8796978        20466836.425192833        607000253.86787438     
   1667968954.4755301        14036880.170492768        598620600.58127880     
   2368239281.5892420       -10508395.159657598       -9002631.5893951487     
   2235615632.3409519        5598417.2448543310       -12240024.155870581     
   2098811016.1828868        7768673.2834597826       -13317541.326779852     
   1957825433.1150439       -3997627.0438768864       -12235183.102146022     
   1812658883.1374276       -29700483.737102509       -8992949.4819409084     
   2190457977.2601900       -5186193.0922887325        145305823.56055209     
   2061879704.0081208        9820430.5102852583        138058662.55096012     
   1930340762.7815101        14958160.864394903        132017343.55873923     
   1795841153.5804226        10226997.970234156        127181866.58389516     
   1658380876.4048009       -4373058.1723521948        123552231.62639014     
   2014485821.2982125        678753.48516893387        298012513.97232115     
   1887227114.3903816        13767445.390190482        288179266.61074668     
   1758228038.4433012        21054907.164376736        278597827.88835579     
   1627488593.4569521        22541138.807664573        269268197.80513197     
   1495008779.4313602        18226140.320154071        260190376.36108664     
   1840322813.7033305        7086444.5727720261        449117439.64589548     
   1711657863.4877698        17439461.884667277        438121788.02347720     
   1582472843.1682060        26058912.183231413        426423911.66204649     
   1452767752.7446516        32944795.468485653        414023810.56160277     
   1322542592.2171090        38097111.740437090        400921484.72214377     
   1667968954.4755301        14036880.170492768        598620600.58127880     
   1535171951.3002605        20836479.993661582        587886226.78916681     
   1403075176.9562488        29970175.921033800        575495594.87983024     
   1271678631.4435048        41437967.952627718        561448704.85329413     
   1140982314.7620265        55239856.088450730        545745556.70955288     
   1812658883.1374276       -29700483.737102509       -8992949.4819409084     
   1777255819.1175981       -15737131.935618520       -5802854.6506861700     
   1750475807.3091154        26969727.236977339       -40996858.528414153     
   1732318847.7120016        98420093.780835748       -114574961.11511590     
   1722784940.3262005        198613967.69571400       -226537162.41078243     
   1658380876.4048009       -4373058.1723521948        123552231.62639014     
   1532420763.4908762       -13009099.944941401        137445561.48675808     
   1411078877.9524343       -6251050.4659211636        125278966.34697042     
   1294355219.7895103        15901090.264813125        87052446.207012430     
   1182249789.0020673        53447322.247174859        22766001.066900119     
   1495008779.4313602        18226140.320154071        260190376.36108664     
   1313703542.5056763       -2445717.5617910624        280114645.60874605     
   1133011708.1196353       -21072900.311603367        286303163.56505013     
   952933276.27323306       -37655407.929278910        278755930.23002666     
   773468246.96648049       -52193240.414793819        257472945.60365611     
   1322542592.2171090        38097111.740437090        400921484.72214377     
   1121104156.1619899        15953015.213791728        422204397.71525693     
   916274297.81067824       -17495822.300178945        442075733.12584525     
   708053017.16315687       -62249400.801517218        460535490.95391685     
   496440314.21942377       -118307720.29020682        477583671.19946408     
   1140982314.7620265        55239856.088450730        545745556.70955288     
   954622604.45983171        42187098.381859571        563714817.80630445     
   760866647.02558279        4480183.5684157312        592596675.02935505     
   559714442.45926940       -57880888.351909220        632391128.37869668     
   351165990.76091170       -144896117.37904310        683098177.85434484     
   1722784940.3262005        198613967.69571400       -226537162.41078243     
   1454681870.7407298        184851614.95216173       -97502888.111061350     
   1153965323.8899472        62377671.324213505        60316063.068139173     
   820635299.77382565       -168807863.18816471        246919691.12684864     
   454691798.39243162       -508704988.58482879        462307996.06503499     
   1182249789.0020673        53447322.247174859        22766001.066900119     
   976507359.32492328        12044755.021072567        155024330.71490780     
   732614153.12401903       -156527067.28424111        312846217.52426010     
   450570170.39936721       -452268144.66867429        496231661.49494684     
   130375411.15095651       -875178477.13234854        705180662.62700891     
   773468246.96648049       -52193240.414793819        257472945.60365611     
   620883258.00293362       -123996981.88189146        386495148.13177943     
   424610193.25720716       -341427642.62294912        537859788.10308886     
   184649052.72928610       -704485222.63795769        711566865.51760471     
  -99000163.580822885       -1213169721.9269598        907616380.37530732     
   496440314.21942377       -118307720.29020682        477583671.19946408     
   387809566.77479100       -223273595.75667813        596909564.13952994     
   229953444.28952593       -492324054.69192386        735356774.80462670     
   22871946.763624787       -925459097.09592497        892925303.19479287     
  -233434925.80287203       -1522678722.9686382        1069615149.3100069     
   351165990.76091170       -144896117.37904310        683098177.85434484     
   277286285.64046282       -285785086.60335374        786267578.73817134     
   148643906.22096303       -609216303.49117303        905337177.62888944     
  -34761147.497591197       -1115189768.0425045        1040306974.5265208     
  -272928875.51522005       -1803705480.2574065        1191176969.4310617     
   4142509207.5758686       -138771220.68579626        548713310.80556786     
   4145459857.7410345       -76115546.447979689        657229633.62738752     
   4146703202.6122522       -19150889.856647730        732057997.36124170     
   4146239242.1895308        32122749.088219643        773198402.00711930     
   4144067976.4728694        77705370.386612892        780650847.56502569     
   4062199370.8881726       -35184261.686672449        715583343.95177090     
   3983724972.9250951       -8552078.1719641685        786318805.99655533     
   3904322618.4639840        14986917.015957117        836420687.96676469     
   3823992307.5048361        35432723.877100468        865888989.86240327     
   3742734040.0476580        52785342.411459923        874723711.68346989     
   3859687207.8049746        31741999.393799305        877538766.08832896     
   3737085987.4662290        33540159.911171913        911402607.61796010     
   3614336159.4253669        34842961.421458483        937687248.08642054     
   3491437723.6823721        35650403.924650431        956392687.49371159     
   3368390680.2372546        35962487.420756698        967518925.83983159     
   3534972718.3262887        62007562.555623531        1034579577.2152292     
   3405542901.3644595        50161167.801439285        1032481038.4916062     
   3276743825.4964070        40417243.359848022        1035857677.7202111     
   3148575490.7221398        32775789.230869889        1044709494.9010450     
   3021037897.0416522        27236805.414491653        1059036490.0341145     
   3088055902.4521036        55612427.798801661        1186705777.3324823     
   2989095714.6197605        41310945.498828053        1149554098.6174941     
   2891545616.6771049        31709762.831148863        1130931976.8681335     
   2795405608.6241355        26808879.795758963        1130839412.0844054     
   2700675690.4608545        26608296.392664790        1149276404.2663097     
   4144067976.4728694        77705370.386612892        780650847.56502569     
   4026177527.3933096        85278896.674377441        750078377.80098462     
   3907822950.6394958        91305330.714638710        727234837.80802584     
   3789004246.2114301        95784672.507388830        712120227.58614337     
   3669721414.1091213        98716922.052650928        704734547.13533914     
   3742734040.0476580        52785342.411459923        874723711.68346989     
   3643748457.5856719        63135163.929627657        852442417.52113342     
   3544580104.6889081        72875750.665202856        836333715.16345155     
   3445228981.3573656        82007102.618192911        826397604.61042106     
   3345695087.5910592        90529219.788614988        822634085.86204600     
   3368390680.2372546        35962487.420756698        967518925.83983159     
   3283863284.4887643        47754600.198092341        953857057.39192295     
   3199434475.5449748        59875335.657766938        944811442.78223932     
   3115104253.4058876        72324693.799776196        940382082.01078725     
   3030872618.0715055        85102674.624135017        940568975.07756007     
   3021037897.0416522        27236805.414491653        1059036490.0341145     
   2946522008.1025867        39137205.479774952        1054322297.4133534     
   2872386063.2076993        52304085.692323208        1052668020.6643943     
   2798630062.3569927        66737446.052142978        1054073659.7872398     
   2725254005.5504637        82437286.559208274        1058539214.7818851     
   2700675690.4608545        26608296.392664790        1149276404.2663097     
   2631724628.4271421        37282979.774686098        1153838137.5854213     
   2563434867.6770811        50162000.768882632        1159903448.8099079     
   2495806408.2106743        65245359.375259161        1167472337.9397745     
   2428839250.0279279        82533055.593833804        1176544804.9750142     
   3669721414.1091213        98716922.052650928        704734547.13533914     
   3356717906.5349817        43857635.156059146        654726726.60650098     
   3044392592.2612700       -8741007.4057644606        617168099.35166323     
   2732745471.2879958       -59079005.632810712        592058665.37083137     
   2421776543.6151490       -107156359.52508950        579398424.66400325     
   3345695087.5910592        90529219.788614988        822634085.86204600     
   3066041122.5094051        44972293.351950765        775637501.67806911     
   2786541561.5685768       -69952.615287542343        739698519.87740004     
   2507196404.7685847       -44597518.113079190        714817140.46004033     
   2228005652.1094203       -88610403.141446114        700993363.42598522     
   3030872618.0715055        85102674.624135017        940568975.07756007     
   2780592221.5089135        47655316.455362916        895972539.88557935     
   2529942439.9275537        8976674.8906939030        861042116.18621433     
   2278923273.3274198       -30933250.069880486        835777703.97945917     
   2027534721.7085202       -72074458.426350951        820179303.26531732     
   2725254005.5504637        82437286.559208274        1058539214.7818851     
   2500371203.5335150        51906704.466308713        1015731841.2290366     
   2274595227.3381948        18398875.112174511        981198888.27810168     
   2047926076.9645016       -18086201.503200889        954940355.92908382     
   1820363752.4124417       -57548525.379807591        936956244.18197882     
   2428839250.0279279        82533055.593833804        1176544804.9750142     
   2225378068.5831981        57726457.384770632        1134915405.7084301     
   2020499923.8005052        28196648.049155354        1100168836.1530666     
   1814204815.6798327       -6056372.4130526781        1072305096.3089181     
   1606492744.2211914       -45032604.001822531        1051324186.1759845     
   2421776543.6151490       -107156359.52508950        579398424.66400325     
   2405974231.8137302       -66319803.082086682        604086303.42805898     
   2389733677.6397085       -26944054.547760010        626029874.89738977     
   2373054881.0930753        10970886.077870965        645229139.07198203     
   2355937842.1738453        47425018.794825315        661684095.95185077     
   2228005652.1094203       -88610403.141446114        700993363.42598522     
   2204429190.6283193       -55631527.121401787        723769682.38306022     
   2180901054.9151773       -22491565.208161592        745123504.36347651     
   2157421244.9699860        10809482.598250628        765054829.36724508     
   2133989760.7927470        44271616.297839761        783563657.39436960     
   2027534721.7085202       -72074458.426350951        820179303.26531732     
   1999960711.4565301       -45820282.556633711        841611725.24605536     
   1972921595.1130564       -17783126.991859078        862943460.56821990     
   1946417372.6781020        12037008.267978549        884174509.23181593     
   1920448044.1516614        43640123.222871423        905304871.23683691     
   1820363752.4124417       -57548525.379807591        936956244.18197882     
   1792568794.2983606       -36886069.387774706        957612432.01704311     
   1765795298.2333577       -12818739.898815513        979489743.51162052     
   1740043264.2174344        14653463.087077975        1002588178.6656919     
   1715312692.2505870        45530539.569889665        1026907737.4792812     
   1606492744.2211914       -45032604.001822531        1051324186.1759845     
   1582253439.1538148       -28828887.614831924        1071771802.6960306     
   1559522164.2760744       -7598403.9290621877        1094762353.1936662     
   1538298919.5879819        18658847.055540621        1120295837.6688824     
   1518583705.0895295        49942865.338933051        1148372256.1216855     
   2355937842.1738453        47425018.794825315        661684095.95185077     
   2183370496.7288451        37160905.737340927        638532001.55315650     
   2011186566.9641285        28174844.947457075        620304054.19183278     
   1839386052.8796978        20466836.425192833        607000253.86787438     
   1667968954.4755301        14036880.170492768        598620600.58127880     
   2133989760.7927470        44271616.297839761        783563657.39436960     
   1974951894.9591866        37439659.770649314        763581903.85684872     
   1816121411.6676152        31298978.383412361        748291259.16838896     
   1657498310.9180527        25849572.136220038        737691723.32898629     
   1499082592.7104828        21091441.028988242        731783296.33864546     
   1920448044.1516614        43640123.222871423        905304871.23683691     
   1774273834.5343647        40040576.207391977        888288086.56584024     
   1628130974.3207755        36545527.204296291        875729372.55558920     
   1482019463.5109034        33154976.213582873        867628729.20608115     
   1335939302.1047516        29868923.235261798        863986156.51732898     
   1715312692.2505870        45530539.569889665        1026907737.4792812     
   1581336315.4543805        44963655.047594428        1012650549.6801360     
   1447215254.9235990        43914491.410059333        1002618394.3534294     
   1312949510.6582537        42383048.657312155        996811271.49915040     
   1178539082.6583412        40369326.789326549        995229181.11731458     
   1518583705.0895295        49942865.338933051        1148372256.1216855     
   1396139337.7192338        52208896.291244745        1136669293.1997306     
   1273374253.4760923        53405871.000734866        1128958324.5619004     
   1150288452.3600943        53533789.467368126        1125239350.2081997     
   1026881934.3712587        52592651.691209733        1125512370.1386209     
   1667968954.4755301        14036880.170492768        598620600.58127880     
   1535171951.3002605        20836479.993661582        587886226.78916681     
   1403075176.9562488        29970175.921033800        575495594.87983024     
   1271678631.4435048        41437967.952627718        561448704.85329413     
   1140982314.7620265        55239856.088450730        545745556.70955288     
   1499082592.7104828        21091441.028988242        731783296.33864546     
   1363110304.6061220        23384053.832114935        724423720.79835534     
   1227140116.2978365        25683665.955478132        717317950.43445742     
   1091172027.7856209        27990277.399079204        710465985.24694610     
   955206039.06946468        30303888.162882864        703867825.23580265     
   1335939302.1047516        29868923.235261798        863986156.51732898     
   1202249052.7672877        29291746.127166092        859186895.35448027     
   1067862774.1906981        26394471.555304527        856551502.66160488     
   932780466.37497592        21177099.519669056        856079978.43870521     
   797002129.32012463        13639630.020278275        857772322.68578064     
   1178539082.6583412        40369326.789326549        995229181.11731458     
   1052588195.7837508        38559556.878806591        992175750.45751417     
   925243150.63483274        32102592.720522821        993196251.56126666     
   796503947.21157718        20998434.314449430        998290684.42859185     
   666370585.51400638        5247081.6606484354        1007459049.0594867     
   1026881934.3712587        52592651.691209733        1125512370.1386209     
   914127733.65551054        51187486.087029368        1123390286.1074593     
   799281245.63023365        42808029.451089382        1127252197.1334543     
   682342470.29543328        27454281.783403397        1137098103.2166023     
   563311407.65110934        5126243.0839717388        1152928004.3569124     
   1140982314.7620265        55239856.088450730        545745556.70955288     
   954622604.45983171        42187098.381859571        563714817.80630445     
   760866647.02558279        4480183.5684157312        592596675.02935505     
   559714442.45926940       -57880888.351909220        632391128.37869668     
   351165990.76091170       -144896117.37904310        683098177.85434484     
   955206039.06946468        30303888.162882864        703867825.23580265     
   794604397.74658298        12232532.945215672        721747338.23210812     
   625433005.94667435       -34404657.195869356        749686292.20412827     
   447691863.66973090       -109607682.26041079        787684687.15188885     
   261380970.91575593       -213376542.24838218        835742523.07537448     
   797002129.32012463        13639630.020278275        857772322.68578064     
   659720970.83208668       -10181598.551795810        874193000.34582317     
   512696558.52203840       -66480339.863885224        899819963.83102238     
   355928892.38998514       -155256593.91600764        934653213.14139080     
   189417972.43592784       -276510360.70812964        978692748.27692521     
   666370585.51400638        5247081.6606484354        1007459049.0594867     
   549972323.71633112       -25055296.109195083        1021051804.1474628     
   422657304.75168091       -91746864.435611278        1042997689.9100376     
   284425528.62004471       -194827623.31865299        1073296706.3472093     
   135276995.32143027       -334297572.75828791        1111948853.4589863     
   563311407.65110934        5126243.0839717388        1152928004.3569124     
   465358456.39933085       -32388559.726951152        1162323749.6370201     
   355315244.63560140       -110204230.91104397        1179219470.4411597     
   233181772.35990608       -228320770.46836191        1203615166.7693336     
   98958039.572269052       -386738178.39881867        1235510838.6215417     
   351165990.76091170       -144896117.37904310        683098177.85434484     
   277286285.64046282       -285785086.60335374        786267578.73817134     
   148643906.22096303       -609216303.49117303        905337177.62888944     
  -34761147.497591197       -1115189768.0425045        1040306974.5265208     
  -272928875.51522005       -1803705480.2574065        1191176969.4310617     
   261380970.91575593       -213376542.24838218        835742523.07537448     
   223015578.63125443       -352819952.80574191        885004501.40280938     
   140434309.98186296       -639649617.91273189        945351393.44323385     
   13637164.967602313       -1073865537.5692887        1016783199.1966536     
  -157375856.41155320       -1655467711.7754922        1099299918.6630642     
   189417972.43592784       -276510360.70812964        978692748.27692521     
   172808937.86189884       -418635599.13620418        986351901.63784862     
   122530824.85716417       -672991098.99996555        1000280684.4178339     
   38583633.421726227       -1039576860.2994009        1020479096.6169125     
  -79032636.444416940       -1518392883.0345373        1046947138.2350582     
   135276995.32143027       -334297572.75828791        1111948853.4589863     
   126666363.33242220       -483232025.59468108        1090309779.4432514     
   94933450.846873939       -709240746.75286567        1070125050.5526897     
   40078257.864794016       -1012323736.2328330        1051394666.7872882     
  -37899215.613811851       -1392480994.0345416        1034118628.1470522     
   98958039.572269052       -386738178.39881867        1235510838.6215417     
   84587855.042806476       -546609232.18119979        1196878134.8190427     
   57642187.950971633       -748398561.17148280        1154884491.8477859     
   18121038.296798766       -992106165.36955917        1109529909.7077913     
  -33975593.919732809       -1277732044.7755036        1060814388.3990519     
   3088055902.4521036        55612427.798801661        1186705777.3324823     
   2989095714.6197605        41310945.498828053        1149554098.6174941     
   2891545616.6771049        31709762.831148863        1130931976.8681335     
   2795405608.6241355        26808879.795758963        1130839412.0844054     
   2700675690.4608545        26608296.392664790        1149276404.2663097     
   2594806782.3682694       -3810338.1863836050        1226331234.6222379     
   2540711316.8553729       -4324107.6797384024        1207298744.1991847     
   2487976470.3679132       -302480.42162704468        1201066241.7931590     
   2436602242.9058924        8254543.5879468918        1207633727.4041638     
   2386588634.4693079        21346964.348975062        1227001201.0321972     
   2156894021.9960961       -46632196.258073926        1266111817.6510611     
   2131293081.8066401       -38269312.043601513        1265140799.5116513     
   2107003289.7783697       -25535933.958502173        1271240200.4406717     
   2084024645.9112902       -8432062.0027728081        1284410020.4381161     
   2062357150.2053978        13042303.823583364        1304650259.5039885     
   1774317621.3355844       -72853146.416264772        1306047526.4189441     
   1760841009.4735579       -60524667.592774034        1323080264.5548921     
   1748626074.9084756       -43990597.779482365        1341453852.8106601     
   1737672817.6403284       -23250936.976402164        1361168291.1862578     
   1727981237.6691184        1694314.8164756298        1382223579.6816769     
   1447077580.3867273       -82473188.660957694        1346138360.9258978     
   1429355099.8561306       -71090174.327248156        1381117139.3289053     
   1412844825.7582240       -55666471.884574831        1411707198.9031355     
   1397546758.0930054       -36202081.332939327        1437908539.6485877     
   1383460896.8604763       -12697002.672337651        1459721161.5652637     
   2700675690.4608545        26608296.392664790        1149276404.2663097     
   2631724628.4271421        37282979.774686098        1153838137.5854213     
   2563434867.6770811        50162000.768882632        1159903448.8099079     
   2495806408.2106743        65245359.375259161        1167472337.9397745     
   2428839250.0279279        82533055.593833804        1176544804.9750142     
   2386588634.4693079        21346964.348975062        1227001201.0321972     
   2322732997.3317266        32783757.801619172        1228933091.6538708     
   2259163102.4666743        45173025.496020913        1233105090.4278154     
   2195878949.8741431        58514767.432164907        1239517197.3540363     
   2132880539.5541368        72808983.610059381        1248169412.4325283     
   2062357150.2053978        13042303.823583364        1304650259.5039885     
   2005701310.0979459        25872518.987060428        1303514155.2485685     
   1948955653.2518876        38403345.021842360        1305354689.3923178     
   1892120179.6672239        50634781.927948117        1310171861.9352412     
   1835194889.3439558        62566829.705362916        1317965672.8773332     
   1727981237.6691184        1694314.8164756298        1382223579.6816769     
   1680629566.7257876        16549263.330974519        1377581328.3695121     
   1632812520.0327213        29852959.346353054        1376652245.7034121     
   1584530097.5899174        41605402.862611711        1379436331.6833861     
   1535782299.3973796        51806593.879748881        1385933586.3094258     
   1383460896.8604763       -12697002.672337651        1459721161.5652637     
   1347517767.2152624        4813990.8333919048        1451134611.0167005     
   1310733702.8091774        19521868.469550490        1446997759.3611031     
   1273108703.6422296        31426630.236164927        1447310606.5984735     
   1234642769.7144113        40528276.133217096        1452073152.7288098     
   2428839250.0279279        82533055.593833804        1176544804.9750142     
   2225378068.5831981        57726457.384770632        1134915405.7084301     
   2020499923.8005052        28196648.049155354        1100168836.1530666     
   1814204815.6798327       -6056372.4130526781        1072305096.3089181     
   1606492744.2211914       -45032604.001822531        1051324186.1759845     
   2132880539.5541368        72808983.610059381        1248169412.4325283     
   1948890110.9879191        49398232.506316662        1204845908.4302876     
   1763686009.2869213        21941904.286634922        1169294958.3683062     
   1577268234.4511278       -9560001.0490332246        1141516562.2465823     
   1389636786.4805448       -45107483.500653863        1121510720.0651131     
   1835194889.3439558        62566829.705362916        1317965672.8773332     
   1673217282.8820872        41314546.474710822        1273185236.0431473     
   1510229293.4886117        16694320.138700783        1237067077.3782573     
   1346230921.1635306       -11293849.302667916        1209611196.8826663     
   1181222165.9068375       -42649961.849403441        1190817594.5563741     
   1535782299.3973796        51806593.879748881        1385933586.3094258     
   1398359584.2656910        33475399.289927006        1339933388.5469999     
   1260129776.4055750        12453895.605349898        1303485193.1829209     
   1121092875.8170352       -11257917.173978806        1276589000.2171724     
   981248882.50006759       -37660039.048065007        1259244809.6497688     
   1234642769.7144113        40528276.133217096        1452073152.7288098     
   1124317015.1387360        25880790.951978922        1405090365.9418616     
   1013387458.0378129        9220630.6865845919        1368549305.7822924     
   901854098.41164649       -9452204.6629569530        1342449972.2501068     
   789716936.26022971       -30137715.096663713        1326792365.3453038     
   1606492744.2211914       -45032604.001822531        1051324186.1759845     
   1582253439.1538148       -28828887.614831924        1071771802.6960306     
   1559522164.2760744       -7598403.9290621877        1094762353.1936662     
   1538298919.5879819        18658847.055540621        1120295837.6688824     
   1518583705.0895295        49942865.338933051        1148372256.1216855     
   1389636786.4805448       -45107483.500653863        1121510720.0651131     
   1371049781.8151042       -29693251.735837042        1146318118.2014639     
   1353840218.1250448       -9687550.0530772805        1173112694.5052972     
   1338008095.4103632        14909621.547608495        1201894448.9766130     
   1323553413.6710663        44098263.066236436        1232663381.6154072     
   1181222165.9068375       -42649961.849403441        1190817594.5563741     
   1166699587.9001780       -28501576.829688489        1219832420.2257257     
   1153423861.6546354       -10197019.272920609        1250278668.2524543     
   1141394987.1702156        12263710.820927322        1282156338.6365621     
   1130612964.4469161        38880613.451833725        1315465431.3780401     
   981248882.50006759       -37660039.048065007        1259244809.6497688     
   969202857.40903354       -25253862.896414518        1292314708.7688186     
   958273094.86485493       -9126811.5885680914        1326260274.4351430     
   948459594.86753607        10721114.875475109        1361081506.6487331     
   939762357.41708338        34289916.495732963        1396778405.4096012     
   789716936.26022971       -30137715.096663713        1326792365.3453038     
   778559590.34166503       -19950109.936007917        1363764983.8307445     
   768387917.75569642       -6476927.0000397563        1401057513.0533559     
   759201918.50232935        10281833.711273581        1438669953.0131342     
   751001592.58155966        30326172.197911680        1476602303.7100813     
   1518583705.0895295        49942865.338933051        1148372256.1216855     
   1396139337.7192338        52208896.291244745        1136669293.1997306     
   1273374253.4760923        53405871.000734866        1128958324.5619004     
   1150288452.3600943        53533789.467368126        1125239350.2081997     
   1026881934.3712587        52592651.691209733        1125512370.1386209     
   1323553413.6710663        44098263.066236436        1232663381.6154072     
   1212073083.1808457        45656314.728497028        1221576021.4976568     
   1100189226.9474800        45869280.580271661        1215093921.4550850     
   987901844.97098494        44737160.621612728        1213217081.4876864     
   875210937.25134683        42259954.852482527        1215945501.5954616     
   1130612964.4469161        38880613.451833725        1315465431.3780401     
   1031848858.8111882        40256342.216356933        1304897063.7158322     
   932598418.56203508        40010955.602786094        1299547221.9198468     
   832861643.69944906        38144453.611109585        1299415905.9900861     
   732638534.22343898        34656836.241353303        1304503115.9265394     
   939762357.41708338        34289916.495732963        1396778405.4096012     
   855466664.61027336        36008978.754848689        1386632419.8542631     
   770601828.31974101        35830896.068225354        1382318225.9561863     
   685167848.54549515        33755668.435890943        1383835823.7153833     
   599164725.28753221        29783295.857829273        1391185213.1318445     
   751001592.58155966        30326172.197911680        1476602303.7100813     
   682926500.57808959        32914224.343953162        1466782089.9129319     
   614199456.22061110        33329101.976630539        1463406933.5641029     
   544820459.50912154        31570805.095940530        1466476834.6635902     
   474789510.44362545        27639333.701898664        1475991793.2113926     
   1026881934.3712587        52592651.691209733        1125512370.1386209     
   914127733.65551054        51187486.087029368        1123390286.1074593     
   799281245.63023365        42808029.451089382        1127252197.1334543     
   682342470.29543328        27454281.783403397        1137098103.2166023     
   563311407.65110934        5126243.0839717388        1152928004.3569124     
   875210937.25134683        42259954.852482527        1215945501.5954616     
   777697038.56011331        40518845.725996315        1214471157.6084416     
   678069958.31583762        31733798.089382321        1218813653.2421114     
   576329696.51852703        15904811.942645848        1228972988.4964797     
   472476253.16816878       -6968112.7142558098        1244949163.3715394     
   732638534.22343898        34656836.241353303        1304503115.9265394     
   649887350.59540093        32436507.504175246        1303652135.3662198     
   565002091.17080772        23102592.778484225        1308450838.9901369     
   477982755.94965589        6655092.0642652512        1318899226.7982805     
   388829344.93195194       -16905994.638466254        1334997298.7906568     
   599164725.28753221        29783295.857829273        1391185213.1318445     
   530698669.76136893        26940471.421551675        1390933219.3808026     
   460077644.19513625        16914413.518387467        1396163754.3775241     
   387301648.58883399       -294877.85168375075        1406876818.1220174     
   312370682.94245768       -24687402.688663214        1423072410.6142848     
   474789510.44362545        27639333.701898664        1475991793.2113926     
   420130996.05802071        24030737.478143275        1476314409.6521831     
   363296617.38883078        13169260.309103802        1481952399.4042811     
   304286374.43605572       -4945097.8052221835        1492905762.4676874     
   243100267.19969299       -30312336.864834666        1509174498.8424027     
   563311407.65110934        5126243.0839717388        1152928004.3569124     
   465358456.39933085       -32388559.726951152        1162323749.6370201     
   355315244.63560140       -110204230.91104397        1179219470.4411597     
   233181772.35990608       -228320770.46836191        1203615166.7693336     
   98958039.572269052       -386738178.39881867        1235510838.6215417     
   472476253.16816878       -6968112.7142558098        1244949163.3715394     
   393549730.29492593       -41069569.110675201        1243270016.8077486     
   304402361.79933870       -109240510.91491188        1247938913.5308270     
   205034147.68140644       -211480938.12696269        1258955853.5407872     
   95445087.941138595       -347790850.74680156        1276320836.8376324     
   388829344.93195194       -16905994.638466254        1334997298.7906568     
   325638015.47393686       -48581475.109382838        1324424244.4208486     
   254095255.28319439       -108095058.02272266        1319047301.1007574     
   174201064.35971618       -195446743.37851363        1318866468.8303876     
   85955442.703510493       -310636531.17673367        1323881747.6097343     
   312370682.94245768       -24687402.688663214        1423072410.6142848     
   261623311.93636701       -54924277.723057181        1405786432.4763312     
   204393925.08715051       -106767872.23453410        1392544633.1509480     
   140682522.39482391       -180218186.22304201        1383347012.6381259     
   70489103.859379902       -275275219.68861657        1378193570.9378653     
   243100267.19969299       -30312336.864834666        1509174498.8424027     
   201505619.68221450       -60097976.951713011        1487356580.9741998     
   155298371.21123439       -105258953.55026057        1468430909.6813965     
   104478521.78674406       -165795266.66051164        1452397484.9640002     
   49046071.408751041       -241706916.28243560        1439256306.8220165     
   98958039.572269052       -386738178.39881867        1235510838.6215417     
   84587855.042806476       -546609232.18119979        1196878134.8190427     
   57642187.950971633       -748398561.17148280        1154884491.8477859     
   18121038.296798766       -992106165.36955917        1109529909.7077913     
  -33975593.919732809       -1277732044.7755036        1060814388.3990519     
   95445087.941138595       -347790850.74680156        1276320836.8376324     
   78995892.654270917       -488911594.42364168        1222023347.3104148     
   51172296.576782376       -667947007.40254855        1165160563.2680464     
   11974299.708665073       -884897089.68355417        1105732484.7105215     
  -38598097.950085104       -1139761841.2666607        1043739111.6378493     
   85955442.703510493       -310636531.17673367        1323881747.6097343     
   69700507.098090917       -432324983.61635691        1255320734.4248230     
   43272252.473768890       -587924499.45231485        1184990071.3783476     
   6670678.8305593729       -777435078.68456721        1112889758.4703243     
  -40104213.831553698       -1000856721.3131660        1039019795.7007523     
   70489103.859379902       -275275219.68861657        1378193570.9378653     
   56701698.374252349       -376849399.75937974        1296770296.1622682     
   33942055.641963035       -508331037.32067901        1214373016.1787107     
   2210175.6625023484       -669720132.37255895        1131001730.9871941     
  -38493941.564127028       -861016684.91499627        1046656440.5877268     
   49046071.408751041       -241706916.28243560        1439256306.8220165     
   39999466.482760444       -322484842.85269856        1346372032.5227571     
   23181706.081339866       -429166621.00772822        1253309397.6691334     
  -1407209.7955041826       -561752250.74751246        1160068402.2611480     
  -33767281.147811323       -720241732.07215977        1066649046.2988031     
   1447077580.3867273       -82473188.660957694        1346138360.9258978     
   1429355099.8561306       -71090174.327248156        1381117139.3289053     
   1412844825.7582240       -55666471.884574831        1411707198.9031355     
   1397546758.0930054       -36202081.332939327        1437908539.6485877     
   1383460896.8604763       -12697002.672337651        1459721161.5652637     
   1159080360.4997878        10057389.659410596        1429343828.4453917     
   1130173657.2522767        12344559.713699758        1453337765.6519434     
   1101139383.3436999        14206494.231105268        1475216214.4310472     
   1071977538.7740538        15643193.211612225        1494979174.7827063     
   1042688123.5433435        16654656.655240119        1512626646.7069254     
   834642681.76359665        91655830.325001717        1511122918.1935489     
   801046699.80297649        86795639.301010609        1522568940.9275906     
   765983370.08753467        77044289.094282240        1534172705.6355238     
   729452692.61727142        62401779.704817772        1545934212.3173425     
   691454667.39218795        42868111.132614434        1557853460.9730470     
   473764544.17815584        162322133.33581793        1591475630.1703629     
   441974227.50823420        152263064.43469205        1588810665.1558571     
   407376785.98973399        132846912.70497225        1588576672.5165653     
   369972219.62265956        104073678.14667116        1590773652.2524936     
   329760528.40700859        65943360.759781584        1595401604.3636448     
   76445947.743464977        222056298.69186082        1670401964.3758402     
   52956240.368046410        208746835.11473653        1652062938.3367300     
   25319631.050295938        181614365.06317189        1638428115.0741699     
  -6463880.2097834721        140658888.53717709        1629497494.5881624     
  -42394293.412196472        85880405.536737695        1625271076.8787084     
   1383460896.8604763       -12697002.672337651        1459721161.5652637     
   1347517767.2152624        4813990.8333919048        1451134611.0167005     
   1310733702.8091774        19521868.469550490        1446997759.3611031     
   1273108703.6422296        31426630.236164927        1447310606.5984735     
   1234642769.7144113        40528276.133217096        1452073152.7288098     
   1042688123.5433435        16654656.655240119        1512626646.7069254     
   1014656476.5824506        18795138.621883869        1500618538.5183878     
   987248018.77189946        23012917.756333709        1493793528.4723055     
   960462750.11169100        29307994.058593869        1492151616.5686753     
   934300670.60182762        37680367.528668284        1495692802.8074989     
   691454667.39218795        42868111.132614434        1557853460.9730470     
   673429929.54271877        30266709.488304853        1544131939.7076190     
   657492504.75480306        24623018.049171329        1536326915.8341308     
   643642393.02844071        25937036.815215945        1534438389.3525817     
   631879594.36363137        34208765.786437303        1538466360.2629719     
   329760528.40700859        65943360.759781584        1595401604.3636448     
   323838126.09606665        39228703.432650596        1581674814.5844018     
   321467160.75788856        24352169.348065242        1574597921.4465840     
   322647632.39247370        21313758.506024644        1574170924.9501913     
   327379540.99982196        30113470.906524926        1580393825.0952237     
  -42394293.412196472        85880405.536737695        1625271076.8787084     
  -34118933.757508174        45681120.454916179        1613247163.1487284     
  -20828013.218844306        22200371.653013587        1608606545.3096633     
  -2521531.7962121097        15438159.131005244        1611349223.3615065     
   20800510.510397419        25394482.888921335        1621475197.3042622     
   1234642769.7144113        40528276.133217096        1452073152.7288098     
   1124317015.1387360        25880790.951978922        1405090365.9418616     
   1013387458.0378129        9220630.6865845919        1368549305.7822924     
   901854098.41164649       -9452204.6629569530        1342449972.2501068     
   789716936.26022971       -30137715.096663713        1326792365.3453038     
   934300670.60182762        37680367.528668284        1495692802.8074989     
   852530213.06131840        29157543.047615469        1447019215.4409492     
   769996334.80435586        18089982.845051944        1408456131.3124893     
   686699035.83094788        4477686.9210047126        1380003550.4221182     
   602638316.14108360       -11679344.724565536        1361661472.7698343     
   631879594.36363137        34208765.786437303        1538466360.2629719     
   577718081.31745589        31526696.243325353        1487915751.0937459     
   522633529.36362141        25767830.341349393        1447144421.7733212     
   466625938.50213230        16932168.080524594        1416152372.3016918     
   409695308.73298329        5019709.4608347863        1394939602.6788592     
   327379540.99982196        30113470.906524926        1580393825.0952237     
   299880619.90714598        32988250.539102554        1527779972.9002552     
   271299041.71560490        32254173.175462186        1484614177.1647859     
   241634806.42520106        27911238.815613113        1450896437.8888233     
   210887914.03593311        19959447.459549285        1426626755.0723681     
   20800510.510397419        25394482.888921335        1621475197.3042622     
   19017828.830386244        33542205.934934847        1566611880.8604686     
   15992871.860305477        37549011.347385146        1520865397.4868875     
   11725639.600156086        37414899.126271270        1484235747.1835198     
   6216132.0499346368        33139869.271585945        1456722929.9503646     
   789716936.26022971       -30137715.096663713        1326792365.3453038     
   778559590.34166503       -19950109.936007917        1363764983.8307445     
   768387917.75569642       -6476927.0000397563        1401057513.0533559     
   759201918.50232935        10281833.711273581        1438669953.0131342     
   751001592.58155966        30326172.197911680        1476602303.7100813     
   602638316.14108360       -11679344.724565536        1361661472.7698343     
   591611411.13983631       -6010098.4170269072        1397821212.1826849     
   581292630.29230642        2019561.7362404168        1434804078.2224057     
   571681973.59849501        12409635.735233456        1472610070.8889980     
   562779441.05840230        25160123.579955637        1511239190.1824672     
   409695308.73298329        5019709.4608347863        1394939602.6788592     
   400236604.33392638        6601924.8207329661        1429962655.6437504     
   391208474.90970403        9619390.0967472941        1466312051.1252201     
   382610920.46031725        14072105.288880438        1503987789.1232634     
   374443940.98577213        19960070.397151202        1542989869.6378846     
   210887914.03593311        19959447.459549285        1426626755.0723681     
   204435169.92393455        17885959.777259983        1460189314.2139440     
   198135451.60788998        16322558.081485488        1495581431.7617986     
   191988759.08780390        15269242.372238331        1532803107.7159333     
   185995092.36367208        14726012.649505764        1571854342.0763521     
   6216132.0499346368        33139869.271585945        1456722929.9503646     
   4207107.9098660825        27842006.452577308        1488501187.8932610     
   2073560.3868677029        22129065.690467861        1522612220.1321409     
  -184510.51905471459        16001046.985279327        1559056026.6670074     
  -2567104.8078984017        9457950.3370191995        1597832607.4978588     
   751001592.58155966        30326172.197911680        1476602303.7100813     
   682926500.57808959        32914224.343953162        1466782089.9129319     
   614199456.22061110        33329101.976630539        1463406933.5641029     
   544820459.50912154        31570805.095940530        1466476834.6635902     
   474789510.44362545        27639333.701898664        1475991793.2113926     
   562779441.05840230        25160123.579955637        1511239190.1824672     
   510991947.47925735        25597761.159092307        1500866007.7666645     
   458860706.48010564        24889574.004876286        1497072939.2828484     
   406385718.06094617        23035562.117298588        1499859984.7310269     
   353566982.22178757        20035725.496389210        1509227144.1111867     
   374443940.98577213        19960070.397151202        1542989869.6378846     
   339329921.49858499        18363056.109679505        1532423291.0264320     
   304180359.52539742        16647566.868874475        1528571882.8306375     
   268995255.06619918        14813602.674698502        1531435645.0505054     
   233774608.12099856        12861163.527181111        1541014577.6860266     
   185995092.36367208        14726012.649505764        1571854342.0763521     
   167940422.63607368        11210109.195711643        1561453939.6922486     
   150158415.35648122        8603080.5686036274        1557903764.2074742     
   132649070.52487512        6904926.7681186050        1561203815.6220329     
   115412388.14127028        6115647.7943012193        1571354093.9359150     
  -2567104.8078984017        9457950.3370191995        1597832607.4978588     
  -3176549.1082763732        4138920.4171954868        1587957953.7641058     
  -3205126.0266460832        756115.10406112066        1585068583.4133532     
  -2652835.5630243453       -690465.60243265890        1589164496.4455998     
  -1519677.7174055558       -200821.70226959838        1600245692.8608491     
   474789510.44362545        27639333.701898664        1475991793.2113926     
   420130996.05802071        24030737.478143275        1476314409.6521831     
   363296617.38883078        13169260.309103802        1481952399.4042811     
   304286374.43605572       -4945097.8052221835        1492905762.4676874     
   243100267.19969299       -30312336.864834666        1509174498.8424027     
   353566982.22178757        20035725.496389210        1509227144.1111867     
   313003312.20272791        17665683.837267056        1507772572.9663022     
   270774560.07559502        9745368.4845633954        1511558996.2002256     
   226880725.84040940       -3725220.5616473407        1520586413.8129702     
   181321809.49716130       -22746083.301399730        1534854825.8045144     
   233774608.12099856        12861163.527181111        1541014577.6860266     
   207093271.23277339        11665923.061964042        1538378731.4935787     
   179257634.41200927        6623016.1549496353        1540909500.7474449     
   150267697.65870109       -2267557.1938781813        1548606885.4476190     
   120123460.97285540       -15005796.984497055        1561470885.5941157     
   115412388.14127028        6115647.7943012193        1571354093.9359150     
   102400873.14817192        6031455.1522810720        1568132885.2340128     
   88745840.398056760        3802203.3202033639        1570003913.0459244     
   74447289.890924722       -572107.70192922652        1576967177.3716547     
   59505221.626775630       -7091477.9141198695        1589022678.2111998     
  -1519677.7174055558       -200821.70226959838        1600245692.8608491     
  -1073882.0510813203        762280.10820258223        1597035034.1875985     
  -760821.96624901867        1282929.9803710922        1598842233.0956700     
  -580497.46292354260        1361127.9141831698        1605667289.5850585     
  -532908.54108290910        996873.90971035778        1617510203.6557612     
   243100267.19969299       -30312336.864834666        1509174498.8424027     
   201505619.68221450       -60097976.951713011        1487356580.9741998     
   155298371.21123439       -105258953.55026057        1468430909.6813965     
   104478521.78674406       -165795266.66051164        1452397484.9640002     
   49046071.408751041       -241706916.28243560        1439256306.8220165     
   181321809.49716130       -22746083.301399730        1534854825.8045144     
   149565669.97135931       -45374713.560786329        1508606315.3026314     
   114365645.14820778       -79482961.477999270        1485382023.6433635     
   75721735.027717650       -125070827.05301239        1465181950.8267124     
   33633939.609877571       -182138310.28585449        1448006096.8526781     
   120123460.97285540       -15005796.984497055        1561470885.5941157     
   98582893.059328794       -30364298.330225572        1532155284.0574033     
   74767155.504617199       -53306698.479900494        1505995873.6305292     
   48676248.308724090       -83832997.433516622        1482992654.3134820     
   20310171.471652508       -121943195.19105887        1463145626.1062593     
   59505221.626775630       -7091477.9141198695        1589022678.2111998     
   48557288.946126424       -15066731.260016352        1558003487.2385256     
   36502902.280459471       -26730164.555971846        1530272459.6428943     
   23342061.629770070       -42081777.802002318        1505829595.4243059     
   9074766.9940703325       -61121570.998067081        1484674894.5827518     
  -532908.54108290910        996873.90971035778        1617510203.6557612     
  -511142.36824233446        517987.64985292789        1586150924.8459859     
  -427114.52426586958        246640.29378318708        1558211781.6804600     
  -280825.00914463843        182831.84152794554        1533692774.1591809     
  -72273.822874889695        326562.29310248402        1512593902.2821589     
   49046071.408751041       -241706916.28243560        1439256306.8220165     
   39999466.482760444       -322484842.85269856        1346372032.5227571     
   23181706.081339866       -429166621.00772822        1253309397.6691334     
  -1407209.7955041826       -561752250.74751246        1160068402.2611480     
  -33767281.147811323       -720241732.07215977        1066649046.2988031     
   33633939.609877571       -182138310.28585449        1448006096.8526781     
   29607625.495468289       -241855451.95132834        1347596851.1888907     
   19749524.486984313       -321011883.26371920        1246367547.1103432     
   4059636.5844144523       -419607604.22305959        1144318184.6170278     
  -17462038.212242484       -537642614.82936227        1041448763.7089725     
   20310171.471652508       -121943195.19105887        1463145626.1062593     
   19470725.710537978       -161149578.68924949        1357474005.7561955     
   14738861.636704400       -213330689.89650080        1250340629.1309683     
   6114579.2501428574       -278486528.81285048        1141745496.2305732     
  -6402121.4491526783       -356617095.43830866        1031688607.0550470     
   9074766.9940703325       -61121570.998067081        1484674894.5827518     
   9588767.1279696189       -80367223.066455394        1376003496.2246485     
   8149717.5305022895       -106123040.90606573        1265228643.7310007     
   4757618.2016657963       -138389024.51690966        1152350337.1017876     
  -587530.85854551941       -177165173.89899972        1037368576.3370211     
  -72273.822874889695        326562.29310248402        1512593902.2821589     
  -38250.252237376641        491614.91704709560        1403185322.5942795     
  -17907.831615167001        611063.70760805625        1291031590.9104366     
  -11246.561007391487        684908.66478895769        1176132707.2306483     
  -18266.440420135012        713149.78856465942        1058488671.5549067     
   76445947.743464977        222056298.69186082        1670401964.3758402     
   52956240.368046410        208746835.11473653        1652062938.3367300     
   25319631.050295938        181614365.06317189        1638428115.0741699     
  -6463880.2097834721        140658888.53717709        1629497494.5881624     
  -42394293.412196472        85880405.536737695        1625271076.8787084     
  -379957787.31060731        89425728.224379167        1565433238.4294410     
  -390309627.99433124        79806935.648632824        1555269977.8610964     
  -402417069.87183028        64336139.093638301        1549656872.5094936     
  -416280112.94309890        43013338.559410334        1548593922.3746297     
  -431898757.20814365        15838534.045929313        1552081127.4565077     
  -802944619.27877545       -33179771.317331254        1458973168.1978719     
  -800598729.15598190       -39239933.657259494        1459775523.9736109     
  -797617139.47840309       -43181097.481231391        1464973987.4062824     
  -793999850.24603748       -45003262.789250135        1474568558.4958789     
  -789746861.45888555       -44706429.581314117        1488559237.2424078     
  -1192514548.1610429       -145760199.93327233        1351021753.6811302     
  -1177911063.1169052       -148393772.80293110        1365579576.6742713     
  -1160280577.7694240       -140937344.66143611        1384379459.7645342     
  -1139623092.1185973       -123390915.50879532        1407421402.9519138     
  -1115938606.1644237       -95754485.344996482        1434705406.2364132     
  -1548667573.9574053       -248315557.62344021        1241578994.8792112     
  -1522246629.8770988       -247654581.78838211        1272682135.9630790     
  -1490407384.7448905       -228932602.44697371        1307873289.5842526     
  -1453149838.5607769       -192149619.59922364        1347152455.7427325     
  -1410473991.3247588       -137305633.24512124        1390519634.4385226     
  -42394293.412196472        85880405.536737695        1625271076.8787084     
  -34118933.757508174        45681120.454916179        1613247163.1487284     
  -20828013.218844306        22200371.653013587        1608606545.3096633     
  -2521531.7962121097        15438159.131005244        1611349223.3615065     
   20800510.510397419        25394482.888921335        1621475197.3042622     
  -431898757.20814365        15838534.045929313        1552081127.4565077     
  -400050921.74583375        3145213.5456237793        1553688959.9633772     
  -366288227.88428575       -3165245.6238893867        1559698639.9894652     
  -330610675.62349820       -3092843.4626024514        1570110167.5347691     
  -293018264.96347266        3362420.0294771940        1584923542.5992916     
  -789746861.45888555       -44706429.581314117        1488559237.2424078     
  -742844974.10808229       -32449312.675853819        1500181329.7539382     
  -697128930.84277427       -24145009.388709813        1513223821.4129927     
  -652598731.66295981       -19793519.719879508        1527686712.2195694     
  -609254376.56863952       -19394843.669362605        1543570002.1736705     
  -1115938606.1644237       -95754485.344996482        1434705406.2364132     
  -1062501090.8442533       -61102458.209510744        1452724272.5204151     
  -1013350122.0943092       -40738919.641449213        1469182089.5802429     
  -968485699.91459179       -34663869.640805960        1484078857.4159038     
  -927907824.30510199       -42877308.207591146        1497414576.0273931     
  -1410473991.3247588       -137305633.24512124        1390519634.4385226     
  -1359019271.9543395       -82814223.055327177        1411317788.2628019     
  -1314951801.6388857       -52946976.382085204        1427573444.4912198     
  -1278271580.3783932       -47703893.225379288        1439286603.1237724     
  -1248978608.1728594       -67084973.585204840        1446457264.1604629     
   20800510.510397419        25394482.888921335        1621475197.3042622     
   19017828.830386244        33542205.934934847        1566611880.8604686     
   15992871.860305477        37549011.347385146        1520865397.4868875     
   11725639.600156086        37414899.126271270        1484235747.1835198     
   6216132.0499346368        33139869.271585945        1456722929.9503646     
  -293018264.96347266        3362420.0294771940        1584923542.5992916     
  -271174248.19599444        7668023.0556460619        1528776507.2572207     
  -249547381.45291150        11249792.667166829        1482573665.3475821     
  -228137664.73422161        14107728.864043087        1446315016.8703797     
  -206945098.03992444        16241831.646276161        1420000561.8256116     
  -609254376.56863952       -19394843.669362605        1543570002.1736705     
  -561419774.60446692       -18222194.638276875        1487335227.4099414     
  -512777197.39901125       -14356294.802917123        1441872006.4408667     
  -463326644.95227367       -7797144.1632809341        1407180339.2664545     
  -413068117.26425326        1455257.2806288004        1383260225.8866951     
  -927907824.30510199       -42877308.207591146        1497414576.0273931     
  -851718750.39502788       -44128447.146826446        1442288041.3186283     
  -773696575.97799551       -39269251.062867701        1398760420.7667434     
  -693841301.05400348       -28299719.955711514        1366831714.3717377     
  -612152925.62305379       -11219853.825361758        1346501922.1336138     
  -1248978608.1728594       -67084973.585204840        1446457264.1604629     
  -1142071175.5676758       -70050734.469993711        1393634948.9832859     
  -1032305517.1898611       -63489076.112680197        1353238908.3252099     
  -919681633.03941119       -47399998.513249010        1325269142.1862361     
  -804199523.11632431       -21783501.671693325        1309725650.5663640     
   6216132.0499346368        33139869.271585945        1456722929.9503646     
   4207107.9098660825        27842006.452577308        1488501187.8932610     
   2073560.3868677029        22129065.690467861        1522612220.1321409     
  -184510.51905471459        16001046.985279327        1559056026.6670074     
  -2567104.8078984017        9457950.3370191995        1597832607.4978588     
  -206945098.03992444        16241831.646276161        1420000561.8256116     
  -203040085.49593762        12418233.169570252        1453771267.7781763     
  -199426561.39823291        7623006.5385933071        1489418243.5742660     
  -196104525.74680418        1856151.7533605099        1526941489.2138815     
  -193073978.54165575       -4882331.1861361191        1566341004.6970215     
  -413068117.26425326        1455257.2806288004        1383260225.8866951     
  -404553366.47181338       -1285366.3844584376        1418828587.2750182     
  -396497069.18900526       -5554168.4149827659        1455816714.0544078     
  -388899225.41582859       -11351148.810947448        1494224606.2248611     
  -381759835.15228158       -18676307.572341993        1534052263.7863832     
  -612152925.62305379       -11219853.825361758        1346501922.1336138     
  -600332735.01775789       -13268792.209501058        1383673146.3837817     
  -589137962.98544848       -17402459.170260102        1421807631.5725582     
  -578568609.52612221       -23620854.707629532        1460905377.6999400     
  -568624674.63977897       -31923978.821610987        1500966384.7659276     
  -804199523.11632431       -21783501.671693325        1309725650.5663640     
  -790378191.13377452       -23532044.305568635        1348304945.1044714     
  -777349242.78756464       -27921865.727242649        1387390996.1287243     
  -765112678.07769072       -34952965.936703265        1426983803.6391215     
  -753668497.00415003       -44625344.933942139        1467083367.6356618     
  -2567104.8078984017        9457950.3370191995        1597832607.4978588     
  -3176549.1082763732        4138920.4171954868        1587957953.7641058     
  -3205126.0266460832        756115.10406112066        1585068583.4133532     
  -2652835.5630243453       -690465.60243265890        1589164496.4455998     
  -1519677.7174055558       -200821.70226959838        1600245692.8608491     
  -193073978.54165575       -4882331.1861361191        1566341004.6970215     
  -174895186.55581909       -6973998.6499248892        1557520516.8799477     
  -156357427.85458338       -7869110.3957147673        1555422459.1794128     
  -137460702.43795359       -7567666.4235263690        1560046831.5954158     
  -118205010.30592093       -6069666.7333262786        1571393634.1279638     
  -381759835.15228158       -18676307.572341993        1534052263.7863832     
  -345543816.21298301       -17765915.379936606        1526027057.7749519     
  -309190731.22488737       -16398636.358206466        1524461428.6135993     
  -272700580.18798786       -14574470.507131413        1529355376.3023272     
  -236073363.10229179       -12293417.826732948        1540708900.8411334     
  -568624674.63977897       -31923978.821610987        1500966384.7659276     
  -515122438.07976753       -28236829.772842050        1493477576.4491131     
  -461705036.13755542       -24832462.783407822        1492185491.7159123     
  -408372468.81313705       -21710877.853284329        1497090130.5663316     
  -355124736.10651952       -18872074.982496694        1508191493.0003703     
  -753668497.00415003       -44625344.933942139        1467083367.6356618     
  -683631052.15616310       -38386741.828607440        1459872072.9024303     
  -613900342.59258592       -33170589.671307921        1458594648.4863558     
  -544476368.31339240       -28976888.461951584        1463251094.3874359     
  -475359129.31860721       -25805638.200625077        1473841410.6056731     
  -1519677.7174055558       -200821.70226959838        1600245692.8608491     
  -1073882.0510813203        762280.10820258223        1597035034.1875985     
  -760821.96624901867        1282929.9803710922        1598842233.0956700     
  -580497.46292354260        1361127.9141831698        1605667289.5850585     
  -532908.54108290910        996873.90971035778        1617510203.6557612     
  -118205010.30592093       -6069666.7333262786        1571393634.1279638     
  -104577181.51116034       -4955681.8947383948        1568018508.4490883     
  -90448312.300200656       -2171562.3354878053        1569730731.5119803     
  -75818402.673049897        2282691.9444001727        1576530303.3166344     
  -60687452.629699543        8407080.9449534900        1588417223.8630457     
  -236073363.10229179       -12293417.826732948        1540708900.8411334     
  -209064955.00639471       -10968986.108199328        1537908713.4872823     
  -180921730.49661523       -5861833.0100589395        1540265366.0356302     
  -151643689.57295290        3028041.4676908329        1547778858.4861796     
  -121230832.23540854        15700637.325048938        1560449190.8389375     
  -355124736.10651952       -18872074.982496694        1508191493.0003703     
  -314537202.53679574       -17277632.532220259        1506705649.3021743     
  -272181076.55550450       -9787882.0433824658        1510446136.6666150     
  -228056358.16263348        3597176.4840515852        1519412955.0937111     
  -182163047.35820335        22877543.050018638        1533606104.5834477     
  -475359129.31860721       -25805638.200625077        1473841410.6056731     
  -420993924.10236669       -23881621.166805476        1474409315.8937638     
  -364226350.47686809       -13949709.435456619        1480273043.4049418     
  -305056408.44210339        3990096.9934451133        1491432593.1392050     
  -243484097.99807930        29937798.119877309        1507887965.0965633     
  -532908.54108290910        996873.90971035778        1617510203.6557612     
  -511142.36824233446        517987.64985292789        1586150924.8459859     
  -427114.52426586958        246640.29378318708        1558211781.6804600     
  -280825.00914463843        182831.84152794554        1533692774.1591809     
  -72273.822874889695        326562.29310248402        1512593902.2821589     
  -60687452.629699543        8407080.9449534900        1588417223.8630457     
  -49584762.452369533        15869730.298709016        1557570840.2614110     
  -37303944.572756395        27259471.993407261        1529995446.6466031     
  -23844998.990855552        42576306.029066235        1505691043.0186329     
  -9207925.7066733204        61820232.405660748        1484657629.3774812     
  -121230832.23540854        15700637.325048938        1560449190.8389375     
  -99473348.503355592        30976983.157509118        1531417546.1484427     
  -75421871.037880674        53899974.768039525        1505507745.7873533     
  -49076399.838982187        84469612.156652749        1482719789.7556760     
  -20436934.906659931        122685895.32334258        1463053678.0534084     
  -182163047.35820335        22877543.050018638        1533606104.5834477     
  -150176900.52120367        45839746.226239786        1507691042.5070827     
  -114780893.91963327        80168148.617700815        1484748679.1027071     
  -75975027.553515524        125862750.22431746        1464779014.3703184     
  -33759301.422825851        182923551.04617396        1447782048.3099210     
  -243484097.99807930        29937798.119877309        1507887965.0965633     
  -201695418.50590327        60458019.504941627        1486391329.3373263     
  -155381013.21803036        106063993.54233375        1467718246.5926607     
  -104540882.13444930        166755720.23208496        1451868716.8625634     
  -49175025.255173177        242533199.57415092        1438842740.1470282     
  -72273.822874889695        326562.29310248402        1512593902.2821589     
  -38250.252237376641        491614.91704709560        1403185322.5942795     
  -17907.831615167001        611063.70760805625        1291031590.9104366     
  -11246.561007391487        684908.66478895769        1176132707.2306483     
  -18266.440420135012        713149.78856465942        1058488671.5549067     
  -9207925.7066733204        61820232.405660748        1484657629.3774812     
  -9688207.1221596003        81267231.698877424        1375966070.3096335     
  -8222476.0246219188        107200939.36883889        1265174364.0170379     
  -4810732.4140750766        139621355.41549823        1152282510.4996893     
   547023.70949009061        178528479.83888569        1037290509.7576183     
  -20436934.906659931        122685895.32334258        1463053678.0534084     
  -19588650.533369996        161967702.51832795        1357365448.8791118     
  -14834659.984025672        214268530.30016395        1250222077.2512884     
  -6174963.2586468011        279588378.66877961        1141623563.1699326     
   6390439.6427844167        357927247.62423527        1031569906.6350487     
  -33759301.422825851        182923551.04617396        1447782048.3099210     
  -29739580.485869512        242593027.37540174        1347383458.3027222     
  -19854459.709824845        321813836.50158370        1246174730.6131990     
  -4103939.0947264433        420585978.42461693        1144155865.2413690     
   17511981.359456807        538909453.14459825        1041326862.1872129     
  -49175025.255173177        242533199.57415092        1438842740.1470282     
  -40140996.979663968        323143206.27006710        1346020098.5804608     
  -23281875.202037156        429836857.97304624        1253032324.1027763     
   1402340.0776748657        562614154.68297696        1159879416.7139952     
   33911648.859504610        721475096.39996052        1066561376.4140974     
  -1548667573.9574053       -248315557.62344021        1241578994.8792112     
  -1522246629.8770988       -247654581.78838211        1272682135.9630790     
  -1490407384.7448905       -228932602.44697371        1307873289.5842526     
  -1453149838.5607769       -192149619.59922364        1347152455.7427325     
  -1410473991.3247588       -137305633.24512124        1390519634.4385226     
  -1849006540.0697381       -139774832.54496557        1244860675.5247817     
  -1809436118.7979026       -139255562.55105788        1264343138.0710747     
  -1766935432.7163827       -128968743.19154775        1289885271.8830440     
  -1721504481.8251908       -108914374.46646363        1321487076.9606869     
  -1673143266.1243238       -79092456.375783980        1359148553.3040111     
  -2199278376.6230650       -46213968.598790407        1248021961.0301373     
  -2140925167.5072105       -44146411.250279665        1252981036.0895898     
  -2082129729.8239059       -40604758.676934958        1265971441.1430905     
  -2022892063.5731530       -35589010.878766418        1286993176.1906323     
  -1963212168.7549486       -29099167.855761170        1316046241.2322190     
  -2599483083.6173820        32367034.215086341        1251062851.3952751     
  -2516713776.0050302        37672872.113943815        1238595830.0186248     
  -2435990276.0674562        36159351.096870065        1236131797.3643901     
  -2357312583.8046594        27826471.163868189        1243670753.4325631     
  -2280680699.2166481        12674232.314930797        1261212698.2231543     
  -3049620661.0526905        95968175.896669269        1253983346.6201992     
  -2936801944.2913570        106202287.54161561        1221187519.8581789     
  -2828517071.4470353        101323586.12986732        1200366340.5469394     
  -2724766042.5197153        81332071.661435246        1191519808.6864810     
  -2625548857.5094032        46227744.136315823        1194647924.2768068     
  -1410473991.3247588       -137305633.24512124        1390519634.4385226     
  -1359019271.9543395       -82814223.055327177        1411317788.2628019     
  -1314951801.6388857       -52946976.382085204        1427573444.4912198     
  -1278271580.3783932       -47703893.225379288        1439286603.1237724     
  -1248978608.1728594       -67084973.585204840        1446457264.1604629     
  -1673143266.1243238       -79092456.375783980        1359148553.3040111     
  -1638506940.1617947       -55804860.680950522        1365083052.7159271     
  -1608394410.0909352       -47596584.625015914        1369823704.2933977     
  -1582805675.9117467       -54467628.207978964        1373370508.0364187     
  -1561740737.6242216       -76417991.429824710        1375723463.9449954     
  -1963212168.7549486       -29099167.855761170        1316046241.2322190     
  -1935826665.4534075       -34145115.431822181        1310457781.5889478     
  -1910101504.8802409       -44725538.769133091        1307024123.8726470     
  -1886036687.0354447       -60840437.867681980        1305745268.0833170     
  -1863632211.9190266       -82489812.727482438        1306621214.2209589     
  -2280680699.2166481        12674232.314930797        1261212698.2231543     
  -2250978447.8291788       -17834987.307939291        1247441974.8818688     
  -2220073086.0067959       -44333838.814420342        1239174703.2289739     
  -2187964613.7494936       -66822322.204500198        1236410883.2644660     
  -2154653031.0572662       -85300437.478169680        1239150514.9883478     
  -2625548857.5094032        46227744.136315823        1194647924.2768068     
  -2583962287.2891097       -6874476.3093074560        1176035632.5946872     
  -2538309153.4706035       -46421484.760881543        1166275442.3623748     
  -2488589456.0538826       -72413281.218409896        1165367353.5798681     
  -2434803195.0389457       -84849865.681885481        1173311366.2471671     
  -1248978608.1728594       -67084973.585204840        1446457264.1604629     
  -1142071175.5676758       -70050734.469993711        1393634948.9832859     
  -1032305517.1898611       -63489076.112680197        1353238908.3252099     
  -919681633.03941119       -47399998.513249010        1325269142.1862361     
  -804199523.11632431       -21783501.671693325        1309725650.5663640     
  -1561740737.6242216       -76417991.429824710        1375723463.9449954     
  -1421025758.8574271       -66194698.137623906        1328635580.6572261     
  -1278240625.2735040       -49070888.788336992        1292083599.7030551     
  -1133385336.8724654       -25046563.381988108        1266067521.0824873     
  -986459893.65430212        5878278.0814378262        1250587344.7955220     
  -1863632211.9190266       -82489812.727482438        1306621214.2209589     
  -1694510750.3777537       -60697784.274414241        1264348346.7078271     
  -1524107204.9748747       -34632142.949321747        1230721009.3427982     
  -1352421575.7103865       -4292888.7522003651        1205739202.1258721     
  -1179453862.5842841        30319978.316967845        1189402925.0570462     
  -2154653031.0572662       -85300437.478169680        1239150514.9883478     
  -1962526150.1286609       -53559992.880385041        1200773247.1350935     
  -1769905256.2939608       -20172838.595616221        1169151137.2444360     
  -1576790349.5531650        14861025.376139998        1144284185.3163872     
  -1383181429.9062719        51541599.034882665        1126172391.3509388     
  -2434803195.0389457       -84849865.681885481        1173311366.2471671     
  -2225071958.1101522       -44781323.955530763        1137910281.9390192     
  -2015634779.2307701       -5692975.7272236347        1107373983.4079762     
  -1806491658.4008131        32415179.003003955        1081702470.6540370     
  -1597642595.6202595        69543140.235220969        1060895743.6772008     
  -804199523.11632431       -21783501.671693325        1309725650.5663640     
  -790378191.13377452       -23532044.305568635        1348304945.1044714     
  -777349242.78756464       -27921865.727242649        1387390996.1287243     
  -765112678.07769072       -34952965.936703265        1426983803.6391215     
  -753668497.00415003       -44625344.933942139        1467083367.6356618     
  -986459893.65430212        5878278.0814378262        1250587344.7955220     
  -972315005.97548151       -1354886.9086728692        1284635271.8552780     
  -959135112.53691900       -11804699.366302729        1319691013.5082266     
  -946920213.33859646       -25471159.291402340        1355754569.7543738     
  -935670308.38052392       -42354266.684004724        1392825940.5937128     
  -1179453862.5842841        30319978.316967845        1189402925.0570462     
  -1163553824.6176267        18031669.348089695        1218718105.6005535     
  -1148791391.4951334        1951344.2319957614        1249542158.8443034     
  -1135166563.2167997       -17920997.031293988        1281875084.7882986     
  -1122679339.7826309       -41585354.441797316        1315716883.4325337     
  -1383181429.9062719        51541599.034882665        1126172391.3509388     
  -1364094647.0602036        34627624.464723647        1150553446.3402979     
  -1346318079.6622171        13346265.067631841        1176944432.1369479     
  -1329851727.7123029       -12302479.156377316        1205345348.7408922     
  -1314695591.2104664       -42318608.207306743        1235756196.1521282     
  -1597642595.6202595        69543140.235220969        1060895743.6772008     
  -1573937473.3032207        48432978.441222131        1080141294.0745087     
  -1551715177.0381680        22380063.140598536        1101897833.3861632     
  -1530975706.8251016       -8615605.6666482687        1126165361.6121554     
  -1511719062.6640275       -44554027.980527163        1152943878.7524898     
  -753668497.00415003       -44625344.933942139        1467083367.6356618     
  -683631052.15616310       -38386741.828607440        1459872072.9024303     
  -613900342.59258592       -33170589.671307921        1458594648.4863558     
  -544476368.31339240       -28976888.461951584        1463251094.3874359     
  -475359129.31860721       -25805638.200625077        1473841410.6056731     
  -935670308.38052392       -42354266.684004724        1392825940.5937128     
  -851510018.59285688       -38867688.224672019        1383483395.5162086     
  -767376006.82666445       -35468703.170260847        1379705789.6088419     
  -683268273.08193851       -32157311.520734876        1381493122.8716111     
  -599186817.35868692       -28933513.276123434        1388845395.3045199     
  -1122679339.7826309       -41585354.441797316        1315716883.4325337     
  -1025450294.0467561       -41167027.325886548        1304570288.1508343     
  -927967069.06943429       -39901436.071814448        1298619700.8922606     
  -830229664.85065615       -37788580.679556280        1297865121.6568000     
  -732238081.39042616       -34828461.149126351        1302306550.4444628     
  -1314695591.2104664       -42318608.207306743        1235756196.1521282     
  -1205451878.5178733       -45284759.132275522        1223132750.8063183     
  -1095673529.3209028       -46468788.375984430        1215336382.3366077     
  -985360543.61955070       -45870695.938424110        1212367090.7429960     
  -874512921.41382897       -43490481.819628268        1214224876.0254886     
  -1511719062.6640275       -44554027.980527163        1152943878.7524898     
  -1391514772.0061979       -51220883.643816829        1139170783.4826493     
  -1270495387.5810602       -55170760.082752585        1129855833.9418852     
  -1148660909.3886247       -56403657.297358692        1124999030.1302030     
  -1026011337.4288856       -54919575.287619710        1124600372.0475974     
  -475359129.31860721       -25805638.200625077        1473841410.6056731     
  -420993924.10236669       -23881621.166805476        1474409315.8937638     
  -364226350.47686809       -13949709.435456619        1480273043.4049418     
  -305056408.44210339        3990096.9934451133        1491432593.1392050     
  -243484097.99807930        29937798.119877309        1507887965.0965633     
  -599186817.35868692       -28933513.276123434        1388845395.3045199     
  -530850089.04933870       -27002273.528908610        1388998327.9618566     
  -460224977.40415925       -17443089.328921795        1394601097.0723271     
  -387311482.42314684       -255960.67615713179        1405653702.6359308     
  -312109604.10629982        24559112.429386348        1422156144.6526721     
  -732238081.39042616       -34828461.149126351        1302306550.4444628     
  -649489789.33069646       -32757986.491330743        1301911527.8853734     
  -564567099.00856221       -23439517.625526309        1307120356.0094719     
  -477470010.42402536       -6873054.5517096519        1317933034.8167465     
  -388198523.57708329        16941402.730123192        1334349564.3072011     
  -874512921.41382897       -43490481.819628268        1214224876.0254886     
  -776913024.94643819       -41148760.054066479        1213148915.6643147     
  -677252715.29007387       -31938994.325253904        1217830820.2163682     
  -575531992.44473732       -15861184.633198977        1228270589.6816447     
  -471750856.41042900        7084669.0220863521        1244468224.0601556     
  -1026011337.4288856       -54919575.287619710        1124600372.0475974     
  -913119795.89656889       -52174594.217125505        1122710491.2986763     
  -798281826.24870014       -42941519.428127527        1126732489.6930189     
  -681497428.48529613       -27220350.920678645        1136666367.2306387     
  -562766602.60633588       -5011088.6947054863        1152512123.9115260     
  -243484097.99807930        29937798.119877309        1507887965.0965633     
  -201695418.50590327        60458019.504941627        1486391329.3373263     
  -155381013.21803036        106063993.54233375        1467718246.5926607     
  -104540882.13444930        166755720.23208496        1451868716.8625634     
  -49175025.255173177        242533199.57415092        1438842740.1470282     
  -312109604.10629982        24559112.429386348        1422156144.6526721     
  -261392760.83408982        55248959.386979684        1405027939.3575573     
  -204247629.88753188        107366431.92573254        1391904854.9773200     
  -140674211.26662505        180911530.04565066        1382786891.5119510     
  -70672504.971366420        275884253.74674195        1377674048.9614594     
  -388198523.57708329        16941402.730123192        1334349564.3072011     
  -325177608.23825115        48813647.746215314        1323809445.0012980     
  -253825843.34641549        108455391.27231088        1318456014.5105755     
  -174143228.90158570        195866633.30838773        1318289272.8350341     
  -86129764.903752610        311047373.85448176        1323309219.9746819     
  -471750856.41042900        7084669.0220863521        1244468224.0601556     
  -393049960.71838337        41152084.582644656        1242735846.2685535     
  -304115653.59467643        109330871.58206895        1247371725.1924429     
  -204947935.03933263        211621030.02028555        1258375860.8318191     
  -95546805.052329004        348022559.89736784        1275748253.1866865     
  -562766602.60633588       -5011088.6947054863        1152512123.9115260     
  -465009818.27447355        32264269.896329939        1161807143.1593187     
  -355117060.63231182        109992872.85503300        1178651987.0229094     
  -233088329.67986467        228174720.18135402        1203046655.5022957     
  -98923625.417102784        386809811.87538803        1234991148.5974786     
  -49175025.255173177        242533199.57415092        1438842740.1470282     
  -40140996.979663968        323143206.27006710        1346020098.5804608     
  -23281875.202037156        429836857.97304624        1253032324.1027763     
   1402340.0776748657        562614154.68297696        1159879416.7139952     
   33911648.859504610        721475096.39996052        1066561376.4140974     
  -70672504.971366420        275884253.74674195        1377674048.9614594     
  -56841235.229180500        377409768.04765737        1296378693.9955935     
  -34007096.085030913        508944847.02178788        1214112002.0832675     
  -2170087.5389076173        670489490.66916847        1130873973.2245107     
   38669790.409177423        862043698.98974943        1046664607.4192847     
  -86129764.903752610        311047373.85448176        1323309219.9746819     
  -69804693.795864493        432797363.73009413        1254915223.4926879     
  -43298977.386155248        588482837.94511044        1184743686.0289116     
  -6612615.6746042967        778103796.49960589        1112794607.5833375     
   40254391.338772118        1001660239.3935018        1039067988.1559864     
  -95546805.052329004        348022559.89736784        1275748253.1866865     
  -79031372.679717064        489305993.31736863        1221629687.0717478     
  -51157519.105414003        668450830.74300921        1164927375.9396708     
  -11925244.329413772        885457072.17430615        1105641319.7904882     
   38665451.648276091        1140324717.6112401        1043771518.6241528     
  -98923625.417102784        386809811.87538803        1234991148.5974786     
  -84521271.880729556        546935656.80951512        1196522084.7327642     
  -57582721.242820114        748848825.41543221        1154663071.8155806     
  -18107973.503330290        992549317.69328964        1109414109.8459425     
   33902971.337701976        1278037133.6429415        1060775198.8238156     
  -3049620661.0526905        95968175.896669269        1253983346.6201992     
  -2936801944.2913570        106202287.54161561        1221187519.8581789     
  -2828517071.4470353        101323586.12986732        1200366340.5469394     
  -2724766042.5197153        81332071.661435246        1191519808.6864810     
  -2625548857.5094032        46227744.136315823        1194647924.2768068     
  -3506690574.5490155        32437502.139078140        1077376829.5189795     
  -3376337200.3375254        43343142.794837236        1076297665.1110024     
  -3249091161.8774805        43890997.612480164        1076577083.0575602     
  -3124952459.1688643        34081066.592001557        1078215083.3586500     
  -3003921092.2116928        13913349.733387947        1081211666.0142765     
  -3845240346.0203137        4462870.9889900684        898173233.33750069     
  -3727683928.9193745        6940556.2873632908        930474990.81006610     
  -3611808339.4043102        3815482.9661726952        953519265.54091430     
  -3497613577.4751096       -4912348.9745712280        967306057.53005254     
  -3385099643.1317782       -19242939.534877062        971835366.77747333     
  -4065269975.4665871        12044282.446413517        716372558.07576239     
  -3990842130.0369062       -3005471.9808146954        783719496.95536518     
  -3916668604.0275331       -18902957.809049368        831192887.99700558     
  -3842749397.4384537       -35648175.038268328        858792731.20068741     
  -3769084510.2696753       -53241123.668488026        866519026.56640649     
  -4166779462.8878365        55181736.511340857        531974803.73376715     
  -4165811803.6901226        13505057.990298271        636031183.54690683     
  -4163671955.7471447       -24264324.713187933        709597950.42583489     
  -4160359919.0588923       -58126411.599094868        752675104.37055314     
  -4155875693.6253681       -88081202.667434454        765262645.38106728     
  -2625548857.5094032        46227744.136315823        1194647924.2768068     
  -2583962287.2891097       -6874476.3093074560        1176035632.5946872     
  -2538309153.4706035       -46421484.760881543        1166275442.3623748     
  -2488589456.0538826       -72413281.218409896        1165367353.5798681     
  -2434803195.0389457       -84849865.681885481        1173311366.2471671     
  -3003921092.2116928        13913349.733387947        1081211666.0142765     
  -2936093383.5227456       -22824341.781609297        1064920183.9858027     
  -2865559796.5609989       -50542439.053933501        1056185661.8840369     
  -2792320331.3264456       -69240942.083570361        1055008099.7089738     
  -2716374987.8190827       -78919850.870515108        1061387497.4606175     
  -3385099643.1317782       -19242939.534877062        971835366.77747333     
  -3294731200.3259001       -40726223.424773335        956277228.18967175     
  -3203017564.5726223       -57725530.823340535        946980908.00547230     
  -3109958735.8719583       -70240861.730608940        943946406.22487915     
  -3015554714.2238927       -78272216.146556497        947173722.84789193     
  -3769084510.2696753       -53241123.668488026        866519026.56640649     
  -3659875737.6985693       -60580121.238776684        850106765.20629132     
  -3550682457.5054855       -67970760.069131136        838661180.72668004     
  -3441504669.6904163       -75413040.159531116        832182273.12757468     
  -3332342374.2533588       -82906961.509986401        830670042.40897417     
  -4155875693.6253681       -88081202.667434454        765262645.38106728     
  -4031526995.6407638       -82386035.223662615        746408795.03566539     
  -3908554475.3595777       -81278126.791279078        731226480.04766381     
  -3786958132.7818260       -84757477.370349884        719715700.41707206     
  -3666737967.9074969       -92824086.960824490        711876456.14388049     
  -2434803195.0389457       -84849865.681885481        1173311366.2471671     
  -2225071958.1101522       -44781323.955530763        1137910281.9390192     
  -2015634779.2307701       -5692975.7272236347        1107373983.4079762     
  -1806491658.4008131        32415179.003003955        1081702470.6540370     
  -1597642595.6202595        69543140.235220969        1060895743.6772008     
  -2716374987.8190827       -78919850.870515108        1061387497.4606175     
  -2491340455.2641635       -40044638.063508034        1020704525.8988867     
  -2266488263.6987324       -1777228.5547965765        987203918.02307057     
  -2041818413.1227946        35882377.655604243        960885673.83317554     
  -1817330903.5363441        72934180.567716479        941749793.32920170     
  -3015554714.2238927       -78272216.146556497        947173722.84789193     
  -2768595234.8747997       -38603836.908482671        901339200.60248387     
  -2521706379.4552746        829129.23104608059        865004619.95181310     
  -2274888147.9653082        40026682.272028208        838169980.89587462     
  -2028140540.4049101        78988822.214469075        820835283.43467534     
  -3332342374.2533588       -82906961.509986401        830670042.40897417     
  -3056836296.9420567       -40458920.490438461        779814306.04981196     
  -2781289126.5003905        2126097.6303101778        740776089.19419742     
  -2505700862.9283552        44848092.852297187        713555391.84213650     
  -2230071506.2259617        87707065.175475478        698152213.99362791     
  -3666737967.9074969       -92824086.960824490        711876456.14388049     
  -3356063641.4659328       -45609888.809380054        656129842.24087298     
  -3045236504.8340783        2113676.6430211067        614518325.75022960     
  -2734256558.0119276        50346609.396412492        587041906.67195618     
  -2423123800.9994969        99088909.450743079        573700585.00604963     
  -1597642595.6202595        69543140.235220969        1060895743.6772008     
  -1573937473.3032207        48432978.441222131        1080141294.0745087     
  -1551715177.0381680        22380063.140598536        1101897833.3861632     
  -1530975706.8251016       -8615605.6666482687        1126165361.6121554     
  -1511719062.6640275       -44554027.980527163        1152943878.7524898     
  -1817330903.5363441        72934180.567716479        941749793.32920170     
  -1789703096.9220786        49114901.759203792        961957215.15104103     
  -1763088446.5681949        21918435.416097403        983296278.36744511     
  -1737486952.4746857       -8655218.4616032839        1005766982.9784100     
  -1712898614.6415591       -42606059.873886228        1029369328.9839461     
  -2028140540.4049101        78988822.214469075        820835283.43467534     
  -2000531042.4070725        51278128.517336249        842552524.77125490     
  -1973465030.8780053        21755813.257654071        864022059.98262060     
  -1946942505.8177042       -9578123.5645953417        885243889.06877446     
  -1920963467.2261679       -42723681.949388504        906218012.02971923     
  -2230071506.2259617        87707065.175475478        698152213.99362791     
  -2206421309.7581987        54922658.715636492        721927222.93515825     
  -2182844929.9675994        21892196.665265679        744075178.23170364     
  -2159342366.8541479       -11384320.975611687        764596079.88325393     
  -2135913620.4178579       -44906894.207011819        783489927.88982391     
  -2423123800.9994969        99088909.450743079        573700585.00604963     
  -2407373898.9754596        60048492.354096532        600081309.64274752     
  -2391228143.8369689        22327585.638963223        623455633.11468256     
  -2374686535.5840240       -14073810.694661498        643823555.42184842     
  -2357749074.2166176       -49155696.646749258        661185076.56425154     
  -1511719062.6640275       -44554027.980527163        1152943878.7524898     
  -1391514772.0061979       -51220883.643816829        1139170783.4826493     
  -1270495387.5810602       -55170760.082752585        1129855833.9418852     
  -1148660909.3886247       -56403657.297358692        1124999030.1302030     
  -1026011337.4288856       -54919575.287619710        1124600372.0475974     
  -1712898614.6415591       -42606059.873886228        1029369328.9839461     
  -1579663670.3957009       -44779069.643811405        1013974077.1624908     
  -1445953690.9541702       -45368628.761482060        1003107217.9350513     
  -1311768676.3169503       -44374737.226861060        996768751.30162001     
  -1177108626.4840493       -41797395.039970398        994958677.26219213     
  -1920963467.2261679       -42723681.949388504        906218012.02971923     
  -1774497164.0639324       -40342634.227452874        888803868.65644264     
  -1627895884.2776260       -37511664.425302744        875988364.74209619     
  -1481159627.8672683       -34230772.542967975        867771500.28668797     
  -1334288394.8328462       -30499958.580424368        864153275.29021907     
  -2135913620.4178579       -44906894.207011819        783489927.88982391     
  -1976015253.0108616       -37911577.394682765        763660157.96448481     
  -1816321967.5514300       -31599867.074237466        748499274.36301434     
  -1656833764.0395570       -25971763.245659232        738007277.08540678     
  -1497550642.4752500       -21027265.908957183        732184166.13165653     
  -2357749074.2166176       -49155696.646749258        661185076.56425154     
  -2184217937.2365141       -37485899.145546198        638542945.08663595     
  -2011231940.7755821       -27633236.708273292        620639946.79781079     
  -1838791084.8338368       -19597709.334952235        607476081.69777310     
  -1666895369.4112768       -13379317.025570095        599051349.78653228     
  -1026011337.4288856       -54919575.287619710        1124600372.0475974     
  -913119795.89656889       -52174594.217125505        1122710491.2986763     
  -798281826.24870014       -42941519.428127527        1126732489.6930189     
  -681497428.48529613       -27220350.920678645        1136666367.2306387     
  -562766602.60633588       -5011088.6947054863        1152512123.9115260     
  -1177108626.4840493       -41797395.039970398        994958677.26219213     
  -1051312884.1638949       -39183480.133047163        991901510.46565151     
  -924214683.65006328       -32228037.913874447        992889018.86192203     
  -795814024.94255650       -20931068.382444978        997921202.45100629     
  -666110908.04136908       -5292571.5387507677        1006998061.2329055     
  -1334288394.8328462       -30499958.580424368        864153275.29021907     
  -1200923320.1547346       -29617570.366052985        859177524.20387673     
  -1066899757.2048137       -26540221.245638371        856379244.35989463     
  -932217705.98308349       -21267911.219204843        855758435.75826240     
  -796877166.48954511       -13800640.286732227        857315098.39898360     
  -1497550642.4752500       -21027265.908957183        732184166.13165653     
  -1361951103.8690693       -23476864.916078866        724538532.51334453     
  -1226337046.9129436       -25878069.423402488        717203166.18692625     
  -1090708471.6068826       -28230879.430932879        710178067.15240264     
  -955065377.95088220       -30535294.938665390        703463235.40977788     
  -1666895369.4112768       -13379317.025570095        599051349.78653228     
  -1534396235.3069112       -20761363.783183694        587984535.39405942     
  -1402526552.7744651       -30241582.447209060        575360784.34302592     
  -1271286321.8139477       -41819973.017656982        561180096.63342750     
  -1140675542.4253614       -55496535.494541049        545442472.26526475     
  -562766602.60633588       -5011088.6947054863        1152512123.9115260     
  -465009818.27447355        32264269.896329939        1161807143.1593187     
  -355117060.63231182        109992872.85503300        1178651987.0229094     
  -233088329.67986467        228174720.18135402        1203046655.5022957     
  -98923625.417102784        386809811.87538803        1234991148.5974786     
  -666110908.04136908       -5292571.5387507677        1006998061.2329055     
  -549765429.85987270        24913356.808905244        1020574448.1959566     
  -422475339.68314862        91601325.140652657        1042531412.7914025     
  -284240637.51117247        194771333.45657152        1072868955.0192455     
  -135061323.34396940        334423381.75658554        1111587074.8794789     
  -796877166.48954511       -13800640.286732227        857315098.39898360     
  -659569414.41099906        10047931.831747472        873782931.54306090     
  -512508411.65227890        66407339.550825089        899462095.33612287     
  -355694158.21338266        155277582.87047851        934352589.77817750     
  -189126654.09430215        276658661.79074001        978454414.86923063     
  -955065377.95088220       -30535294.938665390        703463235.40977788     
  -794421771.92786157       -12332005.035110384        721432593.20062947     
  -625216276.53972423        34410916.085489273        749444034.65707779     
  -447448891.78647089        109693468.42314196        787497559.77910936     
  -261119617.66810706        213515651.97784102        835593168.56672871     
  -1140675542.4253614       -55496535.494541049        545442472.26526475     
  -954322502.41045082       -42226453.791712910        563523433.16866922     
  -760598934.34548116       -4387945.2553483844        592477230.75425613     
  -559504838.23045814        58018990.114526987        632303865.02203095     
  -351040214.06537753        144994352.31792241        683003335.97198951     
  -98923625.417102784        386809811.87538803        1234991148.5974786     
  -84521271.880729556        546935656.80951512        1196522084.7327642     
  -57582721.242820114        748848825.41543221        1154663071.8155806     
  -18107973.503330290        992549317.69328964        1109414109.8459425     
   33902971.337701976        1278037133.6429415        1060775198.8238156     
  -135061323.34396940        334423381.75658554        1111587074.8794789     
  -126503228.27848619        483515743.05978221        1090043430.6674857     
  -94850176.812404960        709591292.36496794        1069940340.5990268     
  -40102168.945715964        1012650029.6721941        1051277804.6741107     
   37740795.321576774        1392691954.9814076        1034055822.8927184     
  -189126654.09430215        276658661.79074001        978454414.86923063     
  -172611379.79682526        418857970.77390444        986154742.82549870     
  -122442389.79969719        673236332.08922386        1000126128.1213200     
  -38619684.102927685        1039793745.7366837        1020368570.7566838     
   78856737.293489099        1518530211.7163122        1046882070.7315884     
  -261119617.66810706        213515651.97784102        835593168.56672871     
  -222845726.43575126        352962339.95184231        884856021.20682418     
  -140359360.20470390        639783944.58814919        945220434.38246381     
  -13660518.974975348        1073980465.8867259        1016686408.0936536     
   157250797.25344503        1655551903.8476093        1099253942.3403926     
  -351040214.06537753        144994352.31792241        683003335.97198951     
  -277206268.19527072        285828850.59361547        786147265.81144488     
  -148601088.02742919        609234129.86175728        905223259.38245976     
   34775326.438125312        1115210190.1222925        1040231316.6850349     
   272922975.20144105        1803757031.3753319        1191171437.7191629     
  -4166779462.8878365        55181736.511340857        531974803.73376715     
  -4165811803.6901226        13505057.990298271        636031183.54690683     
  -4163671955.7471447       -24264324.713187933        709597950.42583489     
  -4160359919.0588923       -58126411.599094868        752675104.37055314     
  -4155875693.6253681       -88081202.667434454        765262645.38106728     
  -4382651351.4480247        130596103.55691314        492804625.32058090     
  -4412541620.8715763        70263702.387402773        482298754.11909413     
  -4440920137.3686600        14970477.639450073        482850794.44664782     
  -4467786900.9392796       -35283570.686966181        494460746.30323726     
  -4493141911.5834322       -80498442.591820717        517128609.68886715     
  -4989670799.6884851        88666202.698403835        449821620.08551288     
  -4931711784.9811573        45290242.706079483        325149656.08079362     
  -4871901453.1661720        8085339.7392818928        253083128.06836295     
  -4810239804.2435265       -22948506.201993942        233622036.04821393     
  -4746726838.2132225       -47811295.117731333        266766380.02035055     
  -5987837807.6092129       -70607966.064184189        403025788.02856296     
  -5723322296.0188780       -61415321.053684473        164583889.43200085     
  -5456615903.1396799       -44919738.413676500        20294951.290980577     
  -5187718628.9716377       -21121218.144178629       -29841026.394514620     
  -4916630473.5147467        9980239.7548327446        14175956.375529015     
  -7377152375.2102089       -347226402.73085570        352417129.14973170     
  -6787373153.9847212       -249852988.89189887        601454.17272770521     
  -6195063487.2891846       -144044756.81944752       -215513735.88549769     
  -5600223375.1236095       -29801706.513528585       -295928441.02494055     
  -5002852817.4879799        92876162.025900841       -240642661.24560902     
  -4155875693.6253681       -88081202.667434454        765262645.38106728     
  -4031526995.6407638       -82386035.223662615        746408795.03566539     
  -3908554475.3595777       -81278126.791279078        731226480.04766381     
  -3786958132.7818260       -84757477.370349884        719715700.41707206     
  -3666737967.9074969       -92824086.960824490        711876456.14388049     
  -4493141911.5834322       -80498442.591820717        517128609.68886715     
  -4365450413.1507826       -79514453.942887783        524145919.71836036     
  -4239082816.3276219       -82943470.658913136        531150274.45698202     
  -4114039121.1139412       -90785492.739867926        538141673.90473926     
  -3990319327.5097365       -103040520.18577123        545120118.06162560     
  -4746726838.2132225       -47811295.117731333        266766380.02035055     
  -4626219655.4704533       -54696620.105028868        299715839.20100605     
  -4506984098.2432280       -65820696.810798883        328967852.44252133     
  -4389020166.5315418       -81183525.235041857        354522419.74489331     
  -4272327860.3353968       -100785105.37774396        376379541.10812771     
  -4916630473.5147467        9980239.7548327446        14175956.375529015     
  -4813834722.5997810       -7932533.7100732327        73118553.483610541     
  -4712258321.1064034       -29909805.246952772        124679214.00428098     
  -4611901269.0346336       -55951574.855851650        168857937.93753725     
  -4512763566.3844604       -86057842.536737919        205654725.28338131     
  -5002852817.4879799        92876162.025900841       -240642661.24560902     
  -4928295614.5387363        60777805.242023468       -155645937.43382627     
  -4854905484.9171524        24789204.032601595       -81715640.857743099     
  -4782682428.6232204       -15089641.602325201       -18851771.517333210     
  -4711626445.6569443       -58858731.662764549        32945670.587380961     
  -3666737967.9074969       -92824086.960824490        711876456.14388049     
  -3356063641.4659328       -45609888.809380054        656129842.24087298     
  -3045236504.8340783        2113676.6430211067        614518325.75022960     
  -2734256558.0119276        50346609.396412492        587041906.67195618     
  -2423123800.9994969        99088909.450743079        573700585.00604963     
  -3990319327.5097365       -103040520.18577123        545120118.06162560     
  -3649432187.5885806       -51600626.664010763        501223319.77346987     
  -3308180673.2628307        1053848.2063679695        465456889.35640603     
  -2966564784.5325031        54922904.425363183        437820826.81043828     
  -2624584521.3975735        110006541.99299967        418315132.13556558     
  -4272327860.3353968       -100785105.37774396        376379541.10812771     
  -3918384277.0525584       -50266427.521053791        344579383.35149264     
  -3563864755.1508284        2172045.7319405079        314904863.92469329     
  -3208769294.6302242        56530314.381183028        287355982.82771212     
  -2853097895.4907331        112808378.42672777        261932740.06056002     
  -4512763566.3844604       -86057842.536737919        205654725.28338131     
  -4162919909.8578529       -41607291.380461931        186198032.97495630     
  -3812288750.4980683        5468269.2197308540        162862249.45508772     
  -3460870088.3051033        55168839.263865709        135647374.72377029     
  -3108663923.2789536        107494418.75194275        104553408.78101291     
  -4711626445.6569443       -58858731.662764549        32945670.587380961     
  -4383039086.0044861       -25623218.242298126        26079268.643844996     
  -4053452659.3045530        10942518.669754505        9329045.9475916866     
  -3722867165.5571489        50838479.073385239       -17304997.501369361     
  -3391282604.7622533        94064662.968633890       -53822861.703054160     
  -2423123800.9994969        99088909.450743079        573700585.00604963     
  -2407373898.9754596        60048492.354096532        600081309.64274752     
  -2391228143.8369689        22327585.638963223        623455633.11468256     
  -2374686535.5840240       -14073810.694661498        643823555.42184842     
  -2357749074.2166176       -49155696.646749258        661185076.56425154     
  -2624584521.3975735        110006541.99299967        418315132.13556558     
  -2612415654.0554452        67644140.244867086        437834091.77667552     
  -2599623877.9824653        27358100.932913899        458371422.36218983     
  -2586209193.1786337       -10851575.942860007        479927123.89211929     
  -2572171599.6439447       -46984890.382463813        502501196.36645049     
  -2853097895.4907331        112808378.42672777        261932740.06056002     
  -2833010713.9471526        70573796.692134738        274854832.92520297     
  -2812073568.0563278        31172429.448352098        292820068.84343112     
  -2790286457.8182435       -5395723.3045583963        315828447.81524253     
  -2767649383.2329173       -39130661.566661954        343879969.84064680     
  -3108663923.2789536        107494418.75194275        104553408.78101291     
  -3069159078.6505752        68837461.695874453        111143533.08833624     
  -3028577214.0585442        33770571.185295463        126801572.55840822     
  -2986918329.5028629        2293747.2202337980        151527527.19124332     
  -2944182424.9835386       -25593010.199366450        185321396.98683020     
  -3391282604.7622533        94064662.968633890       -53822861.703054160     
  -3320860748.1657152        62435135.256105423       -53299807.733935110     
  -3249134815.9891305        35152526.143712759       -39684066.492886066     
  -3176104808.2324829        12216835.631533384       -12975637.979907051     
  -3101770724.8958106       -6371936.2805528641        26825477.805017326     
  -2357749074.2166176       -49155696.646749258        661185076.56425154     
  -2184217937.2365141       -37485899.145546198        638542945.08663595     
  -2011231940.7755821       -27633236.708273292        620639946.79781079     
  -1838791084.8338368       -19597709.334952235        607476081.69777310     
  -1666895369.4112768       -13379317.025570095        599051349.78653228     
  -2572171599.6439447       -46984890.382463813        502501196.36645049     
  -2387767731.8661070       -32421866.021845341        484758159.76832134     
  -2204259438.8450904       -20844090.850609303        469971961.31979042     
  -2021646720.5809066       -12251564.868826747        458142601.02085245     
  -1839929577.0735373       -6644288.0764251947        449270078.87150711     
  -2767649383.2329173       -39130661.566661954        343879969.84064680     
  -2577465056.1979146       -23202091.808800220        330627188.17808819     
  -2388526738.1573615       -11426885.365787506        318548949.62593538     
  -2200834429.1112885       -3805042.2376948595        307645254.18418300     
  -2014388129.0596695       -336562.42445528507        297916101.85283387     
  -2944182424.9835386       -25593010.199366450        185321396.98683020     
  -2753309910.2319136       -9826576.5064032078        176150030.31593502     
  -2564033838.7124014        618379.74619042873        166370911.71624851     
  -2376354210.4249892        5741858.5584546328        155984041.18776512     
  -2190271025.3696842        5543859.9303501844        144989418.73048642     
  -3101770724.8958106       -6371936.2805528641        26825477.805017326     
  -2915302293.9681396        7704679.8852788210        21326686.181867026     
  -2730780740.5102005        15291704.485357404        13437847.590727637     
  -2548206064.5220075        16389137.519593120        3158962.0316028381     
  -2367578266.0035629        10996978.988022685       -9509970.4955145735     
  -1666895369.4112768       -13379317.025570095        599051349.78653228     
  -1534396235.3069112       -20761363.783183694        587984535.39405942     
  -1402526552.7744651       -30241582.447209060        575360784.34302592     
  -1271286321.8139477       -41819973.017656982        561180096.63342750     
  -1140675542.4253614       -55496535.494541049        545442472.26526475     
  -1839929577.0735373       -6644288.0764251947        449270078.87150711     
  -1711331374.1554651       -17450232.943788171        438127957.13479674     
  -1582152457.6781311       -26320465.946927607        426332186.09251660     
  -1452392827.6415169       -33254987.085802257        413882765.74466151     
  -1322052484.0456295       -38253796.360445857        400779696.09124047     
  -2014388129.0596695       -336562.42445528507        297916101.85283387     
  -1887110036.3193552       -13792159.099020004        288110532.09160751     
  -1758041064.8885639       -21278160.138663769        278554600.37780684     
  -1627181214.7672992       -22794565.543398261        269248306.71142936     
  -1494530485.9555728       -18341375.313266456        260191651.09247118     
  -2190271025.3696842        5543859.9303501844        144989418.73048642     
  -2061732221.7985585       -9787142.2488193512        137932260.26449206     
  -1930192374.4057739       -15114665.022459507        132028027.19890465     
  -1795651483.1913083       -10438708.390488744        127276719.53372824     
  -1658109548.1551714        4240727.6470396519        123678337.26898383     
  -2367578266.0035629        10996978.988022685       -9509970.4955145735     
  -2235197930.5930901       -5435182.3932237625       -12406858.346561197     
  -2098606386.2297385       -7829980.5982314348       -13247533.444204185     
  -1957803632.9135203        3812584.3729888201       -12031995.788427524     
  -1812789670.6444454        29492512.520409822       -8760245.3792536333     
  -1140675542.4253614       -55496535.494541049        545442472.26526475     
  -954322502.41045082       -42226453.791712910        563523433.16866922     
  -760598934.34548116       -4387945.2553483844        592477230.75425613     
  -559504838.23045814        58018990.114526987        632303865.02203095     
  -351040214.06537753        144994352.31792241        683003335.97198951     
  -1322052484.0456295       -38253796.360445857        400779696.09124047     
  -1120709533.2135420       -15957987.794974625        422092416.03363615     
  -915995316.37857080        17575374.113435447        441980139.87722725     
  -707909833.54071426        62346289.364805013        460442867.62200606     
  -496453084.69997489        118354757.95910662        477480599.26797646     
  -1494530485.9555728       -18341375.313266456        260191651.09247118     
  -1313334289.3948619        2439160.5882815123        280070324.35216838     
  -1132766088.8784485        21126376.342176855        286226168.73206103     
  -952825884.40631533        37720271.948479652        278659184.23214400     
  -773513675.97847307        52220847.407123923        257369370.85242337     
  -1658109548.1551714        4240727.6470396519        123678337.26898383     
  -1532196770.9544098        12964991.358082652        137457158.12427983     
  -1410911251.8451128        6265061.4309052825        125215317.31876658     
  -1294252990.8272693       -15859062.134458303        86952814.852453128     
  -1182221987.9008930       -53407379.338023663        22669650.725331955     
  -1812789670.6444454        29492512.520409822       -8760245.3792536333     
  -1777296977.8921857        15619504.514395475       -5747082.6500606909     
  -1750430805.2785721       -27008570.620437980       -41052414.362668291     
  -1732191152.8035791       -98391712.884007931       -114676240.51707596     
  -1722578020.4672155       -198529922.27634203       -226618561.11329409     
  -351040214.06537753        144994352.31792241        683003335.97198951     
  -277206268.19527072        285828850.59361547        786147265.81144488     
  -148601088.02742919        609234129.86175728        905223259.38245976     
   34775326.438125312        1115210190.1222925        1040231316.6850349     
   272922975.20144105        1803757031.3753319        1191171437.7191629     
  -496453084.69997489        118354757.95910662        477480599.26797646     
  -387799743.02113670        223300230.08771190        596816050.81059885     
  -229916771.29054669        492344469.05551505        735285672.20078564     
  -22804169.508183360        925487474.86255550        892889463.43853366     
   233538062.32593849        1522729247.5087798        1069627424.5238370     
  -773513675.97847307        52220847.407123923        257369370.85242337     
  -620892063.87377739        124021955.77375594        386431139.14458740     
  -424582425.96327704        341449816.82640314        537829183.40031719     
  -184584762.24697599        704504430.56502688        711563503.61961186     
   99100927.275109887        1213185796.9896300        907634099.80245340     
  -1182221987.9008930       -53407379.338023663        22669650.725331955     
  -976483230.75316274       -12005972.348173440        154992530.81341353     
  -732598052.04561853        156550173.17441419        312853792.98104638     
  -450566451.77824414        452261057.22975200        496253437.22824973     
  -130388429.95103633        875126679.81787837        705191463.55502248     
  -1722578020.4672155       -198529922.27634203       -226618561.11329409     
  -1454573243.6593385       -184783554.27819330       -97499774.182934463     
  -1153963649.5376008       -62354461.900520265        60359500.942987517     
  -820749238.10197127        168757354.85681951        246959264.26448211     
  -454930009.35251427        508551895.99354053        462299515.78152877     
 </DataArray>
 <DataArray  type="Float64" Name="VM" NumberOfComponents="1" format="ascii">
   7219253521.8011580     
   6655791459.9530993     
   6132147394.0145502     
   5608959859.5240746     
   5064882894.6376905     
   5977427139.2089100     
   5696295671.0395613     
   5440818275.8356895     
   5190315649.4303684     
   4936635722.0783396     
   5085057873.2285099     
   4988689036.0609493     
   4906795895.5296030     
   4833216960.2750273     
   4766609023.4486456     
   4535071725.4399700     
   4535567658.4303665     
   4539637199.9371386     
   4547330591.1375742     
   4558868145.1565943     
   4319462922.4412327     
   4336129302.1377354     
   4345417586.1406116     
   4341963890.7116566     
   4322680698.2019520     
   5064882894.6376905     
   4964080693.7666502     
   4869552397.4955587     
   4779266173.6405869     
   4691486501.9079227     
   4936635722.0783396     
   4820373444.4947557     
   4706252049.6413193     
   4593352858.0258017     
   4480855367.4951630     
   4766609023.4486456     
   4640376082.2918434     
   4514570532.4955950     
   4388973687.0050068     
   4263374037.4897032     
   4558868145.1565943     
   4427911831.7857304     
   4298067310.2654495     
   4169430741.7915745     
   4042118008.3249297     
   4322680698.2019520     
   4190690004.4607568     
   4063154358.1365805     
   3940069162.5979295     
   3821555839.0343060     
   4691486501.9079227     
   4376854415.4610758     
   4063037606.7284241     
   3750546137.1621413     
   3440238033.2774286     
   4480855367.4951630     
   4152848865.5413852     
   3825218153.2111216     
   3498205662.4649954     
   3172176462.7031770     
   4263374037.4897032     
   3933529374.5016375     
   3604849173.4524913     
   3277481213.8319855     
   2951654067.7664104     
   4042118008.3249297     
   3722051275.6771803     
   3405373624.5539861     
   3092411561.3703251     
   2783802015.7622919     
   3821555839.0343060     
   3522536322.9562364     
   3230743429.5828581     
   2946936784.9624705     
   2672657941.8432221     
   3440238033.2774286     
   3353414048.4865322     
   3267199690.0154734     
   3182010623.8181877     
   3098788325.2464967     
   3172176462.7031770     
   3112511501.2405081     
   3055127776.3836350     
   3000437131.8741140     
   2949123312.1912289     
   2951654067.7664104     
   2912189918.3403358     
   2875599867.7221923     
   2842151813.7306004     
   2812202626.5763426     
   2783802015.7622919     
   2757994171.6662807     
   2734294533.1112199     
   2712736757.3145423     
   2693358999.0613070     
   2672657941.8432221     
   2654700518.6414356     
   2636604323.6477380     
   2618098019.5528793     
   2598930430.1302028     
   3098788325.2464967     
   2919333911.5356097     
   2738617329.5509019     
   2556662564.8915443     
   2373562145.2916136     
   2949123312.1912289     
   2765334185.0813050     
   2580482392.3638802     
   2394529129.1941738     
   2207449780.1431499     
   2812202626.5763426     
   2629014673.9074101     
   2445741674.9899778     
   2262446216.7808552     
   2079235585.7617738     
   2693358999.0613070     
   2515656140.8796086     
   2339729501.4274926     
   2165917872.6450076     
   1994722124.6330435     
   2598930430.1302028     
   2431156306.1031251     
   2267891469.6873436     
   2109848680.3658531     
   1958046030.3777111     
   2373562145.2916136     
   2232922332.5740480     
   2095064468.5994143     
   1959941877.3497674     
   1827756496.4874110     
   2207449780.1431499     
   2070839537.7764845     
   1936453096.8707922     
   1804247670.9452357     
   1674304008.4545436     
   2079235585.7617738     
   1945501297.0233366     
   1813185060.9557152     
   1682277582.7805297     
   1552814315.6304326     
   1994722124.6330435     
   1864424438.7539883     
   1734697063.6765523     
   1605616863.8942702     
   1477294607.0332606     
   1958046030.3777111     
   1833583962.1497262     
   1709108917.8077567     
   1584885425.8357589     
   1461293613.0148940     
   1827756496.4874110     
   1785204703.2718723     
   1738598657.0601273     
   1696909657.7872174     
   1679054366.0505342     
   1674304008.4545436     
   1557270655.6814473     
   1430764781.1362288     
   1295284140.8954370     
   1157124870.8826168     
   1552814315.6304326     
   1401580740.0948360     
   1246572879.9564302     
   1085586226.8552570     
   916637349.62688339     
   1477294607.0332606     
   1331921054.8485637     
   1200911539.7794247     
   1088838259.0415375     
   1001718979.0989654     
   1461293613.0148940     
   1351345439.8956783     
   1276339203.3932598     
   1244501041.0775385     
   1262958585.3380997     
   1679054366.0505342     
   1381987558.2414300     
   1128919552.1910474     
   1011620523.1800927     
   1156726170.1562202     
   1157124870.8826168     
   1006999273.2672276     
   984640255.34576321     
   1161927740.3330367     
   1545598967.8064222     
   916637349.62688339     
   962286038.69417822     
   1144429885.8634238     
   1476299238.9480534     
   1957748780.4731278     
   1001718979.0989654     
   1164361661.3280194     
   1425034010.8941586     
   1808344963.9943125     
   2334486167.4785318     
   1262958585.3380997     
   1446532129.3387201     
   1715430564.6022601     
   2110167548.7631032     
   2663131247.1641755     
   4319462922.4412327     
   4336129302.1377354     
   4345417586.1406116     
   4341963890.7116566     
   4322680698.2019520     
   4264012865.0400510     
   4214154567.5643787     
   4157432459.9951167     
   4091206351.4973593     
   4013565447.8767300     
   4133509594.2276411     
   4041479716.3836341     
   3946704683.0989194     
   3848505954.6010361     
   3746263736.4872270     
   3935955629.8227916     
   3824586758.2515159     
   3718232118.1365743     
   3617410484.4050622     
   3522755066.5992713     
   3686768167.2087884     
   3574540710.6597099     
   3479565022.4664145     
   3402420148.5988460     
   3344399133.9941440     
   4322680698.2019520     
   4190690004.4607568     
   4063154358.1365805     
   3940069162.5979295     
   3821555839.0343060     
   4013565447.8767300     
   3902667605.6848869     
   3795972511.3634062     
   3693588181.5606790     
   3595715298.8664875     
   3746263736.4872270     
   3654962223.1435709     
   3567408694.4481649     
   3483785554.5569324     
   3404336340.1103921     
   3522755066.5992713     
   3450071238.1446257     
   3380448161.3962021     
   3314094828.2448425     
   3251254921.2996273     
   3344399133.9941440     
   3289874366.5368814     
   3237476726.8698177     
   3187387923.9456220     
   3139806573.2194276     
   3821555839.0343060     
   3522536322.9562364     
   3230743429.5828581     
   2946936784.9624705     
   2672657941.8432221     
   3595715298.8664875     
   3327098491.6779394     
   3066996985.0064573     
   2816509918.4393945     
   2577491135.7971873     
   3404336340.1103921     
   3163819607.0477939     
   2932943817.5325794     
   2713027048.6275444     
   2506054171.5639758     
   3251254921.2996273     
   3036428486.2597857     
   2832053274.2854772     
   2639526620.6715102     
   2460783672.7375050     
   3139806573.2194276     
   2948096951.2747030     
   2767193175.7525506     
   2598437598.1713023     
   2443570964.2972560     
   2672657941.8432221     
   2654700518.6414356     
   2636604323.6477380     
   2618098019.5528793     
   2598930430.1302028     
   2577491135.7971873     
   2560618352.0822392     
   2543917111.5406933     
   2527288931.1615562     
   2510639981.1347499     
   2506054171.5639758     
   2493694447.7580466     
   2482304337.4558845     
   2471952694.6422887     
   2462711369.8130331     
   2460783672.7375050     
   2455982286.4175539     
   2453371781.6367764     
   2453164648.6910224     
   2455583444.6633415     
   2443570964.2972560     
   2448684554.6565666     
   2457545691.5104337     
   2470464961.5016537     
   2487775080.9835186     
   2598930430.1302028     
   2431156306.1031251     
   2267891469.6873436     
   2109848680.3658531     
   1958046030.3777111     
   2510639981.1347499     
   2361581495.5679388     
   2218615173.6620340     
   2082712285.6809468     
   1955146039.2899778     
   2462711369.8130331     
   2333618459.6407886     
   2212091983.2043552     
   2099210198.5850241     
   1996281327.6145694     
   2455583444.6633415     
   2346897317.6409307     
   2246895121.9062452     
   2156590844.4393597     
   2077125559.8492551     
   2487775080.9835186     
   2398977109.4359083     
   2319476063.9310727     
   2250097970.3522339     
   2191707173.9292078     
   1958046030.3777111     
   1833583962.1497262     
   1709108917.8077567     
   1584885425.8357589     
   1461293613.0148940     
   1955146039.2899778     
   1844210035.0884652     
   1737426310.6512725     
   1635598786.5859914     
   1539701332.0571713     
   1996281327.6145694     
   1904114277.2119391     
   1820407462.3963046     
   1746251147.9392645     
   1682809464.0142357     
   2077125559.8492551     
   2005512297.2229545     
   1945949419.3246186     
   1899443868.1364813     
   1866949917.5985742     
   2191707173.9292078     
   2139503441.5217957     
   2102037090.4733486     
   2080045204.0571682     
   2074171472.8637249     
   1461293613.0148940     
   1351345439.8956783     
   1276339203.3932598     
   1244501041.0775385     
   1262958585.3380997     
   1539701332.0571713     
   1478033632.9197710     
   1449122680.6896496     
   1457001652.5285640     
   1504997947.8894470     
   1682809464.0142357     
   1653690613.1277432     
   1652389040.1757500     
   1681303119.7281787     
   1743052399.1931686     
   1866949917.5985742     
   1855941110.1643288     
   1867984665.4371979     
   1905299738.4816606     
   1970930811.0452604     
   2074171472.8637249     
   2070185812.6298404     
   2085479996.8471949     
   2122689983.0507698     
   2185655750.8544745     
   1262958585.3380997     
   1446532129.3387201     
   1715430564.6022601     
   2110167548.7631032     
   2663131247.1641755     
   1504997947.8894470     
   1613257919.8154922     
   1788790080.7788806     
   2066291816.0419481     
   2475922209.9104753     
   1743052399.1931686     
   1787773164.7781253     
   1884695550.9348412     
   2060692154.9871764     
   2340951824.1399937     
   1970930811.0452604     
   1969033531.1865089     
   2003713637.2186301     
   2093626046.2373717     
   2257403318.6612310     
   2185655750.8544745     
   2156322116.3005767     
   2146587274.5481746     
   2166968128.7040043     
   2228524918.8735204     
   3686768167.2087884     
   3574540710.6597099     
   3479565022.4664145     
   3402420148.5988460     
   3344399133.9941440     
   3354785945.3176618     
   3292252993.9322991     
   3243217526.5152922     
   3208133919.7258487     
   3187775152.4492235     
   3092582172.4861178     
   3070371571.7437363     
   3056480686.2742400     
   3051217748.9111547     
   3054983817.7997136     
   2898284949.3408966     
   2909024367.7523770     
   2921480232.0968261     
   2935777120.1502461     
   2952053583.0011129     
   2767028354.2220664     
   2805739933.6430125     
   2838420157.5593090     
   2864923129.5682573     
   2885142749.0312667     
   3344399133.9941440     
   3289874366.5368814     
   3237476726.8698177     
   3187387923.9456220     
   3139806573.2194276     
   3187775152.4492235     
   3138605592.7645149     
   3092806134.4786692     
   3050577919.3549786     
   3012136837.2391305     
   3054983817.7997136     
   3011488344.0152378     
   2972693918.6910582     
   2938796775.2443290     
   2910005688.7547183     
   2952053583.0011129     
   2913789180.1269817     
   2881620699.4983444     
   2855709264.9921246     
   2836226941.0998583     
   2885142749.0312667     
   2850739438.6651888     
   2823866767.1955967     
   2804622588.4805098     
   2793115946.3052897     
   3139806573.2194276     
   2948096951.2747030     
   2767193175.7525506     
   2598437598.1713023     
   2443570964.2972560     
   3012136837.2391305     
   2838891000.4494753     
   2678455386.2081251     
   2532217476.5715446     
   2401909029.8112283     
   2910005688.7547183     
   2755945697.9636846     
   2616651262.5352297     
   2493420765.9660735     
   2387807265.1079021     
   2836226941.0998583     
   2701107909.9251628     
   2582558726.2938509     
   2481659842.5395718     
   2399648722.4319320     
   2793115946.3052897     
   2675536798.7800360     
   2576136001.0133777     
   2495690375.9264936     
   2435055508.1014624     
   2443570964.2972560     
   2448684554.6565666     
   2457545691.5104337     
   2470464961.5016537     
   2487775080.9835186     
   2401909029.8112283     
   2421467696.2698736     
   2444314374.5730195     
   2470665814.1704526     
   2500749672.8289504     
   2387807265.1079021     
   2420583906.1125689     
   2455980927.0523405     
   2494135082.0280423     
   2535189609.3380036     
   2399648722.4319320     
   2444319940.5932026     
   2490786130.4522328     
   2539123983.6511917     
   2589415852.1731300     
   2435055508.1014624     
   2490311262.7515264     
   2546433820.0387378     
   2603459425.9160647     
   2661430283.7249823     
   2487775080.9835186     
   2398977109.4359083     
   2319476063.9310727     
   2250097970.3522339     
   2191707173.9292078     
   2500749672.8289504     
   2427470040.3466558     
   2364617337.2284336     
   2312886206.8336182     
   2272963726.5747533     
   2535189609.3380036     
   2476502214.9041848     
   2429093550.8850040     
   2393488991.9894304     
   2370180272.2174520     
   2589415852.1731300     
   2543730289.0109296     
   2509962292.6120315     
   2488467578.2713509     
   2479562300.9253697     
   2661430283.7249823     
   2626660056.6448617     
   2604334971.6118250     
   2594665401.9563913     
   2597830145.9409575     
   2191707173.9292078     
   2139503441.5217957     
   2102037090.4733486     
   2080045204.0571682     
   2074171472.8637249     
   2272963726.5747533     
   2236015127.9241204     
   2212642838.5873971     
   2203262645.7265334     
   2208227771.3877258     
   2370180272.2174520     
   2345389581.6459227     
   2332989257.1015286     
   2333198726.4990830     
   2346209918.6327457     
   2479562300.9253697     
   2464174356.0616550     
   2460080340.0826092     
   2467392146.5259757     
   2486222393.4728842     
   2597830145.9409575     
   2589498828.1441193     
   2591509648.1008444     
   2603924389.1422434     
   2626824797.8764610     
   2074171472.8637249     
   2070185812.6298404     
   2085479996.8471949     
   2122689983.0507698     
   2185655750.8544745     
   2208227771.3877258     
   2193146602.8627453     
   2193148866.8884597     
   2210211194.9540172     
   2247275640.5585122     
   2346209918.6327457     
   2320887543.5096440     
   2307243534.8946323     
   2306690000.5980234     
   2321329993.3769999     
   2486222393.4728842     
   2452455786.8143439     
   2427455586.7380490     
   2412171342.9805632     
   2407987047.4758482     
   2626824797.8764610     
   2587086229.4454522     
   2553509660.2457395     
   2526677905.7353082     
   2507400780.7600732     
   2185655750.8544745     
   2156322116.3005767     
   2146587274.5481746     
   2166968128.7040043     
   2228524918.8735204     
   2247275640.5585122     
   2182640623.2277184     
   2134420203.6104965     
   2112277266.2175400     
   2127140857.6471033     
   2321329993.3769999     
   2224721726.7713461     
   2141395089.6698179     
   2079713120.3056026     
   2049846423.5577736     
   2407987047.4758482     
   2282857454.3149939     
   2168158613.7243123     
   2070629103.9698350     
   1999038944.8821664     
   2507400780.7600732     
   2357254462.8719869     
   2215180248.5146561     
   2086157511.3024433     
   1977065588.3767719     
   2767028354.2220664     
   2805739933.6430125     
   2838420157.5593090     
   2864923129.5682573     
   2885142749.0312667     
   2731479901.0967937     
   2756821606.6175303     
   2779542241.7535906     
   2799553464.4786348     
   2816776243.3061743     
   2734777276.3246603     
   2744873490.2504416     
   2755850027.4284401     
   2767709130.8674135     
   2780472638.6142855     
   2787881434.1825261     
   2779242144.4397345     
   2774925752.7082715     
   2775047538.7224431     
   2779795649.5132442     
   2899811346.6708860     
   2867622885.5387006     
   2842950319.1919270     
   2826043552.6518555     
   2817327062.8904958     
   2885142749.0312667     
   2850739438.6651888     
   2823866767.1955967     
   2804622588.4805098     
   2793115946.3052897     
   2816776243.3061743     
   2786822277.7943263     
   2765271434.1649756     
   2752225963.9752712     
   2747803421.2155752     
   2780472638.6142855     
   2754463972.7802944     
   2738177206.4576206     
   2731621788.5525727     
   2734860593.4056954     
   2779795649.5132442     
   2756590635.2865338     
   2744846367.9285922     
   2744398156.2714968     
   2755205904.8117146     
   2817327062.8904958     
   2795086525.6288214     
   2786437529.3750439     
   2790989534.4791722     
   2808575220.5004482     
   2793115946.3052897     
   2675536798.7800360     
   2576136001.0133777     
   2495690375.9264936     
   2435055508.1014624     
   2747803421.2155752     
   2642800421.8401060     
   2555491812.5674644     
   2486308546.7682533     
   2435716253.4027114     
   2734860593.4056954     
   2637843516.7105284     
   2557933460.3130617     
   2495313226.9726343     
   2450181294.8084354     
   2755205904.8117146     
   2661476847.6606216     
   2584207952.2680116     
   2523434863.5491853     
   2479204424.9021111     
   2808575220.5004482     
   2713607785.4437375     
   2634418314.4473071     
   2570985396.9499893     
   2523302592.5082817     
   2435055508.1014624     
   2490311262.7515264     
   2546433820.0387378     
   2603459425.9160647     
   2661430283.7249823     
   2435716253.4027114     
   2493051994.9577966     
   2552003031.5340533     
   2612588979.4605837     
   2674831920.0729895     
   2450181294.8084354     
   2508379991.6469898     
   2568966039.1688423     
   2631946581.7035508     
   2697329411.7227807     
   2479204424.9021111     
   2536713548.4848166     
   2597418230.2358103     
   2661318735.4306717     
   2728415342.6232371     
   2523302592.5082817     
   2578290732.6043825     
   2637326682.0654163     
   2700412209.7876816     
   2767548996.3416500     
   2661430283.7249823     
   2626660056.6448617     
   2604334971.6118250     
   2594665401.9563913     
   2597830145.9409575     
   2674831920.0729895     
   2646976404.4561381     
   2631241902.2075224     
   2627747816.4591942     
   2636593785.1286902     
   2697329411.7227807     
   2674736303.2094574     
   2664082388.4912901     
   2665422763.0970993     
   2678803305.4683914     
   2728415342.6232371     
   2709402561.2611670     
   2702317922.3303328     
   2707175573.0918779     
   2723988374.5263901     
   2767548996.3416500     
   2750431194.8090019     
   2745421736.3383608     
   2752514681.6823988     
   2771707213.4560952     
   2597830145.9409575     
   2589498828.1441193     
   2591509648.1008444     
   2603924389.1422434     
   2626824797.8764610     
   2636593785.1286902     
   2629237175.9980488     
   2631578772.0887914     
   2643649569.7026138     
   2665493829.0632529     
   2678803305.4683914     
   2672159266.7947960     
   2674732922.3888111     
   2686536082.0844064     
   2707587735.9306173     
   2723988374.5263901     
   2717908557.7435942     
   2720714926.6594567     
   2732409514.2693806     
   2752996977.1202588     
   2771707213.4560952     
   2766146282.1333761     
   2769276558.9286590     
   2781097861.3324790     
   2801610177.3414574     
   2626824797.8764610     
   2587086229.4454522     
   2553509660.2457395     
   2526677905.7353082     
   2507400780.7600732     
   2665493829.0632529     
   2618949082.6304984     
   2578287499.6035180     
   2543839916.3560290     
   2516067686.7810707     
   2707587735.9306173     
   2656338348.4012747     
   2610840484.6019044     
   2571240879.9353824     
   2537744018.3565359     
   2752996977.1202588     
   2699155611.4952216     
   2651079797.8147230     
   2608805534.0868616     
   2572382454.0035453     
   2801610177.3414574     
   2747294134.8738923     
   2698902039.4051514     
   2656433838.8445091     
   2619889515.8254004     
   2507400780.7600732     
   2357254462.8719869     
   2215180248.5146561     
   2086157511.3024433     
   1977065588.3767719     
   2516067686.7810707     
   2348314982.4446707     
   2184050066.3750072     
   2026371831.4978240     
   1879846469.9190838     
   2537744018.3565359     
   2357475985.8857012     
   2176907562.4339647     
   1997509273.3823676     
   1821559161.7467754     
   2572382454.0035453     
   2384843458.6891699     
   2194220579.9021215     
   2000891415.7033753     
   1805459621.1333394     
   2619889515.8254004     
   2430388325.0593395     
   2236132395.6439991     
   2037121722.4265988     
   1833356300.7154953     
   2899811346.6708860     
   2867622885.5387006     
   2842950319.1919270     
   2826043552.6518555     
   2817327062.8904958     
   2745557603.6153874     
   2728819209.8699484     
   2719609873.6852589     
   2717990854.7319360     
   2724058647.9422741     
   2646693702.8241978     
   2646491337.1629848     
   2653688390.9472237     
   2668292670.0515828     
   2690319277.6918302     
   2597170606.8827944     
   2613259125.7713618     
   2636684842.0753546     
   2667555433.3340430     
   2706061820.3089833     
   2588441388.2025990     
   2619300612.5969219     
   2657841058.5460553     
   2704404362.8796039     
   2759575738.0160718     
   2817327062.8904958     
   2795086525.6288214     
   2786437529.3750439     
   2790989534.4791722     
   2808575220.5004482     
   2724058647.9422741     
   2720874313.6852531     
   2725985553.0084968     
   2739348147.2858329     
   2760942623.0203047     
   2690319277.6918302     
   2698221427.3560162     
   2709110286.4577613     
   2723020333.0499353     
   2739995568.7504048     
   2706061820.3089833     
   2720100013.9431472     
   2731802221.4940004     
   2740997051.7739325     
   2747692930.7498469     
   2759575738.0160718     
   2777894733.4916177     
   2788579695.6884665     
   2791041587.1934314     
   2785206655.0876060     
   2808575220.5004482     
   2713607785.4437375     
   2634418314.4473071     
   2570985396.9499893     
   2523302592.5082817     
   2760942623.0203047     
   2662169504.2341442     
   2580558433.6095805     
   2516137061.1467357     
   2468938238.3720183     
   2739995568.7504048     
   2634728097.4270368     
   2548091369.1687374     
   2480239761.0692019     
   2431348404.7374544     
   2747692930.7498469     
   2632559877.0309987     
   2537589037.8036442     
   2463182477.3900733     
   2409811424.5834713     
   2785206655.0876060     
   2656291750.5198355     
   2549100243.0405674     
   2464443761.9194093     
   2403297100.1363692     
   2523302592.5082817     
   2578290732.6043825     
   2637326682.0654163     
   2700412209.7876816     
   2767548996.3416500     
   2468938238.3720183     
   2526708052.9831319     
   2587749873.2444901     
   2652070015.0118842     
   2719674829.1343350     
   2431348404.7374544     
   2490455532.5078402     
   2552106086.7300267     
   2616310097.1925569     
   2683078186.7445350     
   2409811424.5834713     
   2469061338.1068263     
   2530166942.9630952     
   2593138419.6413255     
   2657988085.6682272     
   2403297100.1363692     
   2461794244.5494294     
   2521489195.5122399     
   2582387362.5297823     
   2644499145.5702715     
   2767548996.3416500     
   2750431194.8090019     
   2745421736.3383608     
   2752514681.6823988     
   2771707213.4560952     
   2719674829.1343350     
   2703151443.3432293     
   2698387713.7731600     
   2705392911.9187341     
   2724174308.0116177     
   2683078186.7445350     
   2664554934.2539830     
   2657582634.4960475     
   2662214708.8724265     
   2678494234.4144015     
   2657988085.6682272     
   2634962776.6330180     
   2623390086.0410085     
   2623396631.8172321     
   2635088714.1492953     
   2644499145.5702715     
   2614624637.7705035     
   2596171321.0168414     
   2589368309.1441388     
   2594415309.4543839     
   2771707213.4560952     
   2766146282.1333761     
   2769276558.9286590     
   2781097861.3324790     
   2801610177.3414574     
   2724174308.0116177     
   2717809563.4071851     
   2720322206.4843793     
   2731715596.9738765     
   2751994128.1619139     
   2678494234.4144015     
   2671521079.1871390     
   2673753671.1721759     
   2685204339.5863028     
   2705892063.1828847     
   2635088714.1492953     
   2627600321.7916741     
   2629801676.9542432     
   2641721065.0379977     
   2663403321.4674311     
   2594415309.4543839     
   2586387575.5452185     
   2588706129.7318258     
   2601423855.7946625     
   2624623497.0667005     
   2801610177.3414574     
   2747294134.8738923     
   2698902039.4051514     
   2656433838.8445091     
   2619889515.8254004     
   2751994128.1619139     
   2698439949.5101185     
   2650624407.4188232     
   2608584502.9183679     
   2572372560.9918866     
   2705892063.1828847     
   2655118642.6868339     
   2610042072.5984292     
   2570809794.1424689     
   2537627832.3412943     
   2663403321.4674311     
   2617429138.2502522     
   2577254212.8621507     
   2543208356.6709757     
   2515749324.8498373     
   2624623497.0667005     
   2585460862.4580588     
   2552344748.4461169     
   2525853790.1814580     
   2506785272.9821563     
   2619889515.8254004     
   2430388325.0593395     
   2236132395.6439991     
   2037121722.4265988     
   1833356300.7154953     
   2572372560.9918866     
   2384813082.4046125     
   2194183133.1420498     
   2000863288.4395213     
   1805461121.9677067     
   2537627832.3412943     
   2357352936.2493615     
   2176803941.1820469     
   1997460217.2704582     
   1821613256.6116683     
   2515749324.8498373     
   2348036836.5008650     
   2183850306.7842722     
   2026305356.7272909     
   1879994041.9107294     
   2506785272.9821563     
   2356759308.7143130     
   2214854215.0689836     
   2086074893.4734697     
   1977338972.8366535     
   2588441388.2025990     
   2619300612.5969219     
   2657841058.5460553     
   2704404362.8796039     
   2759575738.0160718     
   2798026431.9560838     
   2799494212.7910647     
   2811089888.6220937     
   2833183319.4928875     
   2866214465.9274035     
   3067572358.1651182     
   3033295195.9859815     
   3010053097.9369702     
   2998402984.5218039     
   2998975503.0454464     
   3396759081.7203426     
   3321511433.4104328     
   3256916549.8664203     
   3203660944.8768535     
   3162679777.5684075     
   3784109578.2131877     
   3663587933.4861178     
   3552465177.9062161     
   3451338019.2118182     
   3361334258.4806790     
   2759575738.0160718     
   2777894733.4916177     
   2788579695.6884665     
   2791041587.1934314     
   2785206655.0876060     
   2866214465.9274035     
   2861247585.6434011     
   2853400580.9142351     
   2842616491.2229428     
   2829023488.4872007     
   2998975503.0454464     
   2972270266.0796990     
   2947879576.0698280     
   2925918789.2379618     
   2906540195.9561257     
   3162679777.5684075     
   3113745386.0917702     
   3072283754.7160826     
   3038352368.3301139     
   3012058266.2198029     
   3361334258.4806790     
   3287601618.2661090     
   3226132584.9267998     
   3176847091.4304662     
   3139880899.1284356     
   2785206655.0876060     
   2656291750.5198355     
   2549100243.0405674     
   2464443761.9194093     
   2403297100.1363692     
   2829023488.4872007     
   2688019548.4426069     
   2565545308.6085539     
   2462840463.4320979     
   2381353078.0631599     
   2906540195.9561257     
   2750986746.9060884     
   2610620935.2378364     
   2486901249.0647087     
   2381560346.7038832     
   3012058266.2198029     
   2841625212.6650653     
   2682910861.6890574     
   2537337239.7480688     
   2406643212.4942479     
   3139880899.1284356     
   2955981790.6730199     
   2780318764.2302356     
   2614050747.6392183     
   2458638349.0916677     
   2403297100.1363692     
   2461794244.5494294     
   2521489195.5122399     
   2582387362.5297823     
   2644499145.5702715     
   2381353078.0631599     
   2427950632.6890144     
   2476592482.9846926     
   2527330385.0158305     
   2580220045.3631997     
   2381560346.7038832     
   2414743241.9352169     
   2450721113.5829067     
   2489616872.2865024     
   2531557618.4352846     
   2406643212.4942479     
   2424975945.1062031     
   2446694382.5062461     
   2472017136.8187246     
   2501171606.1673303     
   2458638349.0916677     
   2460888264.1184673     
   2466897818.5523758     
   2476997340.6646023     
   2491538716.3503947     
   2644499145.5702715     
   2614624637.7705035     
   2596171321.0168414     
   2589368309.1441388     
   2594415309.4543839     
   2580220045.3631997     
   2536841086.8708863     
   2504729592.3097520     
   2484247833.9730024     
   2475722118.2369623     
   2531557618.4352846     
   2473204237.3408875     
   2425886883.1483464     
   2390125037.4394011     
   2366408662.5024004     
   2501171606.1673303     
   2426672108.2900343     
   2362810355.5887794     
   2310268866.5893211     
   2269726290.1275597     
   2491538716.3503947     
   2400165107.9099855     
   2318799422.7392583     
   2248262225.4558482     
   2189416659.2540784     
   2594415309.4543839     
   2586387575.5452185     
   2588706129.7318258     
   2601423855.7946625     
   2624623497.0667005     
   2475722118.2369623     
   2460923778.9404540     
   2457401108.0134535     
   2465258223.5185962     
   2484605600.3229775     
   2366408662.5024004     
   2342339636.7096572     
   2330610030.6753259     
   2331434242.0682979     
   2345000642.1452217     
   2269726290.1275597     
   2233497019.4454079     
   2210745640.9778333     
   2201886908.2542782     
   2207270881.3881440     
   2189416659.2540784     
   2137827129.8058059     
   2100808588.0556238     
   2079100859.6413255     
   2073346057.4511132     
   2624623497.0667005     
   2585460862.4580588     
   2552344748.4461169     
   2525853790.1814580     
   2506785272.9821563     
   2484605600.3229775     
   2451148880.0322218     
   2426390603.3855619     
   2411279030.7695642     
   2407189546.1854157     
   2345000642.1452217     
   2319786777.7779217     
   2306230191.9797688     
   2305744623.9317150     
   2320431235.2186103     
   2207270881.3881440     
   2192152764.2291179     
   2192144489.3391910     
   2209227881.1634512     
   2246353078.7398930     
   2073346057.4511132     
   2069218652.0938056     
   2084449189.6107657     
   2121683883.7844834     
   2184784143.6875901     
   2506785272.9821563     
   2356759308.7143130     
   2214854215.0689836     
   2086074893.4734697     
   1977338972.8366535     
   2407189546.1854157     
   2282304679.7438583     
   2167877518.9149270     
   2070662627.5702596     
   1999449935.2990136     
   2320431235.2186103     
   2224147970.6259651     
   2141149308.6300778     
   2079800486.1462133     
   2050270538.2389066     
   2246353078.7398930     
   2182080226.3622828     
   2134199443.5075338     
   2112359797.5081933     
   2127468274.2140007     
   2184784143.6875901     
   2155807378.5011907     
   2146381027.3393886     
   2166991948.5035343     
   2228661288.1827717     
   3784109578.2131877     
   3663587933.4861178     
   3552465177.9062161     
   3451338019.2118182     
   3361334258.4806790     
   3986715660.6086230     
   3875967308.3732672     
   3765392449.3450408     
   3655220157.7975650     
   3545784273.5336618     
   4150084278.5078058     
   4064344839.0785575     
   3973229391.9392471     
   3875975541.3112354     
   3771938832.6507940     
   4256183410.5060878     
   4213963018.9717574     
   4164043528.2769756     
   4104093272.1172991     
   4032459304.0080156     
   4294649906.3640728     
   4315557542.1575613     
   4329701141.8735628     
   4332401872.0565586     
   4320866498.6487932     
   3361334258.4806790     
   3287601618.2661090     
   3226132584.9267998     
   3176847091.4304662     
   3139880899.1284356     
   3545784273.5336618     
   3457790610.0914545     
   3378718627.1643591     
   3308720375.2831879     
   3248103410.8631153     
   3771938832.6507940     
   3669622427.4642634     
   3573244518.2353163     
   3483021014.7805996     
   3399275924.0264010     
   4032459304.0080156     
   3917229784.8510022     
   3805349009.0968528     
   3696983797.0142360     
   3592372898.3247538     
   4320866498.6487932     
   4195144111.7358403     
   4070602010.7470436     
   3947307282.1166825     
   3825379235.9522758     
   3139880899.1284356     
   2955981790.6730199     
   2780318764.2302356     
   2614050747.6392183     
   2458638349.0916677     
   3248103410.8631153     
   3038771001.2142854     
   2838425420.4830499     
   2648297398.5432324     
   2470067725.3103609     
   3399275924.0264010     
   3161798300.8900127     
   2933563285.4475756     
   2715761623.7024040     
   2510200272.0569134     
   3592372898.3247538     
   3323633528.1765437     
   3063941034.1367612     
   2814321936.5513320     
   2576577967.1528997     
   3825379235.9522758     
   3521887682.4281912     
   3226887788.7717700     
   2941123739.9320507     
   2666242551.8996615     
   2458638349.0916677     
   2460888264.1184673     
   2466897818.5523758     
   2476997340.6646023     
   2491538716.3503947     
   2470067725.3103609     
   2463622453.1843762     
   2459312940.9727664     
   2457356133.2918382     
   2457978992.1405377     
   2510200272.0569134     
   2497402982.4978766     
   2485472639.2782831     
   2474469445.1372161     
   2464457055.6591196     
   2576577967.1528997     
   2560474714.7392116     
   2544409978.6862845     
   2528265790.9273229     
   2511930687.2126918     
   2666242551.8996615     
   2650265424.1822743     
   2633999181.3798213     
   2617143411.6644506     
   2599422493.1000776     
   2491538716.3503947     
   2400165107.9099855     
   2318799422.7392583     
   2248262225.4558482     
   2189416659.2540784     
   2457978992.1405377     
   2347559774.4484186     
   2246310691.9276962     
   2155258828.5100369     
   2075562568.2901430     
   2464457055.6591196     
   2334265789.1071105     
   2211889214.3089428     
   2098424761.7727137     
   1995204921.0210760     
   2511930687.2126918     
   2362348455.0805717     
   2218869531.9545584     
   2082475926.1474247     
   1954454306.5827634     
   2599422493.1000776     
   2431778586.7206511     
   2268440543.1387806     
   2110114262.3497760     
   1957806123.2247229     
   2189416659.2540784     
   2137827129.8058059     
   2100808588.0556238     
   2079100859.6413255     
   2073346057.4511132     
   2075562568.2901430     
   2004296846.1298876     
   1944970851.5468044     
   1898589216.5096977     
   1866103319.6133943     
   1995204921.0210760     
   1903177249.9476376     
   1819565868.6004188     
   1745457920.7481501     
   1682014802.2077196     
   1954454306.5827634     
   1843463014.4698856     
   1736657173.0302427     
   1634842180.2807763     
   1538993387.9375806     
   1957806123.2247229     
   1833064135.3507273     
   1708420545.0197771     
   1584147078.1057441     
   1460629826.2954435     
   2073346057.4511132     
   2069218652.0938056     
   2084449189.6107657     
   2121683883.7844834     
   2184784143.6875901     
   1866103319.6133943     
   1855067604.8228652     
   1867134370.1867447     
   1904529843.3660915     
   1970311066.5434263     
   1682014802.2077196     
   1652951879.5908208     
   1651727976.9124072     
   1680745393.3101559     
   1742627774.1946800     
   1538993387.9375806     
   1477449212.7874746     
   1448652080.9609766     
   1456633999.5455086     
   1504717031.1548374     
   1460629826.2954435     
   1350885944.9068794     
   1276040882.3358903     
   1244306355.3887844     
   1262787437.9394631     
   2184784143.6875901     
   2155807378.5011907     
   2146381027.3393886     
   2166991948.5035343     
   2228661288.1827717     
   1970311066.5434263     
   1968639348.6863182     
   2003531436.0175071     
   2093617156.2449753     
   2257491590.6061516     
   1742627774.1946800     
   1787467446.0761671     
   1884523488.7150197     
   2060649189.0251472     
   2341002405.1657867     
   1504717031.1548374     
   1613012496.8715847     
   1788616481.9781799     
   2066215269.1878593     
   2475948455.0467682     
   1262787437.9394631     
   1446325539.6356821     
   1715245991.3648717     
   2110062764.4005511     
   2663157491.6251378     
   4294649906.3640728     
   4315557542.1575613     
   4329701141.8735628     
   4332401872.0565586     
   4320866498.6487932     
   4530520345.0125980     
   4525852220.2666521     
   4526357602.5757809     
   4531909038.8638315     
   4542618111.5670557     
   5094517643.2099466     
   4986417316.7167845     
   4895613682.6392984     
   4815836745.3088446     
   4745550267.7115278     
   5993637243.2636137     
   5699995950.8270626     
   5434408964.5008125     
   5177448329.3385906     
   4921689429.6987572     
   7235606039.5060081     
   6665959530.5915537     
   6135677028.7450085     
   5608851460.5201225     
   5067103189.6955614     
   4320866498.6487932     
   4195144111.7358403     
   4070602010.7470436     
   3947307282.1166825     
   3825379235.9522758     
   4542618111.5670557     
   4420469464.6292887     
   4297843685.3821793     
   4174787924.0226741     
   4051366304.6471782     
   4745550267.7115278     
   4628320450.7356958     
   4510570333.7722559     
   4392132864.0933380     
   4272860944.0217161     
   4921689429.6987572     
   4811540369.1517782     
   4702336129.1854715     
   4593501906.4525785     
   4484524931.3658390     
   5067103189.6955614     
   4966286295.6585875     
   4869404825.2966404     
   4775267124.9331551     
   4682822226.8924637     
   3825379235.9522758     
   3521887682.4281912     
   3226887788.7717700     
   2941123739.9320507     
   2666242551.8996615     
   4051366304.6471782     
   3726443261.0045900     
   3405509821.6511788     
   3088934562.2007513     
   2777450173.4376936     
   4272860944.0217161     
   3938972420.7487178     
   3606434916.6441178     
   3275440303.5635614     
   2946281208.4943347     
   4484524931.3658390     
   4154808616.9347415     
   3825440416.1176229     
   3496683884.1070366     
   3168959561.9619551     
   4682822226.8924637     
   4370517245.8703222     
   4058967143.8229547     
   3748664799.1842046     
   3440543041.8404193     
   2666242551.8996615     
   2650265424.1822743     
   2633999181.3798213     
   2617143411.6644506     
   2599422493.1000776     
   2777450173.4376936     
   2753380098.3354874     
   2731341543.5678701     
   2711368922.6773081     
   2693500227.2756777     
   2946281208.4943347     
   2908178506.5258060     
   2872911313.5589452     
   2840759553.7452960     
   2812094355.9572349     
   3168959561.9619551     
   3110113795.5954618     
   3053511600.0762429     
   2999569865.5810513     
   2948990797.4534383     
   3440543041.8404193     
   3353785212.7579732     
   3267575940.1321869     
   3182310175.9388576     
   3098938005.9554482     
   2599422493.1000776     
   2431778586.7206511     
   2268440543.1387806     
   2110114262.3497760     
   1957806123.2247229     
   2693500227.2756777     
   2515957363.2375827     
   2340057541.8437409     
   2166130456.9089737     
   1994665582.0741651     
   2812094355.9572349     
   2629069205.0239739     
   2445877640.2950177     
   2262575789.2307720     
   2079265180.6943326     
   2948990797.4534383     
   2765292554.5860944     
   2580483151.6299534     
   2394520840.4649825     
   2207379951.2912278     
   3098938005.9554482     
   2919395961.6472678     
   2738557523.2792373     
   2556445889.8710213     
   2373153030.5185795     
   1957806123.2247229     
   1833064135.3507273     
   1708420545.0197771     
   1584147078.1057441     
   1460629826.2954435     
   1994665582.0741651     
   1864125739.3601243     
   1734224199.7719674     
   1605038425.2612827     
   1476680632.8389575     
   2079265180.6943326     
   1945345785.9922757     
   1812879274.1932032     
   1681853549.2306731     
   1552303166.5346920     
   2207379951.2912278     
   2070684186.7573907     
   1936231144.2704861     
   1803975338.9450271     
   1673996965.8831127     
   2373153030.5185795     
   2232588724.3510942     
   2094828039.9736807     
   1959823512.2462339     
   1827777378.6885614     
   1460629826.2954435     
   1350885944.9068794     
   1276040882.3358903     
   1244306355.3887844     
   1262787437.9394631     
   1476680632.8389575     
   1331482733.3378315     
   1200622590.9551649     
   1088660574.5498688     
   1001595859.9901031     
   1552303166.5346920     
   1401204659.6378415     
   1246319717.2446294     
   1085446294.9684212     
   916602936.18838048     
   1673996965.8831127     
   1557030303.1017573     
   1430589348.5965705     
   1295183018.5538154     
   1157109993.8495672     
   1827777378.6885614     
   1785185733.0800455     
   1738538678.0597105     
   1696816367.4557607     
   1678920427.7870615     
   1262787437.9394631     
   1446325539.6356821     
   1715245991.3648717     
   2110062764.4005511     
   2663157491.6251378     
   1001595859.9901031     
   1164223174.8271196     
   1424920386.4951587     
   1808288376.1412477     
   2334510148.1346927     
   916602936.18838048     
   962226441.37602377     
   1144383020.2216706     
   1476281365.1223686     
   1957756857.1551766     
   1157109993.8495672     
   1006979675.3019015     
   984646485.72207689     
   1161949341.8693664     
   1545587022.1364114     
   1678920427.7870615     
   1381906540.6449049     
   1128935431.7300985     
   1011722522.0900434     
   1156764621.6945744     
 </DataArray>
 <DataArray  type="Float64" Name="strain" NumberOfComponents="3" format="ascii">
  0.12124881636702134       -2.9101657083251298E-002   1.5957126711487080E-002
  0.11184519666897585       -2.9004024227409886E-002   1.2436547574934398E-004
  0.10244157697093015       -2.8628718294022248E-002  -9.6788247847047759E-003
   9.3037957272884553E-002  -2.7975739283087775E-002  -1.3452444069875447E-002
   8.3634337574838957E-002  -2.7045087194607076E-002  -1.1196492379762724E-002
   9.9409115880409016E-002  -2.7582592741432488E-002   1.7494538526550807E-002
   9.5098894340676587E-002  -2.7251991102933693E-002   6.9320561639280576E-003
   9.0788672800944104E-002  -2.6734713098184593E-002   5.2679914264852634E-004
   8.6478451261211647E-002  -2.6030758727185285E-002  -1.7212325372882309E-003
   8.2168229721479247E-002  -2.5140127989935368E-002   1.8796112411806343E-004
   8.3543692361983612E-002  -2.6063528399613622E-002   1.9310417479919573E-002
   8.2454523346623676E-002  -2.5499957978457444E-002   1.3927217279116055E-002
   8.1365354331263851E-002  -2.4840707902347214E-002   1.0828896785714831E-002
   8.0276185315903983E-002  -2.4085778171282574E-002   1.0015455999715844E-002
   7.9187016300544144E-002  -2.3235168785263882E-002   1.1486894921119262E-002
   7.3652545811744949E-002  -2.4544464057794813E-002   2.1404763571594321E-002
   7.3912083686817287E-002  -2.3747924853981112E-002   2.1109848821313434E-002
   7.4171621561889362E-002  -2.2946702706509531E-002   2.1227468144494527E-002
   7.4431159436961547E-002  -2.2140797615379973E-002   2.1757621541137112E-002
   7.4690697312033802E-002  -2.1330209580592341E-002   2.2700309011241288E-002
   6.9735676229693455E-002  -2.3025399715975947E-002   2.3777576801574607E-002
   6.9471575361257143E-002  -2.1995891729504835E-002   2.8479950790520125E-002
   6.9207474492820775E-002  -2.1052697510672055E-002   3.1722513218987142E-002
   6.8943373624384408E-002  -2.0195817059477327E-002   3.3505264086975170E-002
   6.8679272755948095E-002  -1.9425250375920800E-002   3.3828203394484446E-002
   8.3634337574838957E-002  -2.7045087194607076E-002  -1.1196492379762724E-002
   8.2316152769109252E-002  -2.5969916442478813E-002  -6.9427283682317320E-003
   8.0997967963379491E-002  -2.4883381440601648E-002  -3.3661464686318143E-003
   7.9679783157649731E-002  -2.3785482188975887E-002  -4.6674668096302607E-004
   7.8361598351920025E-002  -2.2676218687601613E-002   1.7554709947749103E-003
   8.2168229721479247E-002  -2.5140127989935368E-002   1.8796112411806343E-004
   8.0299375604069911E-002  -2.4154830504957481E-002   3.0601430578025002E-003
   7.8430521486660520E-002  -2.3166875890772848E-002   5.5081684800586395E-003
   7.6561667369251185E-002  -2.2176264147382337E-002   7.5320373908869115E-003
   7.4692813251841794E-002  -2.1182995274784955E-002   9.1317497902865807E-003
   7.9187016300544144E-002  -2.3235168785263882E-002   1.1486894921119262E-002
   7.7020518471958024E-002  -2.2339744567436315E-002   1.2968787656415154E-002
   7.4854020643371794E-002  -2.1450370340944158E-002   1.4279549480785331E-002
   7.2687522814785618E-002  -2.0567046105788342E-002   1.5419180394230299E-002
   7.0521024986199415E-002  -1.9689771861968131E-002   1.6387680396749704E-002
   7.4690697312033802E-002  -2.1330209580592341E-002   2.2700309011241288E-002
   7.2479581372773508E-002  -2.0524658629914844E-002   2.2783205427606222E-002
   7.0268465433513366E-002  -1.9733864791115469E-002   2.2947996533548426E-002
   6.8057349494253114E-002  -1.8957828064194569E-002   2.3194682329067955E-002
   6.5846233554992917E-002  -1.8196548449151501E-002   2.3523262814164822E-002
   6.8679272755948095E-002  -1.9425250375920800E-002   3.3828203394484446E-002
   6.6676564306516611E-002  -1.8709572692393595E-002   3.2503396371376003E-002
   6.4673855857085072E-002  -1.8017359241286834E-002   3.1513509638347786E-002
   6.2671147407653560E-002  -1.7348610022600672E-002   3.0858543195399546E-002
   6.0668438958222104E-002  -1.6703325036334760E-002   3.0538497042531365E-002
   7.8361598351920025E-002  -2.2676218687601613E-002   1.7554709947749103E-003
   7.3012960476322664E-002  -2.1584049538081074E-002   1.1850983836264595E-003
   6.7664322600725246E-002  -2.0537433342016020E-002   2.7836532252711876E-004
   6.2315684725127884E-002  -1.9536370099407049E-002  -9.6472818852397224E-004
   5.6967046849530467E-002  -1.8580859810253814E-002  -2.5441821495260086E-003
   7.4692813251841794E-002  -2.1182995274784955E-002   9.1317497902865807E-003
   6.9117293112771372E-002  -2.0201194390245703E-002   8.1322791706627262E-003
   6.3541772973700783E-002  -1.9244986611029358E-002   7.0154044740440846E-003
   5.7966252834630333E-002  -1.8314371937135088E-002   5.7811257004299760E-003
   5.2390732695559772E-002  -1.7409350368563725E-002   4.4294428498212746E-003
   7.0521024986199415E-002  -1.9689771861968131E-002   1.6387680396749704E-002
   6.4937578956612035E-002  -1.8818339242410748E-002   1.4979071616783968E-002
   5.9354132927024572E-002  -1.7952539880042612E-002   1.3672015132779575E-002
   5.3770686897437123E-002  -1.7092373774863355E-002   1.2466510944736400E-002
   4.8187240867849701E-002  -1.6237840926873803E-002   1.1362559052654070E-002
   6.5846233554992917E-002  -1.8196548449151501E-002   2.3523262814164822E-002
   6.0473818007844730E-002  -1.7435484094575585E-002   2.1725475721990156E-002
   5.5101402460696544E-002  -1.6660093149055796E-002   2.0248197298733402E-002
   4.9728986913548372E-002  -1.5870375612591841E-002   1.9091427544393687E-002
   4.4356571366400123E-002  -1.5066331485183798E-002   1.8255166458971316E-002
   6.0668438958222104E-002  -1.6703325036334760E-002   3.0538497042531365E-002
   5.5726010266469395E-002  -1.6052628946740588E-002   2.8371491486281708E-002
   5.0783581574716657E-002  -1.5367646418069092E-002   2.6743950971905406E-002
   4.5841152882963990E-002  -1.4648377450320160E-002   2.5655875499402694E-002
   4.0898724191211266E-002  -1.3894822043493904E-002   2.5107265068773477E-002
   5.6967046849530467E-002  -1.8580859810253814E-002  -2.5441821495260086E-003
   5.5640770590306254E-002  -1.7682700395820872E-002  -2.4494542234083649E-003
   5.4314494331081931E-002  -1.6853689777372144E-002  -1.8064455076928776E-003
   5.2988218071857690E-002  -1.6093827954908442E-002  -6.1515600237926904E-004
   5.1661941812633394E-002  -1.5403114928429495E-002   1.1244142925312950E-003
   5.2390732695559772E-002  -1.7409350368563725E-002   4.4294428498212746E-003
   5.1529337129387065E-002  -1.6545825599474540E-002   4.7503183608399446E-003
   5.0667941563214414E-002  -1.5739701324027383E-002   5.4526744683639494E-003
   4.9806545997041735E-002  -1.4990977542223373E-002   6.5365111723931502E-003
   4.8945150430869055E-002  -1.4299654254061323E-002   8.0018284729287403E-003
   4.8187240867849701E-002  -1.6237840926873803E-002   1.1362559052654070E-002
   4.7623925801636269E-002  -1.5408950803128652E-002   1.1921330450916007E-002
   4.7060610735422850E-002  -1.4625712870683164E-002   1.2694782252591061E-002
   4.6497295669209425E-002  -1.3888127129537967E-002   1.3682914457679170E-002
   4.5933980602995972E-002  -1.3196193579692483E-002   1.4885727066180243E-002
   4.4356571366400123E-002  -1.5066331485183798E-002   1.8255166458971316E-002
   4.3924536607053616E-002  -1.4272076006782652E-002   1.9063582046819065E-002
   4.3492501847707102E-002  -1.3511724417338895E-002   1.9919877844987253E-002
   4.3060467088360567E-002  -1.2785276716852730E-002   2.0824053853476486E-002
   4.2628432329014025E-002  -1.2092732905323977E-002   2.1776110072286359E-002
   4.0898724191211266E-002  -1.3894822043493904E-002   2.5107265068773477E-002
   4.0431169545639273E-002  -1.3135201210436764E-002   2.6177073148549224E-002
   3.9963614900067279E-002  -1.2397735963994544E-002   2.7127961245553556E-002
   3.9496060254495230E-002  -1.1682426304167527E-002   2.7959929359785890E-002
   3.9028505608923292E-002  -1.0989272230955471E-002   2.8672977491246865E-002
   5.1661941812633394E-002  -1.5403114928429495E-002   1.1244142925312950E-003
   4.8627255526713098E-002  -1.4699337294491688E-002   9.0843844759858072E-004
   4.5592569240792857E-002  -1.3900281649654400E-002   5.8402511127586543E-004
   4.2557882954872644E-002  -1.3005947993913997E-002   1.5117428356320461E-004
   3.9523196668952321E-002  -1.2016336327273835E-002  -3.9011403554045643E-004
   4.8945150430869055E-002  -1.4299654254061323E-002   8.0018284729287403E-003
   4.5842253803101196E-002  -1.3598878984541374E-002   7.6174925650593917E-003
   4.2739357175333503E-002  -1.2821799258664418E-002   7.2051734648851395E-003
   3.9636460547565699E-002  -1.1968415076430615E-002   6.7648711724069832E-003
   3.6533563919797951E-002  -1.1038726437839097E-002   6.2965856876239235E-003
   4.5933980602995972E-002  -1.3196193579692483E-002   1.4885727066180243E-002
   4.2843327932466369E-002  -1.2498420674590394E-002   1.4314057540830177E-002
   3.9752675261936807E-002  -1.1743316867675324E-002   1.3794859122261582E-002
   3.6662022591407252E-002  -1.0930882158946123E-002   1.3328131810473431E-002
   3.3571369920877697E-002  -1.0061116548404914E-002   1.2913875605467251E-002
   4.2628432329014025E-002  -1.2092732905323977E-002   2.1776110072286359E-002
   3.9630477914808428E-002  -1.1397962364639302E-002   2.0998133374911750E-002
   3.6632523500602809E-002  -1.0664834476685675E-002   2.0353082083403896E-002
   3.3634569086397212E-002  -9.8933492414626303E-003   1.9840956197762959E-002
   3.0636614672191649E-002  -9.0835066589704527E-003   1.9461755717988805E-002
   3.9028505608923292E-002  -1.0989272230955471E-002   2.8672977491246865E-002
   3.6203703750127381E-002  -1.0297504054688544E-002   2.7669720067303449E-002
   3.3378901891331525E-002  -9.5863520856963591E-003   2.6879842348312755E-002
   3.0554100032535669E-002  -8.8558163239786103E-003   2.6303344334274559E-002
   2.7729298173739703E-002  -8.1058967695361028E-003   2.5940226025188751E-002
   3.9523196668952321E-002  -1.2016336327273835E-002  -3.9011403554045643E-004
   3.7232268452791595E-002  -1.1084771207623856E-002  -5.3040104675439181E-004
   3.4941340236630813E-002  -1.0364577192856772E-002  -5.7709345749379359E-004
   3.2650412020470115E-002  -9.8557542829731670E-003  -5.3019126775966097E-004
   3.0359483804309306E-002  -9.5583024779721804E-003  -3.8969447755077269E-004
   3.6533563919797951E-002  -1.1038726437839097E-002   6.2965856876239235E-003
   3.4315559580917254E-002  -1.0145724678202517E-002   5.9825420438749388E-003
   3.2097555242036530E-002  -9.4024011328343038E-003   5.7207515542120335E-003
   2.9879550903155874E-002  -8.8087558017315437E-003   5.5112142186354574E-003
   2.7661546564275108E-002  -8.3647886848965403E-003   5.3539300371435727E-003
   3.3571369920877697E-002  -1.0061116548404914E-002   1.2913875605467251E-002
   3.1384948012888741E-002  -9.2066781487820659E-003   1.2487768219799023E-002
   2.9198526104899800E-002  -8.4402250728102257E-003   1.2072572541828752E-002
   2.7012104196910879E-002  -7.7617573204903506E-003   1.1668288571555718E-002
   2.4825682288921902E-002  -7.1712748918209002E-003   1.1274916308980421E-002
   3.0636614672191649E-002  -9.0835066589704527E-003   1.9461755717988805E-002
   2.8440433748706161E-002  -8.2676316193610599E-003   1.8985277481017346E-002
   2.6244252825220613E-002  -7.4780490127871746E-003   1.8478369505355349E-002
   2.4048071901735101E-002  -6.7147588392484983E-003   1.7941031791002787E-002
   2.1851890978249633E-002  -5.9777610987449270E-003   1.7373264337959562E-002
   2.7729298173739703E-002  -8.1058967695361028E-003   2.5940226025188751E-002
   2.5482016788369366E-002  -7.3285850899402760E-003   2.5475069827530561E-002
   2.3234735402998974E-002  -6.5158729527640125E-003   2.4938142444792644E-002
   2.0987454017628610E-002  -5.6677603580070623E-003   2.4329443876976081E-002
   1.8740172632258190E-002  -4.7842473056692869E-003   2.3648974124080624E-002
   3.0359483804309306E-002  -9.5583024779721804E-003  -3.8969447755077269E-004
   2.9699615978304728E-002  -9.1485646278482990E-003  -2.5145703486306736E-004
   2.9039748152300371E-002  -8.3028835825959546E-003  -1.7765305362312800E-003
   2.8379880326295848E-002  -7.0212593422127462E-003  -4.9649149816550220E-003
   2.7720012500291435E-002  -5.3036919067024346E-003  -9.8166103711339048E-003
   2.7661546564275108E-002  -8.3647886848965403E-003   5.3539300371435727E-003
   2.5605391557905977E-002  -7.8789221498700712E-003   5.9559743310928503E-003
   2.3549236551536845E-002  -7.1595785641941911E-003   5.4287552083687185E-003
   2.1493081545167769E-002  -6.2067579278673318E-003   3.7722726689705388E-003
   1.9436926538798582E-002  -5.0204602408907562E-003   9.8652671289900518E-004
   2.4825682288921902E-002  -7.1712748918209002E-003   1.1274916308980421E-002
   2.1907287629570227E-002  -6.6092796718915658E-003   1.2138301309712329E-002
   1.8988892970218607E-002  -6.0162735457915673E-003   1.2406470421152171E-002
   1.6070498310866946E-002  -5.3922565135208142E-003   1.2079423643301154E-002
   1.3152103651515312E-002  -4.7372285750789667E-003   1.1157160976158431E-002
   2.1851890978249633E-002  -5.9777610987449270E-003   1.7373264337959562E-002
   1.8605304193297541E-002  -5.3396371939134213E-003   1.8295523900994468E-002
   1.5358717408345532E-002  -4.8729685273897066E-003   1.9156615102119960E-002
   1.2112130623393533E-002  -4.5777550991744041E-003   1.9956537941336398E-002
   8.8655438384414309E-003  -4.4539969092672327E-003   2.0695292418643443E-002
   1.8740172632258190E-002  -4.7842473056692869E-003   2.3648974124080624E-002
   1.5699441249087898E-002  -4.0699947159348326E-003   2.4427642104939862E-002
   1.2658709865917633E-002  -3.7296635089876518E-003   2.5679189251272050E-002
   9.6179784827473691E-003  -3.7632536848281675E-003   2.7403615563076855E-002
   6.5772470995770771E-003  -4.1707652434552767E-003   2.9600921040354944E-002
   2.7720012500291435E-002  -5.3036919067024346E-003  -9.8166103711339048E-003
   2.3320439770918022E-002  -4.1925491045009533E-003  -4.2251251514793253E-003
   1.8920867041544720E-002  -4.7301987640461785E-003   2.6136960662860309E-003
   1.4521294312171251E-002  -6.9166408853385403E-003   1.0699853282163441E-002
   1.0121721582798004E-002  -1.0751875468375971E-002   2.0033346496151516E-002
   1.9436926538798582E-002  -5.0204602408907562E-003   9.8652671289900518E-004
   1.6214898880310025E-002  -4.6817908796067398E-003   6.7177209976460039E-003
   1.2992871221821523E-002  -6.2718552203574474E-003   1.3556669426051271E-002
   9.7708435633328261E-003  -9.7906532631414078E-003   2.1503371998114362E-002
   6.5488159048443517E-003  -1.5238185007960592E-002   3.0557828713837054E-002
   1.3152103651515312E-002  -4.7372285750789667E-003   1.1157160976158431E-002
   1.0968039209458352E-002  -5.1710326547128593E-003   1.6748123085710442E-002
   8.7839747674015312E-003  -7.8135116766685220E-003   2.3307257484467186E-002
   6.5999103253445573E-003  -1.2664665640945726E-002   3.0834564172429538E-002
   4.4158458832877501E-003  -1.9724494547545213E-002   3.9330043149596650E-002
   8.8655438384414309E-003  -4.4539969092672327E-003   2.0695292418643443E-002
   7.5798607583632410E-003  -5.6602744298185903E-003   2.5866081112712963E-002
   6.2941776782850511E-003  -9.3551681329796937E-003   3.1865460241533826E-002
   5.0084945982067051E-003  -1.5538678018750206E-002   3.8693429805107690E-002
   3.7228115181286575E-003  -2.4210804087129612E-002   4.6349989803433633E-002
   6.5772470995770771E-003  -4.1707652434552767E-003   2.9600921040354944E-002
   6.0503635270244827E-003  -6.1495162049248764E-003   3.4071595078654093E-002
   5.5234799544719160E-003  -1.0896824589291032E-002   3.9231277697251876E-002
   4.9965963819193354E-003  -1.8412690396553785E-002   4.5079968896149236E-002
   4.4697128093666993E-003  -2.8697113626714010E-002   5.1617668675346007E-002
   6.9735676229693455E-002  -2.3025399715975947E-002   2.3777576801574607E-002
   6.9471575361257143E-002  -2.1995891729504835E-002   2.8479950790520125E-002
   6.9207474492820775E-002  -2.1052697510672055E-002   3.1722513218987142E-002
   6.8943373624384408E-002  -2.0195817059477327E-002   3.3505264086975170E-002
   6.8679272755948095E-002  -1.9425250375920800E-002   3.3828203394484446E-002
   6.7879244156569568E-002  -2.0897401215885403E-002   3.1008611571243405E-002
   6.6438176606278071E-002  -2.0061159500824877E-002   3.4073814926517398E-002
   6.4997109055986615E-002  -1.9271831142053969E-002   3.6244896478559802E-002
   6.3556041505695104E-002  -1.8529416139572506E-002   3.7521856227370809E-002
   6.2114973955403663E-002  -1.7833914493380620E-002   3.7904694172950365E-002
   6.4169410133113919E-002  -1.8769402715794886E-002   3.8026679863827587E-002
   6.2117065658214621E-002  -1.8126427272144946E-002   3.9494112996778269E-002
   6.0064721183315489E-002  -1.7490964773435862E-002   4.0633114083744891E-002
   5.8012376708416281E-002  -1.6863015219667689E-002   4.1443683124727501E-002
   5.5960032233517129E-002  -1.6242578610840330E-002   4.1925820119726037E-002
   5.8606174159326695E-002  -1.6641404215704383E-002   4.4831781679326596E-002
   5.6508242517067125E-002  -1.6191695043464974E-002   4.4740845001302938E-002
   5.4410310874807549E-002  -1.5710098404817904E-002   4.4887166034542486E-002
   5.2312379232547980E-002  -1.5196614299762868E-002   4.5270744779045281E-002
   5.0214447590288418E-002  -1.4651242728300068E-002   4.5891581234811629E-002
   5.1189536235207722E-002  -1.4513405715613825E-002   5.1423917017740906E-002
   4.9611707182835196E-002  -1.4256962814785001E-002   4.9814010940091413E-002
   4.8033878130462671E-002  -1.3929232036199710E-002   4.9007052330952455E-002
   4.6456049078090131E-002  -1.3530213379858030E-002   4.9003041190324240E-002
   4.4878220025717591E-002  -1.3059906845759861E-002   4.9801977518206753E-002
   6.8679272755948095E-002  -1.9425250375920800E-002   3.3828203394484446E-002
   6.6676564306516611E-002  -1.8709572692393595E-002   3.2503396371376003E-002
   6.4673855857085072E-002  -1.8017359241286834E-002   3.1513509638347786E-002
   6.2671147407653560E-002  -1.7348610022600672E-002   3.0858543195399546E-002
   6.0668438958222104E-002  -1.6703325036334760E-002   3.0538497042531365E-002
   6.2114973955403663E-002  -1.7833914493380620E-002   3.7904694172950365E-002
   6.0413465140113060E-002  -1.7166489555767897E-002   3.6939171425915782E-002
   5.8711956324822456E-002  -1.6508304679024491E-002   3.6241127657082900E-002
   5.7010447509531798E-002  -1.5859359863150280E-002   3.5810562866451581E-002
   5.5308938694241250E-002  -1.5219655108145047E-002   3.5647477054021992E-002
   5.5960032233517129E-002  -1.6242578610840330E-002   4.1925820119726037E-002
   5.4492281740488945E-002  -1.5623406419142283E-002   4.1333805820316663E-002
   5.3024531247460746E-002  -1.4999250116762092E-002   4.0941829187230369E-002
   5.1556780754432575E-002  -1.4370109703699833E-002   4.0749890220467447E-002
   5.0089030261404419E-002  -1.3735985179955279E-002   4.0757988920027605E-002
   5.0214447590288418E-002  -1.4651242728300068E-002   4.5891581234811629E-002
   4.8913014107644232E-002  -1.4080323282516682E-002   4.5687299554578648E-002
   4.7611580625000038E-002  -1.3490195554499776E-002   4.5615614228790416E-002
   4.6310147142355831E-002  -1.2880859544249248E-002   4.5676525257447059E-002
   4.5008713659711680E-002  -1.2252315251765511E-002   4.5870032640548355E-002
   4.4878220025717591E-002  -1.3059906845759861E-002   4.9801977518206753E-002
   4.3675662241578941E-002  -1.2537240145890943E-002   4.9999652628701596E-002
   4.2473104457440278E-002  -1.1981140992237363E-002   5.0262482781762680E-002
   4.1270546673301614E-002  -1.1391609384799054E-002   5.0590467977390224E-002
   4.0067988889162964E-002  -1.0768645323575743E-002   5.0983608215583953E-002
   6.0668438958222104E-002  -1.6703325036334760E-002   3.0538497042531365E-002
   5.5726010266469395E-002  -1.6052628946740588E-002   2.8371491486281708E-002
   5.0783581574716657E-002  -1.5367646418069092E-002   2.6743950971905406E-002
   4.5841152882963990E-002  -1.4648377450320160E-002   2.5655875499402694E-002
   4.0898724191211266E-002  -1.3894822043493904E-002   2.5107265068773477E-002
   5.5308938694241250E-002  -1.5219655108145047E-002   3.5647477054021992E-002
   5.0875823908396997E-002  -1.4580667390014512E-002   3.3610958406049662E-002
   4.6442709122552717E-002  -1.3933873684764342E-002   3.2053602528020669E-002
   4.2009594336708478E-002  -1.3279273992394244E-002   3.0975409419935082E-002
   3.7576479550864239E-002  -1.2616868312904539E-002   3.0376379081792693E-002
   5.0089030261404419E-002  -1.3735985179955279E-002   4.0757988920027605E-002
   4.6104927109538410E-002  -1.3108705833288520E-002   3.8825476728375108E-002
   4.2120823957672422E-002  -1.2500100951459536E-002   3.7311825034735957E-002
   3.8136720805806393E-002  -1.1910170534468439E-002   3.6217033839109895E-002
   3.4152617653940426E-002  -1.1338914582315118E-002   3.5541103141497082E-002
   4.5008713659711680E-002  -1.2252315251765511E-002   4.5870032640548355E-002
   4.1413319869893703E-002  -1.1636744276562430E-002   4.4015046453258252E-002
   3.7817926080075705E-002  -1.1066328218154731E-002   4.2518618492051075E-002
   3.4222532290257700E-002  -1.0541067076542524E-002   4.1380748756926967E-002
   3.0627138500439736E-002  -1.0060960851725670E-002   4.0601437247885751E-002
   4.0067988889162964E-002  -1.0768645323575743E-002   5.0983608215583953E-002
   3.6801002189462778E-002  -1.0164782719836479E-002   4.9179667580698638E-002
   3.3534015489762647E-002  -9.6325554848499390E-003   4.7673982899966216E-002
   3.0267028790062475E-002  -9.1719636186167082E-003   4.6466554173386451E-002
   2.7000042090362303E-002  -8.7830071211363325E-003   4.5557381400959329E-002
   4.0898724191211266E-002  -1.3894822043493904E-002   2.5107265068773477E-002
   4.0431169545639273E-002  -1.3135201210436764E-002   2.6177073148549224E-002
   3.9963614900067279E-002  -1.2397735963994544E-002   2.7127961245553556E-002
   3.9496060254495230E-002  -1.1682426304167527E-002   2.7959929359785890E-002
   3.9028505608923292E-002  -1.0989272230955471E-002   2.8672977491246865E-002
   3.7576479550864239E-002  -1.2616868312904539E-002   3.0376379081792693E-002
   3.7018644146078999E-002  -1.1949338071831628E-002   3.1363352903265945E-002
   3.6460808741293760E-002  -1.1279364694711913E-002   3.2288685189083982E-002
   3.5902973336508520E-002  -1.0606948181545756E-002   3.3152375939247289E-002
   3.5345137931723253E-002  -9.9320885323330721E-003   3.3954425153756018E-002
   3.4152617653940426E-002  -1.1338914582315118E-002   3.5541103141497082E-002
   3.3561779937058674E-002  -1.0763474933226547E-002   3.6469841427329064E-002
   3.2970942220176908E-002  -1.0160993425429601E-002   3.7394216624622861E-002
   3.2380104503295142E-002  -9.5314700589242025E-003   3.8314228733378690E-002
   3.1789266786413334E-002  -8.8749048337104508E-003   3.9229877753596265E-002
   3.0627138500439736E-002  -1.0060960851725670E-002   4.0601437247885751E-002
   3.0060576918578219E-002  -9.5776117946213823E-003   4.1496538720738538E-002
   2.9494015336716705E-002  -9.0426221561470468E-003   4.2444555552170221E-002
   2.8927453754855184E-002  -8.4559919363025402E-003   4.3445487742179982E-002
   2.8360892172993667E-002  -7.8177211350881071E-003   4.4499335290768854E-002
   2.7000042090362303E-002  -8.7830071211363325E-003   4.5557381400959329E-002
   2.6515035090637740E-002  -8.3917486560162735E-003   4.6443444783494658E-002
   2.6030028090913218E-002  -7.9242508868647421E-003   4.7439701971725534E-002
   2.5545021091188662E-002  -7.3805138136808987E-003   4.8546152965651568E-002
   2.5060014091464161E-002  -6.7605374364654303E-003   4.9762797765273037E-002
   3.9028505608923292E-002  -1.0989272230955471E-002   2.8672977491246865E-002
   3.6203703750127381E-002  -1.0297504054688544E-002   2.7669720067303449E-002
   3.3378901891331525E-002  -9.5863520856963591E-003   2.6879842348312755E-002
   3.0554100032535669E-002  -8.8558163239786103E-003   2.6303344334274559E-002
   2.7729298173739703E-002  -8.1058967695361028E-003   2.5940226025188751E-002
   3.5345137931723253E-002  -9.9320885323330721E-003   3.3954425153756018E-002
   3.2728666617133195E-002  -9.2507651452851114E-003   3.3088549167130110E-002
   3.0112195302543193E-002  -8.5589574186145378E-003   3.2425954563963522E-002
   2.7495723987953108E-002  -7.8566653523199290E-003   3.1966641344256072E-002
   2.4879252673363106E-002  -7.1438889464026101E-003   3.1710609508007970E-002
   3.1789266786413334E-002  -8.8749048337104508E-003   3.9229877753596265E-002
   2.9371027694535784E-002  -8.2040262358819560E-003   3.8492483751186413E-002
   2.6952788602658109E-002  -7.5315627515322725E-003   3.7948272810742201E-002
   2.4534549510780476E-002  -6.8575143806614697E-003   3.7597244932263518E-002
   2.2116310418902885E-002  -6.1818811232693949E-003   3.7439400115750920E-002
   2.8360892172993667E-002  -7.8177211350881071E-003   4.4499335290768854E-002
   2.6130786982335036E-002  -7.1572873264786618E-003   4.3881523819472558E-002
   2.3900681791676356E-002  -6.5041680844503402E-003   4.3446797088648612E-002
   2.1670576601017667E-002  -5.8583634090027328E-003   4.3195155098296516E-002
   1.9440471410359053E-002  -5.2198733001362629E-003   4.3126597848416964E-002
   2.5060014091464161E-002  -6.7605374364654303E-003   4.9762797765273037E-002
   2.3007944480531006E-002  -6.1105484170754232E-003   4.9255669371988331E-002
   2.0955874869597865E-002  -5.4767734173682137E-003   4.8921527397682352E-002
   1.8903805258664731E-002  -4.8592124373443360E-003   4.8760371842355321E-002
   1.6851735647731597E-002  -4.2578654770027979E-003   4.8772202706006906E-002
   2.7729298173739703E-002  -8.1058967695361028E-003   2.5940226025188751E-002
   2.5482016788369366E-002  -7.3285850899402760E-003   2.5475069827530561E-002
   2.3234735402998974E-002  -6.5158729527640125E-003   2.4938142444792644E-002
   2.0987454017628610E-002  -5.6677603580070623E-003   2.4329443876976081E-002
   1.8740172632258190E-002  -4.7842473056692869E-003   2.3648974124080624E-002
   2.4879252673363106E-002  -7.1438889464026101E-003   3.1710609508007970E-002
   2.2601584807608127E-002  -6.4258172924953616E-003   3.1391694567928730E-002
   2.0323916941853218E-002  -5.7076394822312138E-003   3.1083777852159822E-002
   1.8046249076098288E-002  -4.9893555156101180E-003   3.0786859360700997E-002
   1.5768581210343330E-002  -4.2709653926326085E-003   3.0500939093551449E-002
   2.2116310418902885E-002  -6.1818811232693949E-003   3.7439400115750920E-002
   1.9891025482152297E-002  -5.5230494950503362E-003   3.7231432132027481E-002
   1.7665740545401779E-002  -4.8994060116984151E-003   3.7117231782002880E-002
   1.5440455608651253E-002  -4.3109506732137287E-003   3.7096799065677227E-002
   1.3215170671900686E-002  -3.7576834795959857E-003   3.7170133983050496E-002
   1.9440471410359053E-002  -5.2198733001362629E-003   4.3126597848416964E-002
   1.7350338812001813E-002  -4.6202816976053107E-003   4.2994282519825615E-002
   1.5260206213644597E-002  -4.0911725411654498E-003   4.3038504234321553E-002
   1.3170073615287372E-002  -3.6325458308170619E-003   4.3259262991905648E-002
   1.1079941016930196E-002  -3.2444015665592241E-003   4.3656558792577758E-002
   1.6851735647731597E-002  -4.2578654770027979E-003   4.8772202706006906E-002
   1.4979524797156696E-002  -3.7175139001603963E-003   4.8680245731323235E-002
   1.3107313946581781E-002  -3.2829390706330119E-003   4.8847595209116357E-002
   1.1235103096006872E-002  -2.9541409884204436E-003   4.9274251139386105E-002
   9.3628922454319641E-003  -2.7311196535226845E-003   4.9960213522132868E-002
   1.8740172632258190E-002  -4.7842473056692869E-003   2.3648974124080624E-002
   1.5699441249087898E-002  -4.0699947159348326E-003   2.4427642104939862E-002
   1.2658709865917633E-002  -3.7296635089876518E-003   2.5679189251272050E-002
   9.6179784827473691E-003  -3.7632536848281675E-003   2.7403615563076855E-002
   6.5772470995770771E-003  -4.1707652434552767E-003   2.9600921040354944E-002
   1.5768581210343330E-002  -4.2709653926326085E-003   3.0500939093551449E-002
   1.3182243964383639E-002  -3.7691464396459873E-003   3.1275717990058016E-002
   1.0595906718423920E-002  -3.7005759829978613E-003   3.2486405995512224E-002
   8.0095694724642355E-003  -4.0652540226888342E-003   3.4133003109915183E-002
   5.4232322265045096E-003  -4.8631805587184829E-003   3.6215509333266227E-002
   1.3215170671900686E-002  -3.7576834795959857E-003   3.7170133983050496E-002
   1.1046257506627091E-002  -3.4682981633570309E-003   3.7881696681652338E-002
   8.8773443413533992E-003  -3.6714884570082790E-003   3.8992198432677636E-002
   6.7084311760797904E-003  -4.3672543605500526E-003   4.0501639236126936E-002
   4.5395180108061123E-003  -5.5555958739818001E-003   4.2410019092000095E-002
   1.1079941016930196E-002  -3.2444015665592241E-003   4.3656558792577758E-002
   9.2914818758181618E-003  -3.1674498870682410E-003   4.4245578179723390E-002
   7.5030227347060718E-003  -3.6424009310185926E-003   4.5196566562768298E-002
   5.7145635935940096E-003  -4.6692546984111061E-003   4.6509523941712407E-002
   3.9261044524819440E-003  -6.2480111892452839E-003   4.8184450316556077E-002
   9.3628922454319641E-003  -2.7311196535226845E-003   4.9960213522132868E-002
   7.9179170719569369E-003  -2.8666016107791736E-003   5.0367362484270872E-002
   6.4729418984819098E-003  -3.6133134050287397E-003   5.1099510385783586E-002
   5.0279667250069104E-003  -4.9712550362722291E-003   5.2156657226671121E-002
   3.5829915515319111E-003  -6.9404265045083235E-003   5.3538803006933477E-002
   6.5772470995770771E-003  -4.1707652434552767E-003   2.9600921040354944E-002
   6.0503635270244827E-003  -6.1495162049248764E-003   3.4071595078654093E-002
   5.5234799544719160E-003  -1.0896824589291032E-002   3.9231277697251876E-002
   4.9965963819193354E-003  -1.8412690396553785E-002   4.5079968896149236E-002
   4.4697128093666993E-003  -2.8697113626714010E-002   5.1617668675346007E-002
   5.4232322265045096E-003  -4.8631805587184829E-003   3.6215509333266227E-002
   5.4810260745496164E-003  -6.9954104399186368E-003   3.8350195060788406E-002
   5.5388199225947093E-003  -1.1362998515121514E-002   4.0965227049206798E-002
   5.5966137706398161E-003  -1.7965944784326157E-002   4.4060605298521655E-002
   5.6544076186849090E-003  -2.6804249247533773E-002   4.7636329808732780E-002
   4.5395180108061123E-003  -5.5555958739818001E-003   4.2410019092000095E-002
   4.9733269600460012E-003  -7.8413046749128967E-003   4.2741915737640107E-002
   5.4071359092858970E-003  -1.1829172440951913E-002   4.3345496324772803E-002
   5.8409448585257755E-003  -1.7519199172098647E-002   4.4220760853399543E-002
   6.2747538077657372E-003  -2.4911384868353537E-002   4.5367709323519190E-002
   3.9261044524819440E-003  -6.2480111892452839E-003   4.8184450316556077E-002
   4.5272661835137756E-003  -8.6871989099067959E-003   4.7246757109207560E-002
   5.1284279145455604E-003  -1.2295346366782131E-002   4.6372085523949884E-002
   5.7295896455773999E-003  -1.7072453559871189E-002   4.5560435560782486E-002
   6.3307513766091769E-003  -2.3018520489173300E-002   4.4811807219705596E-002
   3.5829915515319111E-003  -6.9404265045083235E-003   5.3538803006933477E-002
   4.1428437449527733E-003  -9.5330931449006950E-003   5.1864719175491847E-002
   4.7026959383736078E-003  -1.2761520292612905E-002   5.0044994646737395E-002
   5.2625481317944423E-003  -1.6625707947643314E-002   4.8079629420670955E-002
   5.8224003252153045E-003  -2.1125656109993063E-002   4.5968623497292249E-002
   5.1189536235207722E-002  -1.4513405715613825E-002   5.1423917017740906E-002
   4.9611707182835196E-002  -1.4256962814785001E-002   4.9814010940091413E-002
   4.8033878130462671E-002  -1.3929232036199710E-002   4.9007052330952455E-002
   4.6456049078090131E-002  -1.3530213379858030E-002   4.9003041190324240E-002
   4.4878220025717591E-002  -1.3059906845759861E-002   4.9801977518206753E-002
   4.3265831397069743E-002  -1.3037539548281074E-002   5.3141020166963648E-002
   4.2366809152654908E-002  -1.2775625045605837E-002   5.2316278915297998E-002
   4.1467786908240017E-002  -1.2444923692200016E-002   5.2046203811036890E-002
   4.0568764663825141E-002  -1.2045435488063680E-002   5.2330794854180435E-002
   3.9669742419410250E-002  -1.1577160433196954E-002   5.3170052044728550E-002
   3.6181394681225304E-002  -1.1561673380948378E-002   5.4864845431545975E-002
   3.5712897923662015E-002  -1.1294287276426562E-002   5.4822767978838227E-002
   3.5244401166098671E-002  -1.0960615348200219E-002   5.5087075352429106E-002
   3.4775904408535369E-002  -1.0560657596269332E-002   5.5657767552318368E-002
   3.4307407650972052E-002  -1.0094414020633935E-002   5.6534844578506174E-002
   2.9936226087674399E-002  -1.0085807213615669E-002   5.6595392811487580E-002
   2.9649973495856501E-002  -9.8129495072473566E-003   5.7333478130711990E-002
   2.9363720904038673E-002  -9.4763070042004176E-003   5.8129666955128605E-002
   2.9077468312220817E-002  -9.0758797044750116E-003   5.8983959284737840E-002
   2.8791215720402930E-002  -8.6116676080709997E-003   5.9896355119539335E-002
   2.4530325616416909E-002  -8.6099410462829318E-003   5.8332662306788907E-002
   2.4178035869238418E-002  -8.3316117380681232E-003   5.9848409370919231E-002
   2.3825746122059940E-002  -7.9919986602006998E-003   6.1173978619135871E-002
   2.3473456374881456E-002  -7.5911018126806826E-003   6.2309370051438800E-002
   2.3121166627702958E-002  -7.1289211955080090E-003   6.3254583667828101E-002
   4.4878220025717591E-002  -1.3059906845759861E-002   4.9801977518206753E-002
   4.3675662241578941E-002  -1.2537240145890943E-002   4.9999652628701596E-002
   4.2473104457440278E-002  -1.1981140992237363E-002   5.0262482781762680E-002
   4.1270546673301614E-002  -1.1391609384799054E-002   5.0590467977390224E-002
   4.0067988889162964E-002  -1.0768645323575743E-002   5.0983608215583953E-002
   3.9669742419410250E-002  -1.1577160433196954E-002   5.3170052044728550E-002
   3.8548297833187348E-002  -1.1067269023298312E-002   5.3253767305001073E-002
   3.7426853246964466E-002  -1.0542931754066356E-002   5.3434553918538671E-002
   3.6305408660741556E-002  -1.0004148625501297E-002   5.3712411885341572E-002
   3.5183964074518653E-002  -9.4509196376030280E-003   5.4087341205409561E-002
   3.4307407650972052E-002  -1.0094414020633935E-002   5.6534844578506174E-002
   3.3298992573363800E-002  -9.5972979007053899E-003   5.6485613394104642E-002
   3.2290577495755583E-002  -9.1047225158953984E-003   5.6565369873667108E-002
   3.1282162418147325E-002  -8.6166878662036501E-003   5.6774114017193789E-002
   3.0273747340539114E-002  -8.1331939516303964E-003   5.7111845824684440E-002
   2.8791215720402930E-002  -8.6116676080709997E-003   5.9896355119539335E-002
   2.7927746462108258E-002  -8.1273267781126965E-003   5.9695190896012190E-002
   2.7064277203813589E-002  -7.6665132777243884E-003   5.9654930647147858E-002
   2.6200807945518899E-002  -7.2292271069060591E-003   5.9775574372946727E-002
   2.5337338687224251E-002  -6.8154682656577509E-003   6.0057122073408450E-002
   2.3121166627702958E-002  -7.1289211955080090E-003   6.3254583667828101E-002
   2.2434559499420748E-002  -6.6573556555197810E-003   6.2882499810723691E-002
   2.1747952371138538E-002  -6.2283040395533784E-003   6.2703236238981136E-002
   2.1061345242856334E-002  -5.8417663476083986E-003   6.2716792952600520E-002
   2.0374738114574104E-002  -5.4977425796851054E-003   6.2923169951581759E-002
   4.0067988889162964E-002  -1.0768645323575743E-002   5.0983608215583953E-002
   3.6801002189462778E-002  -1.0164782719836479E-002   4.9179667580698638E-002
   3.3534015489762647E-002  -9.6325554848499390E-003   4.7673982899966216E-002
   3.0267028790062475E-002  -9.1719636186167082E-003   4.6466554173386451E-002
   2.7000042090362303E-002  -8.7830071211363325E-003   4.5557381400959329E-002
   3.5183964074518653E-002  -9.4509196376030280E-003   5.4087341205409561E-002
   3.2234510687267071E-002  -8.9211466798343186E-003   5.2209989365312459E-002
   2.9285057300015516E-002  -8.4527316416573572E-003   5.0669448195959935E-002
   2.6335603912763961E-002  -8.0456745230728585E-003   4.9465717697351898E-002
   2.3386150525512350E-002  -7.6999753240802882E-003   4.8598797869488231E-002
   3.0273747340539114E-002  -8.1331939516303964E-003   5.7111845824684440E-002
   2.7680381982327897E-002  -7.6775106398319221E-003   5.5171360228536387E-002
   2.5087016624116693E-002  -7.2729077984647131E-003   5.3606240019724478E-002
   2.2493651265905516E-002  -6.9193854275287851E-003   5.2416485198248874E-002
   1.9900285907694305E-002  -6.6169435270242438E-003   5.1602095764109540E-002
   2.5337338687224251E-002  -6.8154682656577509E-003   6.0057122073408450E-002
   2.3138616074645214E-002  -6.4338745998296712E-003   5.8063780170369998E-002
   2.0939893462066171E-002  -6.0930839552720446E-003   5.6484358371259903E-002
   1.8741170849487149E-002  -5.7930963319848235E-003   5.5318856676077471E-002
   1.6542448236908119E-002  -5.5339117299680884E-003   5.4567275084823320E-002
   2.0374738114574104E-002  -5.4977425796851054E-003   6.2923169951581759E-002
   1.8609212964219038E-002  -5.1902385598273648E-003   6.0887249190814008E-002
   1.6843687813863958E-002  -4.9132601120793207E-003   5.9303803250566001E-002
   1.5078162663508893E-002  -4.6668072364408481E-003   5.8172832130837959E-002
   1.3312637513153813E-002  -4.4508799329122106E-003   5.7494335831629828E-002
   2.7000042090362303E-002  -8.7830071211363325E-003   4.5557381400959329E-002
   2.6515035090637740E-002  -8.3917486560162735E-003   4.6443444783494658E-002
   2.6030028090913218E-002  -7.9242508868647421E-003   4.7439701971725534E-002
   2.5545021091188662E-002  -7.3805138136808987E-003   4.8546152965651568E-002
   2.5060014091464161E-002  -6.7605374364654303E-003   4.9762797765273037E-002
   2.3386150525512350E-002  -7.6999753240802882E-003   4.8598797869488231E-002
   2.2999295955597590E-002  -7.3501364380061385E-003   4.9673785122063441E-002
   2.2612441385682802E-002  -6.9306602581765131E-003   5.0834883428562877E-002
   2.2225586815768014E-002  -6.4415467845916757E-003   5.2082092788986567E-002
   2.1838732245853254E-002  -5.8827960172513905E-003   5.3415413203334317E-002
   1.9900285907694305E-002  -6.6169435270242438E-003   5.1602095764109540E-002
   1.9587501015818076E-002  -6.3085242199956981E-003   5.2859404876448107E-002
   1.9274716123941858E-002  -5.9370696294885200E-003   5.4178742290939691E-002
   1.8961931232065625E-002  -5.5025797555022897E-003   5.5560108007584354E-002
   1.8649146340189431E-002  -5.0050545980373506E-003   5.7003502026381742E-002
   1.6542448236908119E-002  -5.5339117299680884E-003   5.4567275084823320E-002
   1.6279650271299299E-002  -5.2669120019854104E-003   5.6000304046648811E-002
   1.6016852305690422E-002  -4.9434790008004090E-003   5.7471278558856198E-002
   1.5754054340081560E-002  -4.5636127264130962E-003   5.8980198621445108E-002
   1.5491256374472724E-002  -4.1273131788231998E-003   6.0527064234416054E-002
   1.3312637513153813E-002  -4.4508799329122106E-003   5.7494335831629828E-002
   1.3075743722041122E-002  -4.2252997839751227E-003   5.9096482632665592E-002
   1.2838849930928473E-002  -3.9498883721124783E-003   6.0712492232312093E-002
   1.2601956139815788E-002  -3.6246456973237536E-003   6.2342364630569150E-002
   1.2365062348703104E-002  -3.2495717596092710E-003   6.3986099827436860E-002
   2.5060014091464161E-002  -6.7605374364654303E-003   4.9762797765273037E-002
   2.3007944480531006E-002  -6.1105484170754232E-003   4.9255669371988331E-002
   2.0955874869597865E-002  -5.4767734173682137E-003   4.8921527397682352E-002
   1.8903805258664731E-002  -4.8592124373443360E-003   4.8760371842355321E-002
   1.6851735647731597E-002  -4.2578654770027979E-003   4.8772202706006906E-002
   2.1838732245853254E-002  -5.8827960172513905E-003   5.3415413203334317E-002
   1.9972936479371609E-002  -5.2994268370959441E-003   5.2934960931565134E-002
   1.8107140712889977E-002  -4.7364581250662063E-003   5.2654069929720354E-002
   1.6241344946408352E-002  -4.1938898811613792E-003   5.2572740197799742E-002
   1.4375549179926700E-002  -3.6717221053820248E-003   5.2690971735803338E-002
   1.8649146340189431E-002  -5.0050545980373506E-003   5.7003502026381742E-002
   1.6996199269104686E-002  -4.4883052571166593E-003   5.6545539427686059E-002
   1.5343252198019987E-002  -3.9961428327637410E-003   5.6313712949860026E-002
   1.3690305126935269E-002  -3.5285673249787521E-003   5.6308022592903732E-002
   1.2037358055850551E-002  -3.0855787337613072E-003   5.6528468356816713E-002
   1.5491256374472724E-002  -4.1273131788231998E-003   6.0527064234416054E-002
   1.4077732849730313E-002  -3.6771836771372218E-003   6.0087404860351405E-002
   1.2664209324987890E-002  -3.2558275404616158E-003   5.9900456458101409E-002
   1.1250685800245465E-002  -2.8632447687959601E-003   5.9966219027666606E-002
   9.8371622755030561E-003  -2.4994353621405063E-003   6.0284692569046595E-002
   1.2365062348703104E-002  -3.2495717596092710E-003   6.3986099827436860E-002
   1.1217537221248394E-002  -2.8660620971578954E-003   6.3560557229560388E-002
   1.0070012093793698E-002  -2.5155122481592129E-003   6.3414300454444461E-002
   8.9224869663389883E-003  -2.1979222126132653E-003   6.3547329502088912E-002
   7.7749618388842645E-003  -1.9132919905198165E-003   6.3959644372493685E-002
   1.6851735647731597E-002  -4.2578654770027979E-003   4.8772202706006906E-002
   1.4979524797156696E-002  -3.7175139001603963E-003   4.8680245731323235E-002
   1.3107313946581781E-002  -3.2829390706330119E-003   4.8847595209116357E-002
   1.1235103096006872E-002  -2.9541409884204436E-003   4.9274251139386105E-002
   9.3628922454319641E-003  -2.7311196535226845E-003   4.9960213522132868E-002
   1.4375549179926700E-002  -3.6717221053820248E-003   5.2690971735803338E-002
   1.2759023080705242E-002  -3.2131710973672956E-003   5.2627083496365801E-002
   1.1142496981483715E-002  -2.8614531567561496E-003   5.2815258307158164E-002
   9.5259708822622233E-003  -2.6165682835485385E-003   5.3255496168180788E-002
   7.9094447830407588E-003  -2.4785164777451074E-003   5.3947797079433368E-002
   1.2037358055850551E-002  -3.0855787337613072E-003   5.6528468356816713E-002
   1.0669273305735805E-002  -2.7088282945740838E-003   5.6491592532536189E-002
   9.3011885556210407E-003  -2.4399672428793012E-003   5.6699536356239269E-002
   7.9331038055062714E-003  -2.2789955786771919E-003   5.7152299827925489E-002
   6.5650190553915300E-003  -2.2259133019675303E-003   5.7849882947595133E-002
   9.8371622755030561E-003  -2.4994353621405063E-003   6.0284692569046595E-002
   8.7102754722483897E-003  -2.2044854917809831E-003   6.0273772839834781E-002
   7.5833886689936668E-003  -2.0184813290025569E-003   6.0500429356359381E-002
   6.4565018657389856E-003  -1.9414228738055660E-003   6.0964662118620755E-002
   5.3296150624842775E-003  -1.9733101261900088E-003   6.1666471126619007E-002
   7.7749618388842645E-003  -1.9132919905198165E-003   6.3959644372493685E-002
   6.8820295802429626E-003  -1.7001426889877158E-003   6.3973624418261266E-002
   5.9890973216016608E-003  -1.5969954151257570E-003   6.4217937307518846E-002
   5.0961650629603727E-003  -1.6038501689339818E-003   6.4692583040266455E-002
   4.2032328043190570E-003  -1.7207069504123762E-003   6.5397561616504118E-002
   9.3628922454319641E-003  -2.7311196535226845E-003   4.9960213522132868E-002
   7.9179170719569369E-003  -2.8666016107791736E-003   5.0367362484270872E-002
   6.4729418984819098E-003  -3.6133134050287397E-003   5.1099510385783586E-002
   5.0279667250069104E-003  -4.9712550362722291E-003   5.2156657226671121E-002
   3.5829915515319111E-003  -6.9404265045083235E-003   5.3538803006933477E-002
   7.9094447830407588E-003  -2.4785164777451074E-003   5.3947797079433368E-002
   6.7645100171354750E-003  -2.6522414699858832E-003   5.3875034061669103E-002
   5.6195752512302050E-003  -3.3426869909118917E-003   5.4077352919669169E-002
   4.4746404853249211E-003  -4.5498530405230775E-003   5.4554753653434110E-002
   3.3297057194196511E-003  -6.2737396188190520E-003   5.5307236262964077E-002
   6.5650190553915300E-003  -2.2259133019675303E-003   5.7849882947595133E-002
   5.6702076334458618E-003  -2.4378813291927315E-003   5.7391717258236774E-002
   4.7753962115001866E-003  -3.0720605767946829E-003   5.7158716381032815E-002
   3.8805847895545045E-003  -4.1284510447738079E-003   5.7150880315983463E-002
   2.9857733676088433E-003  -5.6070527331297804E-003   5.7368209063088482E-002
   5.3296150624842775E-003  -1.9733101261900088E-003   6.1666471126619007E-002
   4.6350099208880696E-003  -2.2235211883994549E-003   6.0917412073974359E-002
   3.9404047792918461E-003  -2.8014341626779876E-003   6.0343600769874418E-002
   3.2457996376956087E-003  -3.7070490490248194E-003   5.9945037214318792E-002
   2.5511944960994147E-003  -4.9403658474405088E-003   5.9721721407307499E-002
   4.2032328043190570E-003  -1.7207069504123762E-003   6.5397561616504118E-002
   3.6589168794621402E-003  -2.0091610476062893E-003   6.4452118508881995E-002
   3.1146009546052095E-003  -2.5308077485605152E-003   6.3632006086193849E-002
   2.5702850297482926E-003  -3.2856470532755810E-003   6.2937224348440013E-002
   2.0259691048913619E-003  -4.2736789617510151E-003   6.2367773295620710E-002
   3.5829915515319111E-003  -6.9404265045083235E-003   5.3538803006933477E-002
   4.1428437449527733E-003  -9.5330931449006950E-003   5.1864719175491847E-002
   4.7026959383736078E-003  -1.2761520292612905E-002   5.0044994646737395E-002
   5.2625481317944423E-003  -1.6625707947643314E-002   4.8079629420670955E-002
   5.8224003252153045E-003  -2.1125656109993063E-002   4.5968623497292249E-002
   3.3297057194196511E-003  -6.2737396188190520E-003   5.5307236262964077E-002
   3.7611561830227236E-003  -8.5435060369987159E-003   5.2954345050117979E-002
   4.1926066466257822E-003  -1.1388311606259721E-002   5.0490291074948679E-002
   4.6240571102288547E-003  -1.4808156326602560E-002   4.7915074337455926E-002
   5.0555075738318855E-003  -1.8803040198027254E-002   4.5228694837640138E-002
   2.9857733676088433E-003  -5.6070527331297804E-003   5.7368209063088482E-002
   3.3233000363833004E-003  -7.5539189290964037E-003   5.4397231825075665E-002
   3.6608267051577228E-003  -1.0015102919907426E-002   5.1349569759728403E-002
   3.9983533739321592E-003  -1.2990604705562250E-002   4.8225222867047390E-002
   4.3358800427066024E-003  -1.6480424286061668E-002   4.5024191147032600E-002
   2.5511944960994147E-003  -4.9403658474405088E-003   5.9721721407307499E-002
   2.8292753050344378E-003  -6.5643318211942581E-003   5.6193379500364952E-002
   3.1073561139694453E-003  -8.6418942335544646E-003   5.2622830701077469E-002
   3.3854369229045014E-003  -1.1173053084521829E-002   4.9010075009445077E-002
   3.6635177318395315E-003  -1.4157808374095970E-002   4.5355112425468164E-002
   2.0259691048913619E-003  -4.2736789617510151E-003   6.2367773295620710E-002
   2.2790819889761671E-003  -5.5747447132921124E-003   5.8342788075986141E-002
   2.5321948730609722E-003  -7.2686855472021694E-003   5.4310073898995781E-002
   2.7853077571458260E-003  -9.3555014634810196E-003   5.0269630764649742E-002
   3.0384206412306103E-003  -1.1835192462130273E-002   4.6221458672948135E-002
   2.4530325616416909E-002  -8.6099410462829318E-003   5.8332662306788907E-002
   2.4178035869238418E-002  -8.3316117380681232E-003   5.9848409370919231E-002
   2.3825746122059940E-002  -7.9919986602006998E-003   6.1173978619135871E-002
   2.3473456374881456E-002  -7.5911018126806826E-003   6.2309370051438800E-002
   2.3121166627702958E-002  -7.1289211955080090E-003   6.3254583667828101E-002
   1.9267719060032745E-002  -5.6277786415087627E-003   6.1938232565966977E-002
   1.8774504822302779E-002  -5.4451256243663870E-003   6.2977969844917547E-002
   1.8281290584572805E-002  -5.2689220128667447E-003   6.3926035958678712E-002
   1.7788076346842836E-002  -5.0991678070100646E-003   6.4782430907250610E-002
   1.7294862109112859E-002  -4.9358630067960485E-003   6.5547154690633436E-002
   1.3452432211101602E-002  -2.6456162367346214E-003   6.5481993121720455E-002
   1.2916800133544556E-002  -2.5586395106647064E-003   6.5977987440195590E-002
   1.2381168055987501E-002  -2.5458453655329699E-003   6.6480817244206028E-002
   1.1845535978430436E-002  -2.6072338013393946E-003   6.6990482533751505E-002
   1.1309903900873393E-002  -2.7428048180840325E-003   6.7506983308832036E-002
   7.0844650696235082E-003   3.3654616803951987E-004   6.8963943974049063E-002
   6.6049218029637768E-003   3.2784660303702973E-004   6.8848462156753804E-002
   6.1253785363040393E-003   1.7723128180086728E-004   6.8838322475717834E-002
   5.6458352696443035E-003  -1.1529979566877839E-004   6.8933524930941389E-002
   5.1662920029845686E-003  -5.4974662937201657E-004   6.9134069522424610E-002
   1.6381763559844553E-004   3.3187085728136889E-003   7.2384085122953079E-002
  -1.6113016943957587E-004   3.2143327167387103E-003   7.1589393994591632E-002
  -4.8607797447759379E-004   2.9003079291347184E-003   7.0998551653214031E-002
  -8.1102577951560999E-004   2.3766342100018691E-003   7.0611558098820373E-002
  -1.1359735845536297E-003   1.6433115593399439E-003   7.0428413331410700E-002
   2.3121166627702958E-002  -7.1289211955080090E-003   6.3254583667828101E-002
   2.2434559499420748E-002  -6.6573556555197810E-003   6.2882499810723691E-002
   2.1747952371138538E-002  -6.2283040395533784E-003   6.2703236238981136E-002
   2.1061345242856334E-002  -5.8417663476083986E-003   6.2716792952600520E-002
   2.0374738114574104E-002  -5.4977425796851054E-003   6.2923169951581759E-002
   1.7294862109112859E-002  -4.9358630067960485E-003   6.5547154690633436E-002
   1.6816965583264759E-002  -4.7600300725475220E-003   6.5026803335796801E-002
   1.6339069057416656E-002  -4.5526914645872690E-003   6.4731052900466574E-002
   1.5861172531568546E-002  -4.3138471829152238E-003   6.4659903384642600E-002
   1.5383276005720453E-002  -4.0434972275313341E-003   6.4813354788324951E-002
   1.1309903900873393E-002  -2.7428048180840325E-003   6.7506983308832036E-002
   1.1072498611603789E-002  -2.8627044895751796E-003   6.6912384053996826E-002
   1.0835093322334195E-002  -2.8770788896211597E-003   6.6574166352812339E-002
   1.0597688033064599E-002  -2.7859280182219379E-003   6.6492330205278546E-002
   1.0360282743795003E-002  -2.5892518753775351E-003   6.6666875611395449E-002
   5.1662920029845686E-003  -5.4974662937201657E-004   6.9134069522424610E-002
   5.2011585844378583E-003  -9.6537890660282344E-004   6.8539241965324085E-002
   5.2360251658911507E-003  -1.2014663146550225E-003   6.8232576596018640E-002
   5.2708917473444378E-003  -1.2580088535286242E-003   6.8214073414508289E-002
   5.3057583287977415E-003  -1.1350065232236944E-003   6.8483732420793031E-002
  -1.1359735845536297E-003   1.6433115593399439E-003   7.0428413331410700E-002
  -7.9705449823305047E-004   9.3194667636947726E-004   6.9907377069778232E-002
  -4.5813541191247302E-004   4.7414626031111462E-004   6.9706283630085408E-002
  -1.1921632559189470E-004   2.6991031116448128E-004   6.9825133012331952E-002
   2.1970276072868361E-004   3.1923882893003519E-004   7.0263925216518031E-002
   2.0374738114574104E-002  -5.4977425796851054E-003   6.2923169951581759E-002
   1.8609212964219038E-002  -5.1902385598273648E-003   6.0887249190814008E-002
   1.6843687813863958E-002  -4.9132601120793207E-003   5.9303803250566001E-002
   1.5078162663508893E-002  -4.6668072364408481E-003   5.8172832130837959E-002
   1.3312637513153813E-002  -4.4508799329122106E-003   5.7494335831629828E-002
   1.5383276005720453E-002  -4.0434972275313341E-003   6.4813354788324951E-002
   1.4063049169117228E-002  -3.7766920145130001E-003   6.2704166002441136E-002
   1.2742822332514003E-002  -3.5484819599375800E-003   6.1033099023541204E-002
   1.1422595495910775E-002  -3.3588670638046610E-003   5.9800153851625126E-002
   1.0102368659307553E-002  -3.2078473261148432E-003   5.9005330486692820E-002
   1.0360282743795003E-002  -2.5892518753775351E-003   6.6666875611395449E-002
   9.4710012074076394E-003  -2.3631454691985243E-003   6.4476349214062326E-002
   8.5817196710202756E-003  -2.1837038077956172E-003   6.2709591610177251E-002
   7.6924381346329153E-003  -2.0509268911685849E-003   6.1366602799739975E-002
   6.8031565982455480E-003  -1.9648147193176702E-003   6.0447382782750567E-002
   5.3057583287977415E-003  -1.1350065232236944E-003   6.8483732420793031E-002
   4.8330690790902540E-003  -9.4959892388402078E-004   6.6203798825677729E-002
   4.3603798293827701E-003  -8.1892565565365449E-004   6.4333281010474058E-002
   3.8876905796752853E-003  -7.4298671853245332E-004   6.2872178975182338E-002
   3.4150013299678057E-003  -7.2178211252051094E-004   6.1820492719802625E-002
   2.1970276072868361E-004   3.1923882893003519E-004   7.0263925216518031E-002
   1.4925278416509646E-004   4.6394762143031620E-004   6.7886514837286971E-002
   7.8802807601498909E-005   5.4585249648822498E-004   6.5904167224431792E-002
   8.3528310379117621E-006   5.6495345410374070E-004   6.4316882377952522E-002
  -6.2097145525685793E-005   5.2125049427675929E-004   6.3124660297849133E-002
   1.3312637513153813E-002  -4.4508799329122106E-003   5.7494335831629828E-002
   1.3075743722041122E-002  -4.2252997839751227E-003   5.9096482632665592E-002
   1.2838849930928473E-002  -3.9498883721124783E-003   6.0712492232312093E-002
   1.2601956139815788E-002  -3.6246456973237536E-003   6.2342364630569150E-002
   1.2365062348703104E-002  -3.2495717596092710E-003   6.3986099827436860E-002
   1.0102368659307553E-002  -3.2078473261148432E-003   5.9005330486692820E-002
   9.8902406777490737E-003  -3.0582253626496303E-003   6.0572252527916343E-002
   9.6781126961905731E-003  -2.8728037891908587E-003   6.2174843389637580E-002
   9.4659847146320829E-003  -2.6515826057385838E-003   6.3813103071856586E-002
   9.2538567330735927E-003  -2.3945618122927503E-003   6.5487031574573584E-002
   6.8031565982455480E-003  -1.9648147193176702E-003   6.0447382782750567E-002
   6.6376004481284410E-003  -1.8911509413240823E-003   6.1965048411229184E-002
   6.4720442980113306E-003  -1.7957192062693986E-003   6.3540188882092868E-002
   6.3064881478942184E-003  -1.6785195141535789E-003   6.5172804195341411E-002
   6.1409319977771132E-003  -1.5395518649763407E-003   6.6862894350975005E-002
   3.4150013299678057E-003  -7.2178211252051094E-004   6.1820492719802625E-002
   3.3178230331792763E-003  -7.2407651999867317E-004   6.3274870282604243E-002
   3.2206447363907391E-003  -7.1863462334802522E-004   6.4808528709677946E-002
   3.1234664396022067E-003  -7.0545642256838060E-004   6.6421468001023776E-002
   3.0262881428136726E-003  -6.8454191765993100E-004   6.8113688156641927E-002
  -6.2097145525685793E-005   5.2125049427675929E-004   6.3124660297849133E-002
  -6.9091567098451823E-005   4.4299790132695804E-004   6.4501718142041309E-002
  -7.6085988671210913E-005   3.5844995957345915E-004   6.5979862872392769E-002
  -8.3080410243975208E-005   2.6760666901659569E-004   6.7559094488903654E-002
  -9.0074831816736034E-005   1.7046802965647867E-004   6.9239412991573879E-002
   1.2365062348703104E-002  -3.2495717596092710E-003   6.3986099827436860E-002
   1.1217537221248394E-002  -2.8660620971578954E-003   6.3560557229560388E-002
   1.0070012093793698E-002  -2.5155122481592129E-003   6.3414300454444461E-002
   8.9224869663389883E-003  -2.1979222126132653E-003   6.3547329502088912E-002
   7.7749618388842645E-003  -1.9132919905198165E-003   6.3959644372493685E-002
   9.2538567330735927E-003  -2.3945618122927503E-003   6.5487031574573584E-002
   8.3885436521921597E-003  -2.1283303847447477E-003   6.5037527003222129E-002
   7.5232305713107128E-003  -1.8794772989859237E-003   6.4873160702256766E-002
   6.6579174904292764E-003  -1.6480025550164208E-003   6.4993932671677829E-002
   5.7926044095478468E-003  -1.4339061528357844E-003   6.5399842911484762E-002
   6.1409319977771132E-003  -1.5395518649763407E-003   6.6862894350975005E-002
   5.5636834110946859E-003  -1.3905986723315999E-003   6.6405009277812052E-002
   4.9864348244122517E-003  -1.2434423498124125E-003   6.6238114922660962E-002
   4.4091862377298278E-003  -1.0980828974193543E-003   6.6362211285521902E-002
   3.8319376510474040E-003  -9.5452031515197433E-004   6.6777298366394483E-002
   3.0262881428136726E-003  -6.8454191765993100E-004   6.8113688156641927E-002
   2.7429564979560032E-003  -6.5286695991850774E-004   6.7663004053330769E-002
   2.4596248530983356E-003  -6.0740740063901233E-004   6.7509163115657217E-002
   2.1762932082406592E-003  -5.4816323982239887E-004   6.7652165343621423E-002
   1.8929615633829985E-003  -4.7513447746799775E-004   6.8092010737222985E-002
  -9.0074831816736034E-005   1.7046802965647867E-004   6.9239412991573879E-002
  -7.3637087223916986E-005   8.4864752494639983E-005   6.8811511329777919E-002
  -5.7199342631073652E-005   2.8627548534249092E-005   6.8686305281245308E-002
  -4.0761598038242461E-005   1.7564177745774123E-006   6.8863794845975990E-002
  -2.4323853445411270E-005   4.2513602158678054E-006   6.9343980023970131E-002
   7.7749618388842645E-003  -1.9132919905198165E-003   6.3959644372493685E-002
   6.8820295802429626E-003  -1.7001426889877158E-003   6.3973624418261266E-002
   5.9890973216016608E-003  -1.5969954151257570E-003   6.4217937307518846E-002
   5.0961650629603727E-003  -1.6038501689339818E-003   6.4692583040266455E-002
   4.2032328043190570E-003  -1.7207069504123762E-003   6.5397561616504118E-002
   5.7926044095478468E-003  -1.4339061528357844E-003   6.5399842911484762E-002
   5.1283934508591297E-003  -1.2705884970591885E-003   6.5336811495206426E-002
   4.4641824921704334E-003  -1.1914499923019184E-003   6.5500889835343107E-002
   3.7999715334817268E-003  -1.1964906385628360E-003   6.5892077931895374E-002
   3.1357605747930201E-003  -1.2857104358424687E-003   6.6510375784862297E-002
   3.8319376510474040E-003  -9.5452031515197433E-004   6.6777298366394483E-002
   3.3932249052364034E-003  -8.4103430513113309E-004   6.6663078364721740E-002
   2.9545121594254063E-003  -7.8590456947755238E-004   6.6772745032389280E-002
   2.5157994136144092E-003  -7.8913110819147508E-004   6.7106298369396827E-002
   2.0770866678034086E-003  -8.5071392127256118E-004   6.7663738375745019E-002
   1.8929615633829985E-003  -4.7513447746799775E-004   6.8092010737222985E-002
   1.6765239433747933E-003  -4.1148011320284172E-004   6.7952425026807220E-002
   1.4600863233665958E-003  -3.8035914665356108E-004   6.8033502898656728E-002
   1.2436487033583915E-003  -3.8177157782011070E-004   6.8335244352771704E-002
   1.0272110833501932E-003  -4.1571740670254265E-004   6.8857649389151995E-002
  -2.4323853445411270E-005   4.2513602158678054E-006   6.9343980023970131E-002
  -2.1709434725701582E-005   1.8074078725449638E-005   6.9204851481462604E-002
  -1.9095016006005772E-005   2.5186276170763300E-005   6.9283163434145700E-002
  -1.6480597286308227E-005   2.5587952551003879E-005   6.9578915882019199E-002
  -1.3866178566600273E-005   1.9279107867253842E-005   7.0092108825082988E-002
   4.2032328043190570E-003  -1.7207069504123762E-003   6.5397561616504118E-002
   3.6589168794621402E-003  -2.0091610476062893E-003   6.4452118508881995E-002
   3.1146009546052095E-003  -2.5308077485605152E-003   6.3632006086193849E-002
   2.5702850297482926E-003  -3.2856470532755810E-003   6.2937224348440013E-002
   2.0259691048913619E-003  -4.2736789617510151E-003   6.2367773295620710E-002
   3.1357605747930201E-003  -1.2857104358424687E-003   6.6510375784862297E-002
   2.7196347339932536E-003  -1.5040735758699020E-003   6.5372940329780693E-002
   2.3035088931934594E-003  -1.8965442503743601E-003   6.4366554357879080E-002
   1.8873830523936895E-003  -2.4631224593554615E-003   6.3491217869157540E-002
   1.4712572115938988E-003  -3.2038082028136294E-003   6.2746930863616046E-002
   2.0770866678034086E-003  -8.5071392127256118E-004   6.7663738375745019E-002
   1.7948697093066075E-003  -9.9898610413373667E-004   6.6393395642487474E-002
   1.5126527508097891E-003  -1.2622807521880941E-003   6.5259821190656264E-002
   1.2304357923129845E-003  -1.6405978654355641E-003   6.4263015020250891E-002
   9.4821883381616956E-004  -2.1339374438759107E-003   6.3402977131271243E-002
   1.0272110833501932E-003  -4.1571740670254265E-004   6.8857649389151995E-002
   8.8462180540218888E-004  -4.9389863239757137E-004   6.7513484447002781E-002
   7.4203252745418374E-004  -6.2801725400182806E-004   6.6311806584525415E-002
   5.9944324950617946E-004  -8.1807327151555559E-004   6.5252615801719926E-002
   4.5685397155817431E-004  -1.0640666849381364E-003   6.4335912098585912E-002
  -1.3866178566600273E-005   1.9279107867253842E-005   7.0092108825082988E-002
  -1.1108977719970214E-005   1.1188839338760470E-005   6.8733206743326059E-002
  -8.3517768733470943E-006   6.2462441843824656E-006   6.7522510539486602E-002
  -5.5945760267170352E-006   4.4513224045222843E-006   6.6460020213564508E-002
  -2.8373751800939151E-006   5.8040739994158486E-006   6.5545735765560220E-002
   2.0259691048913619E-003  -4.2736789617510151E-003   6.2367773295620710E-002
   2.2790819889761671E-003  -5.5747447132921124E-003   5.8342788075986141E-002
   2.5321948730609722E-003  -7.2686855472021694E-003   5.4310073898995781E-002
   2.7853077571458260E-003  -9.3555014634810196E-003   5.0269630764649742E-002
   3.0384206412306103E-003  -1.1835192462130273E-002   4.6221458672948135E-002
   1.4712572115938988E-003  -3.2038082028136294E-003   6.2746930863616046E-002
   1.7027376846811132E-003  -4.1789623266661469E-003   5.8395863551518601E-002
   1.9342181577683346E-003  -5.4489456768302413E-003   5.4009260374781543E-002
   2.1656986308555386E-003  -7.0137582533063986E-003   4.9587121333404538E-002
   2.3971791039427703E-003  -8.8734000560948267E-003   4.5129446427388809E-002
   9.4821883381616956E-004  -2.1339374438759107E-003   6.3402977131271243E-002
   1.1302599886218803E-003  -2.7831799400401813E-003   5.8823873582768471E-002
   1.3123011434275772E-003  -3.6292058064585353E-003   5.4181427262341958E-002
   1.4943422982333001E-003  -4.6720150431315555E-003   4.9475638169991509E-002
   1.6763834530389987E-003  -5.9116076500593806E-003   4.4706506305718707E-002
   4.5685397155817431E-004  -1.0640666849381364E-003   6.4335912098585912E-002
   5.6164890079843724E-004  -1.3873975534141048E-003   5.9626818169734766E-002
   6.6644383003870017E-004  -1.8094659360869403E-003   5.4826574561676694E-002
   7.7123875927897828E-004  -2.3302718329568234E-003   4.9935181274410795E-002
   8.7603368851923991E-004  -2.9498152440239345E-003   4.4952638307937581E-002
  -2.8373751800939151E-006   5.8040739994158486E-006   6.5545735765560220E-002
  -3.0955787891917552E-006   8.3848332119718094E-006   6.0804697312418776E-002
  -3.3537823982930648E-006   1.0273934284876773E-005   5.5944702272785585E-002
  -3.6119860074013133E-006   1.1471377218186252E-005   5.0965750646661423E-002
  -3.8701896164922145E-006   1.1977162011511666E-005   4.5867842434045958E-002
   1.6381763559844553E-004   3.3187085728136889E-003   7.2384085122953079E-002
  -1.6113016943957587E-004   3.2143327167387103E-003   7.1589393994591632E-002
  -4.8607797447759379E-004   2.9003079291347184E-003   7.0998551653214031E-002
  -8.1102577951560999E-004   2.3766342100018691E-003   7.0611558098820373E-002
  -1.1359735845536297E-003   1.6433115593399439E-003   7.0428413331410700E-002
  -6.7797584296320178E-003   3.3902177402926892E-003   6.7835440331942443E-002
  -6.9041951448153508E-003   3.2816637341155364E-003   6.7395032373980840E-002
  -7.0286318599986960E-003   3.0843543342531227E-003   6.7151797808744723E-002
  -7.1530685751820334E-003   2.7982895407056667E-003   6.7105736636233954E-002
  -7.2775052903653742E-003   2.4234693534728735E-003   6.7256848856448670E-002
  -1.3216511464726268E-002   3.4617269077716895E-003   6.3222170621907783E-002
  -1.3147112484313401E-002   3.3489947514922513E-003   6.3256939372189805E-002
  -1.3077713503900561E-002   3.2684007393714923E-003   6.3482206120938911E-002
  -1.3008314523487706E-002   3.2199448714093516E-003   6.3897970868154755E-002
  -1.2938915543074855E-002   3.2036271476058586E-003   6.4504233613837669E-002
  -1.9146441469684354E-002   3.5332360752506758E-003   5.8544275992848976E-002
  -1.8889882187933766E-002   3.4163257688690080E-003   5.9175114989218430E-002
  -1.8633322906183220E-002   3.4524471444898515E-003   5.9989776589796484E-002
  -1.8376763624432645E-002   3.6416002021130650E-003   6.0988260794582937E-002
  -1.8120204342682078E-002   3.9837849417388438E-003   6.2170567603577906E-002
  -2.4569548444506220E-002   3.6047452427296900E-003   5.3801756444765814E-002
  -2.4132504255676403E-002   3.4836567862457923E-003   5.5149559225066758E-002
  -2.3695460066846641E-002   3.6364935496082246E-003   5.6674509215317609E-002
  -2.3258415878016830E-002   4.0632555328168236E-003   5.8376606415518409E-002
  -2.2821371689187041E-002   4.7639427358717734E-003   6.0255850825669310E-002
  -1.1359735845536297E-003   1.6433115593399439E-003   7.0428413331410700E-002
  -7.9705449823305047E-004   9.3194667636947726E-004   6.9907377069778232E-002
  -4.5813541191247302E-004   4.7414626031111462E-004   6.9706283630085408E-002
  -1.1921632559189470E-004   2.6991031116448128E-004   6.9825133012331952E-002
   2.1970276072868361E-004   3.1923882893003519E-004   7.0263925216518031E-002
  -7.2775052903653742E-003   2.4234693534728735E-003   6.7256848856448670E-002
  -6.6832414301586816E-003   2.0526748344895651E-003   6.7326521598413014E-002
  -6.0889775699519821E-003   1.7786870456899390E-003   6.7586941066210160E-002
  -5.4947137097452903E-003   1.6015059870741165E-003   6.8038107259839997E-002
  -4.9004498495385969E-003   1.5211316586419832E-003   6.8680020179302637E-002
  -1.2938915543074855E-002   3.2036271476058586E-003   6.4504233613837669E-002
  -1.2218503005088768E-002   3.1734029926095142E-003   6.5007857622670653E-002
  -1.1498090467102689E-002   3.0832278310687078E-003   6.5573032261229680E-002
  -1.0777677929116599E-002   2.9331016629834741E-003   6.6199757529514680E-002
  -1.0057265391130511E-002   2.7230244883538202E-003   6.6888033427525723E-002
  -1.8120204342682078E-002   3.9837849417388438E-003   6.2170567603577906E-002
  -1.7402839223023336E-002   4.2941311507294216E-003   6.2951385142551317E-002
  -1.6685474103364576E-002   4.3877686164473934E-003   6.3664557215143858E-002
  -1.5968108983705834E-002   4.2646973388928595E-003   6.4310083821355835E-002
  -1.5250743864047078E-002   3.9249173180656571E-003   6.4887964961187039E-002
  -2.2821371689187041E-002   4.7639427358717734E-003   6.0255850825669310E-002
  -2.2236250083962357E-002   5.4148593088495789E-003   6.1157104158054754E-002
  -2.1651128478737670E-002   5.6923094018263426E-003   6.1861515927952859E-002
  -2.1066006873512989E-002   5.5962930148023109E-003   6.2369086135363475E-002
  -2.0480885268288299E-002   5.1268101477775496E-003   6.2679814780286724E-002
   2.1970276072868361E-004   3.1923882893003519E-004   7.0263925216518031E-002
   1.4925278416509646E-004   4.6394762143031620E-004   6.7886514837286971E-002
   7.8802807601498909E-005   5.4585249648822498E-004   6.5904167224431792E-002
   8.3528310379117621E-006   5.6495345410374070E-004   6.4316882377952522E-002
  -6.2097145525685793E-005   5.2125049427675929E-004   6.3124660297849133E-002
  -4.9004498495385969E-003   1.5211316586419832E-003   6.8680020179302637E-002
  -4.5579109185448045E-003   1.4836716252407400E-003   6.6246981981146230E-002
  -4.2153719875510261E-003   1.4352334517173382E-003   6.4244858831728563E-002
  -3.8728330565572424E-003   1.3758171380718262E-003   6.2673650731049788E-002
  -3.5302941255634553E-003   1.3054226843042249E-003   6.1533357679109835E-002
  -1.0057265391130511E-002   2.7230244883538202E-003   6.6888033427525723E-002
  -9.2658852702163959E-003   2.5033956290510528E-003   6.4451193187764128E-002
  -8.4745051493022687E-003   2.3246144069464375E-003   6.2481120279104227E-002
  -7.6831250283881563E-003   2.1866808220400193E-003   6.0977814701546361E-002
  -6.8917449074740317E-003   2.0895948743317461E-003   5.9941276455090120E-002
  -1.5250743864047078E-002   3.9249173180656571E-003   6.4887964961187039E-002
  -1.3974670270849665E-002   3.5231196328613656E-003   6.2499148457140559E-002
  -1.2698596677652253E-002   3.2139953621755160E-003   6.0612951566558881E-002
  -1.1422523084454832E-002   2.9975445060081585E-003   5.9229374289441972E-002
  -1.0146449491257420E-002   2.8737670643592395E-003   5.8348416625789934E-002
  -2.0480885268288299E-002   5.1268101477775496E-003   6.2679814780286724E-002
  -1.8684265920444629E-002   4.5428436366718172E-003   6.0390847789275726E-002
  -1.6887646572600952E-002   4.1033763174046362E-003   5.8640352694092429E-002
  -1.5091027224757275E-002   3.8084081899762388E-003   5.7428329494736904E-002
  -1.3294407876913605E-002   3.6579392543867328E-003   5.6754778191209110E-002
  -6.2097145525685793E-005   5.2125049427675929E-004   6.3124660297849133E-002
  -6.9091567098451823E-005   4.4299790132695804E-004   6.4501718142041309E-002
  -7.6085988671210913E-005   3.5844995957345915E-004   6.5979862872392769E-002
  -8.3080410243975208E-005   2.6760666901659569E-004   6.7559094488903654E-002
  -9.0074831816736034E-005   1.7046802965647867E-004   6.9239412991573879E-002
  -3.5302941255634553E-003   1.3054226843042249E-003   6.1533357679109835E-002
  -3.4460925907801448E-003   1.2221709803058589E-003   6.2996754937054311E-002
  -3.3618910559968483E-003   1.1241829159677197E-003   6.4541457221551524E-002
  -3.2776895212135388E-003   1.0114584912900293E-003   6.6167464532601528E-002
  -3.1934879864302483E-003   8.8399770627267671E-004   6.7874776870204268E-002
  -6.8917449074740317E-003   2.0895948743317461E-003   5.9941276455090120E-002
  -6.7361292759412642E-003   2.0013440592847598E-003   6.1482572115250794E-002
  -6.5805136444085071E-003   1.8899158723619802E-003   6.3085390942357669E-002
  -6.4248980128757387E-003   1.7553103135633519E-003   6.4749732936410648E-002
  -6.2692823813429825E-003   1.5975273828890413E-003   6.6475598097409938E-002
  -1.0146449491257420E-002   2.8737670643592395E-003   5.8348416625789934E-002
  -9.9392016225817933E-003   2.7805171382637717E-003   5.9959169676630536E-002
  -9.7319537539061751E-003   2.6556488287562408E-003   6.1611664034810859E-002
  -9.5247058852305552E-003   2.4991621358367855E-003   6.3305899700330737E-002
  -9.3174580165549265E-003   2.3110570595053781E-003   6.5041876673190197E-002
  -1.3294407876913605E-002   3.6579392543867328E-003   5.6754778191209110E-002
  -1.3055309630701731E-002   3.5596902172427280E-003   5.8426547621193758E-002
  -1.2816211384489865E-002   3.4213817851504458E-003   6.0120276498911385E-002
  -1.2577113138277998E-002   3.2430139581100664E-003   6.1835964824361933E-002
  -1.2338014892066124E-002   3.0245867361217149E-003   6.3573612597545348E-002
  -9.0074831816736034E-005   1.7046802965647867E-004   6.9239412991573879E-002
  -7.3637087223916986E-005   8.4864752494639983E-005   6.8811511329777919E-002
  -5.7199342631073652E-005   2.8627548534249092E-005   6.8686305281245308E-002
  -4.0761598038242461E-005   1.7564177745774123E-006   6.8863794845975990E-002
  -2.4323853445411270E-005   4.2513602158678054E-006   6.9343980023970131E-002
  -3.1934879864302483E-003   8.8399770627267671E-004   6.7874776870204268E-002
  -2.8800497826806937E-003   7.5824262194701397E-004   6.7492555731464399E-002
  -2.5666115789311494E-003   6.5063529934433761E-004   6.7401639897774562E-002
  -2.2531733751815948E-003   5.6117573846432844E-004   6.7602029369134689E-002
  -1.9397351714320506E-003   4.8986393930749994E-004   6.8093724145545098E-002
  -6.2692823813429825E-003   1.5975273828890413E-003   6.6475598097409938E-002
  -5.6702340266500334E-003   1.4316204913993047E-003   6.6127839170247921E-002
  -5.0711856719570904E-003   1.2726430501543290E-003   6.6059995239922634E-002
  -4.4721373172641413E-003   1.1205950591544160E-003   6.6272066306434174E-002
  -3.8730889625711983E-003   9.7547651839924310E-004   6.6764052369782445E-002
  -9.3174580165549265E-003   2.3110570595053781E-003   6.5041876673190197E-002
  -8.4441898191319163E-003   2.1049983608514705E-003   6.4717361646128235E-002
  -7.5709216217088844E-003   1.8946508009643134E-003   6.4661371307689536E-002
  -6.6976534242858630E-003   1.6800143798442798E-003   6.4873905657874376E-002
  -5.8243852268628424E-003   1.4610890974909863E-003   6.5354964696682713E-002
  -1.2338014892066124E-002   3.0245867361217149E-003   6.3573612597545348E-002
  -1.1201917160126348E-002   2.7783762303040249E-003   6.3261123159105315E-002
  -1.0065819428186559E-002   2.5166585517744644E-003   6.3205768101075421E-002
  -8.9297216962467806E-003   2.2394337005344350E-003   6.3407547423455557E-002
  -7.7936239643069949E-003   1.9467016765826184E-003   6.3866461126245833E-002
  -2.4323853445411270E-005   4.2513602158678054E-006   6.9343980023970131E-002
  -2.1709434725701582E-005   1.8074078725449638E-005   6.9204851481462604E-002
  -1.9095016006005772E-005   2.5186276170763300E-005   6.9283163434145700E-002
  -1.6480597286308227E-005   2.5587952551003879E-005   6.9578915882019199E-002
  -1.3866178566600273E-005   1.9279107867253842E-005   7.0092108825082988E-002
  -1.9397351714320506E-003   4.8986393930749994E-004   6.8093724145545098E-002
  -1.7181746157123139E-003   4.4029120931016186E-004   6.7947468699460500E-002
  -1.4966140599925720E-003   4.1604885590953988E-004   6.8021665032185819E-002
  -1.2750535042728326E-003   4.1713687910525238E-004   6.8316313143720830E-002
  -1.0534929485530933E-003   4.4355527889772262E-004   6.8831413034065314E-002
  -3.8730889625711983E-003   9.7547651839924310E-004   6.6764052369782445E-002
  -3.4295709862322485E-003   8.6250833989531817E-004   6.6642710917782233E-002
  -2.9860530098932926E-003   8.0691143564876056E-004   6.6744832528210646E-002
  -2.5425350335543362E-003   8.0868580565961190E-004   6.7070417201067781E-002
  -2.0990170572153868E-003   8.6783144992785832E-004   6.7619464936353957E-002
  -5.8243852268628424E-003   1.4610890974909863E-003   6.5354964696682713E-002
  -5.1558985462854950E-003   1.2847254704803079E-003   6.5290578136427552E-002
  -4.4874118657081625E-003   1.1977740153878147E-003   6.5452665922219988E-002
  -3.8189251851308155E-003   1.2002347322140269E-003   6.5841228054060813E-002
  -3.1504385045534825E-003   1.2921076209579940E-003   6.6456264531949402E-002
  -7.7936239643069949E-003   1.9467016765826184E-003   6.3866461126245833E-002
  -6.8971572958720848E-003   1.7069426010650757E-003   6.3891070355396429E-002
  -6.0006906274371850E-003   1.5886365951267301E-003   6.4145165214214150E-002
  -5.1042239590022818E-003   1.5917836587679354E-003   6.4628745702698887E-002
  -4.2077572905673752E-003   1.7163837919883518E-003   6.5341811820851081E-002
  -1.3866178566600273E-005   1.9279107867253842E-005   7.0092108825082988E-002
  -1.1108977719970214E-005   1.1188839338760470E-005   6.8733206743326059E-002
  -8.3517768733470943E-006   6.2462441843824656E-006   6.7522510539486602E-002
  -5.5945760267170352E-006   4.4513224045222843E-006   6.6460020213564508E-002
  -2.8373751800939151E-006   5.8040739994158486E-006   6.5545735765560220E-002
  -1.0534929485530933E-003   4.4355527889772262E-004   6.8831413034065314E-002
  -9.0576135903303739E-004   5.1241931724033130E-004   6.7494736411327805E-002
  -7.5802976951297625E-004   6.4084425608723627E-004   6.6299802688019466E-002
  -6.1029817999292378E-004   8.2883009543871511E-004   6.5246611864140755E-002
  -4.6256659047285917E-004   1.0763768352943792E-003   6.4335163939690854E-002
  -2.0990170572153868E-003   8.6783144992785832E-004   6.7619464936353957E-002
  -1.8127740575101386E-003   1.0136497951419299E-003   6.6361426999765855E-002
  -1.5265310578048757E-003   1.2754422679900623E-003   6.5238668984118647E-002
  -1.2402880580996336E-003   1.6532088684724569E-003   6.4251190889412627E-002
  -9.5404505839437846E-004   2.1469495965890095E-003   6.3398992715647695E-002
  -3.1504385045534825E-003   1.2921076209579940E-003   6.6456264531949402E-002
  -2.7321470731512601E-003   1.5148802730433480E-003   6.5333278508640250E-002
  -2.3138556417490585E-003   1.9100402798931798E-003   6.4339109427783980E-002
  -1.8955642103468460E-003   2.4775876415062022E-003   6.3473757289380470E-002
  -1.4772727789446340E-003   3.2175223578836953E-003   6.2737222093429912E-002
  -4.2077572905673752E-003   1.7163837919883518E-003   6.5341811820851081E-002
  -3.6638804059564295E-003   2.0161107509452103E-003   6.4410290937950809E-002
  -3.1200035213455081E-003   2.5446382917957144E-003   6.3601124019015298E-002
  -2.5761266367345798E-003   3.3019664145403291E-003   6.2914311064044409E-002
  -2.0322497521236410E-003   4.2880951191783812E-003   6.2349852073037892E-002
  -2.8373751800939151E-006   5.8040739994158486E-006   6.5545735765560220E-002
  -3.0955787891917552E-006   8.3848332119718094E-006   6.0804697312418776E-002
  -3.3537823982930648E-006   1.0273934284876773E-005   5.5944702272785585E-002
  -3.6119860074013133E-006   1.1471377218186252E-005   5.0965750646661423E-002
  -3.8701896164922145E-006   1.1977162011511666E-005   4.5867842434045958E-002
  -4.6256659047285917E-004   1.0763768352943792E-003   6.4335163939690854E-002
  -5.6780627719704713E-004   1.4028948972587552E-003   5.9625196380084122E-002
  -6.7304596392122641E-004   1.8277947029370911E-003   5.4824222440738313E-002
  -7.7828565064540917E-004   2.3510762523286793E-003   4.9932242121653203E-002
  -8.8352533736959366E-004   2.9727395454339778E-003   4.4949255422830126E-002
  -9.5404505839437846E-004   2.1469495965890095E-003   6.3398992715647695E-002
  -1.1363160214811398E-003   2.7974049613056495E-003   5.8819169451428177E-002
  -1.3185869845679142E-003   3.6453154715895275E-003   5.4176290014222500E-002
  -1.5008579476546782E-003   4.6906811274395610E-003   4.9470354404030414E-002
  -1.6831289107414361E-003   5.9335019288566659E-003   4.4701362620852114E-002
  -1.4772727789446340E-003   3.2175223578836953E-003   6.2737222093429912E-002
  -1.7086248116415007E-003   4.1919150253527104E-003   5.8386616526451302E-002
  -1.9399768443383325E-003   5.4628362402421859E-003   5.4000904993238619E-002
  -2.1713288770351920E-003   7.0302860025505814E-003   4.9580087493792654E-002
  -2.4026809097320448E-003   8.8942643122793541E-003   4.5124164028112562E-002
  -2.0322497521236410E-003   4.2880951191783812E-003   6.2349852073037892E-002
  -2.2847326476780686E-003   5.5864250893994383E-003   5.8327537605153301E-002
  -2.5372155432325169E-003   7.2803570088942893E-003   5.4298067377786974E-002
  -2.7896984387869705E-003   9.3698908776612411E-003   5.0261441390939798E-002
  -3.0421813343413928E-003   1.1855026695701820E-002   4.6217659644610887E-002
  -2.4569548444506220E-002   3.6047452427296900E-003   5.3801756444765814E-002
  -2.4132504255676403E-002   3.4836567862457923E-003   5.5149559225066758E-002
  -2.3695460066846641E-002   3.6364935496082246E-003   5.6674509215317609E-002
  -2.3258415878016830E-002   4.0632555328168236E-003   5.8376606415518409E-002
  -2.2821371689187041E-002   4.7639427358717734E-003   6.0255850825669310E-002
  -3.0117901505104145E-002   6.9154521579326000E-003   5.3943962606073870E-002
  -2.9460990833876422E-002   6.7262545514718830E-003   5.4788202649746570E-002
  -2.8804080162648640E-002   6.6851981103894509E-003   5.5895028448265244E-002
  -2.8147169491420862E-002   6.7922828346848943E-003   5.7264440001629766E-002
  -2.7490258820193146E-002   7.0475087243585532E-003   5.8896437309840483E-002
  -3.6423569767390460E-002   1.0226159073135482E-002   5.4080951644639289E-002
  -3.5461354068868772E-002   9.9688523166980569E-003   5.4295844897215562E-002
  -3.4499138370347092E-002   9.7339026711706148E-003   5.4858762449533922E-002
  -3.3536922671825384E-002   9.5213101365529910E-003   5.5769704301594072E-002
  -3.2574706973303669E-002   9.3310747128453886E-003   5.7028670453396157E-002
  -4.3486553231365133E-002   1.3536865988338351E-002   5.4212723560461917E-002
  -4.2133593960653561E-002   1.3211450081924217E-002   5.3672485967473739E-002
  -4.0780634689941954E-002   1.2782607231951782E-002   5.3565711219123575E-002
  -3.9427675419230333E-002   1.2250337438421102E-002   5.3892399315411066E-002
  -3.8074716148518782E-002   1.1614640701332085E-002   5.4652550256336682E-002
  -5.1306851897028188E-002   1.6847572903541275E-002   5.4339278353541964E-002
  -4.9477710509230693E-002   1.6454047847150377E-002   5.2918125860521081E-002
  -4.7648569121433254E-002   1.5831311792732963E-002   5.2015874757034036E-002
  -4.5819427733635759E-002   1.4979364740289162E-002   5.1632525043080843E-002
  -4.3990286345838306E-002   1.3898206689818948E-002   5.1768076718661626E-002
  -2.2821371689187041E-002   4.7639427358717734E-003   6.0255850825669310E-002
  -2.2236250083962357E-002   5.4148593088495789E-003   6.1157104158054754E-002
  -2.1651128478737670E-002   5.6923094018263426E-003   6.1861515927952859E-002
  -2.1066006873512989E-002   5.5962930148023109E-003   6.2369086135363475E-002
  -2.0480885268288299E-002   5.1268101477775496E-003   6.2679814780286724E-002
  -2.7490258820193146E-002   7.0475087243585532E-003   5.8896437309840483E-002
  -2.7029424699291822E-002   7.2624536894597969E-003   5.9153598951023512E-002
  -2.6568590578390509E-002   7.2486956400377445E-003   5.9359027186047228E-002
  -2.6107756457489216E-002   7.0062345760924169E-003   5.9512722014911472E-002
  -2.5646922336587902E-002   6.5350704976240293E-003   5.9614683437616472E-002
  -3.2574706973303669E-002   9.3310747128453886E-003   5.7028670453396157E-002
  -3.2093052180397680E-002   9.1100480700700009E-003   5.6786503868854407E-002
  -3.1611397387491684E-002   8.8050818782489867E-003   5.6637712034481376E-002
  -3.1129742594585671E-002   8.4161761373825247E-003   5.6582294950277071E-002
  -3.0648087801679699E-002   7.9433308474704256E-003   5.6620252616241554E-002
  -3.8074716148518782E-002   1.1614640701332085E-002   5.4652550256336682E-002
  -3.7427132527279951E-002   1.0957642450680240E-002   5.4055818911547655E-002
  -3.6779548906041168E-002   1.0361468116460309E-002   5.3697570473255539E-002
  -3.6131965284802399E-002   9.8261176986724659E-003   5.3577804941460194E-002
  -3.5484381663563588E-002   9.3515911973168359E-003   5.3696522316161732E-002
  -4.3990286345838306E-002   1.3898206689818948E-002   5.1768076718661626E-002
  -4.3031665739938621E-002   1.2805236831290423E-002   5.0961544079103110E-002
  -4.2073045134038985E-002   1.1917854354671659E-002   5.0538602502369578E-002
  -4.1114424528139321E-002   1.1236059259962579E-002   5.0499251988460947E-002
  -4.0155803922239663E-002   1.0759851547163302E-002   5.0843492537377244E-002
  -2.0480885268288299E-002   5.1268101477775496E-003   6.2679814780286724E-002
  -1.8684265920444629E-002   4.5428436366718172E-003   6.0390847789275726E-002
  -1.6887646572600952E-002   4.1033763174046362E-003   5.8640352694092429E-002
  -1.5091027224757275E-002   3.8084081899762388E-003   5.7428329494736904E-002
  -1.3294407876913605E-002   3.6579392543867328E-003   5.6754778191209110E-002
  -2.5646922336587902E-002   6.5350704976240293E-003   5.9614683437616472E-002
  -2.3352789156935665E-002   6.0018838253267370E-003   5.7574208495146467E-002
  -2.1058655977283382E-002   5.5733549798952370E-003   5.5990289320465722E-002
  -1.8764522797631151E-002   5.2494839613291926E-003   5.4862925913574452E-002
  -1.6470389617978892E-002   5.0302707696288085E-003   5.4192118274472623E-002
  -3.0648087801679699E-002   7.9433308474704256E-003   5.6620252616241554E-002
  -2.7938356918257159E-002   7.4609240139818650E-003   5.4788428357339172E-002
  -2.5228626034834639E-002   7.0433336423856782E-003   5.3331243738187921E-002
  -2.2518895151412106E-002   6.6905597326819260E-003   5.2248698758787793E-002
  -1.9809164267989572E-002   6.4026022848708841E-003   5.1540793419138670E-002
  -3.5484381663563588E-002   9.3515911973168359E-003   5.3696522316161732E-002
  -3.2440969204409094E-002   8.9199642026368889E-003   5.2033507375854049E-002
  -2.9397556745254599E-002   8.5133123048761992E-003   5.0663215947258894E-002
  -2.6354144286100119E-002   8.1316355040348259E-003   4.9585648030376774E-002
  -2.3310731826945614E-002   7.7749338001127377E-003   4.8800803625207348E-002
  -4.0155803922239663E-002   1.0759851547163302E-002   5.0843492537377244E-002
  -3.6860626015391543E-002   1.0379004391291913E-002   4.9309445550690834E-002
  -3.3565448108543380E-002   9.9832909673667897E-003   4.7986205947678967E-002
  -3.0270270201695239E-002   9.5727112753874639E-003   4.6873773728341603E-002
  -2.6975092294847097E-002   9.1472653153549799E-003   4.5972148892678699E-002
  -1.3294407876913605E-002   3.6579392543867328E-003   5.6754778191209110E-002
  -1.3055309630701731E-002   3.5596902172427280E-003   5.8426547621193758E-002
  -1.2816211384489865E-002   3.4213817851504458E-003   6.0120276498911385E-002
  -1.2577113138277998E-002   3.2430139581100664E-003   6.1835964824361933E-002
  -1.2338014892066124E-002   3.0245867361217149E-003   6.3573612597545348E-002
  -1.6470389617978892E-002   5.0302707696288085E-003   5.4192118274472623E-002
  -1.6198475665047993E-002   4.8389935813995255E-003   5.5667528447062048E-002
  -1.5926561712117135E-002   4.5989305732462155E-003   5.7186610585356484E-002
  -1.5654647759186263E-002   4.3100817451696104E-003   5.8749364689356195E-002
  -1.5382733806255374E-002   3.9724470971692072E-003   6.0355790759060890E-002
  -1.9809164267989572E-002   6.4026022848708841E-003   5.1540793419138670E-002
  -1.9482722090367558E-002   6.1182969455562952E-003   5.2811117909357316E-002
  -1.9156279912745537E-002   5.7764793613422627E-003   5.4146826883253146E-002
  -1.8829837735123527E-002   5.3771495322290988E-003   5.5547920340826271E-002
  -1.8503395557501530E-002   4.9203074582165329E-003   5.7014398282076467E-002
  -2.3310731826945614E-002   7.7749338001127377E-003   4.8800803625207348E-002
  -2.2908048906660344E-002   7.3976003097130788E-003   4.9857316008079577E-002
  -2.2505365986375109E-002   6.9540281494382822E-003   5.1000925392601072E-002
  -2.2102683066089829E-002   6.4442173192885595E-003   5.2231631778771992E-002
  -2.1700000145804574E-002   5.8681678192638864E-003   5.3549435166592219E-002
  -2.6975092294847097E-002   9.1472653153549799E-003   4.5972148892678699E-002
  -2.6474456113926459E-002   8.6769036738698069E-003   4.6806122743228706E-002
  -2.5973819933005793E-002   8.1315769375341490E-003   4.7748906113400408E-002
  -2.5473183752085120E-002   7.5112851063480375E-003   4.8800499003193401E-002
  -2.4972547571164488E-002   6.8160281803113509E-003   4.9960901412607894E-002
  -1.2338014892066124E-002   3.0245867361217149E-003   6.3573612597545348E-002
  -1.1201917160126348E-002   2.7783762303040249E-003   6.3261123159105315E-002
  -1.0065819428186559E-002   2.5166585517744644E-003   6.3205768101075421E-002
  -8.9297216962467806E-003   2.2394337005344350E-003   6.3407547423455557E-002
  -7.7936239643069949E-003   1.9467016765826184E-003   6.3866461126245833E-002
  -1.5382733806255374E-002   3.9724470971692072E-003   6.0355790759060890E-002
  -1.3997495202090923E-002   3.6097552892197515E-003   5.9950947139035704E-002
  -1.2612256597926438E-002   3.2457349812956421E-003   5.9787250883049814E-002
  -1.1227017993761967E-002   2.8803861733974444E-003   5.9864701991103150E-002
  -9.8417793895974985E-003   2.5137088655247108E-003   6.0183300463195866E-002
  -1.8503395557501530E-002   4.9203074582165329E-003   5.7014398282076467E-002
  -1.6885003097483170E-002   4.4411343481356724E-003   5.6531379153202818E-002
  -1.5266610637464833E-002   3.9748114108169308E-003   5.6273520371997954E-002
  -1.3648218177446488E-002   3.5213386462606758E-003   5.6240821938461333E-002
  -1.2029825717428139E-002   3.0807160544666923E-003   5.6433283852593386E-002
  -2.1700000145804574E-002   5.8681678192638864E-003   5.3549435166592219E-002
  -1.9864440846303177E-002   5.2725134070514407E-003   5.3002419201607129E-002
  -1.8028881546801795E-002   4.7038878403381085E-003   5.2664576567919667E-002
  -1.6193322247300392E-002   4.1622911191240182E-003   5.2535907265529827E-002
  -1.4357762947799009E-002   3.6477232434086737E-003   5.2616411294437844E-002
  -2.4972547571164488E-002   6.8160281803113509E-003   4.9960901412607894E-002
  -2.2935808448550879E-002   6.1038924659673754E-003   4.9364067284248137E-002
  -2.0899069325937242E-002   5.4329642698594249E-003   4.8960419470815031E-002
  -1.8862330203323618E-002   4.8032435919871455E-003   4.8749957972308799E-002
  -1.6825591080709995E-002   4.2147304323507662E-003   4.8732682788729220E-002
  -7.7936239643069949E-003   1.9467016765826184E-003   6.3866461126245833E-002
  -6.8971572958720848E-003   1.7069426010650757E-003   6.3891070355396429E-002
  -6.0006906274371850E-003   1.5886365951267301E-003   6.4145165214214150E-002
  -5.1042239590022818E-003   1.5917836587679354E-003   6.4628745702698887E-002
  -4.2077572905673752E-003   1.7163837919883518E-003   6.5341811820851081E-002
  -9.8417793895974985E-003   2.5137088655247108E-003   6.0183300463195866E-002
  -8.7124901165111027E-003   2.2042125530982171E-003   6.0189927545013788E-002
  -7.5832008434247120E-003   2.0104067315387664E-003   6.0432714206467508E-002
  -6.4539115703383292E-003   1.9322914008464490E-003   6.0911660447556998E-002
  -5.3246222972519290E-003   1.9698665610212718E-003   6.1626766268282451E-002
  -1.2029825717428139E-002   3.0807160544666923E-003   5.6433283852593386E-002
  -1.0661039889721620E-002   2.7014825051313029E-003   5.6416166208366175E-002
  -9.2922540620150717E-003   2.4321768679507055E-003   5.6641882093743781E-002
  -7.9234682343085408E-003   2.2727991429249660E-003   5.7110431508725683E-002
  -6.5546824066020047E-003   2.2233493300541363E-003   5.7821814453312054E-002
  -1.4357762947799009E-002   3.6477232434086737E-003   5.2616411294437844E-002
  -1.2742806615503638E-002   3.1987524571644166E-003   5.2569786345453638E-002
  -1.1127850283208295E-002   2.8539470043628043E-003   5.2772668876042622E-002
  -9.5128939509129592E-003   2.6133068850037033E-003   5.3225058886204601E-002
  -7.8979376186175815E-003   2.4768320990869175E-003   5.3926956375940076E-002
  -1.6825591080709995E-002   4.2147304323507662E-003   4.8732682788729220E-002
  -1.4957790293857187E-002   3.6960224091974192E-003   4.8650787956275976E-002
  -1.3089989507004365E-002   3.2757171407747088E-003   4.8825074553364156E-002
  -1.1222188720151544E-002   2.9538146270818369E-003   4.9255542579994344E-002
  -9.3543879332987356E-003   2.7303148681199207E-003   4.9942192036166122E-002
  -4.2077572905673752E-003   1.7163837919883518E-003   6.5341811820851081E-002
  -3.6638804059564295E-003   2.0161107509452103E-003   6.4410290937950809E-002
  -3.1200035213455081E-003   2.5446382917957144E-003   6.3601124019015298E-002
  -2.5761266367345798E-003   3.3019664145403291E-003   6.2914311064044409E-002
  -2.0322497521236410E-003   4.2880951191783812E-003   6.2349852073037892E-002
  -5.3246222972519290E-003   1.9698665610212718E-003   6.1626766268282451E-002
  -4.6327908108363958E-003   2.2277797939534438E-003   6.0884544038827482E-002
  -3.9409593244208608E-003   2.8106786815332019E-003   6.0315877049017197E-002
  -3.2491278380053371E-003   3.7185632237606361E-003   5.9920765298851209E-002
  -2.5572963515898169E-003   4.9514334206358646E-003   5.9699208788329905E-002
  -6.5546824066020047E-003   2.2233493300541363E-003   5.7821814453312054E-002
  -5.6636950427019286E-003   2.4394488369615108E-003   5.7365075950056243E-002
  -4.7727076788018127E-003   3.0767190712705922E-003   5.7133093962124945E-002
  -3.8817203149017002E-003   4.1351600329810577E-003   5.7125868489518151E-002
  -2.9907329510016189E-003   5.6147717220934590E-003   5.7343399532236217E-002
  -7.8979376186175815E-003   2.4768320990869175E-003   5.3926956375940076E-002
  -6.7565931015529466E-003   2.6511178799693280E-003   5.3851886671637324E-002
  -5.6152485844882857E-003   3.3427594610078645E-003   5.4052774758339195E-002
  -4.4739040674236378E-003   4.5517568422014220E-003   5.4529620636045495E-002
  -3.3325595503589894E-003   6.2781100235511089E-003   5.5282424304756411E-002
  -9.3543879332987356E-003   2.7303148681199207E-003   4.9942192036166122E-002
  -7.9114849873895415E-003   2.8627869229778669E-003   5.0344976203570480E-002
  -6.4685820414803613E-003   3.6087998507454422E-003   5.1074919437659405E-002
  -5.0256790955711811E-003   4.9683536514218904E-003   5.2132021738432816E-002
  -3.5827761496619870E-003   6.9414483250086478E-003   5.3516283105890738E-002
  -2.0322497521236410E-003   4.2880951191783812E-003   6.2349852073037892E-002
  -2.2847326476780686E-003   5.5864250893994383E-003   5.8327537605153301E-002
  -2.5372155432325169E-003   7.2803570088942893E-003   5.4298067377786974E-002
  -2.7896984387869705E-003   9.3698908776612411E-003   5.0261441390939798E-002
  -3.0421813343413928E-003   1.1855026695701820E-002   4.6217659644610887E-002
  -2.5572963515898169E-003   4.9514334206358646E-003   5.9699208788329905E-002
  -2.8344027607246289E-003   6.5743689769401925E-003   5.6176410073142391E-002
  -3.1115091698594548E-003   8.6524495974549531E-003   5.2611520090274921E-002
  -3.3886155789943032E-003   1.1185675282180681E-002   4.9004538839728801E-002
  -3.6657219881291239E-003   1.4174046031116605E-002   4.5355466321502336E-002
  -2.9907329510016189E-003   5.6147717220934590E-003   5.7343399532236217E-002
  -3.3273983819148787E-003   7.5623128644808912E-003   5.4379659684683140E-002
  -3.6640638128281394E-003   1.0024542186015950E-002   5.1338893061252833E-002
  -4.0007292437414348E-003   1.3001459686699787E-002   4.8221099661944627E-002
  -4.3373946746546391E-003   1.6493065366531168E-002   4.5026279486759413E-002
  -3.3325595503589894E-003   6.2781100235511089E-003   5.5282424304756411E-002
  -3.7637195112487942E-003   8.5502567520213957E-003   5.2937286439775737E-002
  -4.1948794721386132E-003   1.1396634774577225E-002   5.0480186290719070E-002
  -4.6260394330284275E-003   1.4817244091218838E-002   4.7911123857587827E-002
  -5.0571993939182653E-003   1.8812084701945953E-002   4.5230099140379953E-002
  -3.5827761496619870E-003   6.9414483250086478E-003   5.3516283105890738E-002
  -4.1433661487264017E-003   9.5382006395622332E-003   5.1849290338419785E-002
  -4.7039561477908304E-003   1.2768727363137972E-002   5.0035399778675160E-002
  -5.2645461468552868E-003   1.6633028495738146E-002   4.8074611426657504E-002
  -5.8251361459196738E-003   2.1131104037360515E-002   4.5966925282365345E-002
  -5.1306851897028188E-002   1.6847572903541275E-002   5.4339278353541964E-002
  -4.9477710509230693E-002   1.6454047847150377E-002   5.2918125860521081E-002
  -4.7648569121433254E-002   1.5831311792732963E-002   5.2015874757034036E-002
  -4.5819427733635759E-002   1.4979364740289162E-002   5.1632525043080843E-002
  -4.3990286345838306E-002   1.3898206689818948E-002   5.1768076718661626E-002
  -5.8607030419845649E-002   1.8074077908396380E-002   4.6686329279155780E-002
  -5.6489002386266279E-002   1.7604071714934916E-002   4.6639565488143436E-002
  -5.4370974352687083E-002   1.6976972436262075E-002   4.6651673599160948E-002
  -5.2252946319107749E-002   1.6192780072377681E-002   4.6722653612208162E-002
  -5.0134918285528490E-002   1.5251494623281597E-002   4.6852505527285315E-002
  -6.4109653455283508E-002   1.9300582913251402E-002   3.8920840111291696E-002
  -6.2162768263426385E-002   1.8754095582719593E-002   4.0320582935102864E-002
  -6.0215883071569366E-002   1.8122633079791096E-002   4.1319168173439620E-002
  -5.8268997879712306E-002   1.7406195404466029E-002   4.1916595826302278E-002
  -5.6322112687855252E-002   1.6604782556744274E-002   4.2112865893690510E-002
  -6.7814721003341849E-002   2.0527087918106493E-002   3.1042810849949701E-002
  -6.6499008140711025E-002   1.9904119450504285E-002   3.3961178201399156E-002
  -6.5183295278080311E-002   1.9268293723320177E-002   3.6018358479870241E-002
  -6.3867582415449556E-002   1.8619610736554465E-002   3.7214351685363120E-002
  -6.2551869552818815E-002   1.7958070490206909E-002   3.7549157817877613E-002
  -6.9722233064020644E-002   2.1753592922961529E-002   2.3052241495129910E-002
  -6.9497722018120212E-002   2.1054143318288920E-002   2.7561351287032632E-002
  -6.9273210972219806E-002   2.0413954366849257E-002   3.0749244518452845E-002
  -6.9048699926319401E-002   1.9833026068642880E-002   3.2615921189390634E-002
  -6.8824188880418968E-002   1.9311358423669600E-002   3.3161381299846249E-002
  -4.3990286345838306E-002   1.3898206689818948E-002   5.1768076718661626E-002
  -4.3031665739938621E-002   1.2805236831290423E-002   5.0961544079103110E-002
  -4.2073045134038985E-002   1.1917854354671659E-002   5.0538602502369578E-002
  -4.1114424528139321E-002   1.1236059259962579E-002   5.0499251988460947E-002
  -4.0155803922239663E-002   1.0759851547163302E-002   5.0843492537377244E-002
  -5.0134918285528490E-002   1.5251494623281597E-002   4.6852505527285315E-002
  -4.8820768016471047E-002   1.4300061221253574E-002   4.6146541306051447E-002
  -4.7506617747413646E-002   1.3485424998572769E-002   4.5768045348308264E-002
  -4.6192467478356244E-002   1.2807585955239389E-002   4.5717017654055531E-002
  -4.4878317209298801E-002   1.2266544091253495E-002   4.5993458223293426E-002
  -5.6322112687855252E-002   1.6604782556744274E-002   4.2112865893690510E-002
  -5.4708555554974475E-002   1.5794885611216614E-002   4.1438679888219108E-002
  -5.3094998422093670E-002   1.5052995642474101E-002   4.1035839346903802E-002
  -5.1481441289212927E-002   1.4379112650516310E-002   4.0904344269744763E-002
  -4.9867884156332094E-002   1.3773236635343522E-002   4.1044194656741986E-002
  -6.2551869552818815E-002   1.7958070490206909E-002   3.7549157817877613E-002
  -6.0695028355448939E-002   1.7289710001179903E-002   3.6837959825605955E-002
  -5.8838187158079099E-002   1.6620566286375239E-002   3.6341984498156135E-002
  -5.6981345960709286E-002   1.5950639345793230E-002   3.6061231835528236E-002
  -5.5124504763339383E-002   1.5279929179433688E-002   3.5995701837722216E-002
  -6.8824188880418968E-002   1.9311358423669600E-002   3.3161381299846249E-002
  -6.6780186417894419E-002   1.8784534391142776E-002   3.2344381118212168E-002
  -6.4736183955369897E-002   1.8188136930276572E-002   3.1686480802065431E-002
  -6.2692181492845347E-002   1.7522166041069966E-002   3.1187680351406455E-002
  -6.0648179030320826E-002   1.6786621723523742E-002   3.0847979766234823E-002
  -4.0155803922239663E-002   1.0759851547163302E-002   5.0843492537377244E-002
  -3.6860626015391543E-002   1.0379004391291913E-002   4.9309445550690834E-002
  -3.3565448108543380E-002   9.9832909673667897E-003   4.7986205947678967E-002
  -3.0270270201695239E-002   9.5727112753874639E-003   4.6873773728341603E-002
  -2.6975092294847097E-002   9.1472653153549799E-003   4.5972148892678699E-002
  -4.4878317209298801E-002   1.2266544091253495E-002   4.5993458223293426E-002
  -4.1322117730751853E-002   1.1789291641929017E-002   4.4230529455618423E-002
  -3.7765918252204891E-002   1.1302820842580386E-002   4.2778836447666391E-002
  -3.4209718773657929E-002   1.0807131693207378E-002   4.1638379199437608E-002
  -3.0653519295110981E-002   1.0302224193810328E-002   4.0809157710932076E-002
  -4.9867884156332094E-002   1.3773236635343522E-002   4.1044194656741986E-002
  -4.5950234730037585E-002   1.3199578892565955E-002   3.9058032026107636E-002
  -4.2032585303743139E-002   1.2622350717793808E-002   3.7483533531245235E-002
  -3.8114935877448616E-002   1.2041552111027013E-002   3.6320699172154566E-002
  -3.4197286451154184E-002   1.1457183072265703E-002   3.5569528948835930E-002
  -5.5124504763339383E-002   1.5279929179433688E-002   3.5995701837722216E-002
  -5.0744977013248753E-002   1.4609866143202976E-002   3.3791953262158517E-002
  -4.6365449263158061E-002   1.3941880593007123E-002   3.2100297198415222E-002
  -4.1985921513067410E-002   1.3275972528846731E-002   3.0920733646492584E-002
  -3.7606393762976732E-002   1.2612141950721065E-002   3.0253262606390541E-002
  -6.0648179030320826E-002   1.6786621723523742E-002   3.0847979766234823E-002
  -5.5706344580385314E-002   1.6020153393839998E-002   2.8432293163771161E-002
  -5.0764510130449747E-002   1.5261410468220743E-002   2.6629127449176615E-002
  -4.5822675680514194E-002   1.4510392946666513E-002   2.5438482622451436E-002
  -4.0880841230578668E-002   1.3767100829176537E-002   2.4860358683595485E-002
  -2.6975092294847097E-002   9.1472653153549799E-003   4.5972148892678699E-002
  -2.6474456113926459E-002   8.6769036738698069E-003   4.6806122743228706E-002
  -2.5973819933005793E-002   8.1315769375341490E-003   4.7748906113400408E-002
  -2.5473183752085120E-002   7.5112851063480375E-003   4.8800499003193401E-002
  -2.4972547571164488E-002   6.8160281803113509E-003   4.9960901412607894E-002
  -3.0653519295110981E-002   1.0302224193810328E-002   4.0809157710932076E-002
  -3.0073959457497329E-002   9.7670971805971230E-003   4.1684812656545112E-002
  -2.9494399619883732E-002   9.1807494897759301E-003   4.2609505395922620E-002
  -2.8914839782270080E-002   8.5431811213467074E-003   4.3583235929064434E-002
  -2.8335279944656552E-002   7.8543920753096907E-003   4.4606004255970999E-002
  -3.4197286451154184E-002   1.1457183072265703E-002   3.5569528948835930E-002
  -3.3598574682704559E-002   1.0857290687324300E-002   3.6510609406754380E-002
  -3.2999862914255024E-002   1.0229922042017593E-002   3.7440955932580226E-002
  -3.2401151145805426E-002   9.5750771363452645E-003   3.8360568526313560E-002
  -3.1802439377355857E-002   8.8927559703076975E-003   3.9269447187954498E-002
  -3.7606393762976732E-002   1.2612141950721065E-002   3.0253262606390541E-002
  -3.7048301789548162E-002   1.1947484194051602E-002   3.1283512993856857E-002
  -3.6490209816119654E-002   1.1279094594259093E-002   3.2243257723373824E-002
  -3.5932117842691069E-002   1.0606973151343877E-002   3.3132496794941006E-002
  -3.5374025869262575E-002   9.9311198653057597E-003   3.3951230208559037E-002
  -4.0880841230578668E-002   1.3767100829176537E-002   2.4860358683595485E-002
  -4.0423140778028138E-002   1.3037677700778905E-002   2.6003523417852392E-002
  -3.9965440325477636E-002   1.2328267146500899E-002   2.7016410768302912E-002
  -3.9507739872927092E-002   1.1638869166342429E-002   2.7899020734946767E-002
  -3.9050039420376548E-002   1.0969483760303933E-002   2.8651353317784234E-002
  -2.4972547571164488E-002   6.8160281803113509E-003   4.9960901412607894E-002
  -2.2935808448550879E-002   6.1038924659673754E-003   4.9364067284248137E-002
  -2.0899069325937242E-002   5.4329642698594249E-003   4.8960419470815031E-002
  -1.8862330203323618E-002   4.8032435919871455E-003   4.8749957972308799E-002
  -1.6825591080709995E-002   4.2147304323507662E-003   4.8732682788729220E-002
  -2.8335279944656552E-002   7.8543920753096907E-003   4.4606004255970999E-002
  -2.6103832491709292E-002   7.1520005245816476E-003   4.3938876677041272E-002
  -2.3872385038762094E-002   6.4736246420794841E-003   4.3467979443852223E-002
  -2.1640937585814868E-002   5.8192644278037345E-003   4.3193312556403532E-002
  -1.9409490132867635E-002   5.1889198817540727E-003   4.3114876014694992E-002
  -3.1802439377355857E-002   8.8927559703076975E-003   3.9269447187954498E-002
  -2.9373239563261606E-002   8.2001085831954479E-003   3.8514834308445850E-002
  -2.6944039749167252E-002   7.5142850142997514E-003   3.7959495805490837E-002
  -2.4514839935072967E-002   6.8352852636202090E-003   3.7603431679089812E-002
  -2.2085640120978647E-002   6.1631093311571572E-003   3.7446641929242824E-002
  -3.5374025869262575E-002   9.9311198653057597E-003   3.3951230208559037E-002
  -3.2744029663207615E-002   9.2482166418095951E-003   3.3091940178461010E-002
  -3.0114033457152644E-002   8.5549453865198591E-003   3.2434968555730623E-002
  -2.7484037251097652E-002   7.8513060994367962E-003   3.1980315340367625E-002
  -2.4854041045042713E-002   7.1372987805602972E-003   3.1727980532371781E-002
  -3.9050039420376548E-002   1.0969483760303933E-002   2.8651353317784234E-002
  -3.6216202791547497E-002   1.0296324700423465E-002   2.7670194287087557E-002
  -3.3382366162718335E-002   9.5956057587400223E-003   2.6894397694571803E-002
  -3.0548529533889188E-002   8.8673269352533141E-003   2.6323963540236833E-002
  -2.7714692905060095E-002   8.1114882299635482E-003   2.5958891824083064E-002
  -1.6825591080709995E-002   4.2147304323507662E-003   4.8732682788729220E-002
  -1.4957790293857187E-002   3.6960224091974192E-003   4.8650787956275976E-002
  -1.3089989507004365E-002   3.2757171407747088E-003   4.8825074553364156E-002
  -1.1222188720151544E-002   2.9538146270818369E-003   4.9255542579994344E-002
  -9.3543879332987356E-003   2.7303148681199207E-003   4.9942192036166122E-002
  -1.9409490132867635E-002   5.1889198817540727E-003   4.3114876014694992E-002
  -1.7325964002066346E-002   4.6035064186020214E-003   4.2982398786844900E-002
  -1.5242437871265016E-002   4.0839394530190753E-003   4.3025190817349956E-002
  -1.3158911740463717E-002   3.6302189850053665E-003   4.3243252106210273E-002
  -1.1075385609662397E-002   3.2423450145609989E-003   4.3636582653425904E-002
  -2.2085640120978647E-002   6.1631093311571572E-003   3.7446641929242824E-002
  -1.9867300817415313E-002   5.5109904280061239E-003   3.7231026048834659E-002
  -1.7648961513852035E-002   4.8921617652634281E-003   3.7109767255595436E-002
  -1.5430622210288701E-002   4.3066233429286706E-003   3.7082865549524703E-002
  -1.3212282906725423E-002   3.7543751610021880E-003   3.7150320930622621E-002
  -2.4854041045042713E-002   7.1372987805602972E-003   3.1727980532371781E-002
  -2.2581800739904092E-002   6.4184744374106983E-003   3.1396669742244927E-002
  -2.0309560434765381E-002   5.7003840775080097E-003   3.1078803868100139E-002
  -1.8037320129626711E-002   4.9830277008521984E-003   3.0774382909937448E-002
  -1.5765079824488045E-002   4.2664053074433217E-003   3.0483406867757044E-002
  -2.7714692905060095E-002   8.1114882299635482E-003   2.5958891824083064E-002
  -2.5469463769532602E-002   7.3259584468148287E-003   2.5479329867075906E-002
  -2.3224234634005039E-002   6.5086063897521751E-003   2.4932300654864459E-002
  -2.0979005498477511E-002   5.6594320587754557E-003   2.4317804187448527E-002
  -1.8733776362949983E-002   4.7784354538844553E-003   2.3635840464828139E-002
  -9.3543879332987356E-003   2.7303148681199207E-003   4.9942192036166122E-002
  -7.9114849873895415E-003   2.8627869229778669E-003   5.0344976203570480E-002
  -6.4685820414803613E-003   3.6087998507454422E-003   5.1074919437659405E-002
  -5.0256790955711811E-003   4.9683536514218904E-003   5.2132021738432816E-002
  -3.5827761496619870E-003   6.9414483250086478E-003   5.3516283105890738E-002
  -1.1075385609662397E-002   3.2423450145609989E-003   4.3636582653425904E-002
  -9.2873239483757392E-003   3.1640497627811182E-003   4.4224892755158118E-002
  -7.4992622870890743E-003   3.6390654507599540E-003   4.5176361220960776E-002
  -5.7112006258023991E-003   4.6673920784987208E-003   4.6490988050833973E-002
  -3.9231389645157516E-003   6.2490296459962735E-003   4.8168773244777419E-002
  -1.3212282906725423E-002   3.7543751610021880E-003   3.7150320930622621E-002
  -1.1043063232675388E-002   3.4653126025841197E-003   3.7863927033532641E-002
  -8.8738435586254404E-003   3.6693310507751459E-003   3.8976690797898658E-002
  -6.7046238845754370E-003   4.3664305055748885E-003   4.0488612223721028E-002
  -4.5354042105254025E-003   5.5566109669838437E-003   4.2399691310999993E-002
  -1.5765079824488045E-002   4.2664053074433217E-003   3.0483406867757044E-002
  -1.3178702840288808E-002   3.7665754423874681E-003   3.1262079038693942E-002
  -1.0592325856089517E-002   3.6995966507901087E-003   3.2475908168473372E-002
  -8.0059488718902255E-003   4.0654689326513876E-003   3.4124894257094737E-002
  -5.4195718876909899E-003   4.8641922879712196E-003   3.6209037304558246E-002
  -1.8733776362949983E-002   4.7784354538844553E-003   2.3635840464828139E-002
  -1.5694242771215616E-002   4.0678382821903725E-003   2.4419348770642335E-002
  -1.2654709179481277E-002   3.7298622508049328E-003   2.5674013332684431E-002
  -9.6151755877469380E-003   3.7645073597277409E-003   2.7399834150954677E-002
  -6.5756419960125712E-003   4.1717736089589286E-003   2.9596811225452879E-002
  -3.5827761496619870E-003   6.9414483250086478E-003   5.3516283105890738E-002
  -4.1433661487264017E-003   9.5382006395622332E-003   5.1849290338419785E-002
  -4.7039561477908304E-003   1.2768727363137972E-002   5.0035399778675160E-002
  -5.2645461468552868E-003   1.6633028495738146E-002   4.8074611426657504E-002
  -5.8251361459196738E-003   2.1131104037360515E-002   4.5966925282365345E-002
  -3.9231389645157516E-003   6.2490296459962735E-003   4.8168773244777419E-002
  -4.5259658532736807E-003   8.6911118590554670E-003   4.7235215328924385E-002
  -5.1287927420315890E-003   1.2300772423478157E-002   4.6364081425957826E-002
  -5.7316196307895702E-003   1.7078011339265148E-002   4.5555371535878131E-002
  -6.3344465195474264E-003   2.3022828606415580E-002   4.4809085658684467E-002
  -4.5354042105254025E-003   5.5566109669838437E-003   4.2399691310999993E-002
  -4.9711461838166104E-003   7.8440230785492004E-003   4.2733372189104946E-002
  -5.4068881571077386E-003   1.1832817483818883E-002   4.3338798885257199E-002
  -5.8426301303988806E-003   1.7522994182792701E-002   4.4215971399456301E-002
  -6.2783721036900747E-003   2.4914553175471088E-002   4.5364889731702163E-002
  -5.4195718876909899E-003   4.8641922879712196E-003   3.6209037304558246E-002
  -5.4789071403550660E-003   6.9969342980427951E-003   3.8343760918962383E-002
  -5.5382423930191438E-003   1.1364862544159339E-002   4.0959552156573431E-002
  -5.5975776456832198E-003   1.7967977026320310E-002   4.4056411017391654E-002
  -5.6569128983472959E-003   2.6806277744526263E-002   4.7634337501417018E-002
  -6.5756419960125712E-003   4.1717736089589286E-003   2.9596811225452879E-002
  -6.0492487228892555E-003   6.1498455175366118E-003   3.4066381518495947E-002
  -5.5228554497659399E-003   1.0896907604499767E-002   3.9226341239906592E-002
  -4.9964621766427075E-003   1.8412959869847582E-002   4.5076690389684843E-002
  -4.4700689035193086E-003   2.8698002313581661E-002   5.1617428967830392E-002
  -6.9722233064020644E-002   2.1753592922961529E-002   2.3052241495129910E-002
  -6.9497722018120212E-002   2.1054143318288920E-002   2.7561351287032632E-002
  -6.9273210972219806E-002   2.0413954366849257E-002   3.0749244518452845E-002
  -6.9048699926319401E-002   1.9833026068642880E-002   3.2615921189390634E-002
  -6.8824188880418968E-002   1.9311358423669600E-002   3.3161381299846249E-002
  -7.3697169708584975E-002   2.4089858483188675E-002   2.1354867097225172E-002
  -7.3893678859796627E-002   2.3233769810814597E-002   2.0899612678494078E-002
  -7.4090188011008251E-002   2.2454108647500803E-002   2.0923534426021406E-002
  -7.4286697162219820E-002   2.1750874993246960E-002   2.1426632339806947E-002
  -7.4483206313431444E-002   2.1124068848053484E-002   2.2408906419850910E-002
  -8.3604511008300103E-002   2.6426124043415822E-002   1.9492270203705558E-002
  -8.2421647629883008E-002   2.5413396303340441E-002   1.4089818430167725E-002
  -8.1238784251465940E-002   2.4494262928152225E-002   1.0966935549629062E-002
  -8.0055920873048803E-002   2.3668723917851065E-002   1.0123621562089270E-002
  -7.8873057494631721E-002   2.2936779272437258E-002   1.1559876467548524E-002
  -9.9444256963165958E-002   2.8762389603642996E-002   1.7464450814571063E-002
  -9.5081628328379533E-002   2.7593022795866312E-002   7.1319685420533699E-003
  -9.0718999693592955E-002   2.6534417208803791E-002   8.7944788927582507E-004
  -8.6356371058806405E-002   2.5586572842455212E-002  -1.2931111437623002E-003
  -8.1993742424019939E-002   2.4749489696820948E-002   6.1429144293959070E-004
 -0.12121640757318253        3.1098655163870115E-002   1.5271408929821706E-002
 -0.11187362095528586        2.9772649288391961E-002   2.6063014151533892E-005
 -0.10253083433738919        2.8574571489455136E-002  -9.3389285550382339E-003
  -9.3188047719492517E-002   2.7504421767059237E-002  -1.2823565777747424E-002
  -8.3845261101595847E-002   2.6562200121204915E-002  -1.0427848653976390E-002
  -6.8824188880418968E-002   1.9311358423669600E-002   3.3161381299846249E-002
  -6.6780186417894419E-002   1.8784534391142776E-002   3.2344381118212168E-002
  -6.4736183955369897E-002   1.8188136930276572E-002   3.1686480802065431E-002
  -6.2692181492845347E-002   1.7522166041069966E-002   3.1187680351406455E-002
  -6.0648179030320826E-002   1.6786621723523742E-002   3.0847979766234823E-002
  -7.4483206313431444E-002   2.1124068848053484E-002   2.2408906419850910E-002
  -7.2359934616131952E-002   2.0502011166705789E-002   2.2712989854462282E-002
  -7.0236662918832460E-002   1.9813022903989556E-002   2.3016511893135888E-002
  -6.8113391221533010E-002   1.9057104059905239E-002   2.3319472535872035E-002
  -6.5990119524233420E-002   1.8234254634452496E-002   2.3621871782670445E-002
  -7.8873057494631721E-002   2.2936779272437258E-002   1.1559876467548524E-002
  -7.6830177823982423E-002   2.2219487942268454E-002   1.2987686365376928E-002
  -7.4787298153333126E-002   2.1437908877702819E-002   1.4255273605842590E-002
  -7.2744418482683815E-002   2.0592042078740342E-002   1.5362638188945378E-002
  -7.0701538812034559E-002   1.9681887545381249E-002   1.6309780114685535E-002
  -8.1993742424019939E-002   2.4749489696820948E-002   6.1429144293959070E-004
  -8.0190916041445973E-002   2.3936964717831015E-002   3.1684706509564568E-003
  -7.8388089658871951E-002   2.3062794851416137E-002   5.4027659401855097E-003
  -7.6585263276297957E-002   2.2126980097575639E-002   7.3171773106266141E-003
  -7.4782436893723978E-002   2.1129520456310003E-002   8.9117047622798568E-003
  -8.3845261101595847E-002   2.6562200121204915E-002  -1.0427848653976390E-002
  -8.2442149268522391E-002   2.5654441493394076E-002  -6.7446572887991385E-003
  -8.1039037435448880E-002   2.4687680825129121E-002  -3.5410111038355341E-003
  -7.9635925602375368E-002   2.3661918116410677E-002  -8.1691009908443912E-004
  -7.8232813769301912E-002   2.2577153367238645E-002   1.4276457254531749E-003
  -6.0648179030320826E-002   1.6786621723523742E-002   3.0847979766234823E-002
  -5.5706344580385314E-002   1.6020153393839998E-002   2.8432293163771161E-002
  -5.0764510130449747E-002   1.5261410468220743E-002   2.6629127449176615E-002
  -4.5822675680514194E-002   1.4510392946666513E-002   2.5438482622451436E-002
  -4.0880841230578668E-002   1.3767100829176537E-002   2.4860358683595485E-002
  -6.5990119524233420E-002   1.8234254634452496E-002   2.3621871782670445E-002
  -6.0565866659822956E-002   1.7387150493542725E-002   2.1719677190183695E-002
  -5.5141613795412353E-002   1.6558467503086954E-002   2.0169798538777595E-002
  -4.9717360931001868E-002   1.5748205663085234E-002   1.8972235828452325E-002
  -4.4293108066591216E-002   1.4956364973537861E-002   1.8126989059207843E-002
  -7.0701538812034559E-002   1.9681887545381249E-002   1.6309780114685535E-002
  -6.5055072479937373E-002   1.8754147593245230E-002   1.4931773278564681E-002
  -5.9408606147840180E-002   1.7855524537953152E-002   1.3645877436736710E-002
  -5.3762139815742988E-002   1.6986018379504173E-002   1.2452092589200860E-002
  -4.8115673483645857E-002   1.6145629117899130E-002   1.1350418735957601E-002
  -7.4782436893723978E-002   2.1129520456310003E-002   8.9117047622798568E-003
  -6.9173962040728579E-002   2.0121144692948234E-002   8.0685814289147735E-003
  -6.3565487187733125E-002   1.9152581572819190E-002   7.0573641430538014E-003
  -5.7957012334737719E-002   1.8223831095923279E-002   5.8780529046967133E-003
  -5.2348537481742272E-002   1.7334893262260481E-002   4.5306477138438925E-003
  -7.8232813769301912E-002   2.2577153367238645E-002   1.4276457254531749E-003
  -7.2922535342196615E-002   2.1488141792650794E-002   1.1301016412332832E-003
  -6.7612256915091318E-002   2.0449638607685339E-002   4.0425865772897307E-004
  -6.2301978487986076E-002   1.9461643812342166E-002  -7.4988322505933902E-004
  -5.6991700060880723E-002   1.8524157406621833E-002  -2.3323240071323470E-003
  -4.0880841230578668E-002   1.3767100829176537E-002   2.4860358683595485E-002
  -4.0423140778028138E-002   1.3037677700778905E-002   2.6003523417852392E-002
  -3.9965440325477636E-002   1.2328267146500899E-002   2.7016410768302912E-002
  -3.9507739872927092E-002   1.1638869166342429E-002   2.7899020734946767E-002
  -3.9050039420376548E-002   1.0969483760303933E-002   2.8651353317784234E-002
  -4.4293108066591216E-002   1.4956364973537861E-002   1.8126989059207843E-002
  -4.3878481602148425E-002   1.4189480607691679E-002   1.8972810643655941E-002
  -4.3463855137705655E-002   1.3454087738794224E-002   1.9862761635694892E-002
  -4.3049228673262926E-002   1.2750186366845502E-002   2.0796842035325169E-002
  -4.2634602208820094E-002   1.2077776491845327E-002   2.1775051842546189E-002
  -4.8115673483645857E-002   1.6145629117899130E-002   1.1350418735957601E-002
  -4.7569714215913217E-002   1.5341283514604676E-002   1.1910376093425462E-002
  -4.7023754948180556E-002   1.4579908331087507E-002   1.2688869649882015E-002
  -4.6477795680447936E-002   1.3861503567348579E-002   1.3685899405327176E-002
  -4.5931836412715310E-002   1.3186069223386887E-002   1.4901465359761362E-002
  -5.2348537481742272E-002   1.7334893262260481E-002   4.5306477138438925E-003
  -5.1496838619322291E-002   1.6493086421517450E-002   4.8162197671612374E-003
  -5.0645139756902213E-002   1.5705728923380978E-002   5.4947348108643559E-003
  -4.9793440894482212E-002   1.4972820767851542E-002   6.5661928449538779E-003
  -4.8941742032062148E-002   1.4294361954928253E-002   8.0305938694293089E-003
  -5.6991700060880723E-002   1.8524157406621833E-002  -2.3323240071323470E-003
  -5.5659854812375786E-002   1.7644889328430335E-002  -2.3096583351371880E-003
  -5.4328009563870738E-002   1.6831549515674199E-002  -1.7196428813583964E-003
  -5.2996164315365718E-002   1.6084137968354638E-002  -5.6227764579597217E-004
  -5.1664319066860753E-002   1.5402654686469841E-002   1.1624373715507508E-003
  -3.9050039420376548E-002   1.0969483760303933E-002   2.8651353317784234E-002
  -3.6216202791547497E-002   1.0296324700423465E-002   2.7670194287087557E-002
  -3.3382366162718335E-002   9.5956057587400223E-003   2.6894397694571803E-002
  -3.0548529533889188E-002   8.8673269352533141E-003   2.6323963540236833E-002
  -2.7714692905060095E-002   8.1114882299635482E-003   2.5958891824083064E-002
  -4.2634602208820094E-002   1.2077776491845327E-002   2.1775051842546189E-002
  -3.9634019534325896E-002   1.1398474225633115E-002   2.1006186923293924E-002
  -3.6633436859831794E-002   1.0673895680048631E-002   2.0365451657190919E-002
  -3.3632854185337645E-002   9.9040408550907545E-003   1.9852846044236941E-002
  -3.0632271510843495E-002   9.0889097507605987E-003   1.9468370084431974E-002
  -4.5931836412715310E-002   1.3186069223386887E-002   1.4901465359761362E-002
  -4.2841740477587910E-002   1.2500623750842904E-002   1.4327178154383821E-002
  -3.9751644542460426E-002   1.1752185601357018E-002   1.3803787817123866E-002
  -3.6661548607332999E-002   1.0940754774928195E-002   1.3331294347981262E-002
  -3.3571452672205550E-002   1.0066331271557427E-002   1.2909697746956134E-002
  -4.8941742032062148E-002   1.4294361954928253E-002   8.0305938694293089E-003
  -4.5839365621333207E-002   1.3602773276052846E-002   7.6331679803571841E-003
  -4.2736989210604315E-002   1.2830475522665183E-002   7.2094061743707694E-003
  -3.9634612799875429E-002   1.1977468694765857E-002   6.7593084514698219E-003
  -3.6532236389146482E-002   1.1043752792354256E-002   6.2828748116544111E-003
  -5.1664319066860753E-002   1.5402654686469841E-002   1.1624373715507508E-003
  -4.8626894965562051E-002   1.4704922801262010E-002   9.2415640121423781E-004
  -4.5589470864263459E-002   1.3908765443973625E-002   5.8230672893153090E-004
  -4.2552046762964757E-002   1.3014182614603256E-002   1.3688835470278965E-004
  -3.9514622661666166E-002   1.2021174313151528E-002  -4.1209872147229820E-004
  -2.7714692905060095E-002   8.1114882299635482E-003   2.5958891824083064E-002
  -2.5469463769532602E-002   7.3259584468148287E-003   2.5479329867075906E-002
  -2.3224234634005039E-002   6.5086063897521751E-003   2.4932300654864459E-002
  -2.0979005498477511E-002   5.6594320587754557E-003   2.4317804187448527E-002
  -1.8733776362949983E-002   4.7784354538844553E-003   2.3635840464828139E-002
  -3.0632271510843495E-002   9.0889097507605987E-003   1.9468370084431974E-002
  -2.8434938404538812E-002   8.2658196550475238E-003   1.8985544809174526E-002
  -2.6237605298234212E-002   7.4720878559418613E-003   1.8474394730675719E-002
  -2.4040272191929606E-002   6.7077143534442149E-003   1.7934919848935332E-002
  -2.1842939085624929E-002   5.9726991475540503E-003   1.7367120163953753E-002
  -3.3571452672205550E-002   1.0066331271557427E-002   1.2909697746956134E-002
  -3.1382873143160822E-002   9.2056808632797749E-003   1.2484789723969658E-002
  -2.9194293614116077E-002   8.4355693221317557E-003   1.2070699349704964E-002
  -2.7005714085071332E-002   7.7559966481131927E-003   1.1667426624161939E-002
  -2.4817134556026549E-002   7.1669628412234232E-003   1.1274971547340418E-002
  -3.6532236389146482E-002   1.1043752792354256E-002   6.2828748116544111E-003
  -3.4313267985398542E-002   1.0145542071512470E-002   5.9770646114613232E-003
  -3.2094299581650602E-002   9.3990507883212129E-003   5.7212145119525347E-003
  -2.9875331177902694E-002   8.8042789427817281E-003   5.5153245131282242E-003
  -2.7656362774154723E-002   8.3612265348931847E-003   5.3593946149892990E-003
  -3.9514622661666166E-002   1.2021174313151528E-002  -4.1209872147229820E-004
  -3.7226122931252048E-002   1.1085403279745054E-002  -5.3763052835098524E-004
  -3.4937623200837820E-002   1.0362532254511503E-002  -5.7405978258218138E-004
  -3.2649123470423619E-002   9.8525612374507493E-003  -5.2138648416519273E-004
  -3.0360623740009474E-002   9.5554902285623911E-003  -3.7961063310099075E-004
  -1.8733776362949983E-002   4.7784354538844553E-003   2.3635840464828139E-002
  -1.5694242771215616E-002   4.0678382821903725E-003   2.4419348770642335E-002
  -1.2654709179481277E-002   3.7298622508049328E-003   2.5674013332684431E-002
  -9.6151755877469380E-003   3.7645073597277409E-003   2.7399834150954677E-002
  -6.5756419960125712E-003   4.1717736089589286E-003   2.9596811225452879E-002
  -2.1842939085624929E-002   5.9726991475540503E-003   1.7367120163953753E-002
  -1.8598702281250823E-002   5.3375812028181313E-003   1.8290671361457567E-002
  -1.5354465476876689E-002   4.8728994837834438E-003   1.9152472728013181E-002
  -1.2110228672502596E-002   4.5786539904503210E-003   1.9952524263620264E-002
  -8.8659918681284478E-003   4.4548447228183186E-003   2.0690825968278981E-002
  -2.4817134556026549E-002   7.1669628412234232E-003   1.1274971547340418E-002
  -2.1901100626189107E-002   6.6073241234456681E-003   1.2136380721927298E-002
  -1.8985066696351693E-002   6.0159367167618577E-003   1.2403133978389311E-002
  -1.6069032766514321E-002   5.3928006211729045E-003   1.2075231316726241E-002
  -1.3152998836676838E-002   4.7379158366777641E-003   1.1152672736938346E-002
  -2.7656362774154723E-002   8.3612265348931847E-003   5.3593946149892990E-003
  -2.5601437806030577E-002   7.8770670440734269E-003   5.9564768520521255E-003
  -2.3546512837906410E-002   7.1589739497406532E-003   5.4259970838132186E-003
  -2.1491587869782197E-002   6.2069472518953752E-003   3.7679553102729687E-003
  -1.9436662901658096E-002   5.0209869505374038E-003   9.8235153143105131E-004
  -3.0360623740009474E-002   9.5554902285623911E-003  -3.7961063310099075E-004
  -2.9699713820775075E-002   9.1468099647008527E-003  -2.4904024816929660E-004
  -2.9038803901540677E-002   8.3020111827188936E-003  -1.7789379557156260E-003
  -2.8377893982306279E-002   7.0210938826177627E-003  -4.9693037557399580E-003
  -2.7716984063071881E-002   5.3040580643970436E-003  -9.8201376482427438E-003
  -6.5756419960125712E-003   4.1717736089589286E-003   2.9596811225452879E-002
  -6.0492487228892555E-003   6.1498455175366118E-003   3.4066381518495947E-002
  -5.5228554497659399E-003   1.0896907604499767E-002   3.9226341239906592E-002
  -4.9964621766427075E-003   1.8412959869847582E-002   4.5076690389684843E-002
  -4.4700689035193086E-003   2.8698002313581661E-002   5.1617428967830392E-002
  -8.8659918681284478E-003   4.4548447228183186E-003   2.0690825968278981E-002
  -7.5798302007908380E-003   5.6606692165675487E-003   2.5862028868459286E-002
  -6.2936685334533532E-003   9.3553250073779848E-003   3.1862379128700713E-002
  -5.0075068661158337E-003   1.5538812095250175E-002   3.8691876749003123E-002
  -3.7213451987782586E-003   2.4211130480183307E-002   4.6350521729366267E-002
  -1.3152998836676838E-002   4.7379158366777641E-003   1.1152672736938346E-002
  -1.0968310843431736E-002   5.1714929155981526E-003   1.6745349362932122E-002
  -8.7836228501866342E-003   7.8137424102564385E-003   2.3305931280680411E-002
  -6.5989348569414005E-003   1.2664664320651994E-002   3.0834418490183181E-002
  -4.4142468636963195E-003   1.9724258646784953E-002   3.9330810991439646E-002
  -1.9436662901658096E-002   5.0209869505374038E-003   9.8235153143105131E-004
  -1.6214690650811846E-002   4.6823166146295891E-003   6.7163430019145862E-003
  -1.2992718399965714E-002   6.2721598131349962E-003   1.3556997695845344E-002
  -9.7707461491194966E-003   9.7905165460537551E-003   2.1504315613224155E-002
  -6.5487738982733315E-003   1.5237386813386489E-002   3.0558296754050973E-002
  -2.7716984063071881E-002   5.3040580643970436E-003  -9.8201376482427438E-003
  -2.3318969622931340E-002   4.1931403136601375E-003  -4.2249902145938267E-003
  -1.8920955182790744E-002   4.7305772160126658E-003   2.6155783741961258E-003
  -1.4522940742650287E-002   6.9163687714568489E-003   1.0701568118127558E-002
  -1.0124926302509607E-002   1.0750514979988246E-002   2.0032979017199581E-002
 </DataArray>
 </PointData>
 </Piece>
 </UnstructuredGrid>
 </VTKFile>
