 <VTKFile type="UnstructuredGrid"  version="0.1"   >
 <UnstructuredGrid>
 <Piece  NumberOfPoints="           400 "  NumberOfCells="          256 ">
 <Points>
 <DataArray  type="Float64" NumberOfComponents="3"  format="ascii" >
   0.0000000000000000        0.0000000000000000        0.0000000000000000     
   6.2500000000000000E-002   0.0000000000000000        0.0000000000000000     
  0.12500000000000000        0.0000000000000000        0.0000000000000000     
  0.18750000000000000        0.0000000000000000        0.0000000000000000     
  0.25000000000000000        0.0000000000000000        0.0000000000000000     
   0.0000000000000000        6.2500000000000000E-002   0.0000000000000000     
   6.2500000000000000E-002   6.2500000000000000E-002   0.0000000000000000     
  0.12500000000000000        6.2500000000000000E-002   0.0000000000000000     
  0.18750000000000000        6.2500000000000000E-002   0.0000000000000000     
  0.25000000000000000        6.2500000000000000E-002   0.0000000000000000     
   0.0000000000000000       0.12500000000000000        0.0000000000000000     
   6.2500000000000000E-002  0.12500000000000000        0.0000000000000000     
  0.12500000000000000       0.12500000000000000        0.0000000000000000     
  0.18750000000000000       0.12500000000000000        0.0000000000000000     
  0.25000000000000000       0.12500000000000000        0.0000000000000000     
   0.0000000000000000       0.18750000000000000        0.0000000000000000     
   6.2500000000000000E-002  0.18750000000000000        0.0000000000000000     
  0.12500000000000000       0.18750000000000000        0.0000000000000000     
  0.18750000000000000       0.18750000000000000        0.0000000000000000     
  0.25000000000000000       0.18750000000000000        0.0000000000000000     
   0.0000000000000000       0.25000000000000000        0.0000000000000000     
   6.2500000000000000E-002  0.25000000000000000        0.0000000000000000     
  0.12500000000000000       0.25000000000000000        0.0000000000000000     
  0.18750000000000000       0.25000000000000000        0.0000000000000000     
  0.25000000000000000       0.25000000000000000        0.0000000000000000     
  0.25000000000000000        0.0000000000000000        0.0000000000000000     
  0.31250000000000000        0.0000000000000000        0.0000000000000000     
  0.37500000000000000        0.0000000000000000        0.0000000000000000     
  0.43750000000000000        0.0000000000000000        0.0000000000000000     
  0.50000000000000000        0.0000000000000000        0.0000000000000000     
  0.25000000000000000        6.2500000000000000E-002   0.0000000000000000     
  0.31250000000000000        6.2500000000000000E-002   0.0000000000000000     
  0.37500000000000000        6.2500000000000000E-002   0.0000000000000000     
  0.43750000000000000        6.2500000000000000E-002   0.0000000000000000     
  0.50000000000000000        6.2500000000000000E-002   0.0000000000000000     
  0.25000000000000000       0.12500000000000000        0.0000000000000000     
  0.31250000000000000       0.12500000000000000        0.0000000000000000     
  0.37500000000000000       0.12500000000000000        0.0000000000000000     
  0.43750000000000000       0.12500000000000000        0.0000000000000000     
  0.50000000000000000       0.12500000000000000        0.0000000000000000     
  0.25000000000000000       0.18750000000000000        0.0000000000000000     
  0.31250000000000000       0.18750000000000000        0.0000000000000000     
  0.37500000000000000       0.18750000000000000        0.0000000000000000     
  0.43750000000000000       0.18750000000000000        0.0000000000000000     
  0.50000000000000000       0.18750000000000000        0.0000000000000000     
  0.25000000000000000       0.25000000000000000        0.0000000000000000     
  0.31250000000000000       0.25000000000000000        0.0000000000000000     
  0.37500000000000000       0.25000000000000000        0.0000000000000000     
  0.43750000000000000       0.25000000000000000        0.0000000000000000     
  0.50000000000000000       0.25000000000000000        0.0000000000000000     
  0.50000000000000000        0.0000000000000000        0.0000000000000000     
  0.56250000000000000        0.0000000000000000        0.0000000000000000     
  0.62500000000000000        0.0000000000000000        0.0000000000000000     
  0.68750000000000000        0.0000000000000000        0.0000000000000000     
  0.75000000000000000        0.0000000000000000        0.0000000000000000     
  0.50000000000000000        6.2500000000000000E-002   0.0000000000000000     
  0.56250000000000000        6.2500000000000000E-002   0.0000000000000000     
  0.62500000000000000        6.2500000000000000E-002   0.0000000000000000     
  0.68750000000000000        6.2500000000000000E-002   0.0000000000000000     
  0.75000000000000000        6.2500000000000000E-002   0.0000000000000000     
  0.50000000000000000       0.12500000000000000        0.0000000000000000     
  0.56250000000000000       0.12500000000000000        0.0000000000000000     
  0.62500000000000000       0.12500000000000000        0.0000000000000000     
  0.68750000000000000       0.12500000000000000        0.0000000000000000     
  0.75000000000000000       0.12500000000000000        0.0000000000000000     
  0.50000000000000000       0.18750000000000000        0.0000000000000000     
  0.56250000000000000       0.18750000000000000        0.0000000000000000     
  0.62500000000000000       0.18750000000000000        0.0000000000000000     
  0.68750000000000000       0.18750000000000000        0.0000000000000000     
  0.75000000000000000       0.18750000000000000        0.0000000000000000     
  0.50000000000000000       0.25000000000000000        0.0000000000000000     
  0.56250000000000000       0.25000000000000000        0.0000000000000000     
  0.62500000000000000       0.25000000000000000        0.0000000000000000     
  0.68750000000000000       0.25000000000000000        0.0000000000000000     
  0.75000000000000000       0.25000000000000000        0.0000000000000000     
  0.75000000000000000        0.0000000000000000        0.0000000000000000     
  0.81250000000000000        0.0000000000000000        0.0000000000000000     
  0.87500000000000000        0.0000000000000000        0.0000000000000000     
  0.93750000000000000        0.0000000000000000        0.0000000000000000     
   1.0000000000000000        0.0000000000000000        0.0000000000000000     
  0.75000000000000000        6.2500000000000000E-002   0.0000000000000000     
  0.81250000000000000        6.2500000000000000E-002   0.0000000000000000     
  0.87500000000000000        6.2500000000000000E-002   0.0000000000000000     
  0.93750000000000000        6.2500000000000000E-002   0.0000000000000000     
   1.0000000000000000        6.2500000000000000E-002   0.0000000000000000     
  0.75000000000000000       0.12500000000000000        0.0000000000000000     
  0.81250000000000000       0.12500000000000000        0.0000000000000000     
  0.87500000000000000       0.12500000000000000        0.0000000000000000     
  0.93750000000000000       0.12500000000000000        0.0000000000000000     
   1.0000000000000000       0.12500000000000000        0.0000000000000000     
  0.75000000000000000       0.18750000000000000        0.0000000000000000     
  0.81250000000000000       0.18750000000000000        0.0000000000000000     
  0.87500000000000000       0.18750000000000000        0.0000000000000000     
  0.93750000000000000       0.18750000000000000        0.0000000000000000     
   1.0000000000000000       0.18750000000000000        0.0000000000000000     
  0.75000000000000000       0.25000000000000000        0.0000000000000000     
  0.81250000000000000       0.25000000000000000        0.0000000000000000     
  0.87500000000000000       0.25000000000000000        0.0000000000000000     
  0.93750000000000000       0.25000000000000000        0.0000000000000000     
   1.0000000000000000       0.25000000000000000        0.0000000000000000     
   0.0000000000000000       0.25000000000000000        0.0000000000000000     
   6.2500000000000000E-002  0.25000000000000000        0.0000000000000000     
  0.12500000000000000       0.25000000000000000        0.0000000000000000     
  0.18750000000000000       0.25000000000000000        0.0000000000000000     
  0.25000000000000000       0.25000000000000000        0.0000000000000000     
   0.0000000000000000       0.31250000000000000        0.0000000000000000     
   6.2500000000000000E-002  0.31250000000000000        0.0000000000000000     
  0.12500000000000000       0.31250000000000000        0.0000000000000000     
  0.18750000000000000       0.31250000000000000        0.0000000000000000     
  0.25000000000000000       0.31250000000000000        0.0000000000000000     
   0.0000000000000000       0.37500000000000000        0.0000000000000000     
   6.2500000000000000E-002  0.37500000000000000        0.0000000000000000     
  0.12500000000000000       0.37500000000000000        0.0000000000000000     
  0.18750000000000000       0.37500000000000000        0.0000000000000000     
  0.25000000000000000       0.37500000000000000        0.0000000000000000     
   0.0000000000000000       0.43750000000000000        0.0000000000000000     
   6.2500000000000000E-002  0.43750000000000000        0.0000000000000000     
  0.12500000000000000       0.43750000000000000        0.0000000000000000     
  0.18750000000000000       0.43750000000000000        0.0000000000000000     
  0.25000000000000000       0.43750000000000000        0.0000000000000000     
   0.0000000000000000       0.50000000000000000        0.0000000000000000     
   6.2500000000000000E-002  0.50000000000000000        0.0000000000000000     
  0.12500000000000000       0.50000000000000000        0.0000000000000000     
  0.18750000000000000       0.50000000000000000        0.0000000000000000     
  0.25000000000000000       0.50000000000000000        0.0000000000000000     
  0.25000000000000000       0.25000000000000000        0.0000000000000000     
  0.31250000000000000       0.25000000000000000        0.0000000000000000     
  0.37500000000000000       0.25000000000000000        0.0000000000000000     
  0.43750000000000000       0.25000000000000000        0.0000000000000000     
  0.50000000000000000       0.25000000000000000        0.0000000000000000     
  0.25000000000000000       0.31250000000000000        0.0000000000000000     
  0.31250000000000000       0.31250000000000000        0.0000000000000000     
  0.37500000000000000       0.31250000000000000        0.0000000000000000     
  0.43750000000000000       0.31250000000000000        0.0000000000000000     
  0.50000000000000000       0.31250000000000000        0.0000000000000000     
  0.25000000000000000       0.37500000000000000        0.0000000000000000     
  0.31250000000000000       0.37500000000000000        0.0000000000000000     
  0.37500000000000000       0.37500000000000000        0.0000000000000000     
  0.43750000000000000       0.37500000000000000        0.0000000000000000     
  0.50000000000000000       0.37500000000000000        0.0000000000000000     
  0.25000000000000000       0.43750000000000000        0.0000000000000000     
  0.31250000000000000       0.43750000000000000        0.0000000000000000     
  0.37500000000000000       0.43750000000000000        0.0000000000000000     
  0.43750000000000000       0.43750000000000000        0.0000000000000000     
  0.50000000000000000       0.43750000000000000        0.0000000000000000     
  0.25000000000000000       0.50000000000000000        0.0000000000000000     
  0.31250000000000000       0.50000000000000000        0.0000000000000000     
  0.37500000000000000       0.50000000000000000        0.0000000000000000     
  0.43750000000000000       0.50000000000000000        0.0000000000000000     
  0.50000000000000000       0.50000000000000000        0.0000000000000000     
  0.50000000000000000       0.25000000000000000        0.0000000000000000     
  0.56250000000000000       0.25000000000000000        0.0000000000000000     
  0.62500000000000000       0.25000000000000000        0.0000000000000000     
  0.68750000000000000       0.25000000000000000        0.0000000000000000     
  0.75000000000000000       0.25000000000000000        0.0000000000000000     
  0.50000000000000000       0.31250000000000000        0.0000000000000000     
  0.56250000000000000       0.31250000000000000        0.0000000000000000     
  0.62500000000000000       0.31250000000000000        0.0000000000000000     
  0.68750000000000000       0.31250000000000000        0.0000000000000000     
  0.75000000000000000       0.31250000000000000        0.0000000000000000     
  0.50000000000000000       0.37500000000000000        0.0000000000000000     
  0.56250000000000000       0.37500000000000000        0.0000000000000000     
  0.62500000000000000       0.37500000000000000        0.0000000000000000     
  0.68750000000000000       0.37500000000000000        0.0000000000000000     
  0.75000000000000000       0.37500000000000000        0.0000000000000000     
  0.50000000000000000       0.43750000000000000        0.0000000000000000     
  0.56250000000000000       0.43750000000000000        0.0000000000000000     
  0.62500000000000000       0.43750000000000000        0.0000000000000000     
  0.68750000000000000       0.43750000000000000        0.0000000000000000     
  0.75000000000000000       0.43750000000000000        0.0000000000000000     
  0.50000000000000000       0.50000000000000000        0.0000000000000000     
  0.56250000000000000       0.50000000000000000        0.0000000000000000     
  0.62500000000000000       0.50000000000000000        0.0000000000000000     
  0.68750000000000000       0.50000000000000000        0.0000000000000000     
  0.75000000000000000       0.50000000000000000        0.0000000000000000     
  0.75000000000000000       0.25000000000000000        0.0000000000000000     
  0.81250000000000000       0.25000000000000000        0.0000000000000000     
  0.87500000000000000       0.25000000000000000        0.0000000000000000     
  0.93750000000000000       0.25000000000000000        0.0000000000000000     
   1.0000000000000000       0.25000000000000000        0.0000000000000000     
  0.75000000000000000       0.31250000000000000        0.0000000000000000     
  0.81250000000000000       0.31250000000000000        0.0000000000000000     
  0.87500000000000000       0.31250000000000000        0.0000000000000000     
  0.93750000000000000       0.31250000000000000        0.0000000000000000     
   1.0000000000000000       0.31250000000000000        0.0000000000000000     
  0.75000000000000000       0.37500000000000000        0.0000000000000000     
  0.81250000000000000       0.37500000000000000        0.0000000000000000     
  0.87500000000000000       0.37500000000000000        0.0000000000000000     
  0.93750000000000000       0.37500000000000000        0.0000000000000000     
   1.0000000000000000       0.37500000000000000        0.0000000000000000     
  0.75000000000000000       0.43750000000000000        0.0000000000000000     
  0.81250000000000000       0.43750000000000000        0.0000000000000000     
  0.87500000000000000       0.43750000000000000        0.0000000000000000     
  0.93750000000000000       0.43750000000000000        0.0000000000000000     
   1.0000000000000000       0.43750000000000000        0.0000000000000000     
  0.75000000000000000       0.50000000000000000        0.0000000000000000     
  0.81250000000000000       0.50000000000000000        0.0000000000000000     
  0.87500000000000000       0.50000000000000000        0.0000000000000000     
  0.93750000000000000       0.50000000000000000        0.0000000000000000     
   1.0000000000000000       0.50000000000000000        0.0000000000000000     
   0.0000000000000000       0.50000000000000000        0.0000000000000000     
   6.2500000000000000E-002  0.50000000000000000        0.0000000000000000     
  0.12500000000000000       0.50000000000000000        0.0000000000000000     
  0.18750000000000000       0.50000000000000000        0.0000000000000000     
  0.25000000000000000       0.50000000000000000        0.0000000000000000     
   0.0000000000000000       0.56250000000000000        0.0000000000000000     
   6.2500000000000000E-002  0.56250000000000000        0.0000000000000000     
  0.12500000000000000       0.56250000000000000        0.0000000000000000     
  0.18750000000000000       0.56250000000000000        0.0000000000000000     
  0.25000000000000000       0.56250000000000000        0.0000000000000000     
   0.0000000000000000       0.62500000000000000        0.0000000000000000     
   6.2500000000000000E-002  0.62500000000000000        0.0000000000000000     
  0.12500000000000000       0.62500000000000000        0.0000000000000000     
  0.18750000000000000       0.62500000000000000        0.0000000000000000     
  0.25000000000000000       0.62500000000000000        0.0000000000000000     
   0.0000000000000000       0.68750000000000000        0.0000000000000000     
   6.2500000000000000E-002  0.68750000000000000        0.0000000000000000     
  0.12500000000000000       0.68750000000000000        0.0000000000000000     
  0.18750000000000000       0.68750000000000000        0.0000000000000000     
  0.25000000000000000       0.68750000000000000        0.0000000000000000     
   0.0000000000000000       0.75000000000000000        0.0000000000000000     
   6.2500000000000000E-002  0.75000000000000000        0.0000000000000000     
  0.12500000000000000       0.75000000000000000        0.0000000000000000     
  0.18750000000000000       0.75000000000000000        0.0000000000000000     
  0.25000000000000000       0.75000000000000000        0.0000000000000000     
  0.25000000000000000       0.50000000000000000        0.0000000000000000     
  0.31250000000000000       0.50000000000000000        0.0000000000000000     
  0.37500000000000000       0.50000000000000000        0.0000000000000000     
  0.43750000000000000       0.50000000000000000        0.0000000000000000     
  0.50000000000000000       0.50000000000000000        0.0000000000000000     
  0.25000000000000000       0.56250000000000000        0.0000000000000000     
  0.31250000000000000       0.56250000000000000        0.0000000000000000     
  0.37500000000000000       0.56250000000000000        0.0000000000000000     
  0.43750000000000000       0.56250000000000000        0.0000000000000000     
  0.50000000000000000       0.56250000000000000        0.0000000000000000     
  0.25000000000000000       0.62500000000000000        0.0000000000000000     
  0.31250000000000000       0.62500000000000000        0.0000000000000000     
  0.37500000000000000       0.62500000000000000        0.0000000000000000     
  0.43750000000000000       0.62500000000000000        0.0000000000000000     
  0.50000000000000000       0.62500000000000000        0.0000000000000000     
  0.25000000000000000       0.68750000000000000        0.0000000000000000     
  0.31250000000000000       0.68750000000000000        0.0000000000000000     
  0.37500000000000000       0.68750000000000000        0.0000000000000000     
  0.43750000000000000       0.68750000000000000        0.0000000000000000     
  0.50000000000000000       0.68750000000000000        0.0000000000000000     
  0.25000000000000000       0.75000000000000000        0.0000000000000000     
  0.31250000000000000       0.75000000000000000        0.0000000000000000     
  0.37500000000000000       0.75000000000000000        0.0000000000000000     
  0.43750000000000000       0.75000000000000000        0.0000000000000000     
  0.50000000000000000       0.75000000000000000        0.0000000000000000     
  0.50000000000000000       0.50000000000000000        0.0000000000000000     
  0.56250000000000000       0.50000000000000000        0.0000000000000000     
  0.62500000000000000       0.50000000000000000        0.0000000000000000     
  0.68750000000000000       0.50000000000000000        0.0000000000000000     
  0.75000000000000000       0.50000000000000000        0.0000000000000000     
  0.50000000000000000       0.56250000000000000        0.0000000000000000     
  0.56250000000000000       0.56250000000000000        0.0000000000000000     
  0.62500000000000000       0.56250000000000000        0.0000000000000000     
  0.68750000000000000       0.56250000000000000        0.0000000000000000     
  0.75000000000000000       0.56250000000000000        0.0000000000000000     
  0.50000000000000000       0.62500000000000000        0.0000000000000000     
  0.56250000000000000       0.62500000000000000        0.0000000000000000     
  0.62500000000000000       0.62500000000000000        0.0000000000000000     
  0.68750000000000000       0.62500000000000000        0.0000000000000000     
  0.75000000000000000       0.62500000000000000        0.0000000000000000     
  0.50000000000000000       0.68750000000000000        0.0000000000000000     
  0.56250000000000000       0.68750000000000000        0.0000000000000000     
  0.62500000000000000       0.68750000000000000        0.0000000000000000     
  0.68750000000000000       0.68750000000000000        0.0000000000000000     
  0.75000000000000000       0.68750000000000000        0.0000000000000000     
  0.50000000000000000       0.75000000000000000        0.0000000000000000     
  0.56250000000000000       0.75000000000000000        0.0000000000000000     
  0.62500000000000000       0.75000000000000000        0.0000000000000000     
  0.68750000000000000       0.75000000000000000        0.0000000000000000     
  0.75000000000000000       0.75000000000000000        0.0000000000000000     
  0.75000000000000000       0.50000000000000000        0.0000000000000000     
  0.81250000000000000       0.50000000000000000        0.0000000000000000     
  0.87500000000000000       0.50000000000000000        0.0000000000000000     
  0.93750000000000000       0.50000000000000000        0.0000000000000000     
   1.0000000000000000       0.50000000000000000        0.0000000000000000     
  0.75000000000000000       0.56250000000000000        0.0000000000000000     
  0.81250000000000000       0.56250000000000000        0.0000000000000000     
  0.87500000000000000       0.56250000000000000        0.0000000000000000     
  0.93750000000000000       0.56250000000000000        0.0000000000000000     
   1.0000000000000000       0.56250000000000000        0.0000000000000000     
  0.75000000000000000       0.62500000000000000        0.0000000000000000     
  0.81250000000000000       0.62500000000000000        0.0000000000000000     
  0.87500000000000000       0.62500000000000000        0.0000000000000000     
  0.93750000000000000       0.62500000000000000        0.0000000000000000     
   1.0000000000000000       0.62500000000000000        0.0000000000000000     
  0.75000000000000000       0.68750000000000000        0.0000000000000000     
  0.81250000000000000       0.68750000000000000        0.0000000000000000     
  0.87500000000000000       0.68750000000000000        0.0000000000000000     
  0.93750000000000000       0.68750000000000000        0.0000000000000000     
   1.0000000000000000       0.68750000000000000        0.0000000000000000     
  0.75000000000000000       0.75000000000000000        0.0000000000000000     
  0.81250000000000000       0.75000000000000000        0.0000000000000000     
  0.87500000000000000       0.75000000000000000        0.0000000000000000     
  0.93750000000000000       0.75000000000000000        0.0000000000000000     
   1.0000000000000000       0.75000000000000000        0.0000000000000000     
   0.0000000000000000       0.75000000000000000        0.0000000000000000     
   6.2500000000000000E-002  0.75000000000000000        0.0000000000000000     
  0.12500000000000000       0.75000000000000000        0.0000000000000000     
  0.18750000000000000       0.75000000000000000        0.0000000000000000     
  0.25000000000000000       0.75000000000000000        0.0000000000000000     
   0.0000000000000000       0.81250000000000000        0.0000000000000000     
   6.2500000000000000E-002  0.81250000000000000        0.0000000000000000     
  0.12500000000000000       0.81250000000000000        0.0000000000000000     
  0.18750000000000000       0.81250000000000000        0.0000000000000000     
  0.25000000000000000       0.81250000000000000        0.0000000000000000     
   0.0000000000000000       0.87500000000000000        0.0000000000000000     
   6.2500000000000000E-002  0.87500000000000000        0.0000000000000000     
  0.12500000000000000       0.87500000000000000        0.0000000000000000     
  0.18750000000000000       0.87500000000000000        0.0000000000000000     
  0.25000000000000000       0.87500000000000000        0.0000000000000000     
   0.0000000000000000       0.93750000000000000        0.0000000000000000     
   6.2500000000000000E-002  0.93750000000000000        0.0000000000000000     
  0.12500000000000000       0.93750000000000000        0.0000000000000000     
  0.18750000000000000       0.93750000000000000        0.0000000000000000     
  0.25000000000000000       0.93750000000000000        0.0000000000000000     
   0.0000000000000000        1.0000000000000000        0.0000000000000000     
   6.2500000000000000E-002   1.0000000000000000        0.0000000000000000     
  0.12500000000000000        1.0000000000000000        0.0000000000000000     
  0.18750000000000000        1.0000000000000000        0.0000000000000000     
  0.25000000000000000        1.0000000000000000        0.0000000000000000     
  0.25000000000000000       0.75000000000000000        0.0000000000000000     
  0.31250000000000000       0.75000000000000000        0.0000000000000000     
  0.37500000000000000       0.75000000000000000        0.0000000000000000     
  0.43750000000000000       0.75000000000000000        0.0000000000000000     
  0.50000000000000000       0.75000000000000000        0.0000000000000000     
  0.25000000000000000       0.81250000000000000        0.0000000000000000     
  0.31250000000000000       0.81250000000000000        0.0000000000000000     
  0.37500000000000000       0.81250000000000000        0.0000000000000000     
  0.43750000000000000       0.81250000000000000        0.0000000000000000     
  0.50000000000000000       0.81250000000000000        0.0000000000000000     
  0.25000000000000000       0.87500000000000000        0.0000000000000000     
  0.31250000000000000       0.87500000000000000        0.0000000000000000     
  0.37500000000000000       0.87500000000000000        0.0000000000000000     
  0.43750000000000000       0.87500000000000000        0.0000000000000000     
  0.50000000000000000       0.87500000000000000        0.0000000000000000     
  0.25000000000000000       0.93750000000000000        0.0000000000000000     
  0.31250000000000000       0.93750000000000000        0.0000000000000000     
  0.37500000000000000       0.93750000000000000        0.0000000000000000     
  0.43750000000000000       0.93750000000000000        0.0000000000000000     
  0.50000000000000000       0.93750000000000000        0.0000000000000000     
  0.25000000000000000        1.0000000000000000        0.0000000000000000     
  0.31250000000000000        1.0000000000000000        0.0000000000000000     
  0.37500000000000000        1.0000000000000000        0.0000000000000000     
  0.43750000000000000        1.0000000000000000        0.0000000000000000     
  0.50000000000000000        1.0000000000000000        0.0000000000000000     
  0.50000000000000000       0.75000000000000000        0.0000000000000000     
  0.56250000000000000       0.75000000000000000        0.0000000000000000     
  0.62500000000000000       0.75000000000000000        0.0000000000000000     
  0.68750000000000000       0.75000000000000000        0.0000000000000000     
  0.75000000000000000       0.75000000000000000        0.0000000000000000     
  0.50000000000000000       0.81250000000000000        0.0000000000000000     
  0.56250000000000000       0.81250000000000000        0.0000000000000000     
  0.62500000000000000       0.81250000000000000        0.0000000000000000     
  0.68750000000000000       0.81250000000000000        0.0000000000000000     
  0.75000000000000000       0.81250000000000000        0.0000000000000000     
  0.50000000000000000       0.87500000000000000        0.0000000000000000     
  0.56250000000000000       0.87500000000000000        0.0000000000000000     
  0.62500000000000000       0.87500000000000000        0.0000000000000000     
  0.68750000000000000       0.87500000000000000        0.0000000000000000     
  0.75000000000000000       0.87500000000000000        0.0000000000000000     
  0.50000000000000000       0.93750000000000000        0.0000000000000000     
  0.56250000000000000       0.93750000000000000        0.0000000000000000     
  0.62500000000000000       0.93750000000000000        0.0000000000000000     
  0.68750000000000000       0.93750000000000000        0.0000000000000000     
  0.75000000000000000       0.93750000000000000        0.0000000000000000     
  0.50000000000000000        1.0000000000000000        0.0000000000000000     
  0.56250000000000000        1.0000000000000000        0.0000000000000000     
  0.62500000000000000        1.0000000000000000        0.0000000000000000     
  0.68750000000000000        1.0000000000000000        0.0000000000000000     
  0.75000000000000000        1.0000000000000000        0.0000000000000000     
  0.75000000000000000       0.75000000000000000        0.0000000000000000     
  0.81250000000000000       0.75000000000000000        0.0000000000000000     
  0.87500000000000000       0.75000000000000000        0.0000000000000000     
  0.93750000000000000       0.75000000000000000        0.0000000000000000     
   1.0000000000000000       0.75000000000000000        0.0000000000000000     
  0.75000000000000000       0.81250000000000000        0.0000000000000000     
  0.81250000000000000       0.81250000000000000        0.0000000000000000     
  0.87500000000000000       0.81250000000000000        0.0000000000000000     
  0.93750000000000000       0.81250000000000000        0.0000000000000000     
   1.0000000000000000       0.81250000000000000        0.0000000000000000     
  0.75000000000000000       0.87500000000000000        0.0000000000000000     
  0.81250000000000000       0.87500000000000000        0.0000000000000000     
  0.87500000000000000       0.87500000000000000        0.0000000000000000     
  0.93750000000000000       0.87500000000000000        0.0000000000000000     
   1.0000000000000000       0.87500000000000000        0.0000000000000000     
  0.75000000000000000       0.93750000000000000        0.0000000000000000     
  0.81250000000000000       0.93750000000000000        0.0000000000000000     
  0.87500000000000000       0.93750000000000000        0.0000000000000000     
  0.93750000000000000       0.93750000000000000        0.0000000000000000     
   1.0000000000000000       0.93750000000000000        0.0000000000000000     
  0.75000000000000000        1.0000000000000000        0.0000000000000000     
  0.81250000000000000        1.0000000000000000        0.0000000000000000     
  0.87500000000000000        1.0000000000000000        0.0000000000000000     
  0.93750000000000000        1.0000000000000000        0.0000000000000000     
   1.0000000000000000        1.0000000000000000        0.0000000000000000     
 </DataArray>
 </Points>
 <Cells>
 <DataArray  type="Int32"  Name="connectivity"  format="ascii">
           0           1           6           5
           1           2           7           6
           2           3           8           7
           3           4           9           8
           5           6          11          10
           6           7          12          11
           7           8          13          12
           8           9          14          13
          10          11          16          15
          11          12          17          16
          12          13          18          17
          13          14          19          18
          15          16          21          20
          16          17          22          21
          17          18          23          22
          18          19          24          23
          25          26          31          30
          26          27          32          31
          27          28          33          32
          28          29          34          33
          30          31          36          35
          31          32          37          36
          32          33          38          37
          33          34          39          38
          35          36          41          40
          36          37          42          41
          37          38          43          42
          38          39          44          43
          40          41          46          45
          41          42          47          46
          42          43          48          47
          43          44          49          48
          50          51          56          55
          51          52          57          56
          52          53          58          57
          53          54          59          58
          55          56          61          60
          56          57          62          61
          57          58          63          62
          58          59          64          63
          60          61          66          65
          61          62          67          66
          62          63          68          67
          63          64          69          68
          65          66          71          70
          66          67          72          71
          67          68          73          72
          68          69          74          73
          75          76          81          80
          76          77          82          81
          77          78          83          82
          78          79          84          83
          80          81          86          85
          81          82          87          86
          82          83          88          87
          83          84          89          88
          85          86          91          90
          86          87          92          91
          87          88          93          92
          88          89          94          93
          90          91          96          95
          91          92          97          96
          92          93          98          97
          93          94          99          98
         100         101         106         105
         101         102         107         106
         102         103         108         107
         103         104         109         108
         105         106         111         110
         106         107         112         111
         107         108         113         112
         108         109         114         113
         110         111         116         115
         111         112         117         116
         112         113         118         117
         113         114         119         118
         115         116         121         120
         116         117         122         121
         117         118         123         122
         118         119         124         123
         125         126         131         130
         126         127         132         131
         127         128         133         132
         128         129         134         133
         130         131         136         135
         131         132         137         136
         132         133         138         137
         133         134         139         138
         135         136         141         140
         136         137         142         141
         137         138         143         142
         138         139         144         143
         140         141         146         145
         141         142         147         146
         142         143         148         147
         143         144         149         148
         150         151         156         155
         151         152         157         156
         152         153         158         157
         153         154         159         158
         155         156         161         160
         156         157         162         161
         157         158         163         162
         158         159         164         163
         160         161         166         165
         161         162         167         166
         162         163         168         167
         163         164         169         168
         165         166         171         170
         166         167         172         171
         167         168         173         172
         168         169         174         173
         175         176         181         180
         176         177         182         181
         177         178         183         182
         178         179         184         183
         180         181         186         185
         181         182         187         186
         182         183         188         187
         183         184         189         188
         185         186         191         190
         186         187         192         191
         187         188         193         192
         188         189         194         193
         190         191         196         195
         191         192         197         196
         192         193         198         197
         193         194         199         198
         200         201         206         205
         201         202         207         206
         202         203         208         207
         203         204         209         208
         205         206         211         210
         206         207         212         211
         207         208         213         212
         208         209         214         213
         210         211         216         215
         211         212         217         216
         212         213         218         217
         213         214         219         218
         215         216         221         220
         216         217         222         221
         217         218         223         222
         218         219         224         223
         225         226         231         230
         226         227         232         231
         227         228         233         232
         228         229         234         233
         230         231         236         235
         231         232         237         236
         232         233         238         237
         233         234         239         238
         235         236         241         240
         236         237         242         241
         237         238         243         242
         238         239         244         243
         240         241         246         245
         241         242         247         246
         242         243         248         247
         243         244         249         248
         250         251         256         255
         251         252         257         256
         252         253         258         257
         253         254         259         258
         255         256         261         260
         256         257         262         261
         257         258         263         262
         258         259         264         263
         260         261         266         265
         261         262         267         266
         262         263         268         267
         263         264         269         268
         265         266         271         270
         266         267         272         271
         267         268         273         272
         268         269         274         273
         275         276         281         280
         276         277         282         281
         277         278         283         282
         278         279         284         283
         280         281         286         285
         281         282         287         286
         282         283         288         287
         283         284         289         288
         285         286         291         290
         286         287         292         291
         287         288         293         292
         288         289         294         293
         290         291         296         295
         291         292         297         296
         292         293         298         297
         293         294         299         298
         300         301         306         305
         301         302         307         306
         302         303         308         307
         303         304         309         308
         305         306         311         310
         306         307         312         311
         307         308         313         312
         308         309         314         313
         310         311         316         315
         311         312         317         316
         312         313         318         317
         313         314         319         318
         315         316         321         320
         316         317         322         321
         317         318         323         322
         318         319         324         323
         325         326         331         330
         326         327         332         331
         327         328         333         332
         328         329         334         333
         330         331         336         335
         331         332         337         336
         332         333         338         337
         333         334         339         338
         335         336         341         340
         336         337         342         341
         337         338         343         342
         338         339         344         343
         340         341         346         345
         341         342         347         346
         342         343         348         347
         343         344         349         348
         350         351         356         355
         351         352         357         356
         352         353         358         357
         353         354         359         358
         355         356         361         360
         356         357         362         361
         357         358         363         362
         358         359         364         363
         360         361         366         365
         361         362         367         366
         362         363         368         367
         363         364         369         368
         365         366         371         370
         366         367         372         371
         367         368         373         372
         368         369         374         373
         375         376         381         380
         376         377         382         381
         377         378         383         382
         378         379         384         383
         380         381         386         385
         381         382         387         386
         382         383         388         387
         383         384         389         388
         385         386         391         390
         386         387         392         391
         387         388         393         392
         388         389         394         393
         390         391         396         395
         391         392         397         396
         392         393         398         397
         393         394         399         398
 </DataArray>
 <DataArray  type="Int32"  Name="offsets"  format="ascii"> 
           4
           8
          12
          16
          20
          24
          28
          32
          36
          40
          44
          48
          52
          56
          60
          64
          68
          72
          76
          80
          84
          88
          92
          96
         100
         104
         108
         112
         116
         120
         124
         128
         132
         136
         140
         144
         148
         152
         156
         160
         164
         168
         172
         176
         180
         184
         188
         192
         196
         200
         204
         208
         212
         216
         220
         224
         228
         232
         236
         240
         244
         248
         252
         256
         260
         264
         268
         272
         276
         280
         284
         288
         292
         296
         300
         304
         308
         312
         316
         320
         324
         328
         332
         336
         340
         344
         348
         352
         356
         360
         364
         368
         372
         376
         380
         384
         388
         392
         396
         400
         404
         408
         412
         416
         420
         424
         428
         432
         436
         440
         444
         448
         452
         456
         460
         464
         468
         472
         476
         480
         484
         488
         492
         496
         500
         504
         508
         512
         516
         520
         524
         528
         532
         536
         540
         544
         548
         552
         556
         560
         564
         568
         572
         576
         580
         584
         588
         592
         596
         600
         604
         608
         612
         616
         620
         624
         628
         632
         636
         640
         644
         648
         652
         656
         660
         664
         668
         672
         676
         680
         684
         688
         692
         696
         700
         704
         708
         712
         716
         720
         724
         728
         732
         736
         740
         744
         748
         752
         756
         760
         764
         768
         772
         776
         780
         784
         788
         792
         796
         800
         804
         808
         812
         816
         820
         824
         828
         832
         836
         840
         844
         848
         852
         856
         860
         864
         868
         872
         876
         880
         884
         888
         892
         896
         900
         904
         908
         912
         916
         920
         924
         928
         932
         936
         940
         944
         948
         952
         956
         960
         964
         968
         972
         976
         980
         984
         988
         992
         996
        1000
        1004
        1008
        1012
        1016
        1020
        1024
 </DataArray>
 <DataArray  type="UInt8"  Name="types"  format="ascii">
 9
 9
 9
 9
 9
 9
 9
 9
 9
 9
 9
 9
 9
 9
 9
 9
 9
 9
 9
 9
 9
 9
 9
 9
 9
 9
 9
 9
 9
 9
 9
 9
 9
 9
 9
 9
 9
 9
 9
 9
 9
 9
 9
 9
 9
 9
 9
 9
 9
 9
 9
 9
 9
 9
 9
 9
 9
 9
 9
 9
 9
 9
 9
 9
 9
 9
 9
 9
 9
 9
 9
 9
 9
 9
 9
 9
 9
 9
 9
 9
 9
 9
 9
 9
 9
 9
 9
 9
 9
 9
 9
 9
 9
 9
 9
 9
 9
 9
 9
 9
 9
 9
 9
 9
 9
 9
 9
 9
 9
 9
 9
 9
 9
 9
 9
 9
 9
 9
 9
 9
 9
 9
 9
 9
 9
 9
 9
 9
 9
 9
 9
 9
 9
 9
 9
 9
 9
 9
 9
 9
 9
 9
 9
 9
 9
 9
 9
 9
 9
 9
 9
 9
 9
 9
 9
 9
 9
 9
 9
 9
 9
 9
 9
 9
 9
 9
 9
 9
 9
 9
 9
 9
 9
 9
 9
 9
 9
 9
 9
 9
 9
 9
 9
 9
 9
 9
 9
 9
 9
 9
 9
 9
 9
 9
 9
 9
 9
 9
 9
 9
 9
 9
 9
 9
 9
 9
 9
 9
 9
 9
 9
 9
 9
 9
 9
 9
 9
 9
 9
 9
 9
 9
 9
 9
 9
 9
 9
 9
 9
 9
 9
 9
 9
 9
 9
 9
 9
 9
 9
 9
 9
 9
 9
 9
 9
 9
 9
 9
 9
 9
 9
 9
 9
 9
 9
 9
 </DataArray>
 </Cells> 
 <PointData>
 <DataArray  type="Float64" Name="disp" NumberOfComponents="3" format="ascii">
   0.0000000000000000        0.0000000000000000        0.0000000000000000     
   1.0687784423653739E-002   6.3640144125611522E-003   0.0000000000000000     
   2.0498017461894832E-002   1.2952706869413095E-002   0.0000000000000000     
   2.9430699114723281E-002   1.9766077370555829E-002   0.0000000000000000     
   3.7485829382139083E-002   2.6804125915989352E-002   0.0000000000000000     
   0.0000000000000000        0.0000000000000000        0.0000000000000000     
   8.1738724692061240E-003   5.0272386307299004E-003   0.0000000000000000     
   1.5979655182317511E-002   1.0763023409744280E-002   0.0000000000000000     
   2.3417348139334156E-002   1.7207354337043138E-002   0.0000000000000000     
   3.0486951340256065E-002   2.4360231412626471E-002   0.0000000000000000     
   0.0000000000000000        0.0000000000000000        0.0000000000000000     
   6.1378926004212186E-003   4.0135921587308963E-003   0.0000000000000000     
   1.2244765982186273E-002   9.0825358517938638E-003   0.0000000000000000     
   1.8320620145295161E-002   1.5206831079188899E-002   0.0000000000000000     
   2.4365455089747891E-002   2.2386477840916005E-002   0.0000000000000000     
   0.0000000000000000        0.0000000000000000        0.0000000000000000     
   4.5798448172990171E-003   3.3230749965641425E-003   0.0000000000000000     
   9.2933498615011163E-003   7.9112441955618493E-003   0.0000000000000000     
   1.4140515132606299E-002   1.3764507596993119E-002   0.0000000000000000     
   1.9121340630614568E-002   2.0882865200857952E-002   0.0000000000000000     
   0.0000000000000000        0.0000000000000000        0.0000000000000000     
   3.4997291198395203E-003   2.9556871442296367E-003   0.0000000000000000     
   7.1254068202620431E-003   7.2491484410482339E-003   0.0000000000000000     
   1.0877033101267567E-002   1.2880383890455791E-002   0.0000000000000000     
   1.4754607962856093E-002   1.9849393492452311E-002   0.0000000000000000     
   3.7485829382139083E-002   2.6804125915989352E-002   0.0000000000000000     
   4.4926964318989085E-002   3.4394698345647477E-002   0.0000000000000000     
   5.2017659980120111E-002   4.2865640499464008E-002   0.0000000000000000     
   5.8757916365532174E-002   5.2216952377438938E-002   0.0000000000000000     
   6.5147733475225275E-002   6.2448633979572288E-002   0.0000000000000000     
   3.0486951340256065E-002   2.4360231412626471E-002   0.0000000000000000     
   3.7189091656814513E-002   3.2266168449516033E-002   0.0000000000000000     
   4.3524395960740814E-002   4.0969679260733569E-002   0.0000000000000000     
   4.9492864252034953E-002   5.0470763846279069E-002   0.0000000000000000     
   5.5094496530696924E-002   6.0769422206152543E-002   0.0000000000000000     
   2.4365455089747891E-002   2.2386477840916005E-002   0.0000000000000000     
   3.0221082665680219E-002   3.0473497478620323E-002   0.0000000000000000     
   3.5729314723227913E-002   3.9319911333947015E-002   0.0000000000000000     
   4.0890151262390984E-002   4.8925719406896065E-002   0.0000000000000000     
   4.5703592283169427E-002   5.9290921697467469E-002   0.0000000000000000     
   1.9121340630614568E-002   2.0882865200857952E-002   0.0000000000000000     
   2.4022937345586186E-002   2.9016685432960359E-002   0.0000000000000000     
   2.8632416267581430E-002   3.7916336719104340E-002   0.0000000000000000     
   3.2949777396600280E-002   4.7581819059289904E-002   0.0000000000000000     
   3.6975020732642763E-002   5.8013132453517059E-002   0.0000000000000000     
   1.4754607962856093E-002   1.9849393492452311E-002   0.0000000000000000     
   1.8594655696532417E-002   2.7895732312536121E-002   0.0000000000000000     
   2.2233700593801333E-002   3.6758955416205559E-002   0.0000000000000000     
   2.5671742654662842E-002   4.6439062803460621E-002   0.0000000000000000     
   2.8908781879116940E-002   5.6936054474301299E-002   0.0000000000000000     
   6.5147733475225275E-002   6.2448633979572288E-002   0.0000000000000000     
   7.1172718267794061E-002   7.3449137191898980E-002   0.0000000000000000     
   7.6818477701833185E-002   8.5106913900453982E-002   0.0000000000000000     
   8.2085011777342662E-002   9.7421964105237291E-002   0.0000000000000000     
   8.6972320494322464E-002  0.11039428780624889        0.0000000000000000     
   5.5094496530696924E-002   6.0769422206152543E-002   0.0000000000000000     
   6.0350032983406993E-002   7.1810369714601432E-002   0.0000000000000000     
   6.5280213796845399E-002   8.3538321745873168E-002   0.0000000000000000     
   6.9885038971012156E-002   9.5953278299967720E-002   0.0000000000000000     
   7.4164508505907237E-002  0.10905523937688513        0.0000000000000000     
   4.5703592283169427E-002   5.9290921697467469E-002   0.0000000000000000     
   5.0204563087747144E-002   7.0387807264935140E-002   0.0000000000000000     
   5.4427988978308070E-002   8.2188665168572900E-002   0.0000000000000000     
   5.8373869954852199E-002   9.4693495408380762E-002   0.0000000000000000     
   6.2042206017379538E-002  0.10790229798435874        0.0000000000000000     
   3.6975020732642763E-002   5.8013132453517059E-002   0.0000000000000000     
   4.0736308580814506E-002   6.9181449842900061E-002   0.0000000000000000     
   4.4261803246221185E-002   8.1057944168553164E-002   0.0000000000000000     
   4.7551504728862798E-002   9.3642615430476361E-002   0.0000000000000000     
   5.0605413028739346E-002  0.10693546362866969        0.0000000000000000     
   2.8908781879116940E-002   5.6936054474301299E-002   0.0000000000000000     
   3.1945269462609095E-002   6.8191297448496210E-002   0.0000000000000000     
   3.4781656600584764E-002   8.0146158745813975E-002   0.0000000000000000     
   3.7417943293043952E-002   9.2800638366254559E-002   0.0000000000000000     
   3.9854129539986662E-002  0.10615473630981800        0.0000000000000000     
   8.6972320494322464E-002  0.11039428780624889        0.0000000000000000     
   9.1473195965618509E-002  0.12394287703812895        0.0000000000000000     
   9.5580430304076716E-002  0.13798672383551761        0.0000000000000000     
   9.9294023509697085E-002  0.15252582819841479        0.0000000000000000     
  0.10261397558247960       0.16756019012682061        0.0000000000000000     
   7.4164508505907237E-002  0.10905523937688513        0.0000000000000000     
   7.8110254898851150E-002  0.12273963445791602        0.0000000000000000     
   8.1713910647164323E-002  0.13690189302435096        0.0000000000000000     
   8.4975475750846768E-002  0.15154201507619000        0.0000000000000000     
   8.7894950209898487E-002  0.16666000061343317        0.0000000000000000     
   6.2042206017379538E-002  0.10790229798435874        0.0000000000000000     
   6.5425890884928214E-002  0.12169761779132185        0.0000000000000000     
   6.8517818276536385E-002  0.13596199972408510        0.0000000000000000     
   7.1317988192204057E-002  0.15069544378264851        0.0000000000000000     
   7.3826400631931188E-002  0.16589794996701213        0.0000000000000000     
   5.0605413028739346E-002  0.10693546362866969        0.0000000000000000     
   5.3420103923849743E-002  0.12081682703834647        0.0000000000000000     
   5.5992153192192931E-002  0.13516704393472004        0.0000000000000000     
   5.8321560833768916E-002  0.14998611431779038        0.0000000000000000     
   6.0408326848577686E-002  0.16527403818755751        0.0000000000000000     
   3.9854129539986662E-002  0.10615473630981800        0.0000000000000000     
   4.2092894015615716E-002  0.12009726219898985        0.0000000000000000     
   4.4136915394133953E-002  0.13451702565625570        0.0000000000000000     
   4.5986193675541381E-002  0.14941402668161552        0.0000000000000000     
   4.7640728859837993E-002  0.16478826527506935        0.0000000000000000     
   0.0000000000000000        0.0000000000000000        0.0000000000000000     
   3.4997291198395203E-003   2.9556871442296367E-003   0.0000000000000000     
   7.1254068202620431E-003   7.2491484410482339E-003   0.0000000000000000     
   1.0877033101267567E-002   1.2880383890455791E-002   0.0000000000000000     
   1.4754607962856093E-002   1.9849393492452311E-002   0.0000000000000000     
   0.0000000000000000        0.0000000000000000        0.0000000000000000     
   2.6501338088717888E-003   2.7755918464954410E-003   0.0000000000000000     
   5.3479140178425760E-003   6.8925878628631979E-003   0.0000000000000000     
   8.0933406269123615E-003   1.2350988049103267E-002   0.0000000000000000     
   1.0886413636081147E-002   1.9150792405215653E-002   0.0000000000000000     
   0.0000000000000000        0.0000000000000000        0.0000000000000000     
   1.7836471852248810E-003   2.6469523481296169E-003   0.0000000000000000     
   3.5678486136162422E-003   6.6379017356169136E-003   0.0000000000000000     
   5.3526042851740853E-003   1.1972848162461891E-002   0.0000000000000000     
   7.1379141998984073E-003   1.8651791628664548E-002   0.0000000000000000     
   0.0000000000000000        0.0000000000000000        0.0000000000000000     
   9.0026924889879630E-004   2.5697686491321630E-003   0.0000000000000000     
   1.7852106075830414E-003   6.4850900593093844E-003   0.0000000000000000     
   2.6548240760527345E-003   1.1745964230531663E-002   0.0000000000000000     
   3.5091096543078764E-003   1.8352391162799003E-002   0.0000000000000000     
   0.0000000000000000        0.0000000000000000        0.0000000000000000     
  -1.0646453336982109E-013   2.5440407495030811E-003   0.0000000000000000     
  -2.5702725538201410E-013   6.4341528339406078E-003   0.0000000000000000     
  -4.5168794919614452E-013   1.1670336253312581E-002   0.0000000000000000     
  -6.9044737375373311E-013   1.8252591007619001E-002   0.0000000000000000     
   1.4754607962856093E-002   1.9849393492452311E-002   0.0000000000000000     
   1.8594655696532417E-002   2.7895732312536121E-002   0.0000000000000000     
   2.2233700593801333E-002   3.6758955416205559E-002   0.0000000000000000     
   2.5671742654662842E-002   4.6439062803460621E-002   0.0000000000000000     
   2.8908781879116940E-002   5.6936054474301299E-002   0.0000000000000000     
   1.0886413636081147E-002   1.9150792405215653E-002   0.0000000000000000     
   1.3649977355289521E-002   2.7061836611974671E-002   0.0000000000000000     
   1.6306876094478083E-002   3.5853956350154634E-002   0.0000000000000000     
   1.8857109853646827E-002   4.5527151619755547E-002   0.0000000000000000     
   2.1300678632795757E-002   5.6081422420777398E-002   0.0000000000000000     
   7.1379141998984073E-003   1.8651791628664548E-002   0.0000000000000000     
   8.9026419586281189E-003   2.6466196825903048E-002   0.0000000000000000     
   1.0625651162202118E-002   3.5207528445855549E-002   0.0000000000000000     
   1.2306941810620411E-002   4.4875786488522043E-002   0.0000000000000000     
   1.3946513903882999E-002   5.5470970953902549E-002   0.0000000000000000     
   3.5091096543078764E-003   1.8352391162799003E-002   0.0000000000000000     
   4.3526495065482002E-003   2.6108812954321256E-002   0.0000000000000000     
   5.1900257969734404E-003   3.4819671703308304E-002   0.0000000000000000     
   6.0212385255835948E-003   4.4484967409760129E-002   0.0000000000000000     
   6.8462876923786643E-003   5.5104700073676766E-002   0.0000000000000000     
  -6.9044737375373311E-013   1.8252591007619001E-002   0.0000000000000000     
  -9.5022882791451213E-013   2.5989684997229298E-002   0.0000000000000000     
  -1.2079543366006612E-012   3.4690386122512899E-002   0.0000000000000000     
  -1.4636262105180604E-012   4.4354694383469805E-002   0.0000000000000000     
  -1.7172418001476508E-012   5.4982609780100014E-002   0.0000000000000000     
   2.8908781879116940E-002   5.6936054474301299E-002   0.0000000000000000     
   3.1945269462609095E-002   6.8191297448496210E-002   0.0000000000000000     
   3.4781656600584764E-002   8.0146158745813975E-002   0.0000000000000000     
   3.7417943293043952E-002   9.2800638366254559E-002   0.0000000000000000     
   3.9854129539986662E-002  0.10615473630981800        0.0000000000000000     
   2.1300678632795757E-002   5.6081422420777398E-002   0.0000000000000000     
   2.3609366553204503E-002   6.7419503802924274E-002   0.0000000000000000     
   2.5754957736152703E-002   7.9444130815900238E-002   0.0000000000000000     
   2.7737452181640351E-002   9.2155303459705282E-002   0.0000000000000000     
   2.9556849889667457E-002  0.10555302173433941        0.0000000000000000     
   1.3946513903882999E-002   5.5470970953902549E-002   0.0000000000000000     
   1.5506520672674339E-002   6.6868222627384871E-002   0.0000000000000000     
   1.6949115347678900E-002   7.8942682294356817E-002   0.0000000000000000     
   1.8274297928896687E-002   9.1694349954818413E-002   0.0000000000000000     
   1.9482068416327693E-002  0.10512322560876965        0.0000000000000000     
   6.8462876923786643E-003   5.5104700073676766E-002   0.0000000000000000     
   7.6367318210186063E-003   6.6537453921878029E-002   0.0000000000000000     
   8.3641294351633720E-003   7.8641813181183767E-002   0.0000000000000000     
   9.0284805348129649E-003   9.1417777851593995E-002   0.0000000000000000     
   9.6297851199673816E-003  0.10486534793310873        0.0000000000000000     
  -1.7172418001476508E-012   5.4982609780100014E-002   0.0000000000000000     
  -1.7626993614738851E-012   6.6427197686403705E-002   0.0000000000000000     
  -1.3938928136725259E-012   7.8541523476381048E-002   0.0000000000000000     
  -6.1082302410531142E-013   9.1325587150032014E-002   0.0000000000000000     
   5.8651174195123446E-013  0.10477938870735662        0.0000000000000000     
   3.9854129539986662E-002  0.10615473630981800        0.0000000000000000     
   4.2092894015615716E-002  0.12009726219898985        0.0000000000000000     
   4.4136915394133953E-002  0.13451702565625570        0.0000000000000000     
   4.5986193675541381E-002  0.14941402668161552        0.0000000000000000     
   4.7640728859837993E-002  0.16478826527506935        0.0000000000000000     
   2.9556849889667457E-002  0.10555302173433941        0.0000000000000000     
   3.1221147103400619E-002  0.11953817930166939        0.0000000000000000     
   3.2738340066006462E-002  0.13401166982356202        0.0000000000000000     
   3.4108428777484975E-002  0.14897349330001725        0.0000000000000000     
   3.5331413237836160E-002  0.16442364973103513        0.0000000000000000     
   1.9482068416327693E-002  0.10512322560876965        0.0000000000000000     
   2.0581749130378944E-002  0.11913883437480249        0.0000000000000000     
   2.1582662391457445E-002  0.13365070137150883        0.0000000000000000     
   2.2484808199563208E-002  0.14865882659888882        0.0000000000000000     
   2.3288186554696229E-002  0.16416321005694232        0.0000000000000000     
   9.6297851199673816E-003  0.10486534793310873        0.0000000000000000     
   1.0174700096550679E-002  0.11889922741838908        0.0000000000000000     
   1.0669882370486918E-002  0.13343412030009624        0.0000000000000000     
   1.1115331941776094E-002  0.14847002657823019        0.0000000000000000     
   1.1511048810418208E-002  0.16400694625279097        0.0000000000000000     
   5.8651174195123446E-013  0.10477938870735662        0.0000000000000000     
   1.9158346784009517E-012  0.11881935843242923        0.0000000000000000     
   3.0948704970307217E-012  0.13336192660932417        0.0000000000000000     
   4.1236239141199948E-012  0.14840709323804144        0.0000000000000000     
   5.0020872860434551E-012  0.16395485831858103        0.0000000000000000     
   0.0000000000000000        0.0000000000000000        0.0000000000000000     
  -1.0646453336982109E-013   2.5440407495030811E-003   0.0000000000000000     
  -2.5702725538201410E-013   6.4341528339406078E-003   0.0000000000000000     
  -4.5168794919614452E-013   1.1670336253312581E-002   0.0000000000000000     
  -6.9044737375373311E-013   1.8252591007619001E-002   0.0000000000000000     
   0.0000000000000000        0.0000000000000000        0.0000000000000000     
  -9.0026924909612869E-004   2.5697686492283964E-003   0.0000000000000000     
  -1.7852106080633991E-003   6.4850900594888086E-003   0.0000000000000000     
  -2.6548240769018114E-003   1.1745964230781239E-002   0.0000000000000000     
  -3.5091096556113654E-003   1.8352391163105684E-002   0.0000000000000000     
   0.0000000000000000        0.0000000000000000        0.0000000000000000     
  -1.7836471853754237E-003   2.6469523482941354E-003   0.0000000000000000     
  -3.5678486139955105E-003   6.6379017359322100E-003   0.0000000000000000     
  -5.3526042858602621E-003   1.1972848162914225E-002   0.0000000000000000     
  -7.1379142009696762E-003   1.8651791629240175E-002   0.0000000000000000     
   0.0000000000000000        0.0000000000000000        0.0000000000000000     
  -2.6501338089443493E-003   2.7755918467002993E-003   0.0000000000000000     
  -5.3479140180533614E-003   6.8925878632708120E-003   0.0000000000000000     
  -8.0933406273270385E-003   1.2350988049711537E-002   0.0000000000000000     
  -1.0886413636765381E-002   1.9150792406022476E-002   0.0000000000000000     
   0.0000000000000000        0.0000000000000000        0.0000000000000000     
  -3.4997291198029046E-003   2.9556871444468874E-003   0.0000000000000000     
  -7.1254068202369538E-003   7.2491484415046128E-003   0.0000000000000000     
  -1.0877033101302143E-002   1.2880383891173179E-002   0.0000000000000000     
  -1.4754607962998481E-002   1.9849393493452577E-002   0.0000000000000000     
  -6.9044737375373311E-013   1.8252591007619001E-002   0.0000000000000000     
  -9.5022882791451213E-013   2.5989684997229298E-002   0.0000000000000000     
  -1.2079543366006612E-012   3.4690386122512899E-002   0.0000000000000000     
  -1.4636262105180604E-012   4.4354694383469805E-002   0.0000000000000000     
  -1.7172418001476508E-012   5.4982609780100014E-002   0.0000000000000000     
  -3.5091096556113654E-003   1.8352391163105684E-002   0.0000000000000000     
  -4.3526495083468768E-003   2.6108812954615347E-002   0.0000000000000000     
  -5.1900257992631678E-003   3.4819671703463430E-002   0.0000000000000000     
  -6.0212385283602331E-003   4.4484967409649932E-002   0.0000000000000000     
  -6.8462876956380762E-003   5.5104700073174855E-002   0.0000000000000000     
  -7.1379142009696762E-003   1.8651791629240175E-002   0.0000000000000000     
  -8.9026419601214556E-003   2.6466196826467593E-002   0.0000000000000000     
  -1.0625651164113303E-002   3.5207528446153991E-002   0.0000000000000000     
  -1.2306941812945213E-002   4.4875786488299388E-002   0.0000000000000000     
  -1.3946513906617190E-002   5.5470970952903771E-002   0.0000000000000000     
  -1.0886413636765381E-002   1.9150792406022476E-002   0.0000000000000000     
  -1.3649977356273962E-002   2.7061836612786022E-002   0.0000000000000000     
  -1.6306876095758354E-002   3.5853956350584588E-002   0.0000000000000000     
  -1.8857109855218560E-002   4.5527151619418178E-002   0.0000000000000000     
  -2.1300678634654582E-002   5.6081422419286771E-002   0.0000000000000000     
  -1.4754607962998481E-002   1.9849393493452577E-002   0.0000000000000000     
  -1.8594655696804397E-002   2.7895732313570652E-002   0.0000000000000000     
  -2.2233700594198332E-002   3.6758955416755217E-002   0.0000000000000000     
  -2.5671742655180279E-002   4.6439062803006297E-002   0.0000000000000000     
  -2.8908781879750246E-002   5.6936054472323860E-002   0.0000000000000000     
  -1.7172418001476508E-012   5.4982609780100014E-002   0.0000000000000000     
  -1.7626993614738851E-012   6.6427197686403705E-002   0.0000000000000000     
  -1.3938928136725259E-012   7.8541523476381048E-002   0.0000000000000000     
  -6.1082302410531142E-013   9.1325587150032014E-002   0.0000000000000000     
   5.8651174195123446E-013  0.10477938870735662        0.0000000000000000     
  -6.8462876956380762E-003   5.5104700073174855E-002   0.0000000000000000     
  -7.6367318243498123E-003   6.6537453920966064E-002   0.0000000000000000     
  -8.3641294377485454E-003   7.8641813179951364E-002   0.0000000000000000     
  -9.0284805358342903E-003   9.1417777850130819E-002   0.0000000000000000     
  -9.6297851186070357E-003  0.10486534793150440        0.0000000000000000     
  -1.3946513906617190E-002   5.5470970952903771E-002   0.0000000000000000     
  -1.5506520675422956E-002   6.6868222625569129E-002   0.0000000000000000     
  -1.6949115349656249E-002   7.8942682291897465E-002   0.0000000000000000     
  -1.8274297929317052E-002   9.1694349951888757E-002   0.0000000000000000     
  -1.9482068414405376E-002  0.10512322560554303        0.0000000000000000     
  -2.1300678634654582E-002   5.6081422419286771E-002   0.0000000000000000     
  -2.3609366554982143E-002   6.7419503800212971E-002   0.0000000000000000     
  -2.5754957737116991E-002   7.9444130812219335E-002   0.0000000000000000     
  -2.7737452181059118E-002   9.2155303455305884E-002   0.0000000000000000     
  -2.9556849886808515E-002  0.10555302172947258        0.0000000000000000     
  -2.8908781879750246E-002   5.6936054472323860E-002   0.0000000000000000     
  -3.1945269463027372E-002   6.8191297444897547E-002   0.0000000000000000     
  -3.4781656600130786E-002   8.0146158740916976E-002   0.0000000000000000     
  -3.7417943291060476E-002   9.2800638360382118E-002   0.0000000000000000     
  -3.9854129535816463E-002  0.10615473630329300        0.0000000000000000     
   5.8651174195123446E-013  0.10477938870735662        0.0000000000000000     
   1.9158346784009517E-012  0.11881935843242923        0.0000000000000000     
   3.0948704970307217E-012  0.13336192660932417        0.0000000000000000     
   4.1236239141199948E-012  0.14840709323804144        0.0000000000000000     
   5.0020872860434551E-012  0.16395485831858103        0.0000000000000000     
  -9.6297851186070357E-003  0.10486534793150440        0.0000000000000000     
  -1.0174700092546913E-002  0.11889922741700702        0.0000000000000000     
  -1.0669882364134046E-002  0.13343412029957369        0.0000000000000000     
  -1.1115331933368437E-002  0.14847002657920436        0.0000000000000000     
  -1.1511048800250088E-002  0.16400694625589907        0.0000000000000000     
  -1.9482068414405376E-002  0.10512322560554303        0.0000000000000000     
  -2.0581749125858872E-002  0.11913883437220664        0.0000000000000000     
  -2.1582662384615182E-002  0.13365070137122595        0.0000000000000000     
  -2.2484808190674322E-002  0.14865882660260094        0.0000000000000000     
  -2.3288186544036277E-002  0.16416321006633156        0.0000000000000000     
  -2.9556849886808515E-002  0.10555302172947258        0.0000000000000000     
  -3.1221147098020048E-002  0.11953817929802805        0.0000000000000000     
  -3.2738340058348560E-002  0.13401166982428089        0.0000000000000000     
  -3.4108428767794026E-002  0.14897349330823101        0.0000000000000000     
  -3.5331413226356481E-002  0.16442364974987853        0.0000000000000000     
  -3.9854129535816463E-002  0.10615473630329300        0.0000000000000000     
  -4.2092894009030442E-002  0.12009726219447125        0.0000000000000000     
  -4.4136915385334138E-002  0.13451702565873849        0.0000000000000000     
  -4.5986193664727559E-002  0.14941402669609474        0.0000000000000000     
  -4.7640728847210698E-002  0.16478826530653995        0.0000000000000000     
   0.0000000000000000        0.0000000000000000        0.0000000000000000     
  -3.4997291198029046E-003   2.9556871444468874E-003   0.0000000000000000     
  -7.1254068202369538E-003   7.2491484415046128E-003   0.0000000000000000     
  -1.0877033101302143E-002   1.2880383891173179E-002   0.0000000000000000     
  -1.4754607962998481E-002   1.9849393493452577E-002   0.0000000000000000     
   0.0000000000000000        0.0000000000000000        0.0000000000000000     
  -4.5798448171655180E-003   3.3230749967738645E-003   0.0000000000000000     
  -9.2933498612516388E-003   7.9112441960279348E-003   0.0000000000000000     
  -1.4140515132258362E-002   1.3764507597762212E-002   0.0000000000000000     
  -1.9121340630185685E-002   2.0882865201976696E-002   0.0000000000000000     
   0.0000000000000000        0.0000000000000000        0.0000000000000000     
  -6.1378926002466153E-003   4.0135921589211938E-003   0.0000000000000000     
  -1.2244765981802772E-002   9.0825358522350942E-003   0.0000000000000000     
  -1.8320620144668474E-002   1.5206831079941703E-002   0.0000000000000000     
  -2.4365455088843718E-002   2.2386477842041022E-002   0.0000000000000000     
   0.0000000000000000        0.0000000000000000        0.0000000000000000     
  -8.1738724690461964E-003   5.0272386308888766E-003   0.0000000000000000     
  -1.5979655181890356E-002   1.0763023410126096E-002   0.0000000000000000     
  -2.3417348138532485E-002   1.7207354337711655E-002   0.0000000000000000     
  -3.0486951338972577E-002   2.4360231413645558E-002   0.0000000000000000     
   0.0000000000000000        0.0000000000000000        0.0000000000000000     
  -1.0687784423564264E-002   6.3640144126769120E-003   0.0000000000000000     
  -2.0498017461514393E-002   1.2952706869700934E-002   0.0000000000000000     
  -2.9430699113850392E-002   1.9766077371072062E-002   0.0000000000000000     
  -3.7485829380572253E-002   2.6804125916790301E-002   0.0000000000000000     
  -1.4754607962998481E-002   1.9849393493452577E-002   0.0000000000000000     
  -1.8594655696804397E-002   2.7895732313570652E-002   0.0000000000000000     
  -2.2233700594198332E-002   3.6758955416755217E-002   0.0000000000000000     
  -2.5671742655180279E-002   4.6439062803006297E-002   0.0000000000000000     
  -2.8908781879750246E-002   5.6936054472323860E-002   0.0000000000000000     
  -1.9121340630185685E-002   2.0882865201976696E-002   0.0000000000000000     
  -2.4022937345078398E-002   2.9016685434137952E-002   0.0000000000000000     
  -2.8632416266981264E-002   3.7916336719712541E-002   0.0000000000000000     
  -3.2949777395894296E-002   4.7581819058700472E-002   0.0000000000000000     
  -3.6975020731817479E-002   5.8013132451101720E-002   0.0000000000000000     
  -2.4365455088843718E-002   2.2386477842041022E-002   0.0000000000000000     
  -3.0221082664461597E-002   3.0473497479804403E-002   0.0000000000000000     
  -3.5729314721655192E-002   3.9319911334503209E-002   0.0000000000000000     
  -4.0890151260424522E-002   4.8925719406137408E-002   0.0000000000000000     
  -4.5703592280769569E-002   5.9290921694707045E-002   0.0000000000000000     
  -3.0486951338972577E-002   2.4360231413645558E-002   0.0000000000000000     
  -3.7189091654954001E-002   3.2266168450570010E-002   0.0000000000000000     
  -4.3524395958220129E-002   4.0969679261127205E-002   0.0000000000000000     
  -4.9492864248770960E-002   5.0470763845317131E-002   0.0000000000000000     
  -5.5094496526606501E-002   6.0769422203139842E-002   0.0000000000000000     
  -3.7485829380572253E-002   2.6804125916790301E-002   0.0000000000000000     
  -4.4926964316555608E-002   3.4394698346434757E-002   0.0000000000000000     
  -5.2017659976676060E-002   4.2865640499584537E-002   0.0000000000000000     
  -5.8757916360933631E-002   5.2216952376239634E-002   0.0000000000000000     
  -6.5147733469328284E-002   6.2448633976400068E-002   0.0000000000000000     
  -2.8908781879750246E-002   5.6936054472323860E-002   0.0000000000000000     
  -3.1945269463027372E-002   6.8191297444897547E-002   0.0000000000000000     
  -3.4781656600130786E-002   8.0146158740916976E-002   0.0000000000000000     
  -3.7417943291060476E-002   9.2800638360382118E-002   0.0000000000000000     
  -3.9854129535816463E-002  0.10615473630329300        0.0000000000000000     
  -3.6975020731817479E-002   5.8013132451101720E-002   0.0000000000000000     
  -4.0736308579651555E-002   6.9181449838542713E-002   0.0000000000000000     
  -4.4261803244297224E-002   8.1057944162649859E-002   0.0000000000000000     
  -4.7551504725754493E-002   9.3642615423423128E-002   0.0000000000000000     
  -5.0605413024023355E-002  0.10693546362086251        0.0000000000000000     
  -4.5703592280769569E-002   5.9290921694707045E-002   0.0000000000000000     
  -5.0204563084947619E-002   7.0387807260068325E-002   0.0000000000000000     
  -5.4427988975215925E-002   8.2188665162077471E-002   0.0000000000000000     
  -5.8373869951574522E-002   9.4693495400734462E-002   0.0000000000000000     
  -6.2042206014023382E-002  0.10790229797603930        0.0000000000000000     
  -5.5094496526606501E-002   6.0769422203139842E-002   0.0000000000000000     
  -6.0350032978915544E-002   7.1810369709474353E-002   0.0000000000000000     
  -6.5280213792886899E-002   8.3538321739199770E-002   0.0000000000000000     
  -6.9885038968520566E-002   9.5953278292316133E-002   0.0000000000000000     
  -7.4164508505816532E-002  0.10905523936882340        0.0000000000000000     
  -6.5147733469328284E-002   6.2448633976400068E-002   0.0000000000000000     
  -7.1172718261555357E-002   7.3449137186760799E-002   0.0000000000000000     
  -7.6818477697310136E-002   8.5106913894016839E-002   0.0000000000000000     
  -8.2085011776592623E-002   9.7421964098168140E-002   0.0000000000000000     
  -8.6972320499402803E-002  0.11039428779921473        0.0000000000000000     
  -3.9854129535816463E-002  0.10615473630329300        0.0000000000000000     
  -4.2092894009030442E-002  0.12009726219447125        0.0000000000000000     
  -4.4136915385334138E-002  0.13451702565873849        0.0000000000000000     
  -4.5986193664727559E-002  0.14941402669609474        0.0000000000000000     
  -4.7640728847210698E-002  0.16478826530653995        0.0000000000000000     
  -5.0605413024023355E-002  0.10693546362086251        0.0000000000000000     
  -5.3420103917459744E-002  0.12081682703343102        0.0000000000000000     
  -5.5992153184419545E-002  0.13516704393959156        0.0000000000000000     
  -5.8321560824902800E-002  0.14998611433934420        0.0000000000000000     
  -6.0408326838909482E-002  0.16527403823268894        0.0000000000000000     
  -6.2042206014023382E-002  0.10790229797603930        0.0000000000000000     
  -6.5425890881877627E-002  0.12169761778680212        0.0000000000000000     
  -6.8517818274452372E-002  0.13596199973183290        0.0000000000000000     
  -7.1317988191747617E-002  0.15069544381113170        0.0000000000000000     
  -7.3826400633763348E-002  0.16589795002469851        0.0000000000000000     
  -7.4164508505816532E-002  0.10905523936882340        0.0000000000000000     
  -7.8110254902284099E-002  0.12273963445458451        0.0000000000000000     
  -8.1713910655432612E-002  0.13690189303546244        0.0000000000000000     
  -8.4975475765262015E-002  0.15154201511145712        0.0000000000000000     
  -8.7894950231772309E-002  0.16666000068256867        0.0000000000000000     
  -8.6972320499402803E-002  0.11039428779921473        0.0000000000000000     
  -9.1473195978679187E-002  0.12394287703677823        0.0000000000000000     
  -9.5580430327360230E-002  0.13798672385048016        0.0000000000000000     
  -9.9294023545445961E-002  0.15252582824032057        0.0000000000000000     
 -0.10261397563293635       0.16756019020629945        0.0000000000000000     
 </DataArray>
 <DataArray  type="Float64" Name="stress" NumberOfComponents="3" format="ascii">
   11737909573.302921        3521372871.9908762        2308310913.3842793     
   10337941028.490412        1662975489.2696424        1374821699.9732609     
   9112797808.2212200        387329188.35947132        661267443.58042192     
   8062479912.4953470       -305566030.73963976        167648144.20576230     
   7186987341.3127947       -415710168.02768517       -106036198.15071736     
   8817143575.1245670        2645143072.5373702        1725402667.0477517     
   8056894157.0998335        1288865565.2914279        1147039677.5098629     
   7428091972.6640511        370745503.34198380        724959549.52701747     
   6930737021.8172150       -109217113.31096172        459162283.09921414     
   6564829304.5593319       -151022284.66740656        349647878.22645479     
   6491501232.2629976        1947450369.6788993        1287107590.7316413     
   6189107811.1313648        1038733798.9398457        1013263052.2867851     
   5974783532.6343117        423581036.98272705        832049279.93383503     
   5848528396.7718391        101992083.80754328        743466273.67279065     
   5810342403.5439482        73966939.414294720        747514033.50365353     
   4760982544.7182150        1428294763.4154644        993425684.43594837     
   4734581990.5850048        912580190.21489656        973491824.30402756     
   4752872488.1320066        545835789.28170025        982536634.80087590     
   4815854037.3592186        328061560.61587405        1020560115.9264938     
   4923526638.2666426        259257504.21741939        1087562267.6808796     
   3625587512.4902182        1087676253.7470655        844356948.16067314     
   3693316695.4607544        910404739.11658049        1027725993.5615900     
   3762358839.1571331        737509760.23890269        1176421614.1281395     
   3832713943.5793533        568991317.11403227        1290443809.8603213     
   3904382008.7274170        404849409.74196851        1369792580.7581351     
   7186987341.3127947       -415710168.02768517       -106036198.15071736     
   6938349881.0011988       -123096020.09897852       -33986660.661182821     
   6656448690.8421993        58639028.338374853        25392592.830732945     
   6341283770.8357906        129494977.28437376        72101562.325026482     
   5992855120.9819746        89471826.739010334        106140247.82170171     
   6564829304.5593319       -151022284.66740656        349647878.22645479     
   6256396146.1327152       -5257572.3332164288        351427605.19351977     
   5928819610.8476477        76695883.806140184        353769256.59154081     
   5582099698.7041311        94838083.750656605        356672832.42051560     
   5216236409.7021618        49169027.500342131        360138332.68044484     
   5810342403.5439482        73966939.414294720        747514033.50365353     
   5479919856.7982378        84224109.092746496        695497695.10203254     
   5144474286.1830311        77737865.872883320        657275489.55994093     
   4804005691.6983318        54508209.754702568        632847416.87737727     
   4458514073.3441362        14535140.738204718        622213477.05434287     
   4923526638.2666426        259257504.21741939        1087562267.6808796     
   4608921012.9977646        145349024.17891145        998223609.06435525     
   4303412716.8483486        61764974.538606405        935911291.73593318     
   4007001749.8183899        8505355.2965016365        900625315.69561219     
   3719688111.9078965       -14429833.547394514        892365680.94339633     
   3904382008.7274170        404849409.74196851        1369792580.7581351     
   3643399614.7312980        178117172.92527807        1259605347.0804870     
   3405634902.8435955        28777209.803308487        1189676663.1195168     
   3191087873.0643101       -43170479.623935699        1160006528.8752224     
   2999758525.3934422       -37725895.356458902        1170594944.3476059     
   5992855120.9819746        89471826.739010334        106140247.82170171     
   5603141397.0672617        3947227.6515388489        61974270.162524723     
   5224856726.3029079       -43480527.601385832        38817233.891497374     
   4858001108.6889267       -52811439.019742727        36669139.008619800     
   4502574544.2253132       -24045506.603542805        55529985.513890892     
   5216236409.7021618        49169027.500342131        360138332.68044484     
   4888255800.2950268       -2961624.8541398048        332445112.55514312     
   4567664897.4281301       -30459922.074486017        323523666.80144620     
   4254463701.1014771       -33325864.160689592        333373995.41935867     
   3948652211.3150640       -11559451.112757921        361996098.40887451     
   4458514073.3441362        14535140.738204718        622213477.05434287     
   4185874672.6830244       -6119136.6117563248        606280443.41777146     
   3916585631.9520292       -15605547.527990103        606882017.13626242     
   3650646951.1511517       -13924092.010509491        624018198.20981383     
   3388058630.2803912       -1074770.0592966080        657688986.63843155     
   3719688111.9078965       -14429833.547394514        892365680.94339633     
   3495998014.2312579       -5525307.6212973595        883480262.75041080     
   3271618929.8746119        1082596.0381069183        888892284.89594138     
   3046550858.8379574        5393877.4308202267        908601747.37999177     
   2820793801.1212964        7408536.5568366051        942608650.20256221     
   2999758525.3934422       -37725895.356458902        1170594944.3476059     
   2818625824.9397264       -1180137.8827675581        1164044570.5530574     
   2632764791.1958771        19604508.623814702        1169554470.0804851     
   2442175424.1618938        24628044.163281918        1187124642.9298878     
   2246857723.8377781        13890468.735644341        1216755089.1012659     
   4502574544.2253132       -24045506.603542805        55529985.513890892     
   4134222323.0984764        7765381.3881063461        34703417.148830891     
   3759005435.1340837        16694046.587896347        33135611.109521054     
   3376923880.3321428        2740488.9958553314        50826567.395954333     
   2987977658.6926398       -34095291.388047218        87776286.008153155     
   3948652211.3150640       -11559451.112757921        361996098.40887451     
   3626808457.4320602        10318098.762212515        332187427.71240592     
   3300819491.1116762        18378273.845917463        321188047.52006495     
   2970685312.3539119        12621074.138363719        328997957.83184302     
   2636405921.1587820       -6953500.3604297638        355617158.64774489     
   3388058630.2803912       -1074770.0592966080        657688986.63843155     
   3111439138.4365644        10484180.137584805        622070910.41076839     
   2833393888.5555372        17290603.543808341        604812652.86559618     
   2553922880.6373110        19344500.159364462        605914214.00292122     
   2273026114.6818905        16645869.984264493        625375593.82273996     
   2820793801.1212964        7408536.5568366051        942608650.20256221     
   2588114366.1119962        8263625.5142402649        904353865.24390960     
   2356728627.4656758        13431035.681581140        884009427.14612377     
   2126636585.1823380        22910767.058855057        881575335.90920162     
   1897838239.2619746        36702819.646061063        897051591.53315175     
   2246857723.8377781        13890468.735644341        1216755089.1012659     
   2056834140.4583557        3656434.8921749592        1179036292.2118318     
   1870823707.8420918        6799570.2592391968        1158778370.3616383     
   1688826425.9889879        23319874.836832225        1155981323.5506828     
   1510842294.8990407        53217348.624952376        1170645151.7789681     
   3625587512.4902182        1087676253.7470655        844356948.16067314     
   3693316695.4607544        910404739.11658049        1027725993.5615900     
   3762358839.1571331        737509760.23890269        1176421614.1281395     
   3832713943.5793533        568991317.11403227        1290443809.8603213     
   3904382008.7274170        404849409.74196851        1369792580.7581351     
   2770613389.5268106        831184016.85804319        777190065.80650461     
   2772022986.7319055        683414193.89156175        955662632.90742600     
   2774417304.4806209        538926772.73715258        1110985476.1776049     
   2777796342.7729588        397721753.39481509        1243158595.6170416     
   2782160101.6089177        259799135.86455011        1352181991.2257354     
   1881357429.7757964        564407228.93273890        729213721.27413285     
   1849372301.2258067        456016555.63336861        902406863.19580066     
   1818043653.0372183        349814150.20533532        1063973982.2903520     
   1787371485.2100315        245800012.64863908        1213915078.5577857     
   1757355797.7442451        143974142.96327937        1352230151.9981031     
   957819633.23717475        287345889.97115242        700427914.56355727     
   925364638.94246018        228211824.34200078        867958684.42671490     
   893237884.82692564        170171892.64345098        1035387132.4663808     
   861439370.89057195        113226094.87550312        1202713258.6825552     
   829969097.13339877        57374431.038156331        1369937063.0752385     
  -8.9053535608001277E-002  -2.6716060682400386E-002   690832645.67477810     
 -0.11813557229525969        1.7458367627023560E-002   852318096.60016787     
 -0.15025750218231873        5.1499558395257418E-002   1025224926.7056916     
 -0.18541945394372189        7.5407473019938095E-002   1209553135.9913492     
 -0.22362160200496159        8.9181746923192237E-002   1405302724.4571407     
   3904382008.7274170        404849409.74196851        1369792580.7581351     
   3643399614.7312980        178117172.92527807        1259605347.0804870     
   3405634902.8435955        28777209.803308487        1189676663.1195168     
   3191087873.0643101       -43170479.623935699        1160006528.8752224     
   2999758525.3934422       -37725895.356458902        1170594944.3476059     
   2782160101.6089177        259799135.86455011        1352181991.2257354     
   2632932824.1267767        103702813.65415776        1294366192.0679412     
   2501118808.2209945        5650696.6982948780        1265956721.7566147     
   2386718053.8915701       -34357215.003042221        1266953580.2917550     
   2289730561.1385050       -16320921.449847221        1297356767.6733632     
   1757355797.7442451        143974142.96327937        1352230151.9981031     
   1688877291.4326265        49211831.756150663        1340013963.4060941     
   1632007626.1653080       -6854342.6366453171        1346351882.7903433     
   1586746801.9422894       -24224380.215107441        1371243910.1508503     
   1553094818.7635713       -2898280.9792358279        1414690045.4876156     
   829969097.13339877        57374431.038156331        1369937063.0752385     
   811233016.64884651        14644227.231254518        1396548661.0949464     
   798301356.67653596       -8737908.2015106380        1430862146.2207026     
   791174117.21646726       -12771975.260135561        1472877518.4525075     
   789851298.26864028        2542026.0553785861        1522594777.7903612     
 -0.22362160200496159        8.9181746923192237E-002   1405302724.4571407     
 -0.22456301355989980        7.9468065598693877E-002   1463970285.1344974     
 -0.24532109688448983        3.6988984448631523E-003   1519487512.0476933     
 -0.28589685492531280      -0.13812853390844054        1571854405.1967287     
 -0.34628824533141928      -0.34600946192480303        1621070964.5816026     
   2999758525.3934422       -37725895.356458902        1170594944.3476059     
   2818625824.9397264       -1180137.8827675581        1164044570.5530574     
   2632764791.1958771        19604508.623814702        1169554470.0804851     
   2442175424.1618938        24628044.163281918        1187124642.9298878     
   2246857723.8377781        13890468.735644341        1216755089.1012659     
   2289730561.1385050       -16320921.449847221        1297356767.6733632     
   2140144170.7376938        6967337.0878645182        1278269465.5731831     
   1987011530.3729453        18434762.412457228        1274447705.3307958     
   1830332640.0442605        18081354.523928404        1285891486.9461980     
   1670107499.7516410        5907113.4222822189        1312600810.4193943     
   1553094818.7635713       -2898280.9792358279        1414690045.4876156     
   1444212648.5179937        9879851.6531961560        1384444912.2957025     
   1332966311.6346776        14777428.826499581        1372670589.4973946     
   1219355808.1136227        11794450.540672600        1379367077.0926960     
   1103381137.9548285        930916.79571694136        1404534375.0816026     
   789851298.26864028        2542026.0553785861        1522594777.7903612     
   730831258.28062904        7557405.8132319748        1482570910.7206092     
   670629134.98107433        8632507.8659417331        1464223122.5802801     
   609244928.36997831        5767332.2135128379        1467551413.3693738     
   546678638.44734287       -1038121.1440475285        1492555783.0878904     
 -0.34628824533141928      -0.34600946192480303        1621070964.5816026     
   2.5596168957258580E-002 -0.43203816211403306        1572647460.8479085     
  0.41213637356354155      -0.46921526874533148        1549105304.5794530     
  0.81333091589480488      -0.45754423601533389        1550444495.7762370     
   1.2291808596606084      -0.39702151822550691        1576665034.4382591     
   2246857723.8377781        13890468.735644341        1216755089.1012659     
   2056834140.4583557        3656434.8921749592        1179036292.2118318     
   1870823707.8420918        6799570.2592391968        1158778370.3616383     
   1688826425.9889879        23319874.836832225        1155981323.5506828     
   1510842294.8990407        53217348.624952376        1170645151.7789681     
   1670107499.7516410        5907113.4222822189        1312600810.4193943     
   1526485360.3953178       -2099747.4913467765        1282615976.1204607     
   1385873084.1285110       -73731.439926803112        1270349722.2777870     
   1248270670.9512193        11985161.576541364        1275802048.8913715     
   1113678120.8634381        34076931.558053851        1298972955.9612174     
   1103381137.9548285        930916.79571694136        1404534375.0816026     
   1006896743.8130949       -4627880.8306209445        1381113001.0872488     
   912418925.08722866       -3498093.7373986840        1375667912.9661760     
   819947681.77723181        4320278.0753864348        1388199110.7183816     
   729483013.88310337        18827234.607735664        1418706594.3438692     
   546678638.44734287       -1038121.1440475285        1492555783.0878904     
   498068290.71168083       -3927965.1256556511        1474527367.1121993     
   450461230.71824294       -3473516.6331839561        1474732942.4268084     
   403857458.46703112        325224.33337174356        1493172509.0317187     
   358256973.95803922        7468257.7739986479        1529846066.9269254     
   1.2291808596606084      -0.39702151822550691        1576665034.4382591     
   1.0910796991167320      -0.37644480024033022        1562859074.1953104     
   1.0215534004789948      -0.12728243367712738        1567544810.6596804     
   1.0206090894576754       0.35048343577187741        1590722243.8313687     
   1.0882414017540245        1.0568415190600635        1632391373.7103786     
  -8.9053535608001277E-002  -2.6716060682400386E-002   690832645.67477810     
 -0.11813557229525969        1.7458367627023560E-002   852318096.60016787     
 -0.15025750218231873        5.1499558395257418E-002   1025224926.7056916     
 -0.18541945394372189        7.5407473019938095E-002   1209553135.9913492     
 -0.22362160200496159        8.9181746923192237E-002   1405302724.4571407     
  -957819633.40014899       -287345890.02004468        700427914.60149693     
  -925364639.16980171       -228211824.33123422        867958684.47135699     
  -893237885.12080991       -170171892.58027399        1035387132.5195738     
  -861439371.25317264       -113226094.76716405        1202713258.7461483     
  -829969097.56689072       -57374430.891903609        1369937063.1510794     
  -1881357429.8933713       -564407228.96801138        729213721.33741522     
  -1849372301.4086714       -456016555.63608778        902406863.27704406     
  -1818043653.2836418       -349814150.16973114        1063973982.3932538     
  -1787371485.5182817       -245800012.56894124        1213915078.6860437     
  -1757355798.1125920       -143974142.83371854        1352230152.1554139     
  -2770613389.5687208       -831184016.87061620        777190065.88253295     
  -2772022986.8347440       -683414193.89710224        955662633.01723051     
  -2774417304.6387534       -538926772.71687245        1110985476.3267314     
  -2777796342.9807467       -397721753.32992595        1243158595.8110361     
  -2782160101.8607259       -259799135.73626375        1352181991.4701450     
  -3625587512.4261971       -1087676253.7278593        844356948.23684990     
  -3693316695.4480214       -910404739.11427796        1027725993.6919146     
  -3762358839.1861448       -737509760.22169733        1176421614.3200066     
  -3832713943.6405687       -568991317.05011725        1290443810.1211255     
  -3904382008.8112922       -404849409.59953785        1369792581.0952711     
 -0.22362160200496159        8.9181746923192237E-002   1405302724.4571407     
 -0.22456301355989980        7.9468065598693877E-002   1463970285.1344974     
 -0.24532109688448983        3.6988984448631523E-003   1519487512.0476933     
 -0.28589685492531280      -0.13812853390844054        1571854405.1967287     
 -0.34628824533141928      -0.34600946192480303        1621070964.5816026     
  -829969097.56689072       -57374430.891903609        1369937063.1510794     
  -811233017.07972658       -14644227.089537203        1396548661.1421266     
  -798301357.14515698        8737908.2041793466        1430862146.2392445     
  -791174117.76318228        12771974.989245951        1472877518.4424317     
  -789851298.93380404       -2542026.7343407571        1522594777.7516892     
  -1757355798.1125920       -143974142.83371854        1352230152.1554139     
  -1688877291.7938051       -49211831.616216660        1340013963.5052435     
  -1632007626.5603909        6854342.6500399113        1346351882.8313742     
  -1586746802.4123514        24224379.965051055        1371243910.1338065     
  -1553094819.3496852        2898280.3288158774        1414690045.4125392     
  -2782160101.8607259       -259799135.73626375        1352181991.4701450     
  -2632932824.3667984       -103702813.50056994        1294366192.2238486     
  -2501118808.4910226       -5650696.6587169170        1265956721.8240838     
  -2386718054.2333994        34357214.789293170        1266953580.2708521     
  -2289730561.5939283        16320920.843465090        1297356767.5641506     
  -3904382008.8112922       -404849409.59953785        1369792581.0952711     
  -3643399614.7987075       -178117172.74259913        1259605347.2979407     
  -3405634902.9370537       -28777209.722096443        1189676663.2173729     
  -3191087873.2263293        43170479.461972713        1160006528.8535693     
  -2999758525.6665368        37725894.809603930        1170594944.2065272     
 -0.34628824533141928      -0.34600946192480303        1621070964.5816026     
   2.5596168957258580E-002 -0.43203816211403306        1572647460.8479085     
  0.41213637356354155      -0.46921526874533148        1549105304.5794530     
  0.81333091589480488      -0.45754423601533389        1550444495.7762370     
   1.2291808596606084      -0.39702151822550691        1576665034.4382591     
  -789851298.93380404       -2542026.7343407571        1522594777.7516892     
  -730831258.21231329       -7557406.6642903984        1482570910.7291548     
  -670629134.15185177       -8632508.7976728082        1464223122.6281385     
  -609244926.75241935       -5767333.1344846487        1467551413.4486382     
  -546678636.01401591        1038120.3252724111        1492555783.1906559     
  -1553094819.3496852        2898280.3288158774        1414690045.4125392     
  -1444212648.4035068       -9879852.4825300574        1384444912.3128664     
  -1332966310.7940421       -14777429.749589384        1372670589.5909894     
  -1219355806.5212915       -11794451.472361684        1379367077.2469077     
  -1103381135.5852544       -930917.65084534883        1404534375.2806208     
  -2289730561.5939283        16320920.843465090        1297356767.5641506     
  -2140144170.5479839       -6967337.8867563009        1278269465.5990429     
  -1987011529.5144360       -18434763.324970365        1274447705.4680076     
  -1830332638.4932868       -18081355.471176863        1285891487.1710458     
  -1670107497.4845357       -5907114.3253771067        1312600810.7081573     
  -2999758525.6665368        37725894.809603930        1170594944.2065272     
  -2818625824.6457434        1180137.1230361462        1164044570.5876834     
  -2632764790.3130331       -19604509.523810267        1169554470.2591906     
  -2442175422.6684036       -24628045.130926371        1187124643.2210503     
  -2246857721.7118583       -13890469.698321342        1216755089.4732606     
   1.2291808596606084      -0.39702151822550691        1576665034.4382591     
   1.0910796991167320      -0.37644480024033022        1562859074.1953104     
   1.0215534004789948      -0.12728243367712738        1567544810.6596804     
   1.0206090894576754       0.35048343577187741        1590722243.8313687     
   1.0882414017540245        1.0568415190600635        1632391373.7103786     
  -546678636.01401591        1038120.3252724111        1492555783.1906559     
  -498068288.48903012        3927964.5464502573        1474527367.4390037     
  -450461228.44008702        3473517.1808198690        1474732942.9822674     
  -403857455.86718321       -325221.77160812914        1493172509.8204508     
  -358256970.77031970       -7468252.3108378947        1529846067.9535451     
  -1103381135.5852544       -930917.65084534883        1404534375.2806208     
  -1006896741.5754739        4627880.4174459577        1381113001.8848774     
  -912418922.58635616        3498095.0835304856        1375667914.3716488     
  -819947678.61789465       -4320273.6525737345        1388199112.7409315     
  -729483009.67009509       -18827225.790888250        1418706596.9927323     
  -1670107497.4845357       -5907114.3253771067        1312600810.7081573     
  -1526485358.1682541        2099747.2365419865        1282615977.5329311     
  -1385873081.4172556        73733.580853462219        1270349724.8278189     
  -1248270667.2315326       -11985155.292424798        1275802052.5928156     
  -1113678115.6110909       -34076919.383303046        1298972960.8279254     
  -2246857721.7118583       -13890469.698321342        1216755089.4732606     
  -2056834138.2673693       -3656434.9962649345        1179036294.3831668     
  -1870823704.9327824       -6799567.3272119761        1158778374.3507819     
  -1688826421.7080867       -23319866.691139221        1155981329.3761044     
  -1510842288.5932982       -53217333.088077903        1170645159.4591374     
  -3625587512.4261971       -1087676253.7278593        844356948.23684990     
  -3693316695.4480214       -910404739.11427796        1027725993.6919146     
  -3762358839.1861448       -737509760.22169733        1176421614.3200066     
  -3832713943.6405687       -568991317.05011725        1290443810.1211255     
  -3904382008.8112922       -404849409.59953785        1369792581.0952711     
  -4760982544.5681410       -1428294763.3704422        993425684.50477338     
  -4734581990.4576769       -912580190.18963623        973491824.41554904     
  -4752872488.0212908       -545835789.25575578        982536634.97031271     
  -4815854037.2589836       -328061560.56880307        1020560116.1690639     
  -4923526638.1707544       -259257504.12877512        1087562268.0118034     
  -6491501232.0968904       -1947450369.6290672        1287107590.7907102     
  -6189107810.9371090       -1038733798.9059267        1013263052.3731230     
  -5974783532.4091845       -423581036.95563841        832049280.07048428     
  -5848528396.5131149       -101992083.77820230        743466273.88279402     
  -5810342403.2488995       -73966939.373617172        747514033.81005275     
  -8817143575.0124454       -2645143072.5037341        1725402667.0946605     
  -8056894156.8863153       -1288865565.2631497        1147039677.5646362     
  -7428091972.3498220       -370745503.32134461        724959549.62052155     
  -6930737021.4029589        109217113.32168484        459162283.26231635     
  -6564829304.0457287        151022284.66593742        349647878.49002016     
  -11737909573.314810       -3521372871.9944429        2308310913.4166245     
  -10337941028.305300       -1662975489.2613065        1374821699.9900892     
  -9112797807.8432026       -387329188.35287285        661267443.62042439     
  -8062479911.9285173        305566030.73085546        167648144.30762953     
  -7186987340.5612411        415710167.98988390       -106036197.94829483     
  -3904382008.8112922       -404849409.59953785        1369792581.0952711     
  -3643399614.7987075       -178117172.74259913        1259605347.2979407     
  -3405634902.9370537       -28777209.722096443        1189676663.2173729     
  -3191087873.2263293        43170479.461972713        1160006528.8535693     
  -2999758525.6665368        37725894.809603930        1170594944.2065272     
  -4923526638.1707544       -259257504.12877512        1087562268.0118034     
  -4608921012.8837547       -145349024.07292747        998223609.24528825     
  -4303412716.7427711       -61764974.503802538        935911291.77334976     
  -4007001749.7478061       -8505355.4214057922        900625315.59598899     
  -3719688111.8988585        14429833.174268484        892365680.71320593     
  -5810342403.2488995       -73966939.373617172        747514033.81005275     
  -5479919856.4651575       -84224109.052161455        695497695.24675095     
  -5144474285.8225193       -77737865.867720127        657275489.55584264     
  -4804005691.3209858       -54508209.820295095        632847416.73732424     
  -4458514072.9605551       -14535140.909877062        622213476.79119945     
  -6564829304.0457287        151022284.66593742        349647878.49002016     
  -6256396145.5429173        5257572.3196954727        351427605.30233240     
  -5928819610.1762953       -76695883.813843489        353769256.56484997     
  -5582099697.9458666       -94838083.734694242        356672832.27757484     
  -5216236408.8516264       -49169027.442837954        360138332.44050497     
  -7186987340.5612411        415710167.98988390       -106036197.94829483     
  -6938349880.1170321        123096020.04264975       -33986660.587972470     
  -6656448689.8041019       -58639028.342181683        25392592.800372414     
  -6341283769.6224480       -129494977.16460156        72101562.216738448     
  -5992855119.5720711       -89471826.424607277        106140247.66112374     
  -2999758525.6665368        37725894.809603930        1170594944.2065272     
  -2818625824.6457434        1180137.1230361462        1164044570.5876834     
  -2632764790.3130331       -19604509.523810267        1169554470.2591906     
  -2442175422.6684036       -24628045.130926371        1187124643.2210503     
  -2246857721.7118583       -13890469.698321342        1216755089.4732606     
  -3719688111.8988585        14429833.174268484        892365680.71320593     
  -3495998013.8524013        5525307.1262471676        883480262.70053256     
  -3271618929.1014290       -1082596.5733954906        888892284.88527644     
  -3046550857.6459451       -5393877.9246647358        908601747.26743853     
  -2820793799.4859486       -7408536.9275599718        942608649.84701824     
  -4458514072.9605551       -14535140.909877062        622213476.79119945     
  -4185874672.4396701        6119136.3152792454        606280443.34272218     
  -3916585631.8216767        15605547.197465181        606882016.99872994     
  -3650646951.1065755        13924091.736672640        624018197.75922203     
  -3388058630.2943687        1074769.9329049587        657688985.62419868     
  -5216236408.8516264       -49169027.442837954        360138332.44050497     
  -4888255800.4075537        2961624.6901240349        332445112.51425439     
  -4567664898.4737768        30459921.788768530        323523666.59955120     
  -4254463703.0502987        33325863.853077412        333373994.69640195     
  -3948652214.1371160        11559450.883074760        361996096.80480206     
  -5992855119.5720711       -89471826.424607277        106140247.66112374     
  -5603141397.7560501       -3947227.7492082119        61974270.215122715     
  -5224856729.0577269        43480527.200523615        38817233.687741295     
  -4858001113.4771128        52811438.424563885        36669138.078975983     
  -4502574551.0141983        24045505.922932148        55529983.388827950     
  -2246857721.7118583       -13890469.698321342        1216755089.4732606     
  -2056834138.2673693       -3656434.9962649345        1179036294.3831668     
  -1870823704.9327824       -6799567.3272119761        1158778374.3507819     
  -1688826421.7080867       -23319866.691139221        1155981329.3761044     
  -1510842288.5932982       -53217333.088077903        1170645159.4591374     
  -2820793799.4859486       -7408536.9275599718        942608649.84701824     
  -2588114364.4994869       -8263625.0310378075        904353866.93204057     
  -2356728625.3264556       -13431032.512623310        884009430.79291832     
  -2126636581.9668570       -22910759.372317314        881575341.42965627     
  -1897838234.4206903       -36702805.610114932        897051598.84224415     
  -3388058630.2943687        1074769.9329049587        657688985.62419868     
  -3111439138.8569374       -10484179.503406048        622070911.56354702     
  -2833393888.9364734       -17290600.662940979        604812655.99690187     
  -2553922880.5329747       -19344493.545694470        605914218.92425954     
  -2273026113.6464376       -16645858.151655078        625375600.34562218     
  -3948652214.1371160        11559450.883074760        361996096.80480206     
  -3626808461.3397269       -10318098.413382530        332187428.27768964     
  -3300819495.7628336       -18378271.778161526        321188049.96272957     
  -2970685317.4064393       -12621069.211268306        328997961.85992104     
  -2636405926.2705421        6953509.2872976065        355617163.96926391     
  -4502574551.0141983        24045505.922932148        55529983.388827950     
  -4134222331.9478521       -7765381.7609560490        34703417.074464418     
  -3759005445.8055382       -16694045.858287096        33135612.690403916     
  -3376923892.5872579       -2740486.3690562248        50826570.236636192     
  -2987977672.2930036        34095296.706739902        87776289.713174060     
 </DataArray>
 <DataArray  type="Float64" Name="VM" NumberOfComponents="1" format="ascii">
   11172731515.966257     
   9905411337.5828342     
   8998626512.4602509     
   8224651398.3316736     
   7405878525.1458673     
   8387326125.8646202     
   7754841360.5415258     
   7357769358.3503819     
   7031108670.8093681     
   6669181956.1875801     
   6185484020.4021168     
   6002940443.9450436     
   5951770506.7437019     
   5939478890.8521557     
   5917103041.2578287     
   4568104427.0538740     
   4665987836.6267509     
   4815556084.9776831     
   4984456515.6261702     
   5155603053.1140404     
   3538823952.6987457     
   3778316309.2700014     
   4009537599.0499868     
   4222369242.0962772     
   4410942110.9217014     
   7405878525.1458673     
   7000957094.3598652     
   6627469681.3607578     
   6278780161.7366915     
   5951463960.2728300     
   6669181956.1875801     
   6288554517.5159960     
   5922628321.7260323     
   5569657278.3100986     
   5229164508.7612658     
   5917103041.2578287     
   5570118948.5793142     
   5231421567.0763779     
   4901129628.9773712     
   4579869290.2820759     
   5155603053.1140404     
   4856205122.5422506     
   4570029057.3171473     
   4295978615.9123173     
   4034713357.3334432     
   4410942110.9217014     
   4173362113.6780524     
   3968269678.0173011     
   3789394640.1807771     
   3636484648.8430619     
   5951463960.2728300     
   5602197305.6974297     
   5247162874.0411224     
   4885033851.1304550     
   4515669732.8860579     
   5229164508.7612658     
   4923524142.1969995     
   4617101236.4718513     
   4310077764.8503313     
   4003842614.8914862     
   4579869290.2820759     
   4318556018.6729631     
   4062748374.7979927     
   3813980220.3766470     
   3574947304.6129713     
   4034713357.3334432     
   3818764359.4510889     
   3615292275.1942182     
   3426622230.9304285     
   3256004883.7760410     
   3636484648.8430619     
   3465974406.6507602     
   3314180697.8378997     
   3183155053.1340966     
   3075521339.5270491     
   4515669732.8860579     
   4130782454.4942088     
   3751125357.3923097     
   3376702237.5334353     
   3009013621.7424212     
   4003842614.8914862     
   3667079184.2552199     
   3338348243.5087509     
   3018667958.8439779     
   2710794620.1041222     
   3574947304.6129713     
   3287774200.6639347     
   3012776765.2886720     
   2752251447.9149675     
   2510452589.8500824     
   3256004883.7760410     
   3021685753.4193001     
   2804837769.2476420     
   2608813985.6861267     
   2438767257.9355364     
   3075521339.5270491     
   2897143266.3592019     
   2741461055.2750049     
   2611929124.9955292     
   2513225759.7112746     
   3538823952.6987457     
   3778316309.2700014     
   4009537599.0499868     
   4222369242.0962772     
   4410942110.9217014     
   2806483396.1744542     
   2999433237.8405967     
   3193038030.8535767     
   3377258498.3377438     
   3545461330.1982675     
   2095582859.0050437     
   2286438072.8313775     
   2487528326.1667085     
   2690083268.6995783     
   2888181661.6625738     
   1482079068.6913748     
   1719668000.7941182     
   1972538454.0548172     
   2235378730.8139944     
   2504935965.8817086     
   1196557241.8359435     
   1476258247.5218892     
   1775741662.2403362     
   2095007485.9912844     
   2434055718.7747340     
   4410942110.9217014     
   4173362113.6780524     
   3968269678.0173011     
   3789394640.1807771     
   3636484648.8430619     
   3545461330.1982675     
   3419970541.5990129     
   3324068805.4702764     
   3255014377.2595248     
   3214017217.6890888     
   2888181661.6625738     
   2856313678.7035069     
   2848275336.0954003     
   2863166040.4670253     
   2901836831.3329253     
   2504935965.8817086     
   2549015117.3497086     
   2605078949.9639091     
   2672887767.2744322     
   2752589378.1594968     
   2434055718.7747340     
   2535670914.6240458     
   2631829572.3330312     
   2722531691.9016914     
   2807777273.3300238     
   3636484648.8430619     
   3465974406.6507602     
   3314180697.8378997     
   3183155053.1340966     
   3075521339.5270491     
   3214017217.6890888     
   3076893399.0836802     
   2963878445.1619792     
   2877134053.8517780     
   2819253642.8686538     
   2901836831.3329253     
   2796719922.4143605     
   2722130303.1579423     
   2679654206.0824652     
   2671062350.1754460     
   2752589378.1594968     
   2668838280.9768863     
   2622189314.9982333     
   2613201174.7302260     
   2642459919.6527157     
   2807777273.3300238     
   2723905304.5827641     
   2683129093.8060732     
   2685448640.9999523     
   2730863946.1643987     
   3075521339.5270491     
   2897143266.3592019     
   2741461055.2750049     
   2611929124.9955292     
   2513225759.7112746     
   2819253642.8686538     
   2696048668.8569155     
   2600406053.6462369     
   2535029623.1481552     
   2503094421.3129144     
   2671062350.1754460     
   2596332342.6399369     
   2552077365.3514123     
   2539700922.6796522     
   2560654405.9998713     
   2642459919.6527157     
   2602448215.6398611     
   2594032348.4320693     
   2617567961.5707870     
   2673390215.4957190     
   2730863946.1643987     
   2706951321.5763350     
   2715067255.2035022     
   2755211747.0458989     
   2827384797.1035304     
   1196557241.8359435     
   1476258247.5218892     
   1775741662.2403362     
   2095007485.9912844     
   2434055718.7747340     
   1482079068.8283720     
   1719668000.9704311     
   1972538454.2678394     
   2235378731.0625787     
   2504935966.1656857     
   2095582859.1544950     
   2286438073.0566878     
   2487528326.4695282     
   2690083269.0831323     
   2888181662.1314325     
   2806483396.2703032     
   2999433238.0275803     
   3193038031.1386809     
   3377258498.7296848     
   3545461330.7072129     
   3538823952.7014556     
   3778316309.3660073     
   4009537599.2483339     
   4222369242.4072356     
   4410942111.3561468     
   2434055718.7747340     
   2535670914.6240458     
   2631829572.3330312     
   2722531691.9016914     
   2807777273.3300238     
   2504935966.1656857     
   2549015117.5848837     
   2605078950.1392703     
   2672887767.3795233     
   2752589378.1890969     
   2888181662.1314325     
   2856313679.0924573     
   2848275336.3843050     
   2863166040.6336255     
   2901836831.3624043     
   3545461330.7072129     
   3419970542.0116439     
   3324068805.7651320     
   3255014377.4069438     
   3214017217.6633663     
   4410942111.3561468     
   4173362114.0043030     
   3968269678.2194400     
   3789394640.2282119     
   3636484648.7022901     
   2807777273.3300238     
   2723905304.5827641     
   2683129093.8060732     
   2685448640.9999523     
   2730863946.1643987     
   2752589378.1890969     
   2668838280.8584003     
   2622189314.7516170     
   2613201174.3831081     
   2642459919.2379456     
   2901836831.3624043     
   2796719922.1697297     
   2722130302.6691756     
   2679654205.3916574     
   2671062349.3346472     
   3214017217.6633663     
   3076893398.7081442     
   2963878444.4658942     
   2877134052.8761024     
   2819253641.6657395     
   3636484648.7022901     
   3465974406.1373467     
   3314180696.9762259     
   3183155051.9560885     
   3075521338.0729475     
   2730863946.1643987     
   2706951321.5763350     
   2715067255.2035022     
   2755211747.0458989     
   2827384797.1035304     
   2642459919.2379456     
   2602448215.7119980     
   2594032349.0305700     
   2617567962.7169094     
   2673390217.1862311     
   2671062349.3346472     
   2596332342.9621959     
   2552077366.9708772     
   2539700925.6853480     
   2560654410.4089370     
   2819253641.6657395     
   2696048669.5386686     
   2600406056.5090303     
   2535029628.4312763     
   2503094429.1311302     
   3075521338.0729475     
   2897143267.4192433     
   2741461059.3448792     
   2611929132.5419922     
   2513225771.0604806     
   3538823952.7014556     
   3778316309.3660073     
   4009537599.2483339     
   4222369242.4072356     
   4410942111.3561468     
   4568104426.9752121     
   4665987836.5876799     
   4815556084.9882574     
   4984456515.7012634     
   5155603053.2721710     
   6185484020.3012733     
   6002940443.8169069     
   5951770506.5946951     
   5939478890.6924171     
   5917103041.1055336     
   8387326125.8004541     
   7754841360.3717289     
   7357769358.0780830     
   7031108670.4352131     
   6669181955.7168970     
   11172731515.996170     
   9905411337.4151363     
   8998626512.0974483     
   8224651397.7670870     
   7405878524.3662748     
   4410942111.3561468     
   4173362114.0043030     
   3968269678.2194400     
   3789394640.2282119     
   3636484648.7022901     
   5155603053.2721710     
   4856205122.5944500     
   4570029057.2573471     
   4295978615.7258911     
   4034713356.9990287     
   5917103041.1055336     
   5570118948.3277054     
   5231421566.7254534     
   4901129628.5239315     
   4579869289.7189999     
   6669181955.7168970     
   6288554516.9404736     
   5922628321.0497856     
   5569657277.5368614     
   5229164507.8953972     
   7405878524.3662748     
   7000957093.4458618     
   6627469680.3204870     
   6278780160.5780649     
   5951463959.0086956     
   3636484648.7022901     
   3465974406.1373467     
   3314180696.9762259     
   3183155051.9560885     
   3075521338.0729475     
   4034713356.9990287     
   3818764358.8420410     
   3615292274.2447424     
   3426622229.5632787     
   3256004881.8926105     
   4579869289.7189999     
   4318556018.2612009     
   4062748374.4498606     
   3813980219.9806757     
   3574947304.0065198     
   5229164507.8953972     
   4923524142.2189522     
   4617101237.3240957     
   4310077766.4595842     
   4003842617.1297073     
   5951463959.0086956     
   5602197306.3390636     
   5247162876.5882215     
   4885033855.5947142     
   4515669739.2519913     
   3075521338.0729475     
   2897143267.4192433     
   2741461059.3448792     
   2611929132.5419922     
   2513225771.0604806     
   3256004881.8926105     
   3021685753.7616940     
   2804837772.2195892     
   2608813991.7409458     
   2438767267.5201278     
   3574947304.0065198     
   3287774202.0134940     
   3012776768.8697910     
   2752251454.0909052     
   2510452599.0690222     
   4003842617.1297073     
   3667079188.4396152     
   3338348249.8107295     
   3018667967.5264540     
   2710794631.5403314     
   4515669739.2519913     
   4130782463.1548824     
   3751125368.4666533     
   3376702251.2240105     
   3009013638.3500185     
 </DataArray>
 <DataArray  type="Float64" Name="strain" NumberOfComponents="3" format="ascii">
  0.17802496186176098        0.0000000000000000       0.10002680624665211     
  0.16398413969515865       -2.3973446987958023E-002   5.9575606998841305E-002
  0.14994331752855633       -3.9108502568448257E-002   2.8654922555151618E-002
  0.13590249536195398       -4.5405166741470729E-002   7.2647529155830323E-003
  0.12186167319535168       -4.2863439507025397E-002  -4.5949019198644192E-003
  0.13372667755605594        0.0000000000000000        7.4767448905402573E-002
  0.12783724145854009       -1.8803378030642040E-002   4.9705052692094062E-002
  0.12194780536102426       -3.0961368140953856E-002   3.1414913812837425E-002
  0.11605836926350839       -3.6473970330935433E-002   1.9897032267632613E-002
  0.11016893316599256       -3.5341184600586766E-002   1.5151408056479708E-002
   9.8454435355988801E-002   0.0000000000000000        5.5774662265037786E-002
   9.7958127857490182E-002  -1.3633309073326060E-002   4.3908065599094021E-002
   9.7461820358991563E-002  -2.2814233713459441E-002   3.6055468797132853E-002
   9.6965512860492944E-002  -2.7542773920400145E-002   3.2216871859154263E-002
   9.6469205361994326E-002  -2.7818929694148162E-002   3.2392274785158319E-002
   7.2208235261559589E-002   0.0000000000000000        4.3048446325557765E-002
   7.4346798892008931E-002  -8.4632401160100804E-003   4.2184645719841193E-002
   7.6485362522458272E-002  -1.4667099285965029E-002   4.2576587508037958E-002
   7.8623926152907614E-002  -1.8611577509864859E-002   4.4224271690148066E-002
   8.0762489783356942E-002  -2.0296674787709558E-002   4.7127698266171449E-002
   5.4988077272768311E-002   0.0000000000000000        3.6588801086962504E-002
   5.7003254562096345E-002  -3.2931711586940979E-003   4.4534793054335567E-002
   5.9018431851424372E-002  -6.5199648584706223E-003   5.0978269945552712E-002
   6.1033609140752398E-002  -9.6803810993295637E-003   5.5919231760613919E-002
   6.3048786430080439E-002  -1.2774419881270942E-002   5.9357678499519187E-002
  0.12186167319535168       -4.2863439507025397E-002  -4.5949019198644192E-003
  0.11625464478384821       -3.6743349739988974E-002  -1.4727552953179221E-003
  0.11064761637234477       -3.2304926315238076E-002   1.1003456893317609E-003
  0.10504058796084130       -2.9548169232772724E-002   3.1244010340844806E-003
   9.9433559549337858E-002  -2.8473078492593035E-002   4.5994107389404071E-003
  0.11016893316599256       -3.5341184600586766E-002   1.5151408056479708E-002
  0.10429955696387799       -3.1369606936217181E-002   1.5228529558385856E-002
   9.8430180761763436E-002  -2.8365833324135906E-002   1.5330001118966770E-002
   9.2560804559648907E-002  -2.6329863764343046E-002   1.5455822738222344E-002
   8.6691428357534323E-002  -2.5261698256838439E-002   1.5605994416152610E-002
   9.6469205361994326E-002  -2.7818929694148162E-002   3.2392274785158319E-002
   9.0910877067840234E-002  -2.5995864132445413E-002   3.0138233454421411E-002
   8.5352548773686115E-002  -2.4426740333033773E-002   2.8481937880930775E-002
   7.9794220479532010E-002  -2.3111558295913281E-002   2.7423388064686346E-002
   7.4235892185377919E-002  -2.2050318021083939E-002   2.6962584005688191E-002
   8.0762489783356942E-002  -2.0296674787709558E-002   4.7127698266171449E-002
   7.6088605095734854E-002  -2.0622121328673630E-002   4.3256356392788728E-002
   7.1414720408112767E-002  -2.0487647341931634E-002   4.0556155975223773E-002
   6.6740835720490665E-002  -1.9893252827483589E-002   3.9027097013476529E-002
   6.2066951032868578E-002  -1.8838937785329392E-002   3.8669179507547176E-002
   6.3048786430080439E-002  -1.2774419881270942E-002   5.9357678499519187E-002
   5.9832741047561908E-002  -1.5248378524901855E-002   5.4582898373487766E-002
   5.6616695665043390E-002  -1.6548554350829504E-002   5.1552655401845726E-002
   5.3400650282524852E-002  -1.6674947359053813E-002   5.0266949584592970E-002
   5.0184604900006327E-002  -1.5627557549574858E-002   5.0725780921729594E-002
   9.9433559549337858E-002  -2.8473078492593035E-002   4.5994107389404071E-003
   9.3365953812863334E-002  -2.7949919857810659E-002   2.6855517070427382E-003
   8.7298348076388727E-002  -2.6848959091537637E-002   1.6820801352982195E-003
   8.1230742339914161E-002  -2.5170196193773677E-002   1.5889960237068582E-003
   7.5163136603439595E-002  -2.2913631164518944E-002   2.4062993722686055E-003
   8.6691428357534323E-002  -2.5261698256838439E-002   1.5605994416152610E-002
   8.1485738129187801E-002  -2.4490639415710794E-002   1.4405954877389535E-002
   7.6280047900841266E-002  -2.3345989855048752E-002   1.4019358894729335E-002
   7.1074357672494731E-002  -2.1827749574852211E-002   1.4446206468172209E-002
   6.5868667444148182E-002  -1.9935918575121281E-002   1.5686497597717897E-002
   7.4235892185377919E-002  -2.2050318021083939E-002   2.6962584005688191E-002
   6.9795173561109189E-002  -2.1031358973611060E-002   2.6272152548103431E-002
   6.5354454936840445E-002  -1.9843020618559980E-002   2.6298220742571373E-002
   6.0913736312571742E-002  -1.8485302955930916E-002   2.7040788589091931E-002
   5.6473017688302998E-002  -1.6958205985723562E-002   2.8499856087665365E-002
   6.2066951032868578E-002  -1.8838937785329392E-002   3.8669179507547176E-002
   5.8294260108627455E-002  -1.7572078531511246E-002   3.8284144719184468E-002
   5.4521569184386331E-002  -1.6340051382071279E-002   3.8518665678824129E-002
   5.0748878260145194E-002  -1.5142856337009453E-002   3.9372742386466313E-002
   4.6976187335904085E-002  -1.3980493396325872E-002   4.0846374842111031E-002
   5.0184604900006327E-002  -1.5627557549574858E-002   5.0725780921729594E-002
   4.6982997771742613E-002  -1.4112798089411425E-002   5.0441931390632494E-002
   4.3781390643478878E-002  -1.2837082145582473E-002   5.0680693703487691E-002
   4.0579783515215156E-002  -1.1800409718088104E-002   5.1442067860295135E-002
   3.7378176386951414E-002  -1.1002780806928153E-002   5.2726053861054861E-002
   7.5163136603439595E-002  -2.2913631164518944E-002   2.4062993722686055E-003
   6.8864878478034075E-002  -2.0541688592357277E-002   1.5038147431160054E-003
   6.2566620352628582E-002  -1.8516793065872145E-002   1.4358764814125791E-003
   5.6268362227223104E-002  -1.6838944585063124E-002   2.2024845871580212E-003
   4.9970104101817570E-002  -1.5508143149930653E-002   3.8036390603533032E-003
   6.5868667444148182E-002  -1.9935918575121281E-002   1.5686497597717897E-002
   6.0395217130056605E-002  -1.7962073974456760E-002   1.4394788534204256E-002
   5.4921766815965015E-002  -1.6197792891459756E-002   1.3918148725869481E-002
   4.9448316501873375E-002  -1.4643075326130163E-002   1.4256578172713197E-002
   4.3974866187781847E-002  -1.3297921278467739E-002   1.5410076874735612E-002
   5.6473017688302998E-002  -1.6958205985723562E-002   2.8499856087665365E-002
   5.1804898073254821E-002  -1.5382459356556411E-002   2.6956406117799966E-002
   4.7136778458206581E-002  -1.3878792717047547E-002   2.6208548290842501E-002
   4.2468658843158369E-002  -1.2447206067197149E-002   2.6256282606793253E-002
   3.7800539228110192E-002  -1.1087699407005047E-002   2.7099609065652064E-002
   4.6976187335904085E-002  -1.3980493396325872E-002   4.0846374842111031E-002
   4.3093921307628735E-002  -1.2802844738655977E-002   3.9188667493902749E-002
   3.9211655279353358E-002  -1.1559792542635360E-002   3.8307075176332028E-002
   3.5329389251078022E-002  -1.0251336808264106E-002   3.8201597889398739E-002
   3.1447123222802603E-002  -8.8774775355421887E-003   3.8872235633103241E-002
   3.7378176386951414E-002  -1.1002780806928153E-002   5.2726053861054861E-002
   3.4262286833178390E-002  -1.0223230120755530E-002   5.1091572662512713E-002
   3.1146397279405331E-002  -9.2407923682231372E-003   5.0213729382337660E-002
   2.8030507725632304E-002  -8.0554675493310687E-003   5.0092524020529584E-002
   2.4914618171859249E-002  -6.6672556640793301E-003   5.0727956577088618E-002
   5.4988077272768311E-002   0.0000000000000000        3.6588801086962504E-002
   5.7003254562096345E-002  -3.2931711586940979E-003   4.4534793054335567E-002
   5.9018431851424372E-002  -6.5199648584706223E-003   5.0978269945552712E-002
   6.1033609140752398E-002  -9.6803810993295637E-003   5.5919231760613919E-002
   6.3048786430080439E-002  -1.2774419881270942E-002   5.9357678499519187E-002
   4.2020969741156627E-002   0.0000000000000000        3.3678236184948536E-002
   4.2783312142740608E-002  -2.4698783688001606E-003   4.1412047425988460E-002
   4.3545654544324588E-002  -4.8899736434505625E-003   4.8142703967696210E-002
   4.4307996945908569E-002  -7.2602858239512093E-003   5.3870205810071806E-002
   4.5070339347492543E-002  -9.5808149103020854E-003   5.8594552953115206E-002
   2.8533921018266246E-002   0.0000000000000000        3.1599261255212424E-002
   2.8542788908929938E-002  -1.6465855789062236E-003   3.9104297405151360E-002
   2.8551656799593629E-002  -3.2599824284305036E-003   4.6105539232581920E-002
   2.8560524690257327E-002  -4.8401905485728394E-003   5.2602986737504048E-002
   2.8569392580921019E-002  -6.3872099393332349E-003   5.8596639919917808E-002
   1.4526931104097151E-002   0.0000000000000000        3.0351876297754148E-002
   1.4281684860664331E-002  -8.2329278901228735E-004   3.7611542991824315E-002
   1.4036438617231506E-002  -1.6299912134104450E-003   4.4866775740209835E-002
   1.3791192373798682E-002  -2.4200952731944737E-003   5.2117574542910730E-002
   1.3545946130365864E-002  -3.1936049683643883E-003   5.9363939399926999E-002
  -1.3506452900546861E-012   0.0000000000000000        2.9936081312573720E-002
  -2.0562180430561128E-012   8.8165065526002451E-013   3.6933784186007276E-002
  -2.7617894950149324E-012   1.6096134841658838E-012   4.4426413490579970E-002
  -3.4673615974950556E-012   2.1838884867175778E-012   5.2413969226291802E-002
  -4.1729354346986547E-012   2.6044704587446788E-012   6.0896451393142759E-002
   6.3048786430080439E-002  -1.2774419881270942E-002   5.9357678499519187E-002
   5.9832741047561908E-002  -1.5248378524901855E-002   5.4582898373487766E-002
   5.6616695665043390E-002  -1.6548554350829504E-002   5.1552655401845726E-002
   5.3400650282524852E-002  -1.6674947359053813E-002   5.0266949584592970E-002
   5.0184604900006327E-002  -1.5627557549574858E-002   5.0725780921729594E-002
   4.5070339347492543E-002  -9.5808149103020854E-003   5.8594552953115206E-002
   4.3363699667175487E-002  -1.1436283893064588E-002   5.6089201656277454E-002
   4.1657059986858438E-002  -1.2411415762800060E-002   5.4858124609453301E-002
   3.9950420306541383E-002  -1.2506210519508556E-002   5.4901321812642720E-002
   3.8243780626224320E-002  -1.1720668163189979E-002   5.6218793265845744E-002
   2.8569392580921019E-002  -6.3872099393332349E-003   5.8596639919917808E-002
   2.7901895698429689E-002  -7.6241892612272880E-003   5.8067271747597411E-002
   2.7234398815938358E-002  -8.2742771747706285E-003   5.8341914920914881E-002
   2.6566901933447028E-002  -8.3374736799632383E-003   5.9420569439870181E-002
   2.5899405050955702E-002  -7.8137787768051206E-003   6.1303235304463341E-002
   1.3545946130365864E-002  -3.1936049683643883E-003   5.9363939399926999E-002
   1.3447329141324503E-002  -3.8120946293899909E-003   6.0517108647447679E-002
   1.3348712152283154E-002  -4.1371385867411906E-003   6.2004026336230450E-002
   1.3250095163241800E-002  -4.1687368404179298E-003   6.3824692466275326E-002
   1.3151478174200443E-002  -3.9068893904202241E-003   6.5979107037582321E-002
  -4.1729354346986547E-012   2.6044704587446788E-012   6.0896451393142759E-002
  -4.1400572206584663E-012   2.4472828277777303E-012   6.3438712355828222E-002
  -4.1071794402991468E-012   1.2882537918368353E-012   6.5844458855400037E-002
  -4.0743049125463449E-012  -8.7265795718077799E-013   6.8113690891858245E-002
  -4.0414234458996390E-012  -4.0353831387562877E-012   7.0246408465202775E-002
   5.0184604900006327E-002  -1.5627557549574858E-002   5.0725780921729594E-002
   4.6982997771742613E-002  -1.4112798089411425E-002   5.0441931390632494E-002
   4.3781390643478878E-002  -1.2837082145582473E-002   5.0680693703487691E-002
   4.0579783515215156E-002  -1.1800409718088104E-002   5.1442067860295135E-002
   3.7378176386951414E-002  -1.1002780806928153E-002   5.2726053861054861E-002
   3.8243780626224320E-002  -1.1720668163189979E-002   5.6218793265845744E-002
   3.5634232826855572E-002  -1.0584598568890727E-002   5.5391676841504603E-002
   3.3024685027486803E-002  -9.6278116116571069E-003   5.5226067231001152E-002
   3.0415137228118033E-002  -8.8503072914891626E-003   5.5721964434335247E-002
   2.7805589428749271E-002  -8.2520856083868332E-003   5.6879368451507081E-002
   2.5899405050955702E-002  -7.8137787768051206E-003   6.1303235304463341E-002
   2.4020811550367244E-002  -7.0563990483700316E-003   5.9992612866147106E-002
   2.2142218049778797E-002  -6.4185410777317289E-003   5.9482392211553763E-002
   2.0263624549190347E-002  -5.9002048648902367E-003   5.9772573340683491E-002
   1.8385031048601893E-002  -5.5013904098455274E-003   6.0863156253536117E-002
   1.3151478174200443E-002  -3.9068893904202241E-003   6.5979107037582321E-002
   1.2142733942277658E-002  -3.5281995278492791E-003   6.4244739464559733E-002
   1.1133989710354864E-002  -3.2092705438063430E-003   6.3449668645145466E-002
   1.0125245478432075E-002  -2.9501024382913446E-003   6.3593894579339533E-002
   9.1165012465092843E-003  -2.7506952113041730E-003   6.4677417267141921E-002
  -4.0414234458996390E-012  -4.0353831387562877E-012   7.0246408465202775E-002
   2.5867936265244751E-012  -7.3286168800201779E-012   6.8148056636742699E-002
   9.2150159031190171E-012  -9.8809363469065659E-012   6.7127896531776296E-002
   1.5843236444990083E-011  -1.1692391846396255E-011   6.7185928150303609E-002
   2.2471455252137673E-011  -1.2762929602061490E-011   6.8322151492324568E-002
   3.7378176386951414E-002  -1.1002780806928153E-002   5.2726053861054861E-002
   3.4262286833178390E-002  -1.0223230120755530E-002   5.1091572662512713E-002
   3.1146397279405331E-002  -9.2407923682231372E-003   5.0213729382337660E-002
   2.8030507725632304E-002  -8.0554675493310687E-003   5.0092524020529584E-002
   2.4914618171859249E-002  -6.6672556640793301E-003   5.0727956577088618E-002
   2.7805589428749271E-002  -8.2520856083868332E-003   5.6879368451507081E-002
   2.5451921410712029E-002  -7.6674225934990348E-003   5.5580025631886631E-002
   2.3098253392674819E-002  -6.9305942779746693E-003   5.5048487965370770E-002
   2.0744585374637615E-002  -6.0416006618137404E-003   5.5284755451959433E-002
   1.8390917356600367E-002  -5.0004417450162930E-003   5.6288828091652754E-002
   1.8385031048601893E-002  -5.5013904098455274E-003   6.0863156253536117E-002
   1.6804751801038020E-002  -5.1116150662424906E-003   5.9848230047114120E-002
   1.5224472553474139E-002  -4.6203961877261217E-003   5.9612276228534294E-002
   1.3644193305910265E-002  -4.0277337742963852E-003   6.0155294797796542E-002
   1.2063914058346378E-002  -3.3336278259532559E-003   6.1477285754900995E-002
   9.1165012465092843E-003  -2.7506952113041730E-003   6.4677417267141921E-002
   8.3207780041562925E-003  -2.5558075389859984E-003   6.3896185908195305E-002
   7.5250547618033025E-003  -2.3101980974776139E-003   6.3905094171828367E-002
   6.7293315194503272E-003  -2.0138668867789602E-003   6.4704142058041147E-002
   5.9336082770973277E-003  -1.6668139068902188E-003   6.6293329566833439E-002
   2.2471455252137673E-011  -1.2762929602061490E-011   6.8322151492324568E-002
   2.0066885653147182E-011  -1.1729478499589163E-011   6.7723893215130115E-002
   1.7662302176368883E-011  -7.2291408970137638E-012   6.7926941795252813E-002
   1.5257734312101867E-011   7.3834514890958047E-013   6.8931297232692645E-002
   1.2853149100600092E-011   1.2172818308897604E-011   7.0736959527449739E-002
  -1.3506452900546861E-012   0.0000000000000000        2.9936081312573720E-002
  -2.0562180430561128E-012   8.8165065526002451E-013   3.6933784186007276E-002
  -2.7617894950149324E-012   1.6096134841658838E-012   4.4426413490579970E-002
  -3.4673615974950556E-012   2.1838884867175778E-012   5.2413969226291802E-002
  -4.1729354346986547E-012   2.6044704587446788E-012   6.0896451393142759E-002
  -1.4526931106568927E-002   0.0000000000000000        3.0351876299398201E-002
  -1.4281684864507193E-002   8.2329279032843875E-004   3.7611542993758802E-002
  -1.4036438622445462E-002   1.6299912159328158E-003   4.4866775742514867E-002
  -1.3791192380383725E-002   2.4200952768131294E-003   5.2117574545666429E-002
  -1.3545946138321994E-002   3.1936049729693935E-003   5.9363939403213446E-002
  -2.8533921020049466E-002   0.0000000000000000        3.1599261257954661E-002
  -2.8542788911964084E-002   1.6465855797752268E-003   3.9104297408671912E-002
  -2.8551656803878705E-002   3.2599824302560225E-003   4.6105539237040999E-002
  -2.8560524695793323E-002   4.8401905514423877E-003   5.2602986743061901E-002
  -2.8569392587707940E-002   6.3872099433343174E-003   5.8596639926734598E-002
  -4.2020969741792265E-002   0.0000000000000000        3.3678236188243095E-002
  -4.2783312144426891E-002   2.4698783692220167E-003   4.1412047430746654E-002
  -4.3545654547061524E-002   4.8899736445792256E-003   4.8142703974158367E-002
  -4.4307996949696150E-002   7.2602858260716338E-003   5.3870205818478234E-002
  -4.5070339352330784E-002   9.5808149136992343E-003   5.8594552963706283E-002
  -5.4988077271797324E-002   0.0000000000000000        3.6588801090263495E-002
  -5.7003254561895630E-002   3.2931711586688048E-003   4.4534793059982966E-002
  -5.9018431851993923E-002   6.5199648589024332E-003   5.0978269953866950E-002
  -6.1033609142092222E-002   9.6803811007008869E-003   5.5919231771915434E-002
  -6.3048786432190515E-002   1.2774419884064164E-002   5.9357678514128417E-002
  -4.1729354346986547E-012   2.6044704587446788E-012   6.0896451393142759E-002
  -4.1400572206584663E-012   2.4472828277777303E-012   6.3438712355828222E-002
  -4.1071794402991468E-012   1.2882537918368353E-012   6.5844458855400037E-002
  -4.0743049125463449E-012  -8.7265795718077799E-013   6.8113690891858245E-002
  -4.0414234458996390E-012  -4.0353831387562877E-012   7.0246408465202775E-002
  -1.3545946138321994E-002   3.1936049729693935E-003   5.9363939403213446E-002
  -1.3447329149214423E-002   3.8120946339063456E-003   6.0517108649492155E-002
  -1.3348712160106847E-002   4.1371385891287738E-003   6.2004026337033925E-002
  -1.3250095170999267E-002   4.1687368386366767E-003   6.3824692465838703E-002
  -1.3151478181891697E-002   3.9068893824300080E-003   6.5979107035906537E-002
  -2.8569392587707940E-002   6.3872099433343174E-003   5.8596639926734598E-002
  -2.7901895705149001E-002   7.6241892653654154E-003   5.8067271751893891E-002
  -2.7234398822590048E-002   8.2742771769692865E-003   5.8341914922692882E-002
  -2.6566901940031112E-002   8.3374736781459419E-003   5.9420569439131612E-002
  -2.5899405057472166E-002   7.8137787688953575E-003   6.1303235301210034E-002
  -4.5070339352330784E-002   9.5808149136992343E-003   5.8594552963706283E-002
  -4.3363699671943791E-002   1.1436283896824493E-002   5.6089201663033439E-002
  -4.1657059991556791E-002   1.2411415764809830E-002   5.4858124612376970E-002
  -3.9950420311169785E-002   1.2506210517655216E-002   5.4901321811736924E-002
  -3.8243780630782799E-002   1.1720668155360728E-002   5.6218793261113197E-002
  -6.3048786432190515E-002   1.2774419884064164E-002   5.9357678514128417E-002
  -5.9832741049598792E-002   1.5248378528283552E-002   5.4582898382910770E-002
  -5.6616695667007076E-002   1.6548554352650329E-002   5.1552655406086161E-002
  -5.3400650284415353E-002   1.6674947357164526E-002   5.0266949583654665E-002
  -5.0184604901823637E-002   1.5627557541826084E-002   5.0725780915616178E-002
  -4.0414234458996390E-012  -4.0353831387562877E-012   7.0246408465202775E-002
   2.5867936265244751E-012  -7.3286168800201779E-012   6.8148056636742699E-002
   9.2150159031190171E-012  -9.8809363469065659E-012   6.7127896531776296E-002
   1.5843236444990083E-011  -1.1692391846396255E-011   6.7185928150303609E-002
   2.2471455252137673E-011  -1.2762929602061490E-011   6.8322151492324568E-002
  -1.3151478181891697E-002   3.9068893824300080E-003   6.5979107035906537E-002
  -1.2142733936883771E-002   3.5281995133233934E-003   6.4244739464930048E-002
  -1.1133989691875833E-002   3.2092705241313791E-003   6.3449668647219334E-002
  -1.0125245446867898E-002   2.9501024148540192E-003   6.3593894582774327E-002
  -9.1165012018599619E-003   2.7506951854912864E-003   6.4677417271595095E-002
  -2.5899405057472166E-002   7.8137787688953575E-003   6.1303235301210034E-002
  -2.4020811544312463E-002   7.0563990339753656E-003   5.9992612866890879E-002
  -2.2142218031152759E-002   6.4185410581437223E-003   5.9482392215609539E-002
  -2.0263624517993052E-002   5.9002048414004303E-003   5.9772573347366000E-002
  -1.8385031004833349E-002   5.5013903837455164E-003   6.0863156262160233E-002
  -3.8243780630782799E-002   1.1720668155360728E-002   5.6218793261113197E-002
  -3.5634232819699282E-002   1.0584598554627315E-002   5.5391676842625193E-002
  -3.3024685008615752E-002   9.6278115921560100E-003   5.5226067236946993E-002
  -3.0415137197532232E-002   8.8503072679468209E-003   5.5721964444078655E-002
  -2.7805589386448708E-002   8.2520855819997255E-003   5.6879368464020148E-002
  -5.0184604901823637E-002   1.5627557541826084E-002   5.0725780915616178E-002
  -4.6982997763044237E-002   1.4112798075279320E-002   5.0441931392132947E-002
  -4.3781390624264838E-002   1.2837082126168329E-002   5.0680693711231593E-002
  -4.0579783485485431E-002   1.1800409694493245E-002   5.1442067872912181E-002
  -3.7378176346706031E-002   1.1002780780253935E-002   5.2726053877174633E-002
   2.2471455252137673E-011  -1.2762929602061490E-011   6.8322151492324568E-002
   2.0066885653147182E-011  -1.1729478499589163E-011   6.7723893215130115E-002
   1.7662302176368883E-011  -7.2291408970137638E-012   6.7926941795252813E-002
   1.5257734312101867E-011   7.3834514890958047E-013   6.8931297232692645E-002
   1.2853149100600092E-011   1.2172818308897604E-011   7.0736959527449739E-002
  -9.1165012018599619E-003   2.7506951854912864E-003   6.4677417271595095E-002
  -8.3207779642160869E-003   2.5558075182193218E-003   6.3896185922356824E-002
  -7.5250547265722171E-003   2.3101980952140999E-003   6.3905094195898252E-002
  -6.7293314889283456E-003   2.0138669164757803E-003   6.4704142092219530E-002
  -5.9336082512844723E-003   1.6668139820043004E-003   6.6293329611320284E-002
  -1.8385031004833349E-002   5.5013903837455164E-003   6.0863156262160233E-002
  -1.6804751761678463E-002   5.1116150481681361E-003   5.9848230081678028E-002
  -1.5224472518523588E-002   4.6203961976572887E-003   5.9612276289438118E-002
  -1.3644193275368708E-002   4.0277338322132440E-003   6.0155294885440365E-002
  -1.2063914032213810E-002   3.3336279518356715E-003   6.1477285869685067E-002
  -2.7805589386448708E-002   8.2520855819997255E-003   5.6879368464020148E-002
  -2.5451921372320281E-002   7.6674225781169711E-003   5.5580025693093678E-002
  -2.3098253358191864E-002   6.9305943001005035E-003   5.5048488075872155E-002
  -2.0744585344063420E-002   6.0416007479505828E-003   5.5284755612355345E-002
  -1.8390917329934999E-002   5.0004419216670704E-003   5.6288828302543434E-002
  -3.7378176346706031E-002   1.1002780780253935E-002   5.2726053877174633E-002
  -3.4262286796141496E-002   1.0223230108065764E-002   5.1091572756603892E-002
  -3.1146397245576978E-002   9.2407924025437113E-003   5.0213729555200551E-002
  -2.8030507695012419E-002   8.0554676636881133E-003   5.0092524272964518E-002
  -2.4914618144447911E-002   6.6672558914985247E-003   5.0727956909895955E-002
  -5.4988077271797324E-002   0.0000000000000000        3.6588801090263495E-002
  -5.7003254561895630E-002   3.2931711586688048E-003   4.4534793059982966E-002
  -5.9018431851993923E-002   6.5199648589024332E-003   5.0978269953866950E-002
  -6.1033609142092222E-002   9.6803811007008869E-003   5.5919231771915434E-002
  -6.3048786432190515E-002   1.2774419884064164E-002   5.9357678514128417E-002
  -7.2208235259283465E-002   0.0000000000000000        4.3048446328540178E-002
  -7.4346798890013110E-002   8.4632401157944508E-003   4.2184645724673793E-002
  -7.6485362520742742E-002   1.4667099285843860E-002   4.2576587515380217E-002
  -7.8623926151472387E-002   1.8611577510148206E-002   4.4224271700659436E-002
  -8.0762489782202032E-002   2.0296674788707520E-002   4.7127698280511485E-002
  -9.8454435353469510E-002   0.0000000000000000        5.5774662267597440E-002
  -9.7958127854422178E-002   1.3633309072920100E-002   4.3908065602835333E-002
  -9.7461820355374873E-002   2.2814233712785278E-002   3.6055468803054318E-002
  -9.6965512856327568E-002   2.7542773919595535E-002   3.2216871868254407E-002
  -9.6469205357280249E-002   2.7818929693350883E-002   3.2392274798435622E-002
 -0.13372667755435544        0.0000000000000000        7.4767448907435294E-002
 -0.12783724145512285        1.8803378030045746E-002   4.9705052694467573E-002
 -0.12194780535589031        3.0961368139726698E-002   3.1414913816889267E-002
 -0.11605836925665775        3.6473970329042878E-002   1.9897032274700376E-002
 -0.11016893315742517        3.5341184597994263E-002   1.5151408067900874E-002
 -0.17802496186194128        0.0000000000000000       0.10002680624805373     
 -0.16398413969211514        2.3973446987171392E-002   5.9575606999570534E-002
 -0.14994331752228901        3.9108502566668132E-002   2.8654922556885058E-002
 -0.13590249535246290        4.5405166738490182E-002   7.2647529199972791E-003
 -0.12186167318263677        4.2863439502637601E-002  -4.5949019110927761E-003
  -6.3048786432190515E-002   1.2774419884064164E-002   5.9357678514128417E-002
  -5.9832741049598792E-002   1.5248378528283552E-002   5.4582898382910770E-002
  -5.6616695667007076E-002   1.6548554352650329E-002   5.1552655406086161E-002
  -5.3400650284415353E-002   1.6674947357164526E-002   5.0266949583654665E-002
  -5.0184604901823637E-002   1.5627557541826084E-002   5.0725780915616178E-002
  -8.0762489782202032E-002   2.0296674788707520E-002   4.7127698280511485E-002
  -7.6088605094364603E-002   2.0622121329869979E-002   4.3256356400629158E-002
  -7.1414720406527174E-002   2.0487647341983814E-002   4.0556155976845157E-002
  -6.6740835718689745E-002   1.9893252825048936E-002   3.9027097009159524E-002
  -6.2066951030852323E-002   1.8838937779065437E-002   3.8669179497572259E-002
  -9.6469205357280249E-002   2.7818929693350883E-002   3.2392274798435622E-002
  -9.0910877062491818E-002   2.5995864131456430E-002   3.0138233460692540E-002
  -8.5352548767703387E-002   2.4426740331317261E-002   2.8481937880753181E-002
  -7.9794220472914956E-002   2.3111558292933345E-002   2.7423388058617385E-002
  -7.4235892178126539E-002   2.2050318016304825E-002   2.6962583994285309E-002
 -0.11016893315742517        3.5341184597994263E-002   1.5151408067900874E-002
 -0.10429955695398044        3.1369606933042846E-002   1.5228529563101070E-002
  -9.8430180750535709E-002   2.8365833320650752E-002   1.5330001117810165E-002
  -9.2560804547090980E-002   2.6329863760817765E-002   1.5455822732028243E-002
  -8.6691428343646251E-002   2.5261698253544167E-002   1.5605994405755216E-002
 -0.12186167318263677        4.2863439502637601E-002  -4.5949019110927761E-003
 -0.11625464476883045        3.6743349734629324E-002  -1.4727552921454737E-003
 -0.11064761635502413        3.2304926309984147E-002   1.1003456880161380E-003
 -0.10504058794121780        2.9548169228702219E-002   3.1244010293919994E-003
  -9.9433559527411480E-002   2.8473078490783565E-002   4.5994107319820288E-003
  -5.0184604901823637E-002   1.5627557541826084E-002   5.0725780915616178E-002
  -4.6982997763044237E-002   1.4112798075279320E-002   5.0441931392132947E-002
  -4.3781390624264838E-002   1.2837082126168329E-002   5.0680693711231593E-002
  -4.0579783485485431E-002   1.1800409694493245E-002   5.1442067872912181E-002
  -3.7378176346706031E-002   1.1002780780253935E-002   5.2726053877174633E-002
  -6.2066951030852323E-002   1.8838937779065437E-002   3.8669179497572259E-002
  -5.8294260099837923E-002   1.7572078521366129E-002   3.8284144717023079E-002
  -5.4521569168823503E-002   1.6340051369283886E-002   3.8518665678361978E-002
  -5.0748878237809096E-002   1.5142856322818646E-002   3.9372742381589006E-002
  -4.6976187306794676E-002   1.3980493381970410E-002   4.0846374826704127E-002
  -7.4235892178126539E-002   2.2050318016304825E-002   2.6962583994285309E-002
  -6.9795173555570897E-002   2.1031358967453007E-002   2.6272152544851293E-002
  -6.5354454933015269E-002   1.9843020612399467E-002   2.6298220736611630E-002
  -6.0913736310459619E-002   1.8485302951144086E-002   2.7040788569566286E-002
  -5.6473017687904005E-002   1.6958205983686928E-002   2.8499856043715278E-002
  -8.6691428343646251E-002   2.5261698253544167E-002   1.5605994405755216E-002
  -8.1485738130243179E-002   2.4490639413539836E-002   1.4405954875617692E-002
  -7.6280047916840121E-002   2.3345989855515024E-002   1.4019358885980552E-002
  -7.1074357703437036E-002   2.1827749579469452E-002   1.4446206436844085E-002
  -6.5868667490033977E-002   1.9935918585403493E-002   1.5686497528208089E-002
  -9.9433559527411480E-002   2.8473078490783565E-002   4.5994107319820288E-003
  -9.3365953823854791E-002   2.7949919859626776E-002   2.6855517093219844E-003
  -8.7298348120298061E-002   2.6848959098630693E-002   1.6820801264687893E-003
  -8.1230742416741358E-002   2.5170196207794961E-002   1.5889959834222925E-003
  -7.5163136713184642E-002   2.2913631187119865E-002   2.4062992801825445E-003
  -3.7378176346706031E-002   1.1002780780253935E-002   5.2726053877174633E-002
  -3.4262286796141496E-002   1.0223230108065764E-002   5.1091572756603892E-002
  -3.1146397245576978E-002   9.2407924025437113E-003   5.0213729555200551E-002
  -2.8030507695012419E-002   8.0554676636881133E-003   5.0092524272964518E-002
  -2.4914618144447911E-002   6.6672558914985247E-003   5.0727956909895955E-002
  -4.6976187306794676E-002   1.3980493381970410E-002   4.0846374826704127E-002
  -4.3093921283169592E-002   1.2802844738646804E-002   3.9188667567055094E-002
  -3.9211655259544474E-002   1.1559792584755223E-002   3.8307075334359793E-002
  -3.5329389235919363E-002   1.0251336920295664E-002   3.8201598128618439E-002
  -3.1447123212294266E-002   8.8774777452682030E-003   3.8872235949830580E-002
  -5.6473017687904005E-002   1.6958205983686928E-002   2.8499856043715278E-002
  -5.1804898083431930E-002   1.5382459369227920E-002   2.6956406167753702E-002
  -4.7136778478959848E-002   1.3878792766966682E-002   2.6208548426532415E-002
  -4.2468658874487773E-002   1.2447206176903300E-002   2.6256282820051248E-002
  -3.7800539270015684E-002   1.1087699599037937E-002   2.7099609348310294E-002
  -6.5868667490033977E-002   1.9935918585403493E-002   1.5686497528208089E-002
  -6.0395217196928537E-002   1.7962073999808929E-002   1.4394788558699885E-002
  -5.4921766903823083E-002   1.6197792949178141E-002   1.3918148831718283E-002
  -4.9448316610717649E-002   1.4643075433511059E-002   1.4256578347263245E-002
  -4.3974866317612188E-002   1.3297921452807671E-002   1.5410077105334770E-002
  -7.5163136713184642E-002   2.2913631187119865E-002   2.4062992801825445E-003
  -6.8864878623659420E-002   2.0541688630389993E-002   1.5038147398934582E-003
  -6.2566620534134199E-002   1.8516793131389570E-002   1.4358765499175030E-003
  -5.6268362444609019E-002   1.6838944690118686E-002   2.2024847102542350E-003
  -4.9970104355083755E-002   1.5508143306577349E-002   3.8036392209042091E-003
 </DataArray>
 </PointData>
 </Piece>
 <Piece  NumberOfPoints="           400 "  NumberOfCells="          256 ">
 <Points>
 <DataArray  type="Float64" NumberOfComponents="3"  format="ascii" >
  0.50000000000000000        0.0000000000000000        0.0000000000000000     
  0.56250000000000000        0.0000000000000000        0.0000000000000000     
  0.62500000000000000        0.0000000000000000        0.0000000000000000     
  0.68750000000000000        0.0000000000000000        0.0000000000000000     
  0.75000000000000000        0.0000000000000000        0.0000000000000000     
  0.50000000000000000        6.2500000000000000E-002   0.0000000000000000     
  0.56250000000000000        6.2500000000000000E-002   0.0000000000000000     
  0.62500000000000000        6.2500000000000000E-002   0.0000000000000000     
  0.68750000000000000        6.2500000000000000E-002   0.0000000000000000     
  0.75000000000000000        6.2500000000000000E-002   0.0000000000000000     
  0.50000000000000000       0.12500000000000000        0.0000000000000000     
  0.56250000000000000       0.12500000000000000        0.0000000000000000     
  0.62500000000000000       0.12500000000000000        0.0000000000000000     
  0.68750000000000000       0.12500000000000000        0.0000000000000000     
  0.75000000000000000       0.12500000000000000        0.0000000000000000     
  0.50000000000000000       0.18750000000000000        0.0000000000000000     
  0.56250000000000000       0.18750000000000000        0.0000000000000000     
  0.62500000000000000       0.18750000000000000        0.0000000000000000     
  0.68750000000000000       0.18750000000000000        0.0000000000000000     
  0.75000000000000000       0.18750000000000000        0.0000000000000000     
  0.50000000000000000       0.25000000000000000        0.0000000000000000     
  0.56250000000000000       0.25000000000000000        0.0000000000000000     
  0.62500000000000000       0.25000000000000000        0.0000000000000000     
  0.68750000000000000       0.25000000000000000        0.0000000000000000     
  0.75000000000000000       0.25000000000000000        0.0000000000000000     
  0.75000000000000000        0.0000000000000000        0.0000000000000000     
  0.81250000000000000        0.0000000000000000        0.0000000000000000     
  0.87500000000000000        0.0000000000000000        0.0000000000000000     
  0.93750000000000000        0.0000000000000000        0.0000000000000000     
   1.0000000000000000        0.0000000000000000        0.0000000000000000     
  0.75000000000000000        6.2500000000000000E-002   0.0000000000000000     
  0.81250000000000000        6.2500000000000000E-002   0.0000000000000000     
  0.87500000000000000        6.2500000000000000E-002   0.0000000000000000     
  0.93750000000000000        6.2500000000000000E-002   0.0000000000000000     
   1.0000000000000000        6.2500000000000000E-002   0.0000000000000000     
  0.75000000000000000       0.12500000000000000        0.0000000000000000     
  0.81250000000000000       0.12500000000000000        0.0000000000000000     
  0.87500000000000000       0.12500000000000000        0.0000000000000000     
  0.93750000000000000       0.12500000000000000        0.0000000000000000     
   1.0000000000000000       0.12500000000000000        0.0000000000000000     
  0.75000000000000000       0.18750000000000000        0.0000000000000000     
  0.81250000000000000       0.18750000000000000        0.0000000000000000     
  0.87500000000000000       0.18750000000000000        0.0000000000000000     
  0.93750000000000000       0.18750000000000000        0.0000000000000000     
   1.0000000000000000       0.18750000000000000        0.0000000000000000     
  0.75000000000000000       0.25000000000000000        0.0000000000000000     
  0.81250000000000000       0.25000000000000000        0.0000000000000000     
  0.87500000000000000       0.25000000000000000        0.0000000000000000     
  0.93750000000000000       0.25000000000000000        0.0000000000000000     
   1.0000000000000000       0.25000000000000000        0.0000000000000000     
   1.0000000000000000        0.0000000000000000        0.0000000000000000     
   1.0625000000000000        0.0000000000000000        0.0000000000000000     
   1.1250000000000000        0.0000000000000000        0.0000000000000000     
   1.1875000000000000        0.0000000000000000        0.0000000000000000     
   1.2500000000000000        0.0000000000000000        0.0000000000000000     
   1.0000000000000000        6.2500000000000000E-002   0.0000000000000000     
   1.0625000000000000        6.2500000000000000E-002   0.0000000000000000     
   1.1250000000000000        6.2500000000000000E-002   0.0000000000000000     
   1.1875000000000000        6.2500000000000000E-002   0.0000000000000000     
   1.2500000000000000        6.2500000000000000E-002   0.0000000000000000     
   1.0000000000000000       0.12500000000000000        0.0000000000000000     
   1.0625000000000000       0.12500000000000000        0.0000000000000000     
   1.1250000000000000       0.12500000000000000        0.0000000000000000     
   1.1875000000000000       0.12500000000000000        0.0000000000000000     
   1.2500000000000000       0.12500000000000000        0.0000000000000000     
   1.0000000000000000       0.18750000000000000        0.0000000000000000     
   1.0625000000000000       0.18750000000000000        0.0000000000000000     
   1.1250000000000000       0.18750000000000000        0.0000000000000000     
   1.1875000000000000       0.18750000000000000        0.0000000000000000     
   1.2500000000000000       0.18750000000000000        0.0000000000000000     
   1.0000000000000000       0.25000000000000000        0.0000000000000000     
   1.0625000000000000       0.25000000000000000        0.0000000000000000     
   1.1250000000000000       0.25000000000000000        0.0000000000000000     
   1.1875000000000000       0.25000000000000000        0.0000000000000000     
   1.2500000000000000       0.25000000000000000        0.0000000000000000     
   1.2500000000000000        0.0000000000000000        0.0000000000000000     
   1.3125000000000000        0.0000000000000000        0.0000000000000000     
   1.3750000000000000        0.0000000000000000        0.0000000000000000     
   1.4375000000000000        0.0000000000000000        0.0000000000000000     
   1.5000000000000000        0.0000000000000000        0.0000000000000000     
   1.2500000000000000        6.2500000000000000E-002   0.0000000000000000     
   1.3125000000000000        6.2500000000000000E-002   0.0000000000000000     
   1.3750000000000000        6.2500000000000000E-002   0.0000000000000000     
   1.4375000000000000        6.2500000000000000E-002   0.0000000000000000     
   1.5000000000000000        6.2500000000000000E-002   0.0000000000000000     
   1.2500000000000000       0.12500000000000000        0.0000000000000000     
   1.3125000000000000       0.12500000000000000        0.0000000000000000     
   1.3750000000000000       0.12500000000000000        0.0000000000000000     
   1.4375000000000000       0.12500000000000000        0.0000000000000000     
   1.5000000000000000       0.12500000000000000        0.0000000000000000     
   1.2500000000000000       0.18750000000000000        0.0000000000000000     
   1.3125000000000000       0.18750000000000000        0.0000000000000000     
   1.3750000000000000       0.18750000000000000        0.0000000000000000     
   1.4375000000000000       0.18750000000000000        0.0000000000000000     
   1.5000000000000000       0.18750000000000000        0.0000000000000000     
   1.2500000000000000       0.25000000000000000        0.0000000000000000     
   1.3125000000000000       0.25000000000000000        0.0000000000000000     
   1.3750000000000000       0.25000000000000000        0.0000000000000000     
   1.4375000000000000       0.25000000000000000        0.0000000000000000     
   1.5000000000000000       0.25000000000000000        0.0000000000000000     
  0.50000000000000000       0.25000000000000000        0.0000000000000000     
  0.56250000000000000       0.25000000000000000        0.0000000000000000     
  0.62500000000000000       0.25000000000000000        0.0000000000000000     
  0.68750000000000000       0.25000000000000000        0.0000000000000000     
  0.75000000000000000       0.25000000000000000        0.0000000000000000     
  0.50000000000000000       0.31250000000000000        0.0000000000000000     
  0.56250000000000000       0.31250000000000000        0.0000000000000000     
  0.62500000000000000       0.31250000000000000        0.0000000000000000     
  0.68750000000000000       0.31250000000000000        0.0000000000000000     
  0.75000000000000000       0.31250000000000000        0.0000000000000000     
  0.50000000000000000       0.37500000000000000        0.0000000000000000     
  0.56250000000000000       0.37500000000000000        0.0000000000000000     
  0.62500000000000000       0.37500000000000000        0.0000000000000000     
  0.68750000000000000       0.37500000000000000        0.0000000000000000     
  0.75000000000000000       0.37500000000000000        0.0000000000000000     
  0.50000000000000000       0.43750000000000000        0.0000000000000000     
  0.56250000000000000       0.43750000000000000        0.0000000000000000     
  0.62500000000000000       0.43750000000000000        0.0000000000000000     
  0.68750000000000000       0.43750000000000000        0.0000000000000000     
  0.75000000000000000       0.43750000000000000        0.0000000000000000     
  0.50000000000000000       0.50000000000000000        0.0000000000000000     
  0.56250000000000000       0.50000000000000000        0.0000000000000000     
  0.62500000000000000       0.50000000000000000        0.0000000000000000     
  0.68750000000000000       0.50000000000000000        0.0000000000000000     
  0.75000000000000000       0.50000000000000000        0.0000000000000000     
  0.75000000000000000       0.25000000000000000        0.0000000000000000     
  0.81250000000000000       0.25000000000000000        0.0000000000000000     
  0.87500000000000000       0.25000000000000000        0.0000000000000000     
  0.93750000000000000       0.25000000000000000        0.0000000000000000     
   1.0000000000000000       0.25000000000000000        0.0000000000000000     
  0.75000000000000000       0.31250000000000000        0.0000000000000000     
  0.81250000000000000       0.31250000000000000        0.0000000000000000     
  0.87500000000000000       0.31250000000000000        0.0000000000000000     
  0.93750000000000000       0.31250000000000000        0.0000000000000000     
   1.0000000000000000       0.31250000000000000        0.0000000000000000     
  0.75000000000000000       0.37500000000000000        0.0000000000000000     
  0.81250000000000000       0.37500000000000000        0.0000000000000000     
  0.87500000000000000       0.37500000000000000        0.0000000000000000     
  0.93750000000000000       0.37500000000000000        0.0000000000000000     
   1.0000000000000000       0.37500000000000000        0.0000000000000000     
  0.75000000000000000       0.43750000000000000        0.0000000000000000     
  0.81250000000000000       0.43750000000000000        0.0000000000000000     
  0.87500000000000000       0.43750000000000000        0.0000000000000000     
  0.93750000000000000       0.43750000000000000        0.0000000000000000     
   1.0000000000000000       0.43750000000000000        0.0000000000000000     
  0.75000000000000000       0.50000000000000000        0.0000000000000000     
  0.81250000000000000       0.50000000000000000        0.0000000000000000     
  0.87500000000000000       0.50000000000000000        0.0000000000000000     
  0.93750000000000000       0.50000000000000000        0.0000000000000000     
   1.0000000000000000       0.50000000000000000        0.0000000000000000     
   1.0000000000000000       0.25000000000000000        0.0000000000000000     
   1.0625000000000000       0.25000000000000000        0.0000000000000000     
   1.1250000000000000       0.25000000000000000        0.0000000000000000     
   1.1875000000000000       0.25000000000000000        0.0000000000000000     
   1.2500000000000000       0.25000000000000000        0.0000000000000000     
   1.0000000000000000       0.31250000000000000        0.0000000000000000     
   1.0625000000000000       0.31250000000000000        0.0000000000000000     
   1.1250000000000000       0.31250000000000000        0.0000000000000000     
   1.1875000000000000       0.31250000000000000        0.0000000000000000     
   1.2500000000000000       0.31250000000000000        0.0000000000000000     
   1.0000000000000000       0.37500000000000000        0.0000000000000000     
   1.0625000000000000       0.37500000000000000        0.0000000000000000     
   1.1250000000000000       0.37500000000000000        0.0000000000000000     
   1.1875000000000000       0.37500000000000000        0.0000000000000000     
   1.2500000000000000       0.37500000000000000        0.0000000000000000     
   1.0000000000000000       0.43750000000000000        0.0000000000000000     
   1.0625000000000000       0.43750000000000000        0.0000000000000000     
   1.1250000000000000       0.43750000000000000        0.0000000000000000     
   1.1875000000000000       0.43750000000000000        0.0000000000000000     
   1.2500000000000000       0.43750000000000000        0.0000000000000000     
   1.0000000000000000       0.50000000000000000        0.0000000000000000     
   1.0625000000000000       0.50000000000000000        0.0000000000000000     
   1.1250000000000000       0.50000000000000000        0.0000000000000000     
   1.1875000000000000       0.50000000000000000        0.0000000000000000     
   1.2500000000000000       0.50000000000000000        0.0000000000000000     
   1.2500000000000000       0.25000000000000000        0.0000000000000000     
   1.3125000000000000       0.25000000000000000        0.0000000000000000     
   1.3750000000000000       0.25000000000000000        0.0000000000000000     
   1.4375000000000000       0.25000000000000000        0.0000000000000000     
   1.5000000000000000       0.25000000000000000        0.0000000000000000     
   1.2500000000000000       0.31250000000000000        0.0000000000000000     
   1.3125000000000000       0.31250000000000000        0.0000000000000000     
   1.3750000000000000       0.31250000000000000        0.0000000000000000     
   1.4375000000000000       0.31250000000000000        0.0000000000000000     
   1.5000000000000000       0.31250000000000000        0.0000000000000000     
   1.2500000000000000       0.37500000000000000        0.0000000000000000     
   1.3125000000000000       0.37500000000000000        0.0000000000000000     
   1.3750000000000000       0.37500000000000000        0.0000000000000000     
   1.4375000000000000       0.37500000000000000        0.0000000000000000     
   1.5000000000000000       0.37500000000000000        0.0000000000000000     
   1.2500000000000000       0.43750000000000000        0.0000000000000000     
   1.3125000000000000       0.43750000000000000        0.0000000000000000     
   1.3750000000000000       0.43750000000000000        0.0000000000000000     
   1.4375000000000000       0.43750000000000000        0.0000000000000000     
   1.5000000000000000       0.43750000000000000        0.0000000000000000     
   1.2500000000000000       0.50000000000000000        0.0000000000000000     
   1.3125000000000000       0.50000000000000000        0.0000000000000000     
   1.3750000000000000       0.50000000000000000        0.0000000000000000     
   1.4375000000000000       0.50000000000000000        0.0000000000000000     
   1.5000000000000000       0.50000000000000000        0.0000000000000000     
  0.50000000000000000       0.50000000000000000        0.0000000000000000     
  0.56250000000000000       0.50000000000000000        0.0000000000000000     
  0.62500000000000000       0.50000000000000000        0.0000000000000000     
  0.68750000000000000       0.50000000000000000        0.0000000000000000     
  0.75000000000000000       0.50000000000000000        0.0000000000000000     
  0.50000000000000000       0.56250000000000000        0.0000000000000000     
  0.56250000000000000       0.56250000000000000        0.0000000000000000     
  0.62500000000000000       0.56250000000000000        0.0000000000000000     
  0.68750000000000000       0.56250000000000000        0.0000000000000000     
  0.75000000000000000       0.56250000000000000        0.0000000000000000     
  0.50000000000000000       0.62500000000000000        0.0000000000000000     
  0.56250000000000000       0.62500000000000000        0.0000000000000000     
  0.62500000000000000       0.62500000000000000        0.0000000000000000     
  0.68750000000000000       0.62500000000000000        0.0000000000000000     
  0.75000000000000000       0.62500000000000000        0.0000000000000000     
  0.50000000000000000       0.68750000000000000        0.0000000000000000     
  0.56250000000000000       0.68750000000000000        0.0000000000000000     
  0.62500000000000000       0.68750000000000000        0.0000000000000000     
  0.68750000000000000       0.68750000000000000        0.0000000000000000     
  0.75000000000000000       0.68750000000000000        0.0000000000000000     
  0.50000000000000000       0.75000000000000000        0.0000000000000000     
  0.56250000000000000       0.75000000000000000        0.0000000000000000     
  0.62500000000000000       0.75000000000000000        0.0000000000000000     
  0.68750000000000000       0.75000000000000000        0.0000000000000000     
  0.75000000000000000       0.75000000000000000        0.0000000000000000     
  0.75000000000000000       0.50000000000000000        0.0000000000000000     
  0.81250000000000000       0.50000000000000000        0.0000000000000000     
  0.87500000000000000       0.50000000000000000        0.0000000000000000     
  0.93750000000000000       0.50000000000000000        0.0000000000000000     
   1.0000000000000000       0.50000000000000000        0.0000000000000000     
  0.75000000000000000       0.56250000000000000        0.0000000000000000     
  0.81250000000000000       0.56250000000000000        0.0000000000000000     
  0.87500000000000000       0.56250000000000000        0.0000000000000000     
  0.93750000000000000       0.56250000000000000        0.0000000000000000     
   1.0000000000000000       0.56250000000000000        0.0000000000000000     
  0.75000000000000000       0.62500000000000000        0.0000000000000000     
  0.81250000000000000       0.62500000000000000        0.0000000000000000     
  0.87500000000000000       0.62500000000000000        0.0000000000000000     
  0.93750000000000000       0.62500000000000000        0.0000000000000000     
   1.0000000000000000       0.62500000000000000        0.0000000000000000     
  0.75000000000000000       0.68750000000000000        0.0000000000000000     
  0.81250000000000000       0.68750000000000000        0.0000000000000000     
  0.87500000000000000       0.68750000000000000        0.0000000000000000     
  0.93750000000000000       0.68750000000000000        0.0000000000000000     
   1.0000000000000000       0.68750000000000000        0.0000000000000000     
  0.75000000000000000       0.75000000000000000        0.0000000000000000     
  0.81250000000000000       0.75000000000000000        0.0000000000000000     
  0.87500000000000000       0.75000000000000000        0.0000000000000000     
  0.93750000000000000       0.75000000000000000        0.0000000000000000     
   1.0000000000000000       0.75000000000000000        0.0000000000000000     
   1.0000000000000000       0.50000000000000000        0.0000000000000000     
   1.0625000000000000       0.50000000000000000        0.0000000000000000     
   1.1250000000000000       0.50000000000000000        0.0000000000000000     
   1.1875000000000000       0.50000000000000000        0.0000000000000000     
   1.2500000000000000       0.50000000000000000        0.0000000000000000     
   1.0000000000000000       0.56250000000000000        0.0000000000000000     
   1.0625000000000000       0.56250000000000000        0.0000000000000000     
   1.1250000000000000       0.56250000000000000        0.0000000000000000     
   1.1875000000000000       0.56250000000000000        0.0000000000000000     
   1.2500000000000000       0.56250000000000000        0.0000000000000000     
   1.0000000000000000       0.62500000000000000        0.0000000000000000     
   1.0625000000000000       0.62500000000000000        0.0000000000000000     
   1.1250000000000000       0.62500000000000000        0.0000000000000000     
   1.1875000000000000       0.62500000000000000        0.0000000000000000     
   1.2500000000000000       0.62500000000000000        0.0000000000000000     
   1.0000000000000000       0.68750000000000000        0.0000000000000000     
   1.0625000000000000       0.68750000000000000        0.0000000000000000     
   1.1250000000000000       0.68750000000000000        0.0000000000000000     
   1.1875000000000000       0.68750000000000000        0.0000000000000000     
   1.2500000000000000       0.68750000000000000        0.0000000000000000     
   1.0000000000000000       0.75000000000000000        0.0000000000000000     
   1.0625000000000000       0.75000000000000000        0.0000000000000000     
   1.1250000000000000       0.75000000000000000        0.0000000000000000     
   1.1875000000000000       0.75000000000000000        0.0000000000000000     
   1.2500000000000000       0.75000000000000000        0.0000000000000000     
   1.2500000000000000       0.50000000000000000        0.0000000000000000     
   1.3125000000000000       0.50000000000000000        0.0000000000000000     
   1.3750000000000000       0.50000000000000000        0.0000000000000000     
   1.4375000000000000       0.50000000000000000        0.0000000000000000     
   1.5000000000000000       0.50000000000000000        0.0000000000000000     
   1.2500000000000000       0.56250000000000000        0.0000000000000000     
   1.3125000000000000       0.56250000000000000        0.0000000000000000     
   1.3750000000000000       0.56250000000000000        0.0000000000000000     
   1.4375000000000000       0.56250000000000000        0.0000000000000000     
   1.5000000000000000       0.56250000000000000        0.0000000000000000     
   1.2500000000000000       0.62500000000000000        0.0000000000000000     
   1.3125000000000000       0.62500000000000000        0.0000000000000000     
   1.3750000000000000       0.62500000000000000        0.0000000000000000     
   1.4375000000000000       0.62500000000000000        0.0000000000000000     
   1.5000000000000000       0.62500000000000000        0.0000000000000000     
   1.2500000000000000       0.68750000000000000        0.0000000000000000     
   1.3125000000000000       0.68750000000000000        0.0000000000000000     
   1.3750000000000000       0.68750000000000000        0.0000000000000000     
   1.4375000000000000       0.68750000000000000        0.0000000000000000     
   1.5000000000000000       0.68750000000000000        0.0000000000000000     
   1.2500000000000000       0.75000000000000000        0.0000000000000000     
   1.3125000000000000       0.75000000000000000        0.0000000000000000     
   1.3750000000000000       0.75000000000000000        0.0000000000000000     
   1.4375000000000000       0.75000000000000000        0.0000000000000000     
   1.5000000000000000       0.75000000000000000        0.0000000000000000     
  0.50000000000000000       0.75000000000000000        0.0000000000000000     
  0.56250000000000000       0.75000000000000000        0.0000000000000000     
  0.62500000000000000       0.75000000000000000        0.0000000000000000     
  0.68750000000000000       0.75000000000000000        0.0000000000000000     
  0.75000000000000000       0.75000000000000000        0.0000000000000000     
  0.50000000000000000       0.81250000000000000        0.0000000000000000     
  0.56250000000000000       0.81250000000000000        0.0000000000000000     
  0.62500000000000000       0.81250000000000000        0.0000000000000000     
  0.68750000000000000       0.81250000000000000        0.0000000000000000     
  0.75000000000000000       0.81250000000000000        0.0000000000000000     
  0.50000000000000000       0.87500000000000000        0.0000000000000000     
  0.56250000000000000       0.87500000000000000        0.0000000000000000     
  0.62500000000000000       0.87500000000000000        0.0000000000000000     
  0.68750000000000000       0.87500000000000000        0.0000000000000000     
  0.75000000000000000       0.87500000000000000        0.0000000000000000     
  0.50000000000000000       0.93750000000000000        0.0000000000000000     
  0.56250000000000000       0.93750000000000000        0.0000000000000000     
  0.62500000000000000       0.93750000000000000        0.0000000000000000     
  0.68750000000000000       0.93750000000000000        0.0000000000000000     
  0.75000000000000000       0.93750000000000000        0.0000000000000000     
  0.50000000000000000        1.0000000000000000        0.0000000000000000     
  0.56250000000000000        1.0000000000000000        0.0000000000000000     
  0.62500000000000000        1.0000000000000000        0.0000000000000000     
  0.68750000000000000        1.0000000000000000        0.0000000000000000     
  0.75000000000000000        1.0000000000000000        0.0000000000000000     
  0.75000000000000000       0.75000000000000000        0.0000000000000000     
  0.81250000000000000       0.75000000000000000        0.0000000000000000     
  0.87500000000000000       0.75000000000000000        0.0000000000000000     
  0.93750000000000000       0.75000000000000000        0.0000000000000000     
   1.0000000000000000       0.75000000000000000        0.0000000000000000     
  0.75000000000000000       0.81250000000000000        0.0000000000000000     
  0.81250000000000000       0.81250000000000000        0.0000000000000000     
  0.87500000000000000       0.81250000000000000        0.0000000000000000     
  0.93750000000000000       0.81250000000000000        0.0000000000000000     
   1.0000000000000000       0.81250000000000000        0.0000000000000000     
  0.75000000000000000       0.87500000000000000        0.0000000000000000     
  0.81250000000000000       0.87500000000000000        0.0000000000000000     
  0.87500000000000000       0.87500000000000000        0.0000000000000000     
  0.93750000000000000       0.87500000000000000        0.0000000000000000     
   1.0000000000000000       0.87500000000000000        0.0000000000000000     
  0.75000000000000000       0.93750000000000000        0.0000000000000000     
  0.81250000000000000       0.93750000000000000        0.0000000000000000     
  0.87500000000000000       0.93750000000000000        0.0000000000000000     
  0.93750000000000000       0.93750000000000000        0.0000000000000000     
   1.0000000000000000       0.93750000000000000        0.0000000000000000     
  0.75000000000000000        1.0000000000000000        0.0000000000000000     
  0.81250000000000000        1.0000000000000000        0.0000000000000000     
  0.87500000000000000        1.0000000000000000        0.0000000000000000     
  0.93750000000000000        1.0000000000000000        0.0000000000000000     
   1.0000000000000000        1.0000000000000000        0.0000000000000000     
   1.0000000000000000       0.75000000000000000        0.0000000000000000     
   1.0625000000000000       0.75000000000000000        0.0000000000000000     
   1.1250000000000000       0.75000000000000000        0.0000000000000000     
   1.1875000000000000       0.75000000000000000        0.0000000000000000     
   1.2500000000000000       0.75000000000000000        0.0000000000000000     
   1.0000000000000000       0.81250000000000000        0.0000000000000000     
   1.0625000000000000       0.81250000000000000        0.0000000000000000     
   1.1250000000000000       0.81250000000000000        0.0000000000000000     
   1.1875000000000000       0.81250000000000000        0.0000000000000000     
   1.2500000000000000       0.81250000000000000        0.0000000000000000     
   1.0000000000000000       0.87500000000000000        0.0000000000000000     
   1.0625000000000000       0.87500000000000000        0.0000000000000000     
   1.1250000000000000       0.87500000000000000        0.0000000000000000     
   1.1875000000000000       0.87500000000000000        0.0000000000000000     
   1.2500000000000000       0.87500000000000000        0.0000000000000000     
   1.0000000000000000       0.93750000000000000        0.0000000000000000     
   1.0625000000000000       0.93750000000000000        0.0000000000000000     
   1.1250000000000000       0.93750000000000000        0.0000000000000000     
   1.1875000000000000       0.93750000000000000        0.0000000000000000     
   1.2500000000000000       0.93750000000000000        0.0000000000000000     
   1.0000000000000000        1.0000000000000000        0.0000000000000000     
   1.0625000000000000        1.0000000000000000        0.0000000000000000     
   1.1250000000000000        1.0000000000000000        0.0000000000000000     
   1.1875000000000000        1.0000000000000000        0.0000000000000000     
   1.2500000000000000        1.0000000000000000        0.0000000000000000     
   1.2500000000000000       0.75000000000000000        0.0000000000000000     
   1.3125000000000000       0.75000000000000000        0.0000000000000000     
   1.3750000000000000       0.75000000000000000        0.0000000000000000     
   1.4375000000000000       0.75000000000000000        0.0000000000000000     
   1.5000000000000000       0.75000000000000000        0.0000000000000000     
   1.2500000000000000       0.81250000000000000        0.0000000000000000     
   1.3125000000000000       0.81250000000000000        0.0000000000000000     
   1.3750000000000000       0.81250000000000000        0.0000000000000000     
   1.4375000000000000       0.81250000000000000        0.0000000000000000     
   1.5000000000000000       0.81250000000000000        0.0000000000000000     
   1.2500000000000000       0.87500000000000000        0.0000000000000000     
   1.3125000000000000       0.87500000000000000        0.0000000000000000     
   1.3750000000000000       0.87500000000000000        0.0000000000000000     
   1.4375000000000000       0.87500000000000000        0.0000000000000000     
   1.5000000000000000       0.87500000000000000        0.0000000000000000     
   1.2500000000000000       0.93750000000000000        0.0000000000000000     
   1.3125000000000000       0.93750000000000000        0.0000000000000000     
   1.3750000000000000       0.93750000000000000        0.0000000000000000     
   1.4375000000000000       0.93750000000000000        0.0000000000000000     
   1.5000000000000000       0.93750000000000000        0.0000000000000000     
   1.2500000000000000        1.0000000000000000        0.0000000000000000     
   1.3125000000000000        1.0000000000000000        0.0000000000000000     
   1.3750000000000000        1.0000000000000000        0.0000000000000000     
   1.4375000000000000        1.0000000000000000        0.0000000000000000     
   1.5000000000000000        1.0000000000000000        0.0000000000000000     
 </DataArray>
 </Points>
 <Cells>
 <DataArray  type="Int32"  Name="connectivity"  format="ascii">
           0           1           6           5
           1           2           7           6
           2           3           8           7
           3           4           9           8
           5           6          11          10
           6           7          12          11
           7           8          13          12
           8           9          14          13
          10          11          16          15
          11          12          17          16
          12          13          18          17
          13          14          19          18
          15          16          21          20
          16          17          22          21
          17          18          23          22
          18          19          24          23
          25          26          31          30
          26          27          32          31
          27          28          33          32
          28          29          34          33
          30          31          36          35
          31          32          37          36
          32          33          38          37
          33          34          39          38
          35          36          41          40
          36          37          42          41
          37          38          43          42
          38          39          44          43
          40          41          46          45
          41          42          47          46
          42          43          48          47
          43          44          49          48
          50          51          56          55
          51          52          57          56
          52          53          58          57
          53          54          59          58
          55          56          61          60
          56          57          62          61
          57          58          63          62
          58          59          64          63
          60          61          66          65
          61          62          67          66
          62          63          68          67
          63          64          69          68
          65          66          71          70
          66          67          72          71
          67          68          73          72
          68          69          74          73
          75          76          81          80
          76          77          82          81
          77          78          83          82
          78          79          84          83
          80          81          86          85
          81          82          87          86
          82          83          88          87
          83          84          89          88
          85          86          91          90
          86          87          92          91
          87          88          93          92
          88          89          94          93
          90          91          96          95
          91          92          97          96
          92          93          98          97
          93          94          99          98
         100         101         106         105
         101         102         107         106
         102         103         108         107
         103         104         109         108
         105         106         111         110
         106         107         112         111
         107         108         113         112
         108         109         114         113
         110         111         116         115
         111         112         117         116
         112         113         118         117
         113         114         119         118
         115         116         121         120
         116         117         122         121
         117         118         123         122
         118         119         124         123
         125         126         131         130
         126         127         132         131
         127         128         133         132
         128         129         134         133
         130         131         136         135
         131         132         137         136
         132         133         138         137
         133         134         139         138
         135         136         141         140
         136         137         142         141
         137         138         143         142
         138         139         144         143
         140         141         146         145
         141         142         147         146
         142         143         148         147
         143         144         149         148
         150         151         156         155
         151         152         157         156
         152         153         158         157
         153         154         159         158
         155         156         161         160
         156         157         162         161
         157         158         163         162
         158         159         164         163
         160         161         166         165
         161         162         167         166
         162         163         168         167
         163         164         169         168
         165         166         171         170
         166         167         172         171
         167         168         173         172
         168         169         174         173
         175         176         181         180
         176         177         182         181
         177         178         183         182
         178         179         184         183
         180         181         186         185
         181         182         187         186
         182         183         188         187
         183         184         189         188
         185         186         191         190
         186         187         192         191
         187         188         193         192
         188         189         194         193
         190         191         196         195
         191         192         197         196
         192         193         198         197
         193         194         199         198
         200         201         206         205
         201         202         207         206
         202         203         208         207
         203         204         209         208
         205         206         211         210
         206         207         212         211
         207         208         213         212
         208         209         214         213
         210         211         216         215
         211         212         217         216
         212         213         218         217
         213         214         219         218
         215         216         221         220
         216         217         222         221
         217         218         223         222
         218         219         224         223
         225         226         231         230
         226         227         232         231
         227         228         233         232
         228         229         234         233
         230         231         236         235
         231         232         237         236
         232         233         238         237
         233         234         239         238
         235         236         241         240
         236         237         242         241
         237         238         243         242
         238         239         244         243
         240         241         246         245
         241         242         247         246
         242         243         248         247
         243         244         249         248
         250         251         256         255
         251         252         257         256
         252         253         258         257
         253         254         259         258
         255         256         261         260
         256         257         262         261
         257         258         263         262
         258         259         264         263
         260         261         266         265
         261         262         267         266
         262         263         268         267
         263         264         269         268
         265         266         271         270
         266         267         272         271
         267         268         273         272
         268         269         274         273
         275         276         281         280
         276         277         282         281
         277         278         283         282
         278         279         284         283
         280         281         286         285
         281         282         287         286
         282         283         288         287
         283         284         289         288
         285         286         291         290
         286         287         292         291
         287         288         293         292
         288         289         294         293
         290         291         296         295
         291         292         297         296
         292         293         298         297
         293         294         299         298
         300         301         306         305
         301         302         307         306
         302         303         308         307
         303         304         309         308
         305         306         311         310
         306         307         312         311
         307         308         313         312
         308         309         314         313
         310         311         316         315
         311         312         317         316
         312         313         318         317
         313         314         319         318
         315         316         321         320
         316         317         322         321
         317         318         323         322
         318         319         324         323
         325         326         331         330
         326         327         332         331
         327         328         333         332
         328         329         334         333
         330         331         336         335
         331         332         337         336
         332         333         338         337
         333         334         339         338
         335         336         341         340
         336         337         342         341
         337         338         343         342
         338         339         344         343
         340         341         346         345
         341         342         347         346
         342         343         348         347
         343         344         349         348
         350         351         356         355
         351         352         357         356
         352         353         358         357
         353         354         359         358
         355         356         361         360
         356         357         362         361
         357         358         363         362
         358         359         364         363
         360         361         366         365
         361         362         367         366
         362         363         368         367
         363         364         369         368
         365         366         371         370
         366         367         372         371
         367         368         373         372
         368         369         374         373
         375         376         381         380
         376         377         382         381
         377         378         383         382
         378         379         384         383
         380         381         386         385
         381         382         387         386
         382         383         388         387
         383         384         389         388
         385         386         391         390
         386         387         392         391
         387         388         393         392
         388         389         394         393
         390         391         396         395
         391         392         397         396
         392         393         398         397
         393         394         399         398
 </DataArray>
 <DataArray  type="Int32"  Name="offsets"  format="ascii"> 
           4
           8
          12
          16
          20
          24
          28
          32
          36
          40
          44
          48
          52
          56
          60
          64
          68
          72
          76
          80
          84
          88
          92
          96
         100
         104
         108
         112
         116
         120
         124
         128
         132
         136
         140
         144
         148
         152
         156
         160
         164
         168
         172
         176
         180
         184
         188
         192
         196
         200
         204
         208
         212
         216
         220
         224
         228
         232
         236
         240
         244
         248
         252
         256
         260
         264
         268
         272
         276
         280
         284
         288
         292
         296
         300
         304
         308
         312
         316
         320
         324
         328
         332
         336
         340
         344
         348
         352
         356
         360
         364
         368
         372
         376
         380
         384
         388
         392
         396
         400
         404
         408
         412
         416
         420
         424
         428
         432
         436
         440
         444
         448
         452
         456
         460
         464
         468
         472
         476
         480
         484
         488
         492
         496
         500
         504
         508
         512
         516
         520
         524
         528
         532
         536
         540
         544
         548
         552
         556
         560
         564
         568
         572
         576
         580
         584
         588
         592
         596
         600
         604
         608
         612
         616
         620
         624
         628
         632
         636
         640
         644
         648
         652
         656
         660
         664
         668
         672
         676
         680
         684
         688
         692
         696
         700
         704
         708
         712
         716
         720
         724
         728
         732
         736
         740
         744
         748
         752
         756
         760
         764
         768
         772
         776
         780
         784
         788
         792
         796
         800
         804
         808
         812
         816
         820
         824
         828
         832
         836
         840
         844
         848
         852
         856
         860
         864
         868
         872
         876
         880
         884
         888
         892
         896
         900
         904
         908
         912
         916
         920
         924
         928
         932
         936
         940
         944
         948
         952
         956
         960
         964
         968
         972
         976
         980
         984
         988
         992
         996
        1000
        1004
        1008
        1012
        1016
        1020
        1024
 </DataArray>
 <DataArray  type="UInt8"  Name="types"  format="ascii">
 9
 9
 9
 9
 9
 9
 9
 9
 9
 9
 9
 9
 9
 9
 9
 9
 9
 9
 9
 9
 9
 9
 9
 9
 9
 9
 9
 9
 9
 9
 9
 9
 9
 9
 9
 9
 9
 9
 9
 9
 9
 9
 9
 9
 9
 9
 9
 9
 9
 9
 9
 9
 9
 9
 9
 9
 9
 9
 9
 9
 9
 9
 9
 9
 9
 9
 9
 9
 9
 9
 9
 9
 9
 9
 9
 9
 9
 9
 9
 9
 9
 9
 9
 9
 9
 9
 9
 9
 9
 9
 9
 9
 9
 9
 9
 9
 9
 9
 9
 9
 9
 9
 9
 9
 9
 9
 9
 9
 9
 9
 9
 9
 9
 9
 9
 9
 9
 9
 9
 9
 9
 9
 9
 9
 9
 9
 9
 9
 9
 9
 9
 9
 9
 9
 9
 9
 9
 9
 9
 9
 9
 9
 9
 9
 9
 9
 9
 9
 9
 9
 9
 9
 9
 9
 9
 9
 9
 9
 9
 9
 9
 9
 9
 9
 9
 9
 9
 9
 9
 9
 9
 9
 9
 9
 9
 9
 9
 9
 9
 9
 9
 9
 9
 9
 9
 9
 9
 9
 9
 9
 9
 9
 9
 9
 9
 9
 9
 9
 9
 9
 9
 9
 9
 9
 9
 9
 9
 9
 9
 9
 9
 9
 9
 9
 9
 9
 9
 9
 9
 9
 9
 9
 9
 9
 9
 9
 9
 9
 9
 9
 9
 9
 9
 9
 9
 9
 9
 9
 9
 9
 9
 9
 9
 9
 9
 9
 9
 9
 9
 9
 9
 9
 9
 9
 9
 9
 </DataArray>
 </Cells> 
 <PointData>
 <DataArray  type="Float64" Name="disp" NumberOfComponents="3" format="ascii">
   6.5147733450822948E-002   6.2448634337217090E-002   0.0000000000000000     
   7.1172718286081238E-002   7.3449137235692796E-002   0.0000000000000000     
   7.6818477741831759E-002   8.5106913723919334E-002   0.0000000000000000     
   8.2085011818074496E-002   9.7421963801896702E-002   0.0000000000000000     
   8.6972320514809437E-002  0.11039428746962492        0.0000000000000000     
   5.5094496465472681E-002   6.0769422337432405E-002   0.0000000000000000     
   6.0350032959120704E-002   7.1810369735661392E-002   0.0000000000000000     
   6.5280213797954595E-002   8.3538321691005071E-002   0.0000000000000000     
   6.9885038981974359E-002   9.5953278203463443E-002   0.0000000000000000     
   7.4164508511179991E-002  0.10905523927303652        0.0000000000000000     
   4.5703592199811058E-002   5.9290921685142522E-002   0.0000000000000000     
   5.0204563043950330E-002   7.0387807270914274E-002   0.0000000000000000     
   5.4427988961060880E-002   8.2188665189802848E-002   0.0000000000000000     
   5.8373869951142729E-002   9.4693495441808259E-002   0.0000000000000000     
   6.2042206014195883E-002  0.10790229802693049        0.0000000000000000     
   3.6975020653838071E-002   5.8013132380347429E-002   0.0000000000000000     
   4.0736308540570094E-002   6.9181449841451442E-002   0.0000000000000000     
   4.4261803231150622E-002   8.1057944220312664E-002   0.0000000000000000     
   4.7551504725579619E-002   9.3642615516931121E-002   0.0000000000000000     
   5.0605413023857106E-002  0.10693546373130683        0.0000000000000000     
   2.8908781827553718E-002   5.6936054423047118E-002   0.0000000000000000     
   3.1945269448980046E-002   6.8191297447272856E-002   0.0000000000000000     
   3.4781656608223813E-002   8.0146158782534505E-002   0.0000000000000000     
   3.7417943305285015E-002   9.2800638428832072E-002   0.0000000000000000     
   3.9854129540163652E-002  0.10615473638616554        0.0000000000000000     
   8.6972320514809437E-002  0.11039428746962492        0.0000000000000000     
   9.1473195960582482E-002  0.12394287675559364        0.0000000000000000     
   9.5580430283939463E-002  0.13798672368829254        0.0000000000000000     
   9.9294023484880423E-002  0.15252582826772165        0.0000000000000000     
  0.10261397556340529       0.16756019049388093        0.0000000000000000     
   7.4164508511179991E-002  0.10905523927303652        0.0000000000000000     
   7.8110254895751449E-002  0.12273963437580772        0.0000000000000000     
   8.1713910645868693E-002  0.13690189298786043        0.0000000000000000     
   8.4975475761531707E-002  0.15154201510919474        0.0000000000000000     
   8.7894950242740494E-002  0.16666000073981055        0.0000000000000000     
   6.2042206014195883E-002  0.10790229802693049        0.0000000000000000     
   6.5425890881124382E-002  0.12169761783517806        0.0000000000000000     
   6.8517818282832307E-002  0.13596199975655945        0.0000000000000000     
   7.1317988219319645E-002  0.15069544379107466        0.0000000000000000     
   7.3826400690586422E-002  0.16589794993872373        0.0000000000000000     
   5.0605413023857106E-002  0.10693546373130683        0.0000000000000000     
   5.3420103916701267E-002  0.12081682713370466        0.0000000000000000     
   5.5992153194830328E-002  0.13516704399438953        0.0000000000000000     
   5.8321560858244276E-002  0.14998611431336145        0.0000000000000000     
   6.0408326906943123E-002  0.16527403809062041        0.0000000000000000     
   3.9854129540163652E-002  0.10615473638616554        0.0000000000000000     
   4.2092894002482097E-002  0.12009726227138755        0.0000000000000000     
   4.4136915381862735E-002  0.13451702570135074        0.0000000000000000     
   4.5986193678305559E-002  0.14941402667605508        0.0000000000000000     
   4.7640728891810577E-002  0.16478826519550063        0.0000000000000000     
  0.10261397556340529       0.16756019049388093        0.0000000000000000     
  0.10559732307531514       0.18299127393622608        0.0000000000000000     
  0.10830110257641090       0.19872054216421273        0.0000000000000000     
  0.11072531406669263       0.21474799517784088        0.0000000000000000     
  0.11286995754616030       0.23107363297711053        0.0000000000000000     
   8.7894950242740494E-002  0.16666000073981055        0.0000000000000000     
   9.0487216431735074E-002  0.18217738480389223        0.0000000000000000     
   9.2767156670755538E-002  0.19801570222562406        0.0000000000000000     
   9.4734770959801845E-002  0.21417495300500602        0.0000000000000000     
   9.6390059298874037E-002  0.23065513714203817        0.0000000000000000     
   7.3826400690586422E-002  0.16589794993872373        0.0000000000000000     
   7.6029180982996214E-002  0.18150181888897488        0.0000000000000000     
   7.7912454382912583E-002  0.19743935133129642        0.0000000000000000     
   7.9476220890335569E-002  0.21371054726568839        0.0000000000000000     
   8.0720480505265146E-002  0.23031540669215073        0.0000000000000000     
   6.0408326906943123E-002  0.16527403809062041        0.0000000000000000     
   6.2223216729098502E-002  0.18096457619147399        0.0000000000000000     
   6.3736995712882050E-002  0.19699148948122983        0.0000000000000000     
   6.4949663858293774E-002  0.21335477795988789        0.0000000000000000     
   6.5861221165333661E-002  0.23005444162744823        0.0000000000000000     
   4.7640728891810577E-002  0.16478826519550063        0.0000000000000000     
   4.9069323670041964E-002  0.18056565671138955        0.0000000000000000     
   5.0240780660663925E-002  0.19667211667542422        0.0000000000000000     
   5.1155099863676445E-002  0.21310764508760463        0.0000000000000000     
   5.1812281279079553E-002  0.22987224194793066        0.0000000000000000     
  0.11286995754616030       0.23107363297711053        0.0000000000000000     
  0.11469052109684033       0.24793190775001600        0.0000000000000000     
  0.11614249280075911       0.26555727168455145        0.0000000000000000     
  0.11722587265791667       0.28394972478071701        0.0000000000000000     
  0.11794066066831302       0.30310926703851254        0.0000000000000000     
   9.6390059298874037E-002  0.23065513714203817        0.0000000000000000     
   9.7743712974533242E-002  0.24760963414028184        0.0000000000000000     
   9.8806423273340674E-002  0.26519182350329851        0.0000000000000000     
   9.9578190195296346E-002  0.28340170523108815        0.0000000000000000     
  0.10005901374040024       0.30223927932365091        0.0000000000000000     
   8.0720480505265146E-002  0.23031540669215073        0.0000000000000000     
   8.1695535032490940E-002  0.24732365881788917        0.0000000000000000     
   8.2451686276802577E-002  0.26480503285010959        0.0000000000000000     
   8.2988934238200016E-002  0.28275952878881172        0.0000000000000000     
   8.3307278916683297E-002  0.30118714663399582        0.0000000000000000     
   6.5861221165333661E-002  0.23005444162744823        0.0000000000000000     
   6.6545987270713439E-002  0.24707398178283796        0.0000000000000000     
   6.7078281811144780E-002  0.26439689972498437        0.0000000000000000     
   6.7458104786627712E-002  0.28202319545388760        0.0000000000000000     
   6.7685456197162236E-002  0.29995286896954737        0.0000000000000000     
   5.1812281279079553E-002  0.22987224194793066        0.0000000000000000     
   5.2295069689200689E-002  0.24686060303512827        0.0000000000000000     
   5.2686209876367310E-002  0.26396742412792329        0.0000000000000000     
   5.2985701840579415E-002  0.28119270522631573        0.0000000000000000     
   5.3193545581837018E-002  0.29853644633030552        0.0000000000000000     
   2.8908781827553718E-002   5.6936054423047118E-002   0.0000000000000000     
   3.1945269448980046E-002   6.8191297447272856E-002   0.0000000000000000     
   3.4781656608223813E-002   8.0146158782534505E-002   0.0000000000000000     
   3.7417943305285015E-002   9.2800638428832072E-002   0.0000000000000000     
   3.9854129540163652E-002  0.10615473638616554        0.0000000000000000     
   2.1300678614337695E-002   5.6081422424560115E-002   0.0000000000000000     
   2.3609366569842978E-002   6.7419503805174530E-002   0.0000000000000000     
   2.5754957768690773E-002   7.9444130819644201E-002   0.0000000000000000     
   2.7737452210881072E-002   9.2155303467969130E-002   0.0000000000000000     
   2.9556849896413891E-002  0.10555302175014930        0.0000000000000000     
   1.3946513907569697E-002   5.5470970996204953E-002   0.0000000000000000     
   1.5506520703821736E-002   6.6868222631952412E-002   0.0000000000000000     
   1.6949115388961829E-002   7.8942682274817544E-002   0.0000000000000000     
   1.8274297962989967E-002   9.1694349924800314E-002   0.0000000000000000     
   1.9482068425906159E-002  0.10512322558190075        0.0000000000000000     
   6.8462877072497175E-003   5.5104700137981612E-002   0.0000000000000000     
   7.6367318509163156E-003   6.6537453927606516E-002   0.0000000000000000     
   8.3641294690369721E-003   7.8641813148054546E-002   0.0000000000000000     
   9.0284805616116896E-003   9.1417777799325681E-002   0.0000000000000000     
   9.6297851286404664E-003  0.10486534788141993        0.0000000000000000     
   1.3377761572119784E-011   5.4982609849890104E-002   0.0000000000000000     
   1.1126716301795847E-011   6.6427197692136827E-002   0.0000000000000000     
   8.9162091338607086E-012   7.8541523439355179E-002   0.0000000000000000     
   6.7462383878010013E-012   9.1325587091545174E-002   0.0000000000000000     
   4.6168086714759582E-012  0.10477938864870681        0.0000000000000000     
   3.9854129540163652E-002  0.10615473638616554        0.0000000000000000     
   4.2092894002482097E-002  0.12009726227138755        0.0000000000000000     
   4.4136915381862735E-002  0.13451702570135074        0.0000000000000000     
   4.5986193678305559E-002  0.14941402667605508        0.0000000000000000     
   4.7640728891810577E-002  0.16478826519550063        0.0000000000000000     
   2.9556849896413891E-002  0.10555302175014930        0.0000000000000000     
   3.1221147085661462E-002  0.11953817932161112        0.0000000000000000     
   3.2738340038996040E-002  0.13401166983778104        0.0000000000000000     
   3.4108428756417633E-002  0.14897349329865900        0.0000000000000000     
   3.5331413237926233E-002  0.16442364970424503        0.0000000000000000     
   1.9482068425906159E-002  0.10512322558190075        0.0000000000000000     
   2.0581749113433911E-002  0.11913883435775981        0.0000000000000000     
   2.1582662361296731E-002  0.13365070136401844        0.0000000000000000     
   2.2484808169494608E-002  0.14865882660067659        0.0000000000000000     
   2.3288186538027559E-002  0.16416321006773432        0.0000000000000000     
   9.6297851286404664E-003  0.10486534788141993        0.0000000000000000     
   1.0174700085799454E-002  0.11889922737983358        0.0000000000000000     
   1.0669882348764797E-002  0.13343412028006288        0.0000000000000000     
   1.1115331917536496E-002  0.14847002658210781        0.0000000000000000     
   1.1511048792114552E-002  0.16400694628596849        0.0000000000000000     
   4.6168086714759582E-012  0.10477938864870681        0.0000000000000000     
   2.7580858603937219E-012  0.11881935838783243        0.0000000000000000     
   1.4002445036798150E-012  0.13336192658591445        0.0000000000000000     
   5.4328633605771337E-013  0.14840709324295276        0.0000000000000000     
   1.8721049016567903E-013  0.16395485835894752        0.0000000000000000     
   4.7640728891810577E-002  0.16478826519550063        0.0000000000000000     
   4.9069323670041964E-002  0.18056565671138955        0.0000000000000000     
   5.0240780660663925E-002  0.19667211667542422        0.0000000000000000     
   5.1155099863676445E-002  0.21310764508760463        0.0000000000000000     
   5.1812281279079553E-002  0.22987224194793066        0.0000000000000000     
   3.5331413237926233E-002  0.16442364970424503        0.0000000000000000     
   3.6381597844443579E-002  0.18027711857395773        0.0000000000000000     
   3.7233286936891423E-002  0.19644887942721570        0.0000000000000000     
   3.7886480515269751E-002  0.21293893226401894        0.0000000000000000     
   3.8341178579578569E-002  0.22974727708436740        0.0000000000000000     
   2.3288186538027559E-002  0.16416321006773432        0.0000000000000000     
   2.3974135290920351E-002  0.18007101990441457        0.0000000000000000     
   2.4523992252197761E-002  0.19628942424994025        0.0000000000000000     
   2.4937757421859785E-002  0.21281842310431140        0.0000000000000000     
   2.5215430799906423E-002  0.22965801646752790        0.0000000000000000     
   1.1511048792114552E-002  0.16400694628596849        0.0000000000000000     
   1.1846936009472264E-002  0.17994736070276007        0.0000000000000000     
   1.2112896606582929E-002  0.19619375114359788        0.0000000000000000     
   1.2308930583446551E-002  0.21274611760848189        0.0000000000000000     
   1.2435037940063121E-002  0.22960446009741206        0.0000000000000000     
   1.8721049016567903E-013  0.16395485835894752        0.0000000000000000     
   9.9324628383135050E-014  0.17990614096899424        0.0000000000000000     
   4.6937714132111452E-014  0.19616186010818853        0.0000000000000000     
   3.0050940034997975E-014  0.21272201577653047        0.0000000000000000     
   4.8663330309839381E-014  0.22958660797401997        0.0000000000000000     
   5.1812281279079553E-002  0.22987224194793066        0.0000000000000000     
   5.2295069689200689E-002  0.24686060303512827        0.0000000000000000     
   5.2686209876367310E-002  0.26396742412792329        0.0000000000000000     
   5.2985701840579415E-002  0.28119270522631573        0.0000000000000000     
   5.3193545581837018E-002  0.29853644633030552        0.0000000000000000     
   3.8341178579578569E-002  0.22974727708436740        0.0000000000000000     
   3.8675425965095267E-002  0.24668977713159149        0.0000000000000000     
   3.8967267507097253E-002  0.26358229564902153        0.0000000000000000     
   3.9216703205584513E-002  0.28042483263665735        0.0000000000000000     
   3.9423733060557048E-002  0.29721738809449905        0.0000000000000000     
   2.5215430799906423E-002  0.22965801646752790        0.0000000000000000     
   2.5419699775539720E-002  0.24656775862905916        0.0000000000000000     
   2.5613251737961702E-002  0.26330720387837436        0.0000000000000000     
   2.5796086687172374E-002  0.27987635221547358        0.0000000000000000     
   2.5968204623171735E-002  0.29627520364035664        0.0000000000000000     
   1.2435037940063121E-002  0.22960446009741206        0.0000000000000000     
   1.2527891120534028E-002  0.24649454752753119        0.0000000000000000     
   1.2624162568960658E-002  0.26314214881598202        0.0000000000000000     
   1.2723852285343003E-002  0.27954726396276436        0.0000000000000000     
   1.2826960269681061E-002  0.29570989296787842        0.0000000000000000     
   4.8663330309839381E-014  0.22958660797401997        0.0000000000000000     
   7.8208706871807365E-014  0.24647014382700771        0.0000000000000000     
   9.4116771667818178E-014  0.26308713046184440        0.0000000000000000     
   9.6391482035801390E-014  0.27943756787852980        0.0000000000000000     
   8.5029205898479177E-014  0.29552145607706415        0.0000000000000000     
   1.3377761572119784E-011   5.4982609849890104E-002   0.0000000000000000     
   1.1126716301795847E-011   6.6427197692136827E-002   0.0000000000000000     
   8.9162091338607086E-012   7.8541523439355179E-002   0.0000000000000000     
   6.7462383878010013E-012   9.1325587091545174E-002   0.0000000000000000     
   4.6168086714759582E-012  0.10477938864870681        0.0000000000000000     
  -6.8462876815302380E-003   5.5104700132014635E-002   0.0000000000000000     
  -7.6367318295682812E-003   6.6537453925573642E-002   0.0000000000000000     
  -8.3641294519710471E-003   7.8641813148699766E-002   0.0000000000000000     
  -9.0284805487385357E-003   9.1417777801393027E-002   0.0000000000000000     
  -9.6297851198707471E-003  0.10486534788365343        0.0000000000000000     
  -1.3946513884958349E-002   5.5470970984439420E-002   0.0000000000000000     
  -1.5506520685189892E-002   6.6868222627947199E-002   0.0000000000000000     
  -1.6949115374195377E-002   7.8942682276068529E-002   0.0000000000000000     
  -1.8274297951974786E-002   9.1694349928803390E-002   0.0000000000000000     
  -1.9482068418528127E-002  0.10512322558615182        0.0000000000000000     
  -2.1300678596906566E-002   5.6081422407164461E-002   0.0000000000000000     
  -2.3609366555738132E-002   6.7419503799257527E-002   0.0000000000000000     
  -2.5754957757756783E-002   7.9444130821461456E-002   0.0000000000000000     
  -2.7737452202962514E-002   9.2155303473776262E-002   0.0000000000000000     
  -2.9556849891355319E-002  0.10555302175620196        0.0000000000000000     
  -2.8908781817374895E-002   5.6936054400189742E-002   0.0000000000000000     
  -3.1945269441212981E-002   6.8191297439504597E-002   0.0000000000000000     
  -3.4781656602655260E-002   8.0146158784878588E-002   0.0000000000000000     
  -3.7417943301701714E-002   9.2800638436311658E-002   0.0000000000000000     
  -3.9854129538352358E-002  0.10615473639380386        0.0000000000000000     
   4.6168086714759582E-012  0.10477938864870681        0.0000000000000000     
   2.7580858603937219E-012  0.11881935838783243        0.0000000000000000     
   1.4002445036798150E-012  0.13336192658591445        0.0000000000000000     
   5.4328633605771337E-013  0.14840709324295276        0.0000000000000000     
   1.8721049016567903E-013  0.16395485835894752        0.0000000000000000     
  -9.6297851198707471E-003  0.10486534788365343        0.0000000000000000     
  -1.0174700080602684E-002  0.11889922738161797        0.0000000000000000     
  -1.0669882346169359E-002  0.13343412028142362        0.0000000000000000     
  -1.1115331916570763E-002  0.14847002658307040        0.0000000000000000     
  -1.1511048791806899E-002  0.16400694628655832        0.0000000000000000     
  -1.9482068418528127E-002  0.10512322558615182        0.0000000000000000     
  -2.0581749109195357E-002  0.11913883436105169        0.0000000000000000     
  -2.1582662359316451E-002  0.13365070136644097        0.0000000000000000     
  -2.2484808168891399E-002  0.14865882660231966        0.0000000000000000     
  -2.3288186537920214E-002  0.16416321006868770        0.0000000000000000     
  -2.9556849891355319E-002  0.10555302175620196        0.0000000000000000     
  -3.1221147083019929E-002  0.11953817932613366        0.0000000000000000     
  -3.2738340038041033E-002  0.13401166984096655        0.0000000000000000     
  -3.4108428756418632E-002  0.14897349330070056        0.0000000000000000     
  -3.5331413238152726E-002  0.16442364970533577        0.0000000000000000     
  -3.9854129538352358E-002  0.10615473639380386        0.0000000000000000     
  -4.2092894002076400E-002  0.12009726227686385        0.0000000000000000     
  -4.4136915382343100E-002  0.13451702570500026        0.0000000000000000     
  -4.5986193679152444E-002  0.14941402667821313        0.0000000000000000     
  -4.7640728892504446E-002  0.16478826519650241        0.0000000000000000     
   1.8721049016567903E-013  0.16395485835894752        0.0000000000000000     
   9.9324628383135050E-014  0.17990614096899424        0.0000000000000000     
   4.6937714132111452E-014  0.19616186010818853        0.0000000000000000     
   3.0050940034997975E-014  0.21272201577653047        0.0000000000000000     
   4.8663330309839381E-014  0.22958660797401997        0.0000000000000000     
  -1.1511048791806899E-002  0.16400694628655832        0.0000000000000000     
  -1.1846936009306881E-002  0.17994736070303871        0.0000000000000000     
  -1.2112896606499819E-002  0.19619375114366303        0.0000000000000000     
  -1.2308930583385698E-002  0.21274611760843110        0.0000000000000000     
  -1.2435037939964543E-002  0.22960446009734309        0.0000000000000000     
  -2.3288186537920214E-002  0.16416321006868770        0.0000000000000000     
  -2.3974135290854758E-002  0.18007101990481517        0.0000000000000000     
  -2.4523992252146919E-002  0.19628942424997178        0.0000000000000000     
  -2.4937757421796700E-002  0.21281842310415772        0.0000000000000000     
  -2.5215430799804091E-002  0.22965801646737291        0.0000000000000000     
  -3.5331413238152726E-002  0.16442364970533577        0.0000000000000000     
  -3.6381597844544311E-002  0.18027711857432344        0.0000000000000000     
  -3.7233286936894386E-002  0.19644887942711500        0.0000000000000000     
  -3.7886480515202929E-002  0.21293893226371027        0.0000000000000000     
  -3.8341178579469962E-002  0.22974727708410944        0.0000000000000000     
  -4.7640728892504446E-002  0.16478826519650241        0.0000000000000000     
  -4.9069323670375545E-002  0.18056565671156369        0.0000000000000000     
  -5.0240780660742203E-002  0.19667211667509249        0.0000000000000000     
  -5.1155099863604420E-002  0.21310764508708885        0.0000000000000000     
  -5.1812281278962188E-002  0.22987224194755274        0.0000000000000000     
   4.8663330309839381E-014  0.22958660797401997        0.0000000000000000     
   7.8208706871807365E-014  0.24647014382700771        0.0000000000000000     
   9.4116771667818178E-014  0.26308713046184440        0.0000000000000000     
   9.6391482035801390E-014  0.27943756787852980        0.0000000000000000     
   8.5029205898479177E-014  0.29552145607706415        0.0000000000000000     
  -1.2435037939964543E-002  0.22960446009734309        0.0000000000000000     
  -1.2527891120380625E-002  0.24649454752749136        0.0000000000000000     
  -1.2624162568778229E-002  0.26314214881596837        0.0000000000000000     
  -1.2723852285157359E-002  0.27954726396277413        0.0000000000000000     
  -1.2826960269518014E-002  0.29570989296790867        0.0000000000000000     
  -2.5215430799804091E-002  0.22965801646737291        0.0000000000000000     
  -2.5419699775395339E-002  0.24656775862898486        0.0000000000000000     
  -2.5613251737796692E-002  0.26330720387836115        0.0000000000000000     
  -2.5796086687008155E-002  0.27987635221550161        0.0000000000000000     
  -2.5968204623029720E-002  0.29627520364040649        0.0000000000000000     
  -3.8341178579469962E-002  0.22974727708410944        0.0000000000000000     
  -3.8675425964965940E-002  0.24668977713148826        0.0000000000000000     
  -3.8967267506961278E-002  0.26358229564902252        0.0000000000000000     
  -3.9216703205456005E-002  0.28042483263671236        0.0000000000000000     
  -3.9423733060450092E-002  0.29721738809455761        0.0000000000000000     
  -5.1812281278962188E-002  0.22987224194755274        0.0000000000000000     
  -5.2295069689092408E-002  0.24686060303500151        0.0000000000000000     
  -5.2686209876271962E-002  0.26396742412795271        0.0000000000000000     
  -5.2985701840500880E-002  0.28119270522640627        0.0000000000000000     
  -5.3193545581779134E-002  0.29853644633036214        0.0000000000000000     
  -2.8908781817374895E-002   5.6936054400189742E-002   0.0000000000000000     
  -3.1945269441212981E-002   6.8191297439504597E-002   0.0000000000000000     
  -3.4781656602655260E-002   8.0146158784878588E-002   0.0000000000000000     
  -3.7417943301701714E-002   9.2800638436311658E-002   0.0000000000000000     
  -3.9854129538352358E-002  0.10615473639380386        0.0000000000000000     
  -3.6975020653312179E-002   5.8013132352331617E-002   0.0000000000000000     
  -4.0736308540755231E-002   6.9181449831705821E-002   0.0000000000000000     
  -4.4261803231917397E-002   8.1057944222782327E-002   0.0000000000000000     
  -4.7551504726798706E-002   9.3642615525561107E-002   0.0000000000000000     
  -5.0605413025399136E-002  0.10693546374004224        0.0000000000000000     
  -4.5703592211667268E-002   5.9290921652406396E-002   0.0000000000000000     
  -5.0204563053505638E-002   7.0387807258878499E-002   0.0000000000000000     
  -5.4427988968569818E-002   8.2188665191635063E-002   0.0000000000000000     
  -5.8373869956859795E-002   9.4693495450676179E-002   0.0000000000000000     
  -6.2042206018375602E-002  0.10790229803600175        0.0000000000000000     
  -5.5094496492440165E-002   6.0769422300414086E-002   0.0000000000000000     
  -6.0350032979464195E-002   7.1810369721022616E-002   0.0000000000000000     
  -6.5280213812612481E-002   8.3538321691436865E-002   0.0000000000000000     
  -6.9885038991884987E-002   9.5953278211656806E-002   0.0000000000000000     
  -7.4164508517281749E-002  0.10905523928168240        0.0000000000000000     
  -6.5147733495630855E-002   6.2448634296354694E-002   0.0000000000000000     
  -7.1172718318630923E-002   7.3449137218138255E-002   0.0000000000000000     
  -7.6818477764045406E-002   8.5106913722187705E-002   0.0000000000000000     
  -8.2085011831874277E-002   9.7421963808503029E-002   0.0000000000000000     
  -8.6972320522117591E-002  0.11039428747708423        0.0000000000000000     
  -3.9854129538352358E-002  0.10615473639380386        0.0000000000000000     
  -4.2092894002076400E-002  0.12009726227686385        0.0000000000000000     
  -4.4136915382343100E-002  0.13451702570500026        0.0000000000000000     
  -4.5986193679152444E-002  0.14941402667821313        0.0000000000000000     
  -4.7640728892504446E-002  0.16478826519650241        0.0000000000000000     
  -5.0605413025399136E-002  0.10693546374004224        0.0000000000000000     
  -5.3420103918399603E-002  0.12081682713975211        0.0000000000000000     
  -5.5992153196481022E-002  0.13516704399821727        0.0000000000000000     
  -5.8321560859643413E-002  0.14998611431543762        0.0000000000000000     
  -6.0408326907886757E-002  0.16527403809141322        0.0000000000000000     
  -6.2042206018375602E-002  0.10790229803600175        0.0000000000000000     
  -6.5425890884024340E-002  0.12169761784130838        0.0000000000000000     
  -6.8517818284713164E-002  0.13596199976029258        0.0000000000000000     
  -7.1317988220442066E-002  0.15069544379295438        0.0000000000000000     
  -7.3826400691211033E-002  0.16589794993929369        0.0000000000000000     
  -7.4164508517281749E-002  0.10905523928168240        0.0000000000000000     
  -7.8110254898950640E-002  0.12273963438153260        0.0000000000000000     
  -8.1713910647039506E-002  0.13690189299122624        0.0000000000000000     
  -8.4975475761548402E-002  0.15154201511076329        0.0000000000000000     
  -8.7894950242477274E-002  0.16666000074014381        0.0000000000000000     
  -8.6972320522117591E-002  0.11039428747708423        0.0000000000000000     
  -9.1473195963178461E-002  0.12394287676042480        0.0000000000000000     
  -9.5580430283460069E-002  0.13798672369101819        0.0000000000000000     
  -9.9294023482962415E-002  0.15252582826886449        0.0000000000000000     
 -0.10261397556168550       0.16756019049396359        0.0000000000000000     
  -4.7640728892504446E-002  0.16478826519650241        0.0000000000000000     
  -4.9069323670375545E-002  0.18056565671156369        0.0000000000000000     
  -5.0240780660742203E-002  0.19667211667509249        0.0000000000000000     
  -5.1155099863604420E-002  0.21310764508708885        0.0000000000000000     
  -5.1812281278962188E-002  0.22987224194755274        0.0000000000000000     
  -6.0408326907886757E-002  0.16527403809141322        0.0000000000000000     
  -6.2223216729558765E-002  0.18096457619139988        0.0000000000000000     
  -6.3736995713007144E-002  0.19699148948065351        0.0000000000000000     
  -6.4949663858231907E-002  0.21335477795917404        0.0000000000000000     
  -6.5861221165233019E-002  0.23005444162696148        0.0000000000000000     
  -7.3826400691211033E-002  0.16589794993929369        0.0000000000000000     
  -7.6029180983304273E-002  0.18150181888869607        0.0000000000000000     
  -7.7912454383005966E-002  0.19743935133054702        0.0000000000000000     
  -7.9476220890316127E-002  0.21371054726484651        0.0000000000000000     
  -8.0720480505234726E-002  0.23031540669159450        0.0000000000000000     
  -8.7894950242477274E-002  0.16666000074014381        0.0000000000000000     
  -9.0487216431612075E-002  0.18217738480345222        0.0000000000000000     
  -9.2767156670738676E-002  0.19801570222477305        0.0000000000000000     
  -9.4734770959857106E-002  0.21417495300410619        0.0000000000000000     
  -9.6390059298967323E-002  0.23065513714145178        0.0000000000000000     
 -0.10261397556168550       0.16756019049396359        0.0000000000000000     
 -0.10559732307448218       0.18299127393566833        0.0000000000000000     
 -0.10830110257620529       0.19872054216333157        0.0000000000000000     
 -0.11072531406685482       0.21474799517695320        0.0000000000000000     
 -0.11286995754643081       0.23107363297653330        0.0000000000000000     
  -5.1812281278962188E-002  0.22987224194755274        0.0000000000000000     
  -5.2295069689092408E-002  0.24686060303500151        0.0000000000000000     
  -5.2686209876271962E-002  0.26396742412795271        0.0000000000000000     
  -5.2985701840500880E-002  0.28119270522640627        0.0000000000000000     
  -5.3193545581779134E-002  0.29853644633036214        0.0000000000000000     
  -6.5861221165233019E-002  0.23005444162696148        0.0000000000000000     
  -6.6545987270645118E-002  0.24707398178269199        0.0000000000000000     
  -6.7078281811102772E-002  0.26439689972504160        0.0000000000000000     
  -6.7458104786605980E-002  0.28202319545401056        0.0000000000000000     
  -6.7685456197154756E-002  0.29995286896959861        0.0000000000000000     
  -8.0720480505234726E-002  0.23031540669159450        0.0000000000000000     
  -8.1695535032494368E-002  0.24732365881772692        0.0000000000000000     
  -8.2451686276827613E-002  0.26480503285017959        0.0000000000000000     
  -8.2988934238234446E-002  0.28275952878895255        0.0000000000000000     
  -8.3307278916714897E-002  0.30118714663404594        0.0000000000000000     
  -9.6390059298967323E-002  0.23065513714145178        0.0000000000000000     
  -9.7743712974640198E-002  0.24760963414010634        0.0000000000000000     
  -9.8806423273446520E-002  0.26519182350336651        0.0000000000000000     
  -9.9578190195386301E-002  0.28340170523123237        0.0000000000000000     
 -0.10005901374045952       0.30223927932370398        0.0000000000000000     
 -0.11286995754643081       0.23107363297653330        0.0000000000000000     
 -0.11469052109708255       0.24793190774983026        0.0000000000000000     
 -0.11614249280095948       0.26555727168460247        0.0000000000000000     
 -0.11722587265806150       0.28394972478084995        0.0000000000000000     
 -0.11794066066838868       0.30310926703857277        0.0000000000000000     
 </DataArray>
 <DataArray  type="Float64" Name="stress" NumberOfComponents="3" format="ascii">
   5992855092.3455648        89471561.112879276        106140095.41133596     
   5603141422.6310453        3947209.8227212429        61974151.567569718     
   5224856783.8581514       -43480371.662018061        38817151.655285306     
   4858001176.0268869       -52811183.341332912        36669095.674485289     
   4502574599.1372509       -24045225.215217829        55529983.625172228     
   5216236402.5430126        49168847.767111301        360138274.76887089     
   4888255829.3002310       -2961634.3036179543        332445066.72770607     
   4567664947.3153620       -30459812.181302786        323523634.52883196     
   4254463756.5884132       -33325685.865931511        333373978.17224926     
   3948652257.1193762       -11559255.357509851        361996097.65795851     
   4458514089.5903683        14535047.476317167        622213481.86930525     
   4185874703.9930549       -6119138.0228691101        606280446.66641295     
   3916585669.9699440       -15605484.941375732        606882019.21661830     
   3650646987.5210385       -13923993.279200554        624018199.51991999     
   3388058656.6463346       -1074663.0363488197        657688987.57631910     
   3719688153.4876304       -14429839.759505033        892365716.71263564     
   3495998046.7095146       -5525301.3350253105        883480291.38368678     
   3271618951.8218956        1082610.0577638149        888892305.71864140     
   3046550868.8247681        5393894.4188617468        908601759.71749878     
   2820793797.7181330        7408551.7482657433        942608653.38026106     
   2999758594.2347970       -37725813.940357447        1170594979.2988629     
   2818625857.4496169       -1180124.2400889397        1164044600.8795278     
   2632764792.8712158        19604472.816108942        1169554494.0349016     
   2442175400.4995985        24627977.228252769        1187124658.7649841     
   2246857680.3347607        13890388.996327519        1216755095.0697796     
   4502574599.1372509       -24045225.215217829        55529983.625172228     
   4134222376.8852286        7765625.6760611534        34703453.317222252     
   3759005466.3556924        16694182.308959246        33135685.098842777     
   3376923867.5486331        2740444.6834526062        50826678.970025472     
   2987977580.4640603       -34095587.200441957        87776434.930781230     
   3948652257.1193762       -11559255.357509851        361996097.65795851     
   3626808505.6161861        10318269.885375500        332187440.37522924     
   3300819526.8186283        18378370.813700676        321188073.65166694     
   2970685320.7267027        12621047.427467227        328997997.48726696     
   2636405887.3404055       -6953700.2733445168        355617211.88203239     
   3388058656.6463346       -1074663.0363488197        657688987.57631910     
   3111439171.5193930        10484275.246355772        622070907.79915619     
   2833393920.0812311        17290659.158334970        604812647.05075169     
   2553922902.3318501        19344488.699574828        605914205.33110893     
   2273026118.2712512        16645763.870099783        625375582.64022791     
   2820793797.7181330        7408551.7482657433        942608653.38026106     
   2588114374.5948544        8263641.7590167522        904353855.58900213     
   2356728646.1435103        13431047.342879057        884009405.29610097     
   2126636612.3640924        22910768.499829531        881575302.50155640     
   1897838273.2566061        36702805.229888439        897051547.20536578     
   2246857680.3347607        13890388.996327519        1216755095.0697796     
   2056834114.8425686        3656369.4233521223        1179036283.7447670     
   1870823705.0054560        6799535.3673160076        1158778348.3877079     
   1688826450.8234246        23319886.828213513        1155981288.9986045     
   1510842352.2964733        53217423.806044102        1170645105.5774524     
   2987977580.4640603       -34095587.200441957        87776434.930781230     
   2720332255.8489876       -31629034.645695329        53181634.768711530     
   2461471814.4770041        120462.05268049240        1769688.4599956058     
   2211396256.3481255        61152902.894737363       -66459403.995367199     
   1970105581.4623382        151468287.88043773       -151505642.59737238     
   2636405887.3404055       -6953700.2733445168        355617211.88203239     
   2334261053.4539046       -14660106.644416332        330010964.95284390     
   2037730432.4528627       -3652470.0639584064        297031386.02131569     
   1746814024.3372631        26069209.467968225        256678475.08745253     
   1461511829.1071162        74504931.951414466        208952232.15124124     
   2273026118.2712512        16645763.870099783        625375582.64022791     
   1963364101.2399201        6861096.4112074375        605058773.52666855     
   1656145626.7363956        5221570.7116714716        586812446.55507708     
   1351370694.7606778        11727186.771495581        570636601.72544897     
   1049039305.3127621        26377944.590654910        556531239.03779042     
   1897838273.2566061        36702805.229888439        897051547.20536578     
   1607641399.2070308        32934574.521158695        878325060.49018764     
   1316717397.3276181        26742584.379631639        871112870.06127441     
   1025066267.6183578        18126834.805282414        875414975.91863346     
   732688010.07926214        7087325.7981465459        891231378.06226933     
   1510842352.2964733        53217423.806044102        1170645105.5774524     
   1267092947.3552372        63560327.685433865        1149809825.8433945     
   1019445744.2265241        60910570.939894319        1149932656.5399115     
   767900742.91031587        45268153.569372147        1171013597.6670077     
   512457943.40662378        16633075.573906690        1213052649.2246828     
   1970105581.4623382        151468287.88043773       -151505642.59737238     
   1618434251.8976047        158724432.30057991       -56973732.450102612     
   1225047240.7413268        26928304.748912275        67263774.458549306     
   789944547.99347305       -243920094.77467978        221206878.12856352     
   313126173.65405750       -653820766.27013922        404855578.55995089     
   1461511829.1071162        74504931.951414466        208952232.15124124     
   1178315232.4370663        61535082.310246885        284621593.27587485     
   848600740.44687092       -106494418.39806229        387925766.18765956     
   472368353.13651484       -429583570.17356443        518864750.88659173     
   49618070.506016910       -907732373.01622295        677438547.37266541     
   1049039305.3127621        26377944.590654910        556531239.03779042     
   828400913.03960991       -8592857.6611699462        607735468.45642900     
   556442411.71772218       -214630690.07544392        684503724.68799818     
   233163801.34710279       -591735552.65217185        786836007.73249674     
  -141434918.07226279       -1139907445.3913651        914732317.58991516     
   732688010.07926214        7087325.7981465459        891231378.06226933     
   568691293.70523691       -51659387.613667518        912367893.09156454     
   348572254.55388921       -297480510.28323126        956997649.95956933     
   72330892.625219107       -730376042.21052742        1025120648.6662772     
  -260032792.08077621       -1350345983.3955772        1116736889.2116983     
   512457943.40662378        16633075.573906690        1213052649.2246828     
   399186374.43395281       -67664507.547226787        1198518867.1812804     
   224990268.95536858       -355043879.02140737        1205407542.0023670     
  -10130373.029125094       -845505038.84861517        1233718673.6879354     
  -306175551.51953042       -1539047987.0288618        1283452262.2379999     
   2999758594.2347970       -37725813.940357447        1170594979.2988629     
   2818625857.4496169       -1180124.2400889397        1164044600.8795278     
   2632764792.8712158        19604472.816108942        1169554494.0349016     
   2442175400.4995985        24627977.228252769        1187124658.7649841     
   2246857680.3347607        13890388.996327519        1216755095.0697796     
   2289730623.0938435       -16320857.956086159        1297356776.7488384     
   2140144198.5531130        6967348.2121226788        1278269473.8324492     
   1987011528.1176293        18434734.731144428        1274447712.6521721     
   1830332611.7873871        18081301.600974083        1285891493.2080121     
   1670107449.5623906        5907048.8216181993        1312600815.4999599     
   1553094866.4487789       -2898237.6230495572        1414690035.1918695     
   1444212668.8993723        9879859.4371657968        1384444903.3266325     
   1332966307.3536701        14777409.843063772        1372670583.3589103     
   1219355781.8116753        11794413.594649553        1379367075.2887075     
   1103381092.2733836        930870.69191694260        1404534379.1160204     
   789851324.29961157        2542047.0587577224        1522594754.6279569     
   730831268.48839319        7557409.4350368977        1482570889.3620746     
   670629130.57934213        8632498.1518738270        1464223106.1551158     
   609244910.57245994        5767313.2092753053        1467551405.0070760     
   546678608.46774340       -1038145.3927722275        1492555785.9179568     
  -3.3536626772338005       -3.9106687210865729        1621070935.0570946     
  -2.6798243111760311       -1.7942634557608874        1572647431.9387774     
  -2.2053571880763645      -0.34242830640615463        1549105281.0407848     
  -1.9302592491421042       0.44484463045403311        1550444482.3631153     
  -1.8545323701621519       0.56754459190896678        1576665035.9057713     
   2246857680.3347607        13890388.996327519        1216755095.0697796     
   2056834114.8425686        3656369.4233521223        1179036283.7447670     
   1870823705.0054560        6799535.3673160076        1158778348.3877079     
   1688826450.8234246        23319886.828213513        1155981288.9986045     
   1510842352.2964733        53217423.806044102        1170645105.5774524     
   1670107449.5623906        5907048.8216181993        1312600815.4999599     
   1526485328.4363053       -2099800.0104280710        1282615975.1231153     
   1385873074.0517669       -73759.703984737396        1270349715.0428038     
   1248270686.4087772        11985169.740951836        1275802035.2590241     
   1113678165.5073349        34076988.324381351        1298972935.7717724     
   1103381092.2733836        930870.69191694260        1404534379.1160204     
   1006896713.5950582       -4627917.9747126102        1381113005.9548886     
   912418912.74474919       -3498113.8812888861        1375667917.4188690     
   819947689.72245502        4320282.9721843600        1388199113.5079579     
   729483044.52817762        18827272.585712761        1418706594.2221584     
   546678608.46774340       -1038145.3927722275        1492555785.9179568     
   498068270.31883097       -3927984.4694898427        1474527376.2400830     
   450461221.08440208       -3473527.1645944715        1474732955.5159009     
   403857460.76445842        325226.52191793919        1493172523.7454071     
   358256989.35899699        7468276.5900388807        1529846080.9286015     
  -1.8545323701621519       0.56754459190896678        1576665035.9057713     
  -1.3923764156305933       0.50524378636884248        1562859085.9787035     
 -0.92926929887312959       0.44611352158173462        1567544829.3339024     
 -0.46521342181457381       0.39014579113159964        1590722265.9713695     
  -2.0322571464498340E-004  0.33735912415270869        1632391395.8911037     
   1510842352.2964733        53217423.806044102        1170645105.5774524     
   1267092947.3552372        63560327.685433865        1149809825.8433945     
   1019445744.2265241        60910570.939894319        1149932656.5399115     
   767900742.91031587        45268153.569372147        1171013597.6670077     
   512457943.40662378        16633075.573906690        1213052649.2246828     
   1113678165.5073349        34076988.324381351        1298972935.7717724     
   924913928.89987671        40048511.321953654        1279392248.0952079     
   733226343.65589702        36275538.864454478        1282158513.5252390     
   538615409.77538836        22758070.951860309        1307271732.0618570     
   341081127.25835663       -503892.41581335664        1354731903.7050755     
   729483044.52817762        18827272.585712761        1418706594.2221584     
   599672098.18596876        21617851.280913413        1401517356.4125407     
   467912252.75819772        17912099.690899253        1408063914.3855324     
   334203508.24486113        7710017.8156718016        1438346268.1411347     
   198545864.64595997       -8988394.3447739482        1492364417.6793420     
   358256989.35899699        7468276.5900388807        1529846080.9286015     
   291367455.21351379        8268347.5623086393        1516185150.7953856     
   223503471.53342348        5820253.4192216843        1527648859.1207955     
   154665038.31873268        123994.16079960763        1564237205.9048302     
   84852155.569435701       -8820430.2129736431        1625950191.1474884     
  -2.0322571464498340E-004  0.33735912415270869        1632391395.8911037     
  -1.7490496230830273E-002  0.16613409366155013        1623395631.2437472     
  -1.8424181594287017E-002   4.9423789237048328E-002   1640913347.7310290     
  -2.9956348756887928E-003  -1.2747129359384388E-002   1684944545.3529520     
   2.8784941463378209E-002  -2.0411282554254506E-002   1755489224.1095159     
   512457943.40662378        16633075.573906690        1213052649.2246828     
   399186374.43395281       -67664507.547226787        1198518867.1812804     
   224990268.95536858       -355043879.02140737        1205407542.0023670     
  -10130373.029125094       -845505038.84861517        1233718673.6879354     
  -306175551.51953042       -1539047987.0288618        1283452262.2379999     
   341081127.25835663       -503892.41581335664        1354731903.7050755     
   283904495.31320214       -55393966.319220170        1284858212.4910290     
   181034460.98878163       -262595381.48684841        1229925667.6911130     
   32471024.285091132       -622108137.91871059        1189934269.3053315     
  -161785814.79787692       -1133932235.6148283        1164884017.3336723     
   198545864.64595997       -8988394.3447739482        1492364417.6793420     
   178946139.87017015       -40026367.987877101        1384920473.7757311     
   128884146.84174538       -172605235.80642807        1285936365.8358963     
   48359885.560694367       -406724997.80040497        1195412093.8598347     
  -62626643.972994506       -742385653.96983314        1113347657.8475397     
   84852155.569435701       -8820430.2129736431        1625950191.1474884     
   84311308.104845792       -21561712.553235490        1498705651.0353956     
   68539326.514262170       -85073441.980143234        1373439636.4367194     
   37536210.797688752       -199355618.49368104        1250152147.3514514     
  -8698039.0448756218       -364408242.09386033        1128843183.7796142     
   2.8784941463378209E-002  -2.0411282554254506E-002   1755489224.1095159     
   1.7236120955407920E-002  -1.5272810488825256E-002   1626213744.2700121     
   6.3306960406506923E-003  -7.9903803354095318E-003   1492435479.4935691     
  -3.9197582908427845E-003   1.4742442614664522E-003   1354154429.7801888     
  -1.3530568606926193E-002   1.3073791133937560E-002   1211370595.1298723     
  -3.3536626772338005       -3.9106687210865729        1621070935.0570946     
  -2.6798243111760311       -1.7942634557608874        1572647431.9387774     
  -2.2053571880763645      -0.34242830640615463        1549105281.0407848     
  -1.9302592491421042       0.44484463045403311        1550444482.3631153     
  -1.8545323701621519       0.56754459190896678        1576665035.9057713     
  -789851330.82016778       -2542054.6623787284        1522594755.5473380     
  -730831273.68669772       -7557412.9170333445        1482570889.9141865     
  -670629134.85165167       -8632498.8330982924        1464223106.3460574     
  -609244914.31502652       -5767312.4105691612        1467551404.8429482     
  -546678612.07682383        1038146.3505521417        1492555785.4048612     
  -1553094872.5156338        2898230.3172237277        1414690036.9893548     
  -1444212673.6519713       -9879862.7273249626        1384444904.3924754     
  -1332966311.1857834       -14777410.430122375        1372670583.7053158     
  -1219355785.1170683       -11794412.791165233        1379367074.9278731     
  -1103381095.4458263       -930869.81045198441        1404534378.0601492     
  -2289730628.4400625        16320851.028136730        1297356779.3831456     
  -2140144202.5756440       -6967351.2251378298        1278269475.3736458     
  -1987011531.2077503       -18434735.133494735        1274447713.1185601     
  -1830332614.3363831       -18081300.696938515        1285891492.6178901     
  -1670107451.9615424       -5907047.9154709578        1312600813.8716340     
  -2999758598.5934525        37725807.470361948        1170594982.7287090     
  -2818625860.4577150        1180121.5895338058        1164044602.8576934     
  -2632764794.9175563       -19604472.943222880        1169554494.5857904     
  -2442175401.9729748       -24627976.127903700        1187124657.9129999     
  -2246857681.6239696       -13890387.964504957        1216755092.8393195     
  -1.8545323701621519       0.56754459190896678        1576665035.9057713     
  -1.3923764156305933       0.50524378636884248        1562859085.9787035     
 -0.92926929887312959       0.44611352158173462        1567544829.3339024     
 -0.46521342181457381       0.39014579113159964        1590722265.9713695     
  -2.0322571464498340E-004  0.33735912415270869        1632391395.8911037     
  -546678612.07682383        1038146.3505521417        1492555785.4048612     
  -498068273.05467939        3927985.2288451493        1474527375.8430920     
  -450461222.93280554        3473527.7729037702        1474732955.2127538     
  -403857461.71120095       -325226.01726913452        1493172523.5138483     
  -358256989.38986218       -7468276.1416611820        1529846080.7463758     
  -1103381095.4458263       -930869.81045198441        1404534378.0601492     
  -1006896716.0089380        4627918.5648606420        1381113005.1455863     
  -912418914.37353909        3498114.2685414553        1375667916.8116212     
  -819947690.53962827       -4320282.6994060278        1388199113.0582547     
  -729483044.50720716       -18827272.338985622        1418706593.8854833     
  -1670107451.9615424       -5907047.9154709578        1312600813.8716340     
  -1526485330.2551527        2099800.5132872462        1282615973.8861899     
  -1385873075.2514725        73759.933014273643        1270349714.1305091     
  -1248270686.9505012       -11985169.656286597        1275802034.6045873     
  -1113678165.3522377       -34076988.254616559        1298972935.3084300     
  -2246857681.6239696       -13890387.964504957        1216755092.8393195     
  -2056834115.7933209       -3656368.9258698225        1179036282.0649018     
  -1870823705.5666037       -6799535.2336677313        1158778347.1694119     
  -1688826450.9438133       -23319886.887891829        1155981288.1528471     
  -1510842351.9249547       -53217423.888553381        1170645105.0152099     
  -2.0322571464498340E-004  0.33735912415270869        1632391395.8911037     
  -1.7490496230830273E-002  0.16613409366155013        1623395631.2437472     
  -1.8424181594287017E-002   4.9423789237048328E-002   1640913347.7310290     
  -2.9956348756887928E-003  -1.2747129359384388E-002   1684944545.3529520     
   2.8784941463378209E-002  -2.0411282554254506E-002   1755489224.1095159     
  -358256989.38986218       -7468276.1416611820        1529846080.7463758     
  -291367455.26856154       -8268347.3865405321        1516185150.6739547     
  -223503471.58357370       -5820253.4191298932        1527648859.0520341     
  -154665038.33488554       -123994.23938506842        1564237205.8806169     
  -84852155.522509471        8820430.1526535191        1625950191.1597009     
  -729483044.50720716       -18827272.338985622        1418706593.8854833     
  -599672098.20199955       -21617851.243929416        1401517356.1932223     
  -467912252.78576475       -17912099.778782725        1408063914.2673280     
  -334203508.25849915       -7710017.9435334355        1438346268.1077938     
  -198545864.62020993        8988394.2617948428        1492364417.7146261     
  -1113678165.3522377       -34076988.254616559        1298972935.3084300     
  -924913928.81780243       -40048511.406025678        1279392247.8015537     
  -733226343.62500286       -36275539.029549688        1282158513.3769028     
  -538615409.77384090       -22758071.125200301        1307271732.0344787     
  -341081127.26431936        503892.30701264739        1354731903.7742798     
  -1510842351.9249547       -53217423.888553381        1170645105.0152099     
  -1267092947.1159737       -63560327.872834086        1149809825.4989443     
  -1019445744.1012893       -60910571.171437740        1149932656.3807678     
  -767900742.88090861       -45268153.784386575        1171013597.6606772     
  -512457943.45483333       -16633075.711687565        1213052649.3386750     
   2.8784941463378209E-002  -2.0411282554254506E-002   1755489224.1095159     
   1.7236120955407920E-002  -1.5272810488825256E-002   1626213744.2700121     
   6.3306960406506923E-003  -7.9903803354095318E-003   1492435479.4935691     
  -3.9197582908427845E-003   1.4742442614664522E-003   1354154429.7801888     
  -1.3530568606926193E-002   1.3073791133937560E-002   1211370595.1298723     
  -84852155.522509471        8820430.1526535191        1625950191.1597009     
  -84311308.072370827        21561712.527327746        1498705651.0433996     
  -68539326.499358743        85073441.978247046        1373439636.4415970     
  -37536210.803460255        199355618.50545532        1250152147.3542900     
   8698039.0153157562        364408242.10891986        1128843183.7814839     
  -198545864.62020993        8988394.2617948428        1492364417.7146261     
  -178946139.84713799        40026367.964373581        1384920473.7974613     
  -128884146.82895543        172605235.81731939        1285936365.8462319     
  -48359885.565659791        406724997.82064712        1195412093.8609350     
   62626643.942746252        742385653.97433448        1113347657.8415751     
  -341081127.26431936        503892.30701264739        1354731903.7742798     
  -283904495.30706161        55393966.295880795        1284858212.5321910     
  -181034460.98246396        262595381.50921798        1229925667.7074709     
  -32471024.290524632        622108137.94703174        1189934269.3001237     
   161785814.76876193        1133932235.6093283        1164884017.3101492     
  -512457943.45483333       -16633075.711687565        1213052649.3386750     
  -399186374.45214713        67664507.521832764        1198518867.2475953     
  -224990268.95988247        355043879.05394524        1205407542.0253255     
   10130373.021954060        845505038.88463318        1233718673.6718657     
   306175551.49336433        1539047987.0138977        1283452262.1872098     
  -2999758598.5934525        37725807.470361948        1170594982.7287090     
  -2818625860.4577150        1180121.5895338058        1164044602.8576934     
  -2632764794.9175563       -19604472.943222880        1169554494.5857904     
  -2442175401.9729748       -24627976.127903700        1187124657.9129999     
  -2246857681.6239696       -13890387.964504957        1216755092.8393195     
  -3719688155.8691778        14429834.303238630        892365720.50837791     
  -3495998048.0666695        5525298.8794610500        883480293.81379497     
  -3271618952.4482784       -1082610.4913690090        888892306.69675624     
  -3046550869.0140009       -5393893.8092426062        908601759.15726435     
  -2820793797.7638388       -7408551.0741692781        942608651.19531739     
  -4458514088.4533672       -14535051.456423521        622213485.69815910     
  -4185874702.4742846        6119136.1297876835        606280449.32671595     
  -3916585668.2678480        15605484.473838329        606882020.51124978     
  -3650646985.8340650        13923993.575704098        624018199.25176489     
  -3388058655.1729369        1074663.4354035854        657688985.54825950     
  -5216236396.3460302       -49168849.808627129        360138278.29805940     
  -4888255823.6805553        2961633.3405277729        332445069.39646244     
  -4567664942.3762674        30459811.952380896        323523636.02927470     
  -4254463752.4331703        33325686.026943684        333373978.19650269     
  -3948652253.8512602        11559255.564205170        361996095.89814061     
  -5992855079.5471563       -89471560.753369808        106140098.30807394     
  -5603141411.6854830       -3947209.4883399010        61974154.023029268     
  -5224856774.7735348        43480371.944275141        38817153.250829190     
  -4858001168.8113098        52811183.544467688        36669095.991475552     
  -4502574593.7988119        24045225.312239647        55529982.244968586     
  -2246857681.6239696       -13890387.964504957        1216755092.8393195     
  -2056834115.7933209       -3656368.9258698225        1179036282.0649018     
  -1870823705.5666037       -6799535.2336677313        1158778347.1694119     
  -1688826450.9438133       -23319886.887891829        1155981288.1528471     
  -1510842351.9249547       -53217423.888553381        1170645105.0152099     
  -2820793797.7638388       -7408551.0741692781        942608651.19531739     
  -2588114374.5486751       -8263641.4312245846        904353854.07269204     
  -2356728645.9724603       -13431047.251433134        884009404.30438828     
  -2126636612.0351791       -22910768.534765601        881575301.89040303     
  -1897838272.7368455       -36702805.281242847        897051546.83074200     
  -3388058655.1729369        1074663.4354035854        657688985.54825950     
  -3111439170.3578477       -10484275.052727938        622070906.53657818     
  -2833393919.2167196       -17290659.120715857        604812646.35461152     
  -2553922901.7495399       -19344488.768537402        605914205.00236130     
  -2273026117.9563184       -16645763.996216655        625375582.47982585     
  -3948652253.8512602        11559255.564205170        361996095.89814061     
  -3626808503.2208376       -10318269.790378332        332187439.45655644     
  -3300819525.2993851       -18378370.841526985        321188073.32008398     
  -2970685320.0868940       -12621047.589209199        328997997.48871619     
  -2636405887.5833726        6953699.9665330648        355617211.96246225     
  -4502574593.7988119        24045225.312239647        55529982.244968586     
  -4134222373.1376419       -7765625.6441695690        34703452.832633600     
  -3759005464.2204556       -16694182.413851738        33135685.200803522     
  -3376923867.0472398       -2740444.9967753887        50826679.349476591     
  -2987977581.6180091        34095586.607021809        87776435.278649122     
  -1510842351.9249547       -53217423.888553381        1170645105.0152099     
  -1267092947.1159737       -63560327.872834086        1149809825.4989443     
  -1019445744.1012893       -60910571.171437740        1149932656.3807678     
  -767900742.88090861       -45268153.784386575        1171013597.6606772     
  -512457943.45483333       -16633075.711687565        1213052649.3386750     
  -1897838272.7368455       -36702805.281242847        897051546.83074200     
  -1607641398.8469536       -32934574.630554140        878325060.24213314     
  -1316717397.1183021       -26742584.517328143        871112869.94037521     
  -1025066267.5509030       -18126834.941609561        875414975.92546618     
  -732688010.14474785       -7087325.9033754766        891231378.19740498     
  -2273026117.9563184       -16645763.996216655        625375582.47982585     
  -1963364101.0176244       -6861096.5201772451        605058773.39077210     
  -1656145626.6071157       -5221570.8047586679        586812446.47732890     
  -1351370694.7248054       -11727186.850001574        570636601.73949838     
  -1049039305.3706799       -26377944.655861914        556531239.17727852     
  -2636405887.5833726        6953699.9665330648        355617211.96246225     
  -2334261053.6279850        14660106.458292365        330010964.94485730     
  -2037730432.5677309        3652469.9662668705        297031385.99163306     
  -1746814024.4026141       -26069209.509543777        256678475.10277545     
  -1461511829.1326385       -74504931.969163060        208952232.27829394     
  -2987977581.6180091        34095586.607021809        87776435.278649122     
  -2720332256.6780386        31629034.304843903        53181634.904399149     
  -2461471815.0001473       -120462.20424783230        1769688.4832817863     
  -2211396256.5843425       -61152902.920303702       -66459403.984701127     
  -1970105581.4306107       -151468287.84326816       -151505642.49954936     
  -512457943.45483333       -16633075.711687565        1213052649.3386750     
  -399186374.45214713        67664507.521832764        1198518867.2475953     
  -224990268.95988247        355043879.05394524        1205407542.0253255     
   10130373.021954060        845505038.88463318        1233718673.6718657     
   306175551.49336433        1539047987.0138977        1283452262.1872098     
  -732688010.14474785       -7087325.9033754766        891231378.19740498     
  -568691293.74178076        51659387.585655510        912367893.17136919     
  -348572254.57202184        297480510.29731703        956997649.98700631     
  -72330892.635467649        730376042.23162556        1025120648.6443124     
   260032792.06787851        1350345983.3885837        1116736889.1433063     
  -1049039305.3706799       -26377944.655861914        556531239.17727852     
  -828400913.07352793        8592857.6368392110        607735468.53970218     
  -556442411.73236561        214630690.07623678        684503724.71666694     
  -233163801.34719598        591735552.66232908        786836007.70817995     
   141434918.08199596        1139907445.3951576        914732317.51422572     
  -1461511829.1326385       -74504931.969163060        208952232.27829394     
  -1178315232.4473922       -61535082.324614763        284621593.35260403     
  -848600740.44092262        106494418.39068121        387925766.21431714     
  -472368353.11322534        429583570.17676079        518864750.86344278     
  -49618070.464281321        907732373.03361642        677438547.29998064     
  -1970105581.4306107       -151468287.84326816       -151505642.49954936     
  -1618434251.8633709       -158724432.29869974       -56973732.389932156     
  -1225047240.6976876       -26928304.759323418        67263774.479951099     
  -789944547.93354654        243920094.77489150        221206878.11012274     
  -313126173.57096940        653820766.30393863        404855578.50056255     
 </DataArray>
 <DataArray  type="Float64" Name="VM" NumberOfComponents="1" format="ascii">
   5951464053.2415638     
   5602197336.2240009     
   5247162850.8346558     
   4885033787.5880499     
   4515669645.9307594     
   5229164577.6426096     
   4923524166.4166861     
   4617101224.1221380     
   4310077726.4580812     
   4003842562.8332572     
   4579869353.1338549     
   4318556051.0973263     
   4062748382.0455599     
   3813980208.2864165     
   3574947279.3759594     
   4034713422.3602581     
   3818764406.1943030     
   3615292304.0716543     
   3426622242.0907478     
   3256004877.0455737     
   3636484705.3155875     
   3465974458.0976453     
   3314180738.5348291     
   3183155077.9471092     
   3075521343.6946492     
   4515669645.9307594     
   4130782387.4003124     
   3751125323.1717186     
   3376702251.9142547     
   3009013706.8743229     
   4003842562.8332572     
   3667079151.1431761     
   3338348238.8534827     
   3018667993.0635300     
   2710794705.8474088     
   3574947279.3759594     
   3287774185.7366700     
   3012776765.5124407     
   2752251467.4790406     
   2510452632.0666943     
   3256004877.0455737     
   3021685745.0920839     
   2804837759.3938255     
   2608813973.2824326     
   2438767240.6112924     
   3075521343.6946492     
   2897143261.0092249     
   2741461037.2974095     
   2611929091.2965946     
   2513225708.0414295     
   3009013706.8743229     
   2737833873.7116847     
   2461413494.1980329     
   2184497730.9979000     
   1916953834.6530995     
   2710794705.8474088     
   2410380013.8869023     
   2103445824.8622146     
   1790014608.1306868     
   1470938842.4044893     
   2510452632.0666943     
   2222535308.2813964     
   1940939067.1929457     
   1669542122.4751570     
   1415163884.3108475     
   2438767240.6112924     
   2201593355.9204392     
   1993930876.7611599     
   1825256795.2042716     
   1707210959.2529464     
   2513225708.0414295     
   2344187602.6395826     
   2224392061.7736268     
   2161198243.0348177     
   2160753627.9352922     
   1916953834.6530995     
   1548346160.8581357     
   1217395037.0678055     
   1011429779.7410190     
   1105432995.8456881     
   1470938842.4044893     
   1250093589.5401618     
   1128403615.8927450     
   1190906158.1515040     
   1499416186.1292806     
   1415163884.3108475     
   1342187557.6534162     
   1371408092.7389717     
   1549135353.2125759     
   1915300431.3919363     
   1707210959.2529464     
   1688994446.6669550     
   1749635455.9972873     
   1934974600.6379886     
   2298090714.1954041     
   2160753627.9352922     
   2121386674.2132299     
   2148390146.5831861     
   2296214582.9938283     
   2633048126.5662074     
   3636484705.3155875     
   3465974458.0976453     
   3314180738.5348291     
   3183155077.9471092     
   3075521343.6946492     
   3214017250.0351901     
   3076893424.8494601     
   2963878462.2081671     
   2877134060.8616748     
   2819253639.2848978     
   2901836830.1747251     
   2796719917.6011734     
   2722130296.3318381     
   2679654199.6293960     
   2671062347.1836653     
   2752589344.1861267     
   2668838247.6773272     
   2622189287.5746469     
   2613201158.6853390     
   2642459920.7579861     
   2807777222.1920757     
   2723905254.5106807     
   2683129053.0359039     
   2685448617.7677441     
   2730863948.7062039     
   3075521343.6946492     
   2897143261.0092249     
   2741461037.2974095     
   2611929091.2965946     
   2513225708.0414295     
   2819253639.2848978     
   2696048664.2349405     
   2600406045.2048426     
   2535029608.1693211     
   2503094397.5848255     
   2671062347.1836653     
   2596332345.9307132     
   2552077371.7593212     
   2539700929.0302277     
   2560654409.2847509     
   2642459920.7579861     
   2602448229.1172156     
   2594032370.0050159     
   2617567986.9364953     
   2673390240.3672295     
   2730863948.7062039     
   2706951341.9857707     
   2715067287.5482035     
   2755211785.3935051     
   2827384835.5216732     
   2513225708.0414295     
   2344187602.6395826     
   2224392061.7736268     
   2161198243.0348177     
   2160753627.9352922     
   2503094397.5848255     
   2393859186.8856993     
   2333265944.2165871     
   2324918232.1263576     
   2371160907.7035942     
   2560654409.2847509     
   2497971784.3838143     
   2481695668.2201614     
   2513104589.0535178     
   2592824815.8319674     
   2673390240.3672295     
   2641780927.0676174     
   2655149702.1094985     
   2713745791.5033064     
   2817652958.2417002     
   2827384835.5216732     
   2811803714.0995197     
   2842145289.0880790     
   2918409560.4873552     
   3040596528.2973485     
   2160753627.9352922     
   2121386674.2132299     
   2148390146.5831861     
   2296214582.9938283     
   2633048126.5662074     
   2371160907.7035942     
   2247660723.6484337     
   2165045049.8605399     
   2157800752.3723683     
   2280216466.8491540     
   2592824815.8319674     
   2407239196.9230590     
   2242665106.5707388     
   2115292721.8601558     
   2056014215.7625070     
   2817652958.2417002     
   2597642601.6003838     
   2382598436.7982011     
   2176528396.0582423     
   1988104671.8843160     
   3040596528.2973485     
   2816684829.0424824     
   2584974077.5012813     
   2345464273.6737485     
   2098155417.5598867     
   2807777222.1920757     
   2723905254.5106807     
   2683129053.0359039     
   2685448617.7677441     
   2730863948.7062039     
   2752589346.4959450     
   2668838249.5466852     
   2622189288.8952589     
   2613201159.3685803     
   2642459920.7353568     
   2901836834.0913315     
   2796719920.7919645     
   2722130298.5814281     
   2679654200.7482634     
   2671062347.0097232     
   3214017254.5445929     
   3076893428.5225892     
   2963878464.7394667     
   2877134061.9658856     
   2819253638.6957555     
   3636484709.5102191     
   3465974461.4588666     
   3314180740.6878557     
   3183155078.5321856     
   3075521342.3585477     
   2730863948.7062039     
   2706951341.9857707     
   2715067287.5482035     
   2755211785.3935051     
   2827384835.5216732     
   2642459920.7353568     
   2602448229.0418935     
   2594032369.8638396     
   2617567986.7251015     
   2673390240.0872779     
   2671062347.0097232     
   2596332345.6929698     
   2552077371.4305291     
   2539700928.5995059     
   2560654408.7525887     
   2819253638.6957555     
   2696048663.6428561     
   2600406044.5682511     
   2535029607.4671612     
   2503094396.8100953     
   3075521342.3585477     
   2897143259.8086410     
   2741461036.1800499     
   2611929090.2321978     
   2513225707.0133014     
   2827384835.5216732     
   2811803714.0995197     
   2842145289.0880790     
   2918409560.4873552     
   3040596528.2973485     
   2673390240.0872779     
   2641780926.8736682     
   2655149701.9949827     
   2713745791.4601197     
   2817652958.2602587     
   2560654408.7525887     
   2497971784.0225592     
   2481695668.0164084     
   2513104588.9899540     
   2592824815.8874121     
   2503094396.8100953     
   2393859186.3690119     
   2333265943.9392076     
   2324918232.0614409     
   2371160907.8152213     
   2513225707.0133014     
   2344187601.9610796     
   2224392061.4244127     
   2161198242.9806914     
   2160753628.1232491     
   3040596528.2973485     
   2816684829.0424824     
   2584974077.5012813     
   2345464273.6737485     
   2098155417.5598867     
   2817652958.2602587     
   2597642601.6124129     
   2382598436.8058462     
   2176528396.0646772     
   1988104671.8928082     
   2592824815.8874121     
   2407239196.9573965     
   2242665106.5884423     
   2115292721.8667357     
   2056014215.7589138     
   2371160907.8152213     
   2247660723.7161231     
   2165045049.8911548     
   2157800752.3729959     
   2280216466.8157358     
   2160753628.1232491     
   2121386674.3261421     
   2148390146.6297574     
   2296214582.9823980     
   2633048126.4886637     
   3636484709.5102191     
   3465974461.4588666     
   3314180740.6878557     
   3183155078.5321856     
   3075521342.3585477     
   4034713424.5440140     
   3818764407.9968038     
   3615292305.1638031     
   3426622242.0832291     
   3256004875.4779673     
   4579869351.6646414     
   4318556049.8244371     
   4062748380.7544408     
   3813980206.6799722     
   3574947277.0492659     
   5229164571.2202215     
   4923524160.8974972     
   4617101219.4203014     
   4310077722.4267302     
   4003842559.2306657     
   5951464040.7809315     
   5602197325.5289240     
   5247162841.9292965     
   4885033780.4837389     
   4515669640.5915585     
   3075521342.3585477     
   2897143259.8086410     
   2741461036.1800499     
   2611929090.2321978     
   2513225707.0133014     
   3256004875.4779673     
   3021685743.8306375     
   2804837758.3508096     
   2608813972.3822565     
   2438767239.7781253     
   3574947277.0492659     
   3287774184.0136113     
   3012776764.3001080     
   2752251466.6921029     
   2510452631.6064591     
   4003842559.2306657     
   3667079148.5745540     
   3338348237.2461901     
   3018667992.3567939     
   2710794705.9656906     
   4515669640.5915585     
   4130782383.6568131     
   3751125320.9873605     
   3376702251.2737494     
   3009013707.7558255     
   2513225707.0133014     
   2344187601.9610796     
   2224392061.4244127     
   2161198242.9806914     
   2160753628.1232491     
   2438767239.7781253     
   2201593355.3250089     
   1993930876.4222651     
   1825256795.1396282     
   1707210959.4704099     
   2510452631.6064591     
   2222535307.9265819     
   1940939066.9728272     
   1669542122.4294322     
   1415163884.4948547     
   2710794705.9656906     
   2410380013.9614787     
   2103445824.9135296     
   1790014608.1808958     
   1470938842.4754281     
   3009013707.7558255     
   2737833874.3748579     
   2461413494.6454477     
   2184497731.2205210     
   1916953834.6147146     
   2160753628.1232491     
   2121386674.3261421     
   2148390146.6297574     
   2296214582.9823980     
   2633048126.4886637     
   1707210959.4704099     
   1688994446.8035734     
   1749635456.0512609     
   1934974600.6137543     
   2298090714.0943165     
   1415163884.4948547     
   1342187557.7799118     
   1371408092.7892716     
   1549135353.1801991     
   1915300431.2834301     
   1470938842.4754281     
   1250093589.5959857     
   1128403615.9120123     
   1190906158.1095953     
   1499416186.0275667     
   1916953834.6147146     
   1548346160.8182545     
   1217395037.0229144     
   1011429779.6750237     
   1105432995.7571075     
 </DataArray>
 <DataArray  type="Float64" Name="strain" NumberOfComponents="3" format="ascii">
   9.9433560400195020E-002  -2.8473082776513170E-002   4.5994041344912251E-003
   9.3365954328070488E-002  -2.7949920282776541E-002   2.6855465679280210E-003
   8.7298348255945957E-002  -2.6848956780324396E-002   1.6820765717290298E-003
   8.1230742183821453E-002  -2.5170192269156649E-002   1.5889941458943624E-003
   7.5163136111696949E-002  -2.2913626749273219E-002   2.4062992904241298E-003
   8.6691429136881326E-002  -2.5261701216596544E-002   1.5605991906651073E-002
   8.1485738659855284E-002  -2.4490639718228124E-002   1.4405952891533930E-002
   7.6280048182829213E-002  -2.3345988272931856E-002   1.4019357496249385E-002
   7.1074357705803212E-002  -2.1827746880707592E-002   1.4446205720797467E-002
   6.5868667228777156E-002  -1.9935915541555382E-002   1.5686497565178203E-002
   7.4235892922457886E-002  -2.2050319656679890E-002   2.6962584214336560E-002
   6.9795174089998593E-002  -2.1031359153679763E-002   2.6272152688877892E-002
   6.5354455257539273E-002  -1.9843019765539316E-002   2.6298220832720126E-002
   6.0913736425079981E-002  -1.8485301492258535E-002   2.7040788645863199E-002
   5.6473017592620661E-002  -1.6958204333837490E-002   2.8499856128307161E-002
   6.2066951756924699E-002  -1.8838938096763236E-002   3.8669181057547547E-002
   5.8294260618500376E-002  -1.7572078589131332E-002   3.8284145959959763E-002
   5.4521569480076103E-002  -1.6340051258146748E-002   3.8518666581141128E-002
   5.0748878341651829E-002  -1.5142856103809478E-002   3.9372742921091615E-002
   4.6976187203227555E-002  -1.3980493126119570E-002   4.0846374979811313E-002
   5.0184605640281738E-002  -1.5627556536846610E-002   5.0725782436284061E-002
   4.6982998245360730E-002  -1.4112798024582901E-002   5.0441932704779535E-002
   4.3781390850439722E-002  -1.2837082750754264E-002   5.0680694741512405E-002
   4.0579783455518714E-002  -1.1800410715360449E-002   5.1442068546482644E-002
   3.7378176060597706E-002  -1.1002781918401677E-002   5.2726054119690446E-002
   7.5163136111696949E-002  -2.2913626749273219E-002   2.4062992904241298E-003
   6.8864878153040182E-002  -2.0541684789825126E-002   1.5038163104129643E-003
   6.2566620194383415E-002  -1.8516790959962476E-002   1.4358796876165203E-003
   5.6268362235726621E-002  -1.6838945259685621E-002   2.2024894220344371E-003
   4.9970104277069882E-002  -1.5508147688994334E-002   3.8036455136671865E-003
   6.5868667228777156E-002  -1.9935915541555382E-002   1.5686497565178203E-002
   6.0395217077509555E-002  -1.7962071363324672E-002   1.4394789082926601E-002
   5.4921766926241969E-002  -1.6197791453864796E-002   1.3918149858238901E-002
   4.9448316774974375E-002  -1.4643075813175727E-002   1.4256579891114902E-002
   4.3974866623706810E-002  -1.3297924441257769E-002   1.5410079181554737E-002
   5.6473017592620661E-002  -1.6958204333837490E-002   2.8499856128307161E-002
   5.1804898149091443E-002  -1.5382457936824370E-002   2.6956406004630104E-002
   4.7136778705562182E-002  -1.3878791947767241E-002   2.6208548038865909E-002
   4.2468659262032957E-002  -1.2447206366666335E-002   2.6256282231014720E-002
   3.7800539818503689E-002  -1.1087701193521260E-002   2.7099608581076545E-002
   4.6976187203227555E-002  -1.3980493126119570E-002   4.0846374979811313E-002
   4.3093921367785816E-002  -1.2802844510323992E-002   3.9188667075523424E-002
   3.9211655532344111E-002  -1.1559792441669568E-002   3.8307074229497709E-002
   3.5329389696902393E-002  -1.0251336920156636E-002   3.8201596441734112E-002
   3.1447123861460660E-002  -8.8774779457848896E-003   3.8872233712232515E-002
   3.7378176060597706E-002  -1.1002781918401677E-002   5.2726054119690446E-002
   3.4262286733592717E-002  -1.0223231083823642E-002   5.1091572295606569E-002
   3.1146397406587686E-002  -9.2407929355720134E-003   5.0213728430134011E-002
   2.8030508079582676E-002  -8.0554674736468979E-003   5.0092522523272863E-002
   2.4914618752577666E-002  -6.6672546980482972E-003   5.0727954575022938E-002
   4.9970104277069882E-002  -1.5508147688994334E-002   3.8036455136671865E-003
   4.5497016104044941E-002  -1.4128811856673196E-002   2.3045375066441665E-003
   4.1023927931019999E-002  -1.2305351371507012E-002   7.6686499933142915E-005
   3.6550839757995071E-002  -1.0037766233495005E-002  -2.8799075064659119E-003
   3.2077751584970116E-002  -7.3260564426377295E-003  -6.5652445125528036E-003
   4.3974866623706810E-002  -1.3297924441257769E-002   1.5410079181554737E-002
   3.8977651424120491E-002  -1.1915640378009795E-002   1.4300475147956571E-002
   3.3980436224534172E-002  -1.0249526663330288E-002   1.2871360060923681E-002
   2.8983221024947881E-002  -8.2995832972201783E-003   1.1122733920456276E-002
   2.3986005825361534E-002  -6.0658102796786739E-003   9.0545967265537874E-003
   3.7800539818503689E-002  -1.1087701193521260E-002   2.7099608581076545E-002
   3.2688429538609301E-002  -9.7024688993461450E-003   2.6219213519488971E-002
   2.7576319258714906E-002  -8.1937019551541201E-003   2.5428539350720009E-002
   2.2464208978820486E-002  -6.5614003609451299E-003   2.4727586074769457E-002
   1.7352098698926094E-002  -4.8055641167195629E-003   2.4116353691637588E-002
   3.1447123861460660E-002  -8.8774779457848896E-003   3.8872233712232515E-002
   2.6629350447511385E-002  -7.4892974206825086E-003   3.8060752621241464E-002
   2.1811577033562145E-002  -6.1378772469775633E-003   3.7748224369321889E-002
   1.6993803619612884E-002  -4.8232174246704146E-003   3.7934648956474117E-002
   1.2176030205663636E-002  -3.5453179537605350E-003   3.8620026382698340E-002
   2.4914618752577666E-002  -6.6672546980482972E-003   5.0727954575022938E-002
   2.0800414150826785E-002  -5.2761259420189555E-003   4.9825092453213760E-002
   1.6686209549075931E-002  -4.0820525388010481E-003   4.9830415116729504E-002
   1.2572004947325070E-002  -3.0850344883953766E-003   5.0743922565570337E-002
   8.4578003455741957E-003  -2.2850717908013407E-003   5.2565614799736260E-002
   3.2077751584970116E-002  -7.3260564426377295E-003  -6.5652445125528036E-003
   2.6180282036790514E-002  -5.4467640544783591E-003  -2.4688617395044465E-003
   2.0282812488610885E-002  -5.6764311245580956E-003   2.9147635598704702E-003
   1.4385342940431284E-002  -8.0150576528786946E-003   9.5856313855710862E-003
   8.4878733922516547E-003  -1.2462643639439275E-002   1.7543741737597873E-002
   2.3986005825361534E-002  -6.0658102796786739E-003   9.0545967265537874E-003
   1.9330911795733208E-002  -4.8659914570145513E-003   1.2333602375287911E-002
   1.4675817766104826E-002  -6.0179106755353928E-003   1.6810116534798580E-002
   1.0020723736476403E-002  -9.5215679352419827E-003   2.2484139205085643E-002
   5.3656297068480630E-003  -1.5376963236133800E-002   2.9355670386148836E-002
   1.7352098698926094E-002  -4.8055641167195629E-003   2.4116353691637588E-002
   1.3849646172299349E-002  -4.2852188595508822E-003   2.6335203633111925E-002
   1.0347193645672589E-002  -6.3593902265126762E-003   2.9661828069813254E-002
   6.8447411190459065E-003  -1.1028078217605045E-002   3.4096227001741523E-002
   3.3422885924191126E-003  -1.8291282832828104E-002   3.9638400428896325E-002
   1.2176030205663636E-002  -3.5453179537605350E-003   3.8620026382698340E-002
   9.7364851664889542E-003  -3.7044462620873103E-003   3.9535942033967798E-002
   7.2969401273143102E-003  -6.7008697774899664E-003   4.1469898164914670E-002
   4.8573950881396228E-003  -1.2534588499968221E-002   4.4421894775538678E-002
   2.4178500489649493E-003  -2.1205602429522408E-002   4.8391931865840260E-002
   8.4578003455741957E-003  -2.2850717908013407E-003   5.2565614799736260E-002
   6.9914287783020140E-003  -3.1236736646235441E-003   5.1935817577855481E-002
   5.5250572110298463E-003  -7.0423493284669653E-003   5.2234326820102567E-002
   4.0586856437576577E-003  -1.4041098782331295E-002   5.3461142526477198E-002
   2.5923140764854691E-003  -2.4119922026216711E-002   5.5616264696980000E-002
   5.0184605640281738E-002  -1.5627556536846610E-002   5.0725782436284061E-002
   4.6982998245360730E-002  -1.4112798024582901E-002   5.0441932704779535E-002
   4.3781390850439722E-002  -1.2837082750754264E-002   5.0680694741512405E-002
   4.0579783455518714E-002  -1.1800410715360449E-002   5.1442068546482644E-002
   3.7378176060597706E-002  -1.1002781918401677E-002   5.2726054119690446E-002
   3.8243781341344485E-002  -1.1720667414737318E-002   5.6218793659116334E-002
   3.5634233234824605E-002  -1.0584598522563521E-002   5.5391677199406131E-002
   3.3024685128304768E-002  -9.6278120617357410E-003   5.5226067548260788E-002
   3.0415137021784916E-002  -8.8503080322540340E-003   5.5721964705680527E-002
   2.7805588915265085E-002  -8.2520864341183164E-003   5.6879368671664932E-002
   2.5899405628928229E-002  -7.8137782926280541E-003   6.1303234858314348E-002
   2.4020811851137046E-002  -7.0563990205440991E-003   5.9992612477487411E-002
   2.2142218073345848E-002  -6.4185413727172874E-003   5.9482391945552784E-002
   2.0263624295554672E-002  -5.9002053491475498E-003   5.9772573262510661E-002
   1.8385030517763475E-002  -5.5013909498349695E-003   6.0863156428360883E-002
   1.3151478503033071E-002  -3.9068891705187625E-003   6.5979106033878132E-002
   1.2142734094298035E-002  -3.5281995185246842E-003   6.4244738539023238E-002
   1.1133989685562999E-002  -3.2092706836988130E-003   6.3449667933388354E-002
   1.0125245276827956E-002  -2.9501026660410448E-003   6.3593894216973298E-002
   9.1165008680929183E-003  -2.7506954655515878E-003   6.4677417389778127E-002
  -3.6341034348463808E-011  -4.8409498631940551E-011   7.0246407185807436E-002
  -3.5692421240796079E-011  -1.6505269373467968E-011   6.8148055384013695E-002
  -3.5043811602575303E-011   5.3196475002792454E-012   6.7127895511767344E-002
  -3.4395210637971907E-011   1.7065373419944407E-011   6.7185927569068327E-002
  -3.3746595795580703E-011   1.8731738382626872E-011   6.8322151555916755E-002
   3.7378176060597706E-002  -1.1002781918401677E-002   5.2726054119690446E-002
   3.4262286733592717E-002  -1.0223231083823642E-002   5.1091572295606569E-002
   3.1146397406587686E-002  -9.2407929355720134E-003   5.0213728430134011E-002
   2.8030508079582676E-002  -8.0554674736468979E-003   5.0092522523272863E-002
   2.4914618752577666E-002  -6.6672546980482972E-003   5.0727954575022938E-002
   2.7805588915265085E-002  -8.2520864341183164E-003   5.6879368671664932E-002
   2.5451921140657231E-002  -7.6674233090219951E-003   5.5580025588668328E-002
   2.3098253366049374E-002  -6.9305946986585806E-003   5.5048487651854827E-002
   2.0744585591441531E-002  -6.0416006030280228E-003   5.5284754861224382E-002
   1.8390917816833677E-002  -5.0004410221303197E-003   5.6288827216776804E-002
   1.8385030517763475E-002  -5.5013909498349695E-003   6.0863156428360883E-002
   1.6804751483124533E-002  -5.1116155342205011E-003   5.9848230258045178E-002
   1.5224472448485599E-002  -4.6203964617452277E-003   5.9612276421484325E-002
   1.3644193413846662E-002  -4.0277337324092022E-003   6.0155294918678173E-002
   1.2063914379207730E-002  -3.3336273462123422E-003   6.1477285749626867E-002
   9.1165008680929183E-003  -2.7506954655515878E-003   6.4677417389778127E-002
   8.3207777609946333E-003  -2.5558077594189862E-003   6.3896186303736932E-002
   7.5250546538963405E-003  -2.3101982248319181E-003   6.3905094739022367E-002
   6.7293315467980511E-003  -2.0138668617903266E-003   6.4704142695634306E-002
   5.9336084396997557E-003  -1.6668136702943370E-003   6.6293330173572737E-002
  -3.3746595795580703E-011   1.8731738382626872E-011   6.8322151555916755E-002
  -2.5732492525687434E-011   1.5382611850967010E-011   6.7723893725743819E-002
  -1.7718389255794165E-011   1.2081571854061224E-011   6.7926942604469104E-002
  -9.7042859859008956E-012   8.8284969612661968E-012   6.8931298192092677E-002
  -1.6901827160076266E-012   5.6236681977850367E-012   7.0736960488614498E-002
   2.4914618752577666E-002  -6.6672546980482972E-003   5.0727954575022938E-002
   2.0800414150826785E-002  -5.2761259420189555E-003   4.9825092453213760E-002
   1.6686209549075931E-002  -4.0820525388010481E-003   4.9830415116729504E-002
   1.2572004947325070E-002  -3.0850344883953766E-003   5.0743922565570337E-002
   8.4578003455741957E-003  -2.2850717908013407E-003   5.2565614799736260E-002
   1.8390917816833677E-002  -5.0004410221303197E-003   5.6288827216776804E-002
   1.5214989591721510E-002  -3.9570944558001558E-003   5.5440330750792341E-002
   1.2039061366609344E-002  -3.0615394038719101E-003   5.5560202252760357E-002
   8.8631331414971704E-003  -2.3137758663459365E-003   5.6648441722680472E-002
   5.6872049163850108E-003  -1.7138038432220060E-003   5.8705049160553274E-002
   1.2063914379207730E-002  -3.3336273462123422E-003   6.1477285749626867E-002
   9.8864457133615788E-003  -2.6380629695812868E-003   6.0732418777876759E-002
   7.7089770475154661E-003  -2.0410262689426681E-003   6.1016102956706404E-002
   5.5315083816693273E-003  -1.5425172442964426E-003   6.2328338286115836E-002
   3.3540397158232024E-003  -1.1425358956426990E-003   6.4669124766104827E-002
   5.9336084396997557E-003  -1.6668136702943370E-003   6.6293330173572737E-002
   4.8147825157470198E-003  -1.3190314833624248E-003   6.5701356534466709E-002
   3.6959565917942831E-003  -1.0205131340134226E-003   6.6198117228567804E-002
   2.5771306678415468E-003  -7.7125862224700342E-004   6.7783612255875980E-002
   1.4583047438887966E-003  -5.7126794806340586E-004   7.0457841616391167E-002
  -1.6901827160076266E-012   5.6236681977850367E-012   7.0736960488614498E-002
  -1.1221787388215887E-012   2.8563540421799871E-012   7.0347144020562385E-002
  -5.5418863942335861E-013   9.1585072858890726E-013   7.1106245068344592E-002
   1.3808398868775384E-014  -1.9747398161129581E-013   7.3014263631961257E-002
   5.8180543716090938E-013  -4.8411274988779951E-013   7.6071199711412352E-002
   8.4578003455741957E-003  -2.2850717908013407E-003   5.2565614799736260E-002
   6.9914287783020140E-003  -3.1236736646235441E-003   5.1935817577855481E-002
   5.5250572110298463E-003  -7.0423493284669653E-003   5.2234326820102567E-002
   4.0586856437576577E-003  -1.4041098782331295E-002   5.3461142526477198E-002
   2.5923140764854691E-003  -2.4119922026216711E-002   5.5616264696980000E-002
   5.6872049163850108E-003  -1.7138038432220060E-003   5.8705049160553274E-002
   5.0087114201494698E-003  -2.3427552485530134E-003   5.5677189207944594E-002
   4.3302179239139357E-003  -5.2817619963913820E-003   5.3296778933281566E-002
   3.6517244276784051E-003  -1.0530824086737299E-002   5.1563818336564364E-002
   2.9732309314428607E-003  -1.8089941519591091E-002   5.0478307417792467E-002
   3.3540397158232024E-003  -1.1425358956426990E-003   6.4669124766104827E-002
   3.1825675044422214E-003  -1.5618368324821358E-003   6.0013220530281686E-002
   3.0110952930612299E-003  -3.5211746643158612E-003   5.5723909186222172E-002
   2.8396230816802644E-003  -7.0205493911435542E-003   5.1801190733926167E-002
   2.6681508702992573E-003  -1.2059961012965581E-002   4.8245065173393387E-002
   1.4583047438887966E-003  -5.7126794806340586E-004   7.0457841616391167E-002
   1.5129970311802739E-003  -7.8091841641148713E-004   6.4943911544867144E-002
   1.5676893184717522E-003  -1.7605873322403646E-003   5.9515717578924508E-002
   1.6223816057632178E-003  -3.5102746955497947E-003   5.4173259718562898E-002
   1.6770738930547077E-003  -6.0299805063399603E-003   4.8916537963783285E-002
   5.8180543716090938E-013  -4.8411274988779951E-013   7.6071199711412352E-002
   3.6363273503425830E-013  -3.4072744625746054E-013   7.0469262251700526E-002
   1.4546350235455918E-013  -1.6482648579341230E-013   6.4672204111387993E-002
  -7.2700526154712009E-014   4.4169529145321462E-014   5.8680025290474849E-002
  -2.9087843245179101E-013   2.8554936193359026E-013   5.2492725788961137E-002
  -3.6341034348463808E-011  -4.8409498631940551E-011   7.0246407185807436E-002
  -3.5692421240796079E-011  -1.6505269373467968E-011   6.8148055384013695E-002
  -3.5043811602575303E-011   5.3196475002792454E-012   6.7127895511767344E-002
  -3.4395210637971907E-011   1.7065373419944407E-011   6.7185927569068327E-002
  -3.3746595795580703E-011   1.8731738382626872E-011   6.8322151555916755E-002
  -1.3151478573690902E-002   3.9068890763945263E-003   6.5979106073717986E-002
  -1.2142734163526462E-002   3.5281994864829330E-003   6.4244738562948087E-002
  -1.1133989753362036E-002   3.2092706937066201E-003   6.3449667941662485E-002
  -1.0125245343197597E-002   2.9501026980656465E-003   6.3593894209861085E-002
  -9.1165009330331573E-003   2.7506954995599880E-003   6.4677417367543982E-002
  -2.5899405693513351E-002   7.8137782011985651E-003   6.1303234936205375E-002
  -2.4020811913896233E-002   7.0563989894711077E-003   5.9992612523673938E-002
  -2.2142218134279110E-002   6.4185413820935441E-003   5.9482391960563687E-002
  -2.0263624354661981E-002   5.9002053790659214E-003   5.9772573246874502E-002
  -1.8385030575044845E-002   5.5013909803882655E-003   6.0863156382606462E-002
  -3.8243781395808391E-002   1.1720667326002590E-002   5.6218793773269646E-002
  -3.5634233286801709E-002   1.0584598492459255E-002   5.5391677266191319E-002
  -3.3024685177795034E-002   9.6278120704805063E-003   5.5226067568470934E-002
  -3.0415137068788359E-002   8.8503080600662726E-003   5.5721964680108572E-002
  -2.7805588959781684E-002   8.2520864612165290E-003   5.6879368601104138E-002
  -5.0184605680576019E-002   1.5627556450806629E-002   5.0725782584910728E-002
  -4.6982998282242922E-002   1.4112797995447471E-002   5.0441932790500049E-002
  -4.3781390883909824E-002   1.2837082758867399E-002   5.0680694765384254E-002
  -4.0579783485576726E-002   1.1800410741066480E-002   5.1442068509563330E-002
  -3.7378176087243635E-002   1.1002781942044765E-002   5.2726054023037178E-002
  -3.3746595795580703E-011   1.8731738382626872E-011   6.8322151555916755E-002
  -2.5732492525687434E-011   1.5382611850967010E-011   6.7723893725743819E-002
  -1.7718389255794165E-011   1.2081571854061224E-011   6.7926942604469104E-002
  -9.7042859859008956E-012   8.8284969612661968E-012   6.8931298192092677E-002
  -1.6901827160076266E-012   5.6236681977850367E-012   7.0736960488614498E-002
  -9.1165009330331573E-003   2.7506954995599880E-003   6.4677417367543982E-002
  -8.3207778103888824E-003   2.5558077857541495E-003   6.3896186286533985E-002
  -7.5250546877446110E-003   2.3101982442124240E-003   6.3905094725886000E-002
  -6.7293315651003370E-003   2.0138668749348524E-003   6.4704142685600097E-002
  -5.9336084424560648E-003   1.6668136779216247E-003   6.6293330165676290E-002
  -1.8385030575044845E-002   5.5013909803882655E-003   6.0863156382606462E-002
  -1.6804751526306602E-002   5.1116155561257010E-003   5.9848230222975404E-002
  -1.5224472477568359E-002   4.6203964763433872E-003   5.9612276395170256E-002
  -1.3644193428830107E-002   4.0277337410413745E-003   6.0155294899191039E-002
  -1.2063914380091858E-002   3.3336273502196090E-003   6.1477285735037607E-002
  -2.7805588959781684E-002   8.2520864612165290E-003   5.6879368601104138E-002
  -2.5451921173485648E-002   7.6674233264972178E-003   5.5580025535068231E-002
  -2.3098253387189613E-002   6.9305947084742671E-003   5.5048487612322061E-002
  -2.0744585600893588E-002   6.0416006071477299E-003   5.5284754832865456E-002
  -1.8390917814597545E-002   5.0004410225175794E-003   5.6288827196698636E-002
  -3.7378176087243635E-002   1.1002781942044765E-002   5.2726054023037178E-002
  -3.4262286751926004E-002   1.0223231096868776E-002   5.1091572222812409E-002
  -3.1146397416608389E-002   9.2407929406052233E-003   5.0213728377341185E-002
  -2.8030508081290761E-002   8.0554674732542016E-003   5.0092522486623374E-002
  -2.4914618745973144E-002   6.6672546948155498E-003   5.0727954550659093E-002
  -1.6901827160076266E-012   5.6236681977850367E-012   7.0736960488614498E-002
  -1.1221787388215887E-012   2.8563540421799871E-012   7.0347144020562385E-002
  -5.5418863942335861E-013   9.1585072858890726E-013   7.1106245068344592E-002
   1.3808398868775384E-014  -1.9747398161129581E-013   7.3014263631961257E-002
   5.8180543716090938E-013  -4.8411274988779951E-013   7.6071199711412352E-002
  -5.9336084424560648E-003   1.6668136779216247E-003   6.6293330165676290E-002
  -4.8147825175433225E-003   1.3190314865671321E-003   6.5701356529204710E-002
  -3.6959565926305785E-003   1.0205131342657034E-003   6.6198117225588146E-002
  -2.5771306677178337E-003   7.7125862101800995E-004   6.7783612254826736E-002
  -1.4583047428050923E-003   5.7126794682343940E-004   7.0457841616920369E-002
  -1.2063914380091858E-002   3.3336273502196090E-003   6.1477285735037607E-002
  -9.8864457138136790E-003   2.6380629702778408E-003   6.0732418768372966E-002
  -7.7089770475354986E-003   2.0410262676157781E-003   6.1016102951584217E-002
  -5.5315083812573183E-003   1.5425172422336049E-003   6.2328338284671068E-002
  -3.3540397149791398E-003   1.1425358941309638E-003   6.4669124767633798E-002
  -1.8390917814597545E-002   5.0004410225175794E-003   5.6288827196698636E-002
  -1.5214989589933246E-002   3.9570944539885841E-003   5.5440330738067325E-002
  -1.2039061365268966E-002   3.0615394009658528E-003   5.5560202246332457E-002
  -8.8631331406046811E-003   2.3137758634491998E-003   5.6648441721494074E-002
  -5.6872049159403856E-003   1.7138038414384743E-003   5.8705049163552125E-002
  -2.4914618745973144E-002   6.6672546948155498E-003   5.0727954550659093E-002
  -2.0800414145902058E-002   5.2761259376992997E-003   4.9825092438287588E-002
  -1.6686209545830964E-002   4.0820525343158165E-003   4.9830415109833270E-002
  -1.2572004945759878E-002   3.0850344846647670E-003   5.0743922565296015E-002
  -8.4578003456887846E-003   2.2850717887460403E-003   5.2565614804675920E-002
   5.8180543716090938E-013  -4.8411274988779951E-013   7.6071199711412352E-002
   3.6363273503425830E-013  -3.4072744625746054E-013   7.0469262251700526E-002
   1.4546350235455918E-013  -1.6482648579341230E-013   6.4672204111387993E-002
  -7.2700526154712009E-014   4.4169529145321462E-014   5.8680025290474849E-002
  -2.9087843245179101E-013   2.8554936193359026E-013   5.2492725788961137E-002
  -1.4583047428050923E-003   5.7126794682343940E-004   7.0457841616920369E-002
  -1.5129970305094859E-003   7.8091841581731658E-004   6.4943911545213978E-002
  -1.5676893182138812E-003   1.7605873321342447E-003   5.9515717579135874E-002
  -1.6223816059182808E-003   3.5102746957748898E-003   5.4173259718685904E-002
  -1.6770738936226701E-003   6.0299805067387524E-003   4.8916537963864304E-002
  -3.3540397149791398E-003   1.1425358941309638E-003   6.4669124767633798E-002
  -3.1825675039408342E-003   1.5618368319752496E-003   6.0013220531223321E-002
  -3.0110952929025209E-003   3.5211746644334338E-003   5.5723909186670049E-002
  -2.8396230818642323E-003   7.0205493915057506E-003   5.1801190733973851E-002
  -2.6681508708259020E-003   1.2059961013191844E-002   4.8245065173134927E-002
  -5.6872049159403856E-003   1.7138038414384743E-003   5.8705049163552125E-002
  -5.0087114199304306E-003   2.3427552481333214E-003   5.5677189209728278E-002
  -4.3302179239204895E-003   5.2817619967326195E-003   5.3296778933990409E-002
  -3.6517244279105697E-003   1.0530824087236487E-002   5.1563818336338690E-002
  -2.9732309319006082E-003   1.8089941519644992E-002   5.0478307416773130E-002
  -8.4578003456887846E-003   2.2850717887460403E-003   5.2565614804675920E-002
  -6.9914287784782828E-003   3.1236736642912821E-003   5.1935817580729127E-002
  -5.5250572112677671E-003   7.0423493290318329E-003   5.2234326821097438E-002
  -4.0586856440572652E-003   1.4041098782967450E-002   5.3461142525780853E-002
  -2.5923140768467495E-003   2.4119922026098140E-002   5.5616264694779094E-002
  -5.0184605680576019E-002   1.5627556450806629E-002   5.0725782584910728E-002
  -4.6982998282242922E-002   1.4112797995447471E-002   5.0441932790500049E-002
  -4.3781390883909824E-002   1.2837082758867399E-002   5.0680694765384254E-002
  -4.0579783485576726E-002   1.1800410741066480E-002   5.1442068509563330E-002
  -3.7378176087243635E-002   1.1002781942044765E-002   5.2726054023037178E-002
  -6.2066951769335826E-002   1.8838938017733203E-002   3.8669181222029711E-002
  -5.8294260628841792E-002   1.7572078554991030E-002   3.8284146065264452E-002
  -5.4521569488347799E-002   1.6340051254051913E-002   3.8518666623526106E-002
  -5.0748878347853806E-002   1.5142856114915962E-002   3.9372742896814791E-002
  -4.6976187207359799E-002   1.3980493137583039E-002   4.0846374885130418E-002
  -7.4235892883607338E-002   2.2050319584659778E-002   2.6962584380253563E-002
  -6.9795174055220358E-002   2.1031359114534555E-002   2.6272152804157692E-002
  -6.5354455226833322E-002   1.9843019749236544E-002   2.6298220888820827E-002
  -6.0913736398446272E-002   1.8485301488765392E-002   2.7040788634243144E-002
  -5.6473017570059299E-002   1.6958204333121410E-002   2.8499856040424577E-002
  -8.6691429023390706E-002   2.5261701151586366E-002   1.5605992059582574E-002
  -8.1485738561378557E-002   2.4490639674078236E-002   1.4405953007180040E-002
  -7.6280048099366365E-002   2.3345988244421020E-002   1.4019357561268571E-002
  -7.1074357637354230E-002   2.1827746862614916E-002   1.4446205721848449E-002
  -6.5868667175342024E-002   1.9935915528659719E-002   1.5686497488919426E-002
  -9.9433560188685766E-002   2.8473082718512954E-002   4.5994042600165375E-003
  -9.3365954147316355E-002   2.7949920233621750E-002   2.6855466743312684E-003
  -8.7298348105946943E-002   2.6848956739605592E-002   1.6820766408692650E-003
  -8.1230742064577505E-002   2.5170192236464346E-002   1.5889941596306072E-003
  -7.5163136023208066E-002   2.2913626724198055E-002   2.4062992306153053E-003
  -3.7378176087243635E-002   1.1002781942044765E-002   5.2726054023037178E-002
  -3.4262286751926004E-002   1.0223231096868776E-002   5.1091572222812409E-002
  -3.1146397416608389E-002   9.2407929406052233E-003   5.0213728377341185E-002
  -2.8030508081290761E-002   8.0554674732542016E-003   5.0092522486623374E-002
  -2.4914618745973144E-002   6.6672546948155498E-003   5.0727954550659093E-002
  -4.6976187207359799E-002   1.3980493137583039E-002   4.0846374885130418E-002
  -4.3093921368655135E-002   1.2802844515556300E-002   3.9188667009816658E-002
  -3.9211655529950505E-002   1.1559792442338415E-002   3.8307074186523495E-002
  -3.5329389691245827E-002   1.0251336917929805E-002   3.8201596415250796E-002
  -3.1447123852541212E-002   8.8774779423301808E-003   3.8872233695998820E-002
  -5.6473017570059299E-002   1.6958204333121410E-002   2.8499856040424577E-002
  -5.1804898130700494E-002   1.5382457934243775E-002   2.6956405949918390E-002
  -4.7136778691341745E-002   1.3878791944071666E-002   2.6208548008699834E-002
  -4.2468659251982982E-002   1.2447206362605410E-002   2.6256282216768990E-002
  -3.7800539812624219E-002   1.1087701189844645E-002   2.7099608574125786E-002
  -6.5868667175342024E-002   1.9935915528659719E-002   1.5686497488919426E-002
  -6.0395217038062068E-002   1.7962071352931219E-002   1.4394789043117445E-002
  -5.4921766900782112E-002   1.6197791445804806E-002   1.3918149843870305E-002
  -4.9448316763502191E-002   1.4643075807280985E-002   1.4256579891177701E-002
  -4.3974866626222214E-002   1.3297924437359082E-002   1.5410079185040032E-002
  -7.5163136023208066E-002   2.2913626724198055E-002   2.4062992306153053E-003
  -6.8864878090739851E-002   2.0541684771618718E-002   1.5038162894141227E-003
  -6.2566620158271663E-002   1.8516790947538081E-002   1.4358796920348194E-003
  -5.6268362225803448E-002   1.6838945251956609E-002   2.2024894384773189E-003
  -4.9970104293335260E-002   1.5508147684873741E-002   3.8036455287414617E-003
  -2.4914618745973144E-002   6.6672546948155498E-003   5.0727954550659093E-002
  -2.0800414145902058E-002   5.2761259376992997E-003   4.9825092438287588E-002
  -1.6686209545830964E-002   4.0820525343158165E-003   4.9830415109833270E-002
  -1.2572004945759878E-002   3.0850344846647670E-003   5.0743922565296015E-002
  -8.4578003456887846E-003   2.2850717887460403E-003   5.2565614804675920E-002
  -3.1447123852541212E-002   8.8774779423301808E-003   3.8872233695998820E-002
  -2.6629350440963123E-002   7.4892974170588655E-003   3.8060752610492438E-002
  -2.1811577029385062E-002   6.1378772436360418E-003   3.7748224364082927E-002
  -1.6993803617807002E-002   4.8232174220610227E-003   3.7934648956770199E-002
  -1.2176030206228920E-002   3.5453179523341483E-003   3.8620026388554218E-002
  -3.7800539812624219E-002   1.1087701189844645E-002   2.7099608574125786E-002
  -3.2688429534359520E-002   9.7024688964185007E-003   2.6219213513600126E-002
  -2.7576319256094800E-002   8.1937019529562671E-003   2.5428539347350919E-002
  -2.2464208977830080E-002   6.5614003594573339E-003   2.4727586075378262E-002
  -1.7352098699565357E-002   4.8055641159223672E-003   2.4116353697682072E-002
  -4.3974866626222214E-002   1.3297924437359082E-002   1.5410079185040032E-002
  -3.8977651426091206E-002   1.1915640375778129E-002   1.4300475147610483E-002
  -3.3980436225960184E-002   1.0249526662276437E-002   1.2871360059637432E-002
  -2.8983221025829183E-002   8.2995832968540059E-003   1.1122733921120270E-002
  -2.3986005825698160E-002   6.0658102795104751E-003   9.0545967320594042E-003
  -4.9970104293335260E-002   1.5508147684873741E-002   3.8036455287414617E-003
  -4.5497016116158195E-002   1.4128811855137591E-002   2.3045375125239631E-003
  -4.1023927938981214E-002   1.2305351371596607E-002   7.6686500942210745E-005
  -3.6550839761804191E-002   1.0037766234249984E-002  -2.8799075060037156E-003
  -3.2077751584627168E-002   7.3260564430985831E-003  -6.5652445083138056E-003
  -8.4578003456887846E-003   2.2850717887460403E-003   5.2565614804675920E-002
  -6.9914287784782828E-003   3.1236736642912821E-003   5.1935817580729127E-002
  -5.5250572112677671E-003   7.0423493290318329E-003   5.2234326821097438E-002
  -4.0586856440572652E-003   1.4041098782967450E-002   5.3461142525780853E-002
  -2.5923140768467495E-003   2.4119922026098140E-002   5.5616264694779094E-002
  -1.2176030206228920E-002   3.5453179523341483E-003   3.8620026388554218E-002
  -9.7364851669579575E-003   3.7044462618031626E-003   3.9535942037425997E-002
  -7.2969401276869496E-003   6.7008697778153936E-003   4.1469898166103608E-002
  -4.8573950884159226E-003   1.2534588500371098E-002   4.4421894774586870E-002
  -2.4178500491449442E-003   2.1205602429470338E-002   4.8391931862876603E-002
  -1.7352098699565357E-002   4.8055641159223672E-003   2.4116353697682072E-002
  -1.3849646172742995E-002   4.2852188593149598E-003   2.6335203636720428E-002
  -1.0347193645920610E-002   6.3593902265991070E-003   2.9661828071055565E-002
  -6.8447411190982448E-003   1.1028078217774798E-002   3.4096227000687797E-002
  -3.3422885922758556E-003   1.8291282832842648E-002   3.9638400425616449E-002
  -2.3986005825698160E-002   6.0658102795104751E-003   9.0545967320594042E-003
  -1.9330911795833464E-002   4.8659914568267154E-003   1.2333602378612842E-002
  -1.4675817765968782E-002   6.0179106753826331E-003   1.6810116535953743E-002
  -1.0020723736104227E-002   9.5215679351788058E-003   2.2484139204082522E-002
  -5.3656297062394370E-003   1.5376963236215013E-002   2.9355670382999161E-002
  -3.2077751584627168E-002   7.3260564430985831E-003  -6.5652445083138056E-003
  -2.6180282036229352E-002   5.4467640543385265E-003  -2.4688617368970600E-003
  -2.0282812487831509E-002   5.6764311241663812E-003   2.9147635607978811E-003
  -1.4385342939433568E-002   8.0150576525825912E-003   9.5856313847719858E-003
  -8.4878733910358495E-003   1.2462643639587156E-002   1.7543741735024376E-002
 </DataArray>
 </PointData>
 </Piece>
 </UnstructuredGrid>
 </VTKFile>
