 <VTKFile type="UnstructuredGrid"  version="0.1"   >
 <UnstructuredGrid>
 <Piece  NumberOfPoints="          1600 "  NumberOfCells="         1024 ">
 <Points>
 <DataArray  type="Float64" NumberOfComponents="3"  format="ascii" >
   0.0000000000000000        0.0000000000000000        0.0000000000000000     
   3.1250000000000000E-002   0.0000000000000000        0.0000000000000000     
   6.2500000000000000E-002   0.0000000000000000        0.0000000000000000     
   9.3750000000000000E-002   0.0000000000000000        0.0000000000000000     
  0.12500000000000000        0.0000000000000000        0.0000000000000000     
   0.0000000000000000        3.1250000000000000E-002   0.0000000000000000     
   3.1250000000000000E-002   3.1250000000000000E-002   0.0000000000000000     
   6.2500000000000000E-002   3.1250000000000000E-002   0.0000000000000000     
   9.3750000000000000E-002   3.1250000000000000E-002   0.0000000000000000     
  0.12500000000000000        3.1250000000000000E-002   0.0000000000000000     
   0.0000000000000000        6.2500000000000000E-002   0.0000000000000000     
   3.1250000000000000E-002   6.2500000000000000E-002   0.0000000000000000     
   6.2500000000000000E-002   6.2500000000000000E-002   0.0000000000000000     
   9.3750000000000000E-002   6.2500000000000000E-002   0.0000000000000000     
  0.12500000000000000        6.2500000000000000E-002   0.0000000000000000     
   0.0000000000000000        9.3750000000000000E-002   0.0000000000000000     
   3.1250000000000000E-002   9.3750000000000000E-002   0.0000000000000000     
   6.2500000000000000E-002   9.3750000000000000E-002   0.0000000000000000     
   9.3750000000000000E-002   9.3750000000000000E-002   0.0000000000000000     
  0.12500000000000000        9.3750000000000000E-002   0.0000000000000000     
   0.0000000000000000       0.12500000000000000        0.0000000000000000     
   3.1250000000000000E-002  0.12500000000000000        0.0000000000000000     
   6.2500000000000000E-002  0.12500000000000000        0.0000000000000000     
   9.3750000000000000E-002  0.12500000000000000        0.0000000000000000     
  0.12500000000000000       0.12500000000000000        0.0000000000000000     
  0.12500000000000000        0.0000000000000000        0.0000000000000000     
  0.15625000000000000        0.0000000000000000        0.0000000000000000     
  0.18750000000000000        0.0000000000000000        0.0000000000000000     
  0.21875000000000000        0.0000000000000000        0.0000000000000000     
  0.25000000000000000        0.0000000000000000        0.0000000000000000     
  0.12500000000000000        3.1250000000000000E-002   0.0000000000000000     
  0.15625000000000000        3.1250000000000000E-002   0.0000000000000000     
  0.18750000000000000        3.1250000000000000E-002   0.0000000000000000     
  0.21875000000000000        3.1250000000000000E-002   0.0000000000000000     
  0.25000000000000000        3.1250000000000000E-002   0.0000000000000000     
  0.12500000000000000        6.2500000000000000E-002   0.0000000000000000     
  0.15625000000000000        6.2500000000000000E-002   0.0000000000000000     
  0.18750000000000000        6.2500000000000000E-002   0.0000000000000000     
  0.21875000000000000        6.2500000000000000E-002   0.0000000000000000     
  0.25000000000000000        6.2500000000000000E-002   0.0000000000000000     
  0.12500000000000000        9.3750000000000000E-002   0.0000000000000000     
  0.15625000000000000        9.3750000000000000E-002   0.0000000000000000     
  0.18750000000000000        9.3750000000000000E-002   0.0000000000000000     
  0.21875000000000000        9.3750000000000000E-002   0.0000000000000000     
  0.25000000000000000        9.3750000000000000E-002   0.0000000000000000     
  0.12500000000000000       0.12500000000000000        0.0000000000000000     
  0.15625000000000000       0.12500000000000000        0.0000000000000000     
  0.18750000000000000       0.12500000000000000        0.0000000000000000     
  0.21875000000000000       0.12500000000000000        0.0000000000000000     
  0.25000000000000000       0.12500000000000000        0.0000000000000000     
  0.25000000000000000        0.0000000000000000        0.0000000000000000     
  0.28125000000000000        0.0000000000000000        0.0000000000000000     
  0.31250000000000000        0.0000000000000000        0.0000000000000000     
  0.34375000000000000        0.0000000000000000        0.0000000000000000     
  0.37500000000000000        0.0000000000000000        0.0000000000000000     
  0.25000000000000000        3.1250000000000000E-002   0.0000000000000000     
  0.28125000000000000        3.1250000000000000E-002   0.0000000000000000     
  0.31250000000000000        3.1250000000000000E-002   0.0000000000000000     
  0.34375000000000000        3.1250000000000000E-002   0.0000000000000000     
  0.37500000000000000        3.1250000000000000E-002   0.0000000000000000     
  0.25000000000000000        6.2500000000000000E-002   0.0000000000000000     
  0.28125000000000000        6.2500000000000000E-002   0.0000000000000000     
  0.31250000000000000        6.2500000000000000E-002   0.0000000000000000     
  0.34375000000000000        6.2500000000000000E-002   0.0000000000000000     
  0.37500000000000000        6.2500000000000000E-002   0.0000000000000000     
  0.25000000000000000        9.3750000000000000E-002   0.0000000000000000     
  0.28125000000000000        9.3750000000000000E-002   0.0000000000000000     
  0.31250000000000000        9.3750000000000000E-002   0.0000000000000000     
  0.34375000000000000        9.3750000000000000E-002   0.0000000000000000     
  0.37500000000000000        9.3750000000000000E-002   0.0000000000000000     
  0.25000000000000000       0.12500000000000000        0.0000000000000000     
  0.28125000000000000       0.12500000000000000        0.0000000000000000     
  0.31250000000000000       0.12500000000000000        0.0000000000000000     
  0.34375000000000000       0.12500000000000000        0.0000000000000000     
  0.37500000000000000       0.12500000000000000        0.0000000000000000     
  0.37500000000000000        0.0000000000000000        0.0000000000000000     
  0.40625000000000000        0.0000000000000000        0.0000000000000000     
  0.43750000000000000        0.0000000000000000        0.0000000000000000     
  0.46875000000000000        0.0000000000000000        0.0000000000000000     
  0.50000000000000000        0.0000000000000000        0.0000000000000000     
  0.37500000000000000        3.1250000000000000E-002   0.0000000000000000     
  0.40625000000000000        3.1250000000000000E-002   0.0000000000000000     
  0.43750000000000000        3.1250000000000000E-002   0.0000000000000000     
  0.46875000000000000        3.1250000000000000E-002   0.0000000000000000     
  0.50000000000000000        3.1250000000000000E-002   0.0000000000000000     
  0.37500000000000000        6.2500000000000000E-002   0.0000000000000000     
  0.40625000000000000        6.2500000000000000E-002   0.0000000000000000     
  0.43750000000000000        6.2500000000000000E-002   0.0000000000000000     
  0.46875000000000000        6.2500000000000000E-002   0.0000000000000000     
  0.50000000000000000        6.2500000000000000E-002   0.0000000000000000     
  0.37500000000000000        9.3750000000000000E-002   0.0000000000000000     
  0.40625000000000000        9.3750000000000000E-002   0.0000000000000000     
  0.43750000000000000        9.3750000000000000E-002   0.0000000000000000     
  0.46875000000000000        9.3750000000000000E-002   0.0000000000000000     
  0.50000000000000000        9.3750000000000000E-002   0.0000000000000000     
  0.37500000000000000       0.12500000000000000        0.0000000000000000     
  0.40625000000000000       0.12500000000000000        0.0000000000000000     
  0.43750000000000000       0.12500000000000000        0.0000000000000000     
  0.46875000000000000       0.12500000000000000        0.0000000000000000     
  0.50000000000000000       0.12500000000000000        0.0000000000000000     
  0.50000000000000000        0.0000000000000000        0.0000000000000000     
  0.53125000000000000        0.0000000000000000        0.0000000000000000     
  0.56250000000000000        0.0000000000000000        0.0000000000000000     
  0.59375000000000000        0.0000000000000000        0.0000000000000000     
  0.62500000000000000        0.0000000000000000        0.0000000000000000     
  0.50000000000000000        3.1250000000000000E-002   0.0000000000000000     
  0.53125000000000000        3.1250000000000000E-002   0.0000000000000000     
  0.56250000000000000        3.1250000000000000E-002   0.0000000000000000     
  0.59375000000000000        3.1250000000000000E-002   0.0000000000000000     
  0.62500000000000000        3.1250000000000000E-002   0.0000000000000000     
  0.50000000000000000        6.2500000000000000E-002   0.0000000000000000     
  0.53125000000000000        6.2500000000000000E-002   0.0000000000000000     
  0.56250000000000000        6.2500000000000000E-002   0.0000000000000000     
  0.59375000000000000        6.2500000000000000E-002   0.0000000000000000     
  0.62500000000000000        6.2500000000000000E-002   0.0000000000000000     
  0.50000000000000000        9.3750000000000000E-002   0.0000000000000000     
  0.53125000000000000        9.3750000000000000E-002   0.0000000000000000     
  0.56250000000000000        9.3750000000000000E-002   0.0000000000000000     
  0.59375000000000000        9.3750000000000000E-002   0.0000000000000000     
  0.62500000000000000        9.3750000000000000E-002   0.0000000000000000     
  0.50000000000000000       0.12500000000000000        0.0000000000000000     
  0.53125000000000000       0.12500000000000000        0.0000000000000000     
  0.56250000000000000       0.12500000000000000        0.0000000000000000     
  0.59375000000000000       0.12500000000000000        0.0000000000000000     
  0.62500000000000000       0.12500000000000000        0.0000000000000000     
  0.62500000000000000        0.0000000000000000        0.0000000000000000     
  0.65625000000000000        0.0000000000000000        0.0000000000000000     
  0.68750000000000000        0.0000000000000000        0.0000000000000000     
  0.71875000000000000        0.0000000000000000        0.0000000000000000     
  0.75000000000000000        0.0000000000000000        0.0000000000000000     
  0.62500000000000000        3.1250000000000000E-002   0.0000000000000000     
  0.65625000000000000        3.1250000000000000E-002   0.0000000000000000     
  0.68750000000000000        3.1250000000000000E-002   0.0000000000000000     
  0.71875000000000000        3.1250000000000000E-002   0.0000000000000000     
  0.75000000000000000        3.1250000000000000E-002   0.0000000000000000     
  0.62500000000000000        6.2500000000000000E-002   0.0000000000000000     
  0.65625000000000000        6.2500000000000000E-002   0.0000000000000000     
  0.68750000000000000        6.2500000000000000E-002   0.0000000000000000     
  0.71875000000000000        6.2500000000000000E-002   0.0000000000000000     
  0.75000000000000000        6.2500000000000000E-002   0.0000000000000000     
  0.62500000000000000        9.3750000000000000E-002   0.0000000000000000     
  0.65625000000000000        9.3750000000000000E-002   0.0000000000000000     
  0.68750000000000000        9.3750000000000000E-002   0.0000000000000000     
  0.71875000000000000        9.3750000000000000E-002   0.0000000000000000     
  0.75000000000000000        9.3750000000000000E-002   0.0000000000000000     
  0.62500000000000000       0.12500000000000000        0.0000000000000000     
  0.65625000000000000       0.12500000000000000        0.0000000000000000     
  0.68750000000000000       0.12500000000000000        0.0000000000000000     
  0.71875000000000000       0.12500000000000000        0.0000000000000000     
  0.75000000000000000       0.12500000000000000        0.0000000000000000     
  0.75000000000000000        0.0000000000000000        0.0000000000000000     
  0.78125000000000000        0.0000000000000000        0.0000000000000000     
  0.81250000000000000        0.0000000000000000        0.0000000000000000     
  0.84375000000000000        0.0000000000000000        0.0000000000000000     
  0.87500000000000000        0.0000000000000000        0.0000000000000000     
  0.75000000000000000        3.1250000000000000E-002   0.0000000000000000     
  0.78125000000000000        3.1250000000000000E-002   0.0000000000000000     
  0.81250000000000000        3.1250000000000000E-002   0.0000000000000000     
  0.84375000000000000        3.1250000000000000E-002   0.0000000000000000     
  0.87500000000000000        3.1250000000000000E-002   0.0000000000000000     
  0.75000000000000000        6.2500000000000000E-002   0.0000000000000000     
  0.78125000000000000        6.2500000000000000E-002   0.0000000000000000     
  0.81250000000000000        6.2500000000000000E-002   0.0000000000000000     
  0.84375000000000000        6.2500000000000000E-002   0.0000000000000000     
  0.87500000000000000        6.2500000000000000E-002   0.0000000000000000     
  0.75000000000000000        9.3750000000000000E-002   0.0000000000000000     
  0.78125000000000000        9.3750000000000000E-002   0.0000000000000000     
  0.81250000000000000        9.3750000000000000E-002   0.0000000000000000     
  0.84375000000000000        9.3750000000000000E-002   0.0000000000000000     
  0.87500000000000000        9.3750000000000000E-002   0.0000000000000000     
  0.75000000000000000       0.12500000000000000        0.0000000000000000     
  0.78125000000000000       0.12500000000000000        0.0000000000000000     
  0.81250000000000000       0.12500000000000000        0.0000000000000000     
  0.84375000000000000       0.12500000000000000        0.0000000000000000     
  0.87500000000000000       0.12500000000000000        0.0000000000000000     
  0.87500000000000000        0.0000000000000000        0.0000000000000000     
  0.90625000000000000        0.0000000000000000        0.0000000000000000     
  0.93750000000000000        0.0000000000000000        0.0000000000000000     
  0.96875000000000000        0.0000000000000000        0.0000000000000000     
   1.0000000000000000        0.0000000000000000        0.0000000000000000     
  0.87500000000000000        3.1250000000000000E-002   0.0000000000000000     
  0.90625000000000000        3.1250000000000000E-002   0.0000000000000000     
  0.93750000000000000        3.1250000000000000E-002   0.0000000000000000     
  0.96875000000000000        3.1250000000000000E-002   0.0000000000000000     
   1.0000000000000000        3.1250000000000000E-002   0.0000000000000000     
  0.87500000000000000        6.2500000000000000E-002   0.0000000000000000     
  0.90625000000000000        6.2500000000000000E-002   0.0000000000000000     
  0.93750000000000000        6.2500000000000000E-002   0.0000000000000000     
  0.96875000000000000        6.2500000000000000E-002   0.0000000000000000     
   1.0000000000000000        6.2500000000000000E-002   0.0000000000000000     
  0.87500000000000000        9.3750000000000000E-002   0.0000000000000000     
  0.90625000000000000        9.3750000000000000E-002   0.0000000000000000     
  0.93750000000000000        9.3750000000000000E-002   0.0000000000000000     
  0.96875000000000000        9.3750000000000000E-002   0.0000000000000000     
   1.0000000000000000        9.3750000000000000E-002   0.0000000000000000     
  0.87500000000000000       0.12500000000000000        0.0000000000000000     
  0.90625000000000000       0.12500000000000000        0.0000000000000000     
  0.93750000000000000       0.12500000000000000        0.0000000000000000     
  0.96875000000000000       0.12500000000000000        0.0000000000000000     
   1.0000000000000000       0.12500000000000000        0.0000000000000000     
   0.0000000000000000       0.12500000000000000        0.0000000000000000     
   3.1250000000000000E-002  0.12500000000000000        0.0000000000000000     
   6.2500000000000000E-002  0.12500000000000000        0.0000000000000000     
   9.3750000000000000E-002  0.12500000000000000        0.0000000000000000     
  0.12500000000000000       0.12500000000000000        0.0000000000000000     
   0.0000000000000000       0.15625000000000000        0.0000000000000000     
   3.1250000000000000E-002  0.15625000000000000        0.0000000000000000     
   6.2500000000000000E-002  0.15625000000000000        0.0000000000000000     
   9.3750000000000000E-002  0.15625000000000000        0.0000000000000000     
  0.12500000000000000       0.15625000000000000        0.0000000000000000     
   0.0000000000000000       0.18750000000000000        0.0000000000000000     
   3.1250000000000000E-002  0.18750000000000000        0.0000000000000000     
   6.2500000000000000E-002  0.18750000000000000        0.0000000000000000     
   9.3750000000000000E-002  0.18750000000000000        0.0000000000000000     
  0.12500000000000000       0.18750000000000000        0.0000000000000000     
   0.0000000000000000       0.21875000000000000        0.0000000000000000     
   3.1250000000000000E-002  0.21875000000000000        0.0000000000000000     
   6.2500000000000000E-002  0.21875000000000000        0.0000000000000000     
   9.3750000000000000E-002  0.21875000000000000        0.0000000000000000     
  0.12500000000000000       0.21875000000000000        0.0000000000000000     
   0.0000000000000000       0.25000000000000000        0.0000000000000000     
   3.1250000000000000E-002  0.25000000000000000        0.0000000000000000     
   6.2500000000000000E-002  0.25000000000000000        0.0000000000000000     
   9.3750000000000000E-002  0.25000000000000000        0.0000000000000000     
  0.12500000000000000       0.25000000000000000        0.0000000000000000     
  0.12500000000000000       0.12500000000000000        0.0000000000000000     
  0.15625000000000000       0.12500000000000000        0.0000000000000000     
  0.18750000000000000       0.12500000000000000        0.0000000000000000     
  0.21875000000000000       0.12500000000000000        0.0000000000000000     
  0.25000000000000000       0.12500000000000000        0.0000000000000000     
  0.12500000000000000       0.15625000000000000        0.0000000000000000     
  0.15625000000000000       0.15625000000000000        0.0000000000000000     
  0.18750000000000000       0.15625000000000000        0.0000000000000000     
  0.21875000000000000       0.15625000000000000        0.0000000000000000     
  0.25000000000000000       0.15625000000000000        0.0000000000000000     
  0.12500000000000000       0.18750000000000000        0.0000000000000000     
  0.15625000000000000       0.18750000000000000        0.0000000000000000     
  0.18750000000000000       0.18750000000000000        0.0000000000000000     
  0.21875000000000000       0.18750000000000000        0.0000000000000000     
  0.25000000000000000       0.18750000000000000        0.0000000000000000     
  0.12500000000000000       0.21875000000000000        0.0000000000000000     
  0.15625000000000000       0.21875000000000000        0.0000000000000000     
  0.18750000000000000       0.21875000000000000        0.0000000000000000     
  0.21875000000000000       0.21875000000000000        0.0000000000000000     
  0.25000000000000000       0.21875000000000000        0.0000000000000000     
  0.12500000000000000       0.25000000000000000        0.0000000000000000     
  0.15625000000000000       0.25000000000000000        0.0000000000000000     
  0.18750000000000000       0.25000000000000000        0.0000000000000000     
  0.21875000000000000       0.25000000000000000        0.0000000000000000     
  0.25000000000000000       0.25000000000000000        0.0000000000000000     
  0.25000000000000000       0.12500000000000000        0.0000000000000000     
  0.28125000000000000       0.12500000000000000        0.0000000000000000     
  0.31250000000000000       0.12500000000000000        0.0000000000000000     
  0.34375000000000000       0.12500000000000000        0.0000000000000000     
  0.37500000000000000       0.12500000000000000        0.0000000000000000     
  0.25000000000000000       0.15625000000000000        0.0000000000000000     
  0.28125000000000000       0.15625000000000000        0.0000000000000000     
  0.31250000000000000       0.15625000000000000        0.0000000000000000     
  0.34375000000000000       0.15625000000000000        0.0000000000000000     
  0.37500000000000000       0.15625000000000000        0.0000000000000000     
  0.25000000000000000       0.18750000000000000        0.0000000000000000     
  0.28125000000000000       0.18750000000000000        0.0000000000000000     
  0.31250000000000000       0.18750000000000000        0.0000000000000000     
  0.34375000000000000       0.18750000000000000        0.0000000000000000     
  0.37500000000000000       0.18750000000000000        0.0000000000000000     
  0.25000000000000000       0.21875000000000000        0.0000000000000000     
  0.28125000000000000       0.21875000000000000        0.0000000000000000     
  0.31250000000000000       0.21875000000000000        0.0000000000000000     
  0.34375000000000000       0.21875000000000000        0.0000000000000000     
  0.37500000000000000       0.21875000000000000        0.0000000000000000     
  0.25000000000000000       0.25000000000000000        0.0000000000000000     
  0.28125000000000000       0.25000000000000000        0.0000000000000000     
  0.31250000000000000       0.25000000000000000        0.0000000000000000     
  0.34375000000000000       0.25000000000000000        0.0000000000000000     
  0.37500000000000000       0.25000000000000000        0.0000000000000000     
  0.37500000000000000       0.12500000000000000        0.0000000000000000     
  0.40625000000000000       0.12500000000000000        0.0000000000000000     
  0.43750000000000000       0.12500000000000000        0.0000000000000000     
  0.46875000000000000       0.12500000000000000        0.0000000000000000     
  0.50000000000000000       0.12500000000000000        0.0000000000000000     
  0.37500000000000000       0.15625000000000000        0.0000000000000000     
  0.40625000000000000       0.15625000000000000        0.0000000000000000     
  0.43750000000000000       0.15625000000000000        0.0000000000000000     
  0.46875000000000000       0.15625000000000000        0.0000000000000000     
  0.50000000000000000       0.15625000000000000        0.0000000000000000     
  0.37500000000000000       0.18750000000000000        0.0000000000000000     
  0.40625000000000000       0.18750000000000000        0.0000000000000000     
  0.43750000000000000       0.18750000000000000        0.0000000000000000     
  0.46875000000000000       0.18750000000000000        0.0000000000000000     
  0.50000000000000000       0.18750000000000000        0.0000000000000000     
  0.37500000000000000       0.21875000000000000        0.0000000000000000     
  0.40625000000000000       0.21875000000000000        0.0000000000000000     
  0.43750000000000000       0.21875000000000000        0.0000000000000000     
  0.46875000000000000       0.21875000000000000        0.0000000000000000     
  0.50000000000000000       0.21875000000000000        0.0000000000000000     
  0.37500000000000000       0.25000000000000000        0.0000000000000000     
  0.40625000000000000       0.25000000000000000        0.0000000000000000     
  0.43750000000000000       0.25000000000000000        0.0000000000000000     
  0.46875000000000000       0.25000000000000000        0.0000000000000000     
  0.50000000000000000       0.25000000000000000        0.0000000000000000     
  0.50000000000000000       0.12500000000000000        0.0000000000000000     
  0.53125000000000000       0.12500000000000000        0.0000000000000000     
  0.56250000000000000       0.12500000000000000        0.0000000000000000     
  0.59375000000000000       0.12500000000000000        0.0000000000000000     
  0.62500000000000000       0.12500000000000000        0.0000000000000000     
  0.50000000000000000       0.15625000000000000        0.0000000000000000     
  0.53125000000000000       0.15625000000000000        0.0000000000000000     
  0.56250000000000000       0.15625000000000000        0.0000000000000000     
  0.59375000000000000       0.15625000000000000        0.0000000000000000     
  0.62500000000000000       0.15625000000000000        0.0000000000000000     
  0.50000000000000000       0.18750000000000000        0.0000000000000000     
  0.53125000000000000       0.18750000000000000        0.0000000000000000     
  0.56250000000000000       0.18750000000000000        0.0000000000000000     
  0.59375000000000000       0.18750000000000000        0.0000000000000000     
  0.62500000000000000       0.18750000000000000        0.0000000000000000     
  0.50000000000000000       0.21875000000000000        0.0000000000000000     
  0.53125000000000000       0.21875000000000000        0.0000000000000000     
  0.56250000000000000       0.21875000000000000        0.0000000000000000     
  0.59375000000000000       0.21875000000000000        0.0000000000000000     
  0.62500000000000000       0.21875000000000000        0.0000000000000000     
  0.50000000000000000       0.25000000000000000        0.0000000000000000     
  0.53125000000000000       0.25000000000000000        0.0000000000000000     
  0.56250000000000000       0.25000000000000000        0.0000000000000000     
  0.59375000000000000       0.25000000000000000        0.0000000000000000     
  0.62500000000000000       0.25000000000000000        0.0000000000000000     
  0.62500000000000000       0.12500000000000000        0.0000000000000000     
  0.65625000000000000       0.12500000000000000        0.0000000000000000     
  0.68750000000000000       0.12500000000000000        0.0000000000000000     
  0.71875000000000000       0.12500000000000000        0.0000000000000000     
  0.75000000000000000       0.12500000000000000        0.0000000000000000     
  0.62500000000000000       0.15625000000000000        0.0000000000000000     
  0.65625000000000000       0.15625000000000000        0.0000000000000000     
  0.68750000000000000       0.15625000000000000        0.0000000000000000     
  0.71875000000000000       0.15625000000000000        0.0000000000000000     
  0.75000000000000000       0.15625000000000000        0.0000000000000000     
  0.62500000000000000       0.18750000000000000        0.0000000000000000     
  0.65625000000000000       0.18750000000000000        0.0000000000000000     
  0.68750000000000000       0.18750000000000000        0.0000000000000000     
  0.71875000000000000       0.18750000000000000        0.0000000000000000     
  0.75000000000000000       0.18750000000000000        0.0000000000000000     
  0.62500000000000000       0.21875000000000000        0.0000000000000000     
  0.65625000000000000       0.21875000000000000        0.0000000000000000     
  0.68750000000000000       0.21875000000000000        0.0000000000000000     
  0.71875000000000000       0.21875000000000000        0.0000000000000000     
  0.75000000000000000       0.21875000000000000        0.0000000000000000     
  0.62500000000000000       0.25000000000000000        0.0000000000000000     
  0.65625000000000000       0.25000000000000000        0.0000000000000000     
  0.68750000000000000       0.25000000000000000        0.0000000000000000     
  0.71875000000000000       0.25000000000000000        0.0000000000000000     
  0.75000000000000000       0.25000000000000000        0.0000000000000000     
  0.75000000000000000       0.12500000000000000        0.0000000000000000     
  0.78125000000000000       0.12500000000000000        0.0000000000000000     
  0.81250000000000000       0.12500000000000000        0.0000000000000000     
  0.84375000000000000       0.12500000000000000        0.0000000000000000     
  0.87500000000000000       0.12500000000000000        0.0000000000000000     
  0.75000000000000000       0.15625000000000000        0.0000000000000000     
  0.78125000000000000       0.15625000000000000        0.0000000000000000     
  0.81250000000000000       0.15625000000000000        0.0000000000000000     
  0.84375000000000000       0.15625000000000000        0.0000000000000000     
  0.87500000000000000       0.15625000000000000        0.0000000000000000     
  0.75000000000000000       0.18750000000000000        0.0000000000000000     
  0.78125000000000000       0.18750000000000000        0.0000000000000000     
  0.81250000000000000       0.18750000000000000        0.0000000000000000     
  0.84375000000000000       0.18750000000000000        0.0000000000000000     
  0.87500000000000000       0.18750000000000000        0.0000000000000000     
  0.75000000000000000       0.21875000000000000        0.0000000000000000     
  0.78125000000000000       0.21875000000000000        0.0000000000000000     
  0.81250000000000000       0.21875000000000000        0.0000000000000000     
  0.84375000000000000       0.21875000000000000        0.0000000000000000     
  0.87500000000000000       0.21875000000000000        0.0000000000000000     
  0.75000000000000000       0.25000000000000000        0.0000000000000000     
  0.78125000000000000       0.25000000000000000        0.0000000000000000     
  0.81250000000000000       0.25000000000000000        0.0000000000000000     
  0.84375000000000000       0.25000000000000000        0.0000000000000000     
  0.87500000000000000       0.25000000000000000        0.0000000000000000     
  0.87500000000000000       0.12500000000000000        0.0000000000000000     
  0.90625000000000000       0.12500000000000000        0.0000000000000000     
  0.93750000000000000       0.12500000000000000        0.0000000000000000     
  0.96875000000000000       0.12500000000000000        0.0000000000000000     
   1.0000000000000000       0.12500000000000000        0.0000000000000000     
  0.87500000000000000       0.15625000000000000        0.0000000000000000     
  0.90625000000000000       0.15625000000000000        0.0000000000000000     
  0.93750000000000000       0.15625000000000000        0.0000000000000000     
  0.96875000000000000       0.15625000000000000        0.0000000000000000     
   1.0000000000000000       0.15625000000000000        0.0000000000000000     
  0.87500000000000000       0.18750000000000000        0.0000000000000000     
  0.90625000000000000       0.18750000000000000        0.0000000000000000     
  0.93750000000000000       0.18750000000000000        0.0000000000000000     
  0.96875000000000000       0.18750000000000000        0.0000000000000000     
   1.0000000000000000       0.18750000000000000        0.0000000000000000     
  0.87500000000000000       0.21875000000000000        0.0000000000000000     
  0.90625000000000000       0.21875000000000000        0.0000000000000000     
  0.93750000000000000       0.21875000000000000        0.0000000000000000     
  0.96875000000000000       0.21875000000000000        0.0000000000000000     
   1.0000000000000000       0.21875000000000000        0.0000000000000000     
  0.87500000000000000       0.25000000000000000        0.0000000000000000     
  0.90625000000000000       0.25000000000000000        0.0000000000000000     
  0.93750000000000000       0.25000000000000000        0.0000000000000000     
  0.96875000000000000       0.25000000000000000        0.0000000000000000     
   1.0000000000000000       0.25000000000000000        0.0000000000000000     
   0.0000000000000000       0.25000000000000000        0.0000000000000000     
   3.1250000000000000E-002  0.25000000000000000        0.0000000000000000     
   6.2500000000000000E-002  0.25000000000000000        0.0000000000000000     
   9.3750000000000000E-002  0.25000000000000000        0.0000000000000000     
  0.12500000000000000       0.25000000000000000        0.0000000000000000     
   0.0000000000000000       0.28125000000000000        0.0000000000000000     
   3.1250000000000000E-002  0.28125000000000000        0.0000000000000000     
   6.2500000000000000E-002  0.28125000000000000        0.0000000000000000     
   9.3750000000000000E-002  0.28125000000000000        0.0000000000000000     
  0.12500000000000000       0.28125000000000000        0.0000000000000000     
   0.0000000000000000       0.31250000000000000        0.0000000000000000     
   3.1250000000000000E-002  0.31250000000000000        0.0000000000000000     
   6.2500000000000000E-002  0.31250000000000000        0.0000000000000000     
   9.3750000000000000E-002  0.31250000000000000        0.0000000000000000     
  0.12500000000000000       0.31250000000000000        0.0000000000000000     
   0.0000000000000000       0.34375000000000000        0.0000000000000000     
   3.1250000000000000E-002  0.34375000000000000        0.0000000000000000     
   6.2500000000000000E-002  0.34375000000000000        0.0000000000000000     
   9.3750000000000000E-002  0.34375000000000000        0.0000000000000000     
  0.12500000000000000       0.34375000000000000        0.0000000000000000     
   0.0000000000000000       0.37500000000000000        0.0000000000000000     
   3.1250000000000000E-002  0.37500000000000000        0.0000000000000000     
   6.2500000000000000E-002  0.37500000000000000        0.0000000000000000     
   9.3750000000000000E-002  0.37500000000000000        0.0000000000000000     
  0.12500000000000000       0.37500000000000000        0.0000000000000000     
  0.12500000000000000       0.25000000000000000        0.0000000000000000     
  0.15625000000000000       0.25000000000000000        0.0000000000000000     
  0.18750000000000000       0.25000000000000000        0.0000000000000000     
  0.21875000000000000       0.25000000000000000        0.0000000000000000     
  0.25000000000000000       0.25000000000000000        0.0000000000000000     
  0.12500000000000000       0.28125000000000000        0.0000000000000000     
  0.15625000000000000       0.28125000000000000        0.0000000000000000     
  0.18750000000000000       0.28125000000000000        0.0000000000000000     
  0.21875000000000000       0.28125000000000000        0.0000000000000000     
  0.25000000000000000       0.28125000000000000        0.0000000000000000     
  0.12500000000000000       0.31250000000000000        0.0000000000000000     
  0.15625000000000000       0.31250000000000000        0.0000000000000000     
  0.18750000000000000       0.31250000000000000        0.0000000000000000     
  0.21875000000000000       0.31250000000000000        0.0000000000000000     
  0.25000000000000000       0.31250000000000000        0.0000000000000000     
  0.12500000000000000       0.34375000000000000        0.0000000000000000     
  0.15625000000000000       0.34375000000000000        0.0000000000000000     
  0.18750000000000000       0.34375000000000000        0.0000000000000000     
  0.21875000000000000       0.34375000000000000        0.0000000000000000     
  0.25000000000000000       0.34375000000000000        0.0000000000000000     
  0.12500000000000000       0.37500000000000000        0.0000000000000000     
  0.15625000000000000       0.37500000000000000        0.0000000000000000     
  0.18750000000000000       0.37500000000000000        0.0000000000000000     
  0.21875000000000000       0.37500000000000000        0.0000000000000000     
  0.25000000000000000       0.37500000000000000        0.0000000000000000     
  0.25000000000000000       0.25000000000000000        0.0000000000000000     
  0.28125000000000000       0.25000000000000000        0.0000000000000000     
  0.31250000000000000       0.25000000000000000        0.0000000000000000     
  0.34375000000000000       0.25000000000000000        0.0000000000000000     
  0.37500000000000000       0.25000000000000000        0.0000000000000000     
  0.25000000000000000       0.28125000000000000        0.0000000000000000     
  0.28125000000000000       0.28125000000000000        0.0000000000000000     
  0.31250000000000000       0.28125000000000000        0.0000000000000000     
  0.34375000000000000       0.28125000000000000        0.0000000000000000     
  0.37500000000000000       0.28125000000000000        0.0000000000000000     
  0.25000000000000000       0.31250000000000000        0.0000000000000000     
  0.28125000000000000       0.31250000000000000        0.0000000000000000     
  0.31250000000000000       0.31250000000000000        0.0000000000000000     
  0.34375000000000000       0.31250000000000000        0.0000000000000000     
  0.37500000000000000       0.31250000000000000        0.0000000000000000     
  0.25000000000000000       0.34375000000000000        0.0000000000000000     
  0.28125000000000000       0.34375000000000000        0.0000000000000000     
  0.31250000000000000       0.34375000000000000        0.0000000000000000     
  0.34375000000000000       0.34375000000000000        0.0000000000000000     
  0.37500000000000000       0.34375000000000000        0.0000000000000000     
  0.25000000000000000       0.37500000000000000        0.0000000000000000     
  0.28125000000000000       0.37500000000000000        0.0000000000000000     
  0.31250000000000000       0.37500000000000000        0.0000000000000000     
  0.34375000000000000       0.37500000000000000        0.0000000000000000     
  0.37500000000000000       0.37500000000000000        0.0000000000000000     
  0.37500000000000000       0.25000000000000000        0.0000000000000000     
  0.40625000000000000       0.25000000000000000        0.0000000000000000     
  0.43750000000000000       0.25000000000000000        0.0000000000000000     
  0.46875000000000000       0.25000000000000000        0.0000000000000000     
  0.50000000000000000       0.25000000000000000        0.0000000000000000     
  0.37500000000000000       0.28125000000000000        0.0000000000000000     
  0.40625000000000000       0.28125000000000000        0.0000000000000000     
  0.43750000000000000       0.28125000000000000        0.0000000000000000     
  0.46875000000000000       0.28125000000000000        0.0000000000000000     
  0.50000000000000000       0.28125000000000000        0.0000000000000000     
  0.37500000000000000       0.31250000000000000        0.0000000000000000     
  0.40625000000000000       0.31250000000000000        0.0000000000000000     
  0.43750000000000000       0.31250000000000000        0.0000000000000000     
  0.46875000000000000       0.31250000000000000        0.0000000000000000     
  0.50000000000000000       0.31250000000000000        0.0000000000000000     
  0.37500000000000000       0.34375000000000000        0.0000000000000000     
  0.40625000000000000       0.34375000000000000        0.0000000000000000     
  0.43750000000000000       0.34375000000000000        0.0000000000000000     
  0.46875000000000000       0.34375000000000000        0.0000000000000000     
  0.50000000000000000       0.34375000000000000        0.0000000000000000     
  0.37500000000000000       0.37500000000000000        0.0000000000000000     
  0.40625000000000000       0.37500000000000000        0.0000000000000000     
  0.43750000000000000       0.37500000000000000        0.0000000000000000     
  0.46875000000000000       0.37500000000000000        0.0000000000000000     
  0.50000000000000000       0.37500000000000000        0.0000000000000000     
  0.50000000000000000       0.25000000000000000        0.0000000000000000     
  0.53125000000000000       0.25000000000000000        0.0000000000000000     
  0.56250000000000000       0.25000000000000000        0.0000000000000000     
  0.59375000000000000       0.25000000000000000        0.0000000000000000     
  0.62500000000000000       0.25000000000000000        0.0000000000000000     
  0.50000000000000000       0.28125000000000000        0.0000000000000000     
  0.53125000000000000       0.28125000000000000        0.0000000000000000     
  0.56250000000000000       0.28125000000000000        0.0000000000000000     
  0.59375000000000000       0.28125000000000000        0.0000000000000000     
  0.62500000000000000       0.28125000000000000        0.0000000000000000     
  0.50000000000000000       0.31250000000000000        0.0000000000000000     
  0.53125000000000000       0.31250000000000000        0.0000000000000000     
  0.56250000000000000       0.31250000000000000        0.0000000000000000     
  0.59375000000000000       0.31250000000000000        0.0000000000000000     
  0.62500000000000000       0.31250000000000000        0.0000000000000000     
  0.50000000000000000       0.34375000000000000        0.0000000000000000     
  0.53125000000000000       0.34375000000000000        0.0000000000000000     
  0.56250000000000000       0.34375000000000000        0.0000000000000000     
  0.59375000000000000       0.34375000000000000        0.0000000000000000     
  0.62500000000000000       0.34375000000000000        0.0000000000000000     
  0.50000000000000000       0.37500000000000000        0.0000000000000000     
  0.53125000000000000       0.37500000000000000        0.0000000000000000     
  0.56250000000000000       0.37500000000000000        0.0000000000000000     
  0.59375000000000000       0.37500000000000000        0.0000000000000000     
  0.62500000000000000       0.37500000000000000        0.0000000000000000     
  0.62500000000000000       0.25000000000000000        0.0000000000000000     
  0.65625000000000000       0.25000000000000000        0.0000000000000000     
  0.68750000000000000       0.25000000000000000        0.0000000000000000     
  0.71875000000000000       0.25000000000000000        0.0000000000000000     
  0.75000000000000000       0.25000000000000000        0.0000000000000000     
  0.62500000000000000       0.28125000000000000        0.0000000000000000     
  0.65625000000000000       0.28125000000000000        0.0000000000000000     
  0.68750000000000000       0.28125000000000000        0.0000000000000000     
  0.71875000000000000       0.28125000000000000        0.0000000000000000     
  0.75000000000000000       0.28125000000000000        0.0000000000000000     
  0.62500000000000000       0.31250000000000000        0.0000000000000000     
  0.65625000000000000       0.31250000000000000        0.0000000000000000     
  0.68750000000000000       0.31250000000000000        0.0000000000000000     
  0.71875000000000000       0.31250000000000000        0.0000000000000000     
  0.75000000000000000       0.31250000000000000        0.0000000000000000     
  0.62500000000000000       0.34375000000000000        0.0000000000000000     
  0.65625000000000000       0.34375000000000000        0.0000000000000000     
  0.68750000000000000       0.34375000000000000        0.0000000000000000     
  0.71875000000000000       0.34375000000000000        0.0000000000000000     
  0.75000000000000000       0.34375000000000000        0.0000000000000000     
  0.62500000000000000       0.37500000000000000        0.0000000000000000     
  0.65625000000000000       0.37500000000000000        0.0000000000000000     
  0.68750000000000000       0.37500000000000000        0.0000000000000000     
  0.71875000000000000       0.37500000000000000        0.0000000000000000     
  0.75000000000000000       0.37500000000000000        0.0000000000000000     
  0.75000000000000000       0.25000000000000000        0.0000000000000000     
  0.78125000000000000       0.25000000000000000        0.0000000000000000     
  0.81250000000000000       0.25000000000000000        0.0000000000000000     
  0.84375000000000000       0.25000000000000000        0.0000000000000000     
  0.87500000000000000       0.25000000000000000        0.0000000000000000     
  0.75000000000000000       0.28125000000000000        0.0000000000000000     
  0.78125000000000000       0.28125000000000000        0.0000000000000000     
  0.81250000000000000       0.28125000000000000        0.0000000000000000     
  0.84375000000000000       0.28125000000000000        0.0000000000000000     
  0.87500000000000000       0.28125000000000000        0.0000000000000000     
  0.75000000000000000       0.31250000000000000        0.0000000000000000     
  0.78125000000000000       0.31250000000000000        0.0000000000000000     
  0.81250000000000000       0.31250000000000000        0.0000000000000000     
  0.84375000000000000       0.31250000000000000        0.0000000000000000     
  0.87500000000000000       0.31250000000000000        0.0000000000000000     
  0.75000000000000000       0.34375000000000000        0.0000000000000000     
  0.78125000000000000       0.34375000000000000        0.0000000000000000     
  0.81250000000000000       0.34375000000000000        0.0000000000000000     
  0.84375000000000000       0.34375000000000000        0.0000000000000000     
  0.87500000000000000       0.34375000000000000        0.0000000000000000     
  0.75000000000000000       0.37500000000000000        0.0000000000000000     
  0.78125000000000000       0.37500000000000000        0.0000000000000000     
  0.81250000000000000       0.37500000000000000        0.0000000000000000     
  0.84375000000000000       0.37500000000000000        0.0000000000000000     
  0.87500000000000000       0.37500000000000000        0.0000000000000000     
  0.87500000000000000       0.25000000000000000        0.0000000000000000     
  0.90625000000000000       0.25000000000000000        0.0000000000000000     
  0.93750000000000000       0.25000000000000000        0.0000000000000000     
  0.96875000000000000       0.25000000000000000        0.0000000000000000     
   1.0000000000000000       0.25000000000000000        0.0000000000000000     
  0.87500000000000000       0.28125000000000000        0.0000000000000000     
  0.90625000000000000       0.28125000000000000        0.0000000000000000     
  0.93750000000000000       0.28125000000000000        0.0000000000000000     
  0.96875000000000000       0.28125000000000000        0.0000000000000000     
   1.0000000000000000       0.28125000000000000        0.0000000000000000     
  0.87500000000000000       0.31250000000000000        0.0000000000000000     
  0.90625000000000000       0.31250000000000000        0.0000000000000000     
  0.93750000000000000       0.31250000000000000        0.0000000000000000     
  0.96875000000000000       0.31250000000000000        0.0000000000000000     
   1.0000000000000000       0.31250000000000000        0.0000000000000000     
  0.87500000000000000       0.34375000000000000        0.0000000000000000     
  0.90625000000000000       0.34375000000000000        0.0000000000000000     
  0.93750000000000000       0.34375000000000000        0.0000000000000000     
  0.96875000000000000       0.34375000000000000        0.0000000000000000     
   1.0000000000000000       0.34375000000000000        0.0000000000000000     
  0.87500000000000000       0.37500000000000000        0.0000000000000000     
  0.90625000000000000       0.37500000000000000        0.0000000000000000     
  0.93750000000000000       0.37500000000000000        0.0000000000000000     
  0.96875000000000000       0.37500000000000000        0.0000000000000000     
   1.0000000000000000       0.37500000000000000        0.0000000000000000     
   0.0000000000000000       0.37500000000000000        0.0000000000000000     
   3.1250000000000000E-002  0.37500000000000000        0.0000000000000000     
   6.2500000000000000E-002  0.37500000000000000        0.0000000000000000     
   9.3750000000000000E-002  0.37500000000000000        0.0000000000000000     
  0.12500000000000000       0.37500000000000000        0.0000000000000000     
   0.0000000000000000       0.40625000000000000        0.0000000000000000     
   3.1250000000000000E-002  0.40625000000000000        0.0000000000000000     
   6.2500000000000000E-002  0.40625000000000000        0.0000000000000000     
   9.3750000000000000E-002  0.40625000000000000        0.0000000000000000     
  0.12500000000000000       0.40625000000000000        0.0000000000000000     
   0.0000000000000000       0.43750000000000000        0.0000000000000000     
   3.1250000000000000E-002  0.43750000000000000        0.0000000000000000     
   6.2500000000000000E-002  0.43750000000000000        0.0000000000000000     
   9.3750000000000000E-002  0.43750000000000000        0.0000000000000000     
  0.12500000000000000       0.43750000000000000        0.0000000000000000     
   0.0000000000000000       0.46875000000000000        0.0000000000000000     
   3.1250000000000000E-002  0.46875000000000000        0.0000000000000000     
   6.2500000000000000E-002  0.46875000000000000        0.0000000000000000     
   9.3750000000000000E-002  0.46875000000000000        0.0000000000000000     
  0.12500000000000000       0.46875000000000000        0.0000000000000000     
   0.0000000000000000       0.50000000000000000        0.0000000000000000     
   3.1250000000000000E-002  0.50000000000000000        0.0000000000000000     
   6.2500000000000000E-002  0.50000000000000000        0.0000000000000000     
   9.3750000000000000E-002  0.50000000000000000        0.0000000000000000     
  0.12500000000000000       0.50000000000000000        0.0000000000000000     
  0.12500000000000000       0.37500000000000000        0.0000000000000000     
  0.15625000000000000       0.37500000000000000        0.0000000000000000     
  0.18750000000000000       0.37500000000000000        0.0000000000000000     
  0.21875000000000000       0.37500000000000000        0.0000000000000000     
  0.25000000000000000       0.37500000000000000        0.0000000000000000     
  0.12500000000000000       0.40625000000000000        0.0000000000000000     
  0.15625000000000000       0.40625000000000000        0.0000000000000000     
  0.18750000000000000       0.40625000000000000        0.0000000000000000     
  0.21875000000000000       0.40625000000000000        0.0000000000000000     
  0.25000000000000000       0.40625000000000000        0.0000000000000000     
  0.12500000000000000       0.43750000000000000        0.0000000000000000     
  0.15625000000000000       0.43750000000000000        0.0000000000000000     
  0.18750000000000000       0.43750000000000000        0.0000000000000000     
  0.21875000000000000       0.43750000000000000        0.0000000000000000     
  0.25000000000000000       0.43750000000000000        0.0000000000000000     
  0.12500000000000000       0.46875000000000000        0.0000000000000000     
  0.15625000000000000       0.46875000000000000        0.0000000000000000     
  0.18750000000000000       0.46875000000000000        0.0000000000000000     
  0.21875000000000000       0.46875000000000000        0.0000000000000000     
  0.25000000000000000       0.46875000000000000        0.0000000000000000     
  0.12500000000000000       0.50000000000000000        0.0000000000000000     
  0.15625000000000000       0.50000000000000000        0.0000000000000000     
  0.18750000000000000       0.50000000000000000        0.0000000000000000     
  0.21875000000000000       0.50000000000000000        0.0000000000000000     
  0.25000000000000000       0.50000000000000000        0.0000000000000000     
  0.25000000000000000       0.37500000000000000        0.0000000000000000     
  0.28125000000000000       0.37500000000000000        0.0000000000000000     
  0.31250000000000000       0.37500000000000000        0.0000000000000000     
  0.34375000000000000       0.37500000000000000        0.0000000000000000     
  0.37500000000000000       0.37500000000000000        0.0000000000000000     
  0.25000000000000000       0.40625000000000000        0.0000000000000000     
  0.28125000000000000       0.40625000000000000        0.0000000000000000     
  0.31250000000000000       0.40625000000000000        0.0000000000000000     
  0.34375000000000000       0.40625000000000000        0.0000000000000000     
  0.37500000000000000       0.40625000000000000        0.0000000000000000     
  0.25000000000000000       0.43750000000000000        0.0000000000000000     
  0.28125000000000000       0.43750000000000000        0.0000000000000000     
  0.31250000000000000       0.43750000000000000        0.0000000000000000     
  0.34375000000000000       0.43750000000000000        0.0000000000000000     
  0.37500000000000000       0.43750000000000000        0.0000000000000000     
  0.25000000000000000       0.46875000000000000        0.0000000000000000     
  0.28125000000000000       0.46875000000000000        0.0000000000000000     
  0.31250000000000000       0.46875000000000000        0.0000000000000000     
  0.34375000000000000       0.46875000000000000        0.0000000000000000     
  0.37500000000000000       0.46875000000000000        0.0000000000000000     
  0.25000000000000000       0.50000000000000000        0.0000000000000000     
  0.28125000000000000       0.50000000000000000        0.0000000000000000     
  0.31250000000000000       0.50000000000000000        0.0000000000000000     
  0.34375000000000000       0.50000000000000000        0.0000000000000000     
  0.37500000000000000       0.50000000000000000        0.0000000000000000     
  0.37500000000000000       0.37500000000000000        0.0000000000000000     
  0.40625000000000000       0.37500000000000000        0.0000000000000000     
  0.43750000000000000       0.37500000000000000        0.0000000000000000     
  0.46875000000000000       0.37500000000000000        0.0000000000000000     
  0.50000000000000000       0.37500000000000000        0.0000000000000000     
  0.37500000000000000       0.40625000000000000        0.0000000000000000     
  0.40625000000000000       0.40625000000000000        0.0000000000000000     
  0.43750000000000000       0.40625000000000000        0.0000000000000000     
  0.46875000000000000       0.40625000000000000        0.0000000000000000     
  0.50000000000000000       0.40625000000000000        0.0000000000000000     
  0.37500000000000000       0.43750000000000000        0.0000000000000000     
  0.40625000000000000       0.43750000000000000        0.0000000000000000     
  0.43750000000000000       0.43750000000000000        0.0000000000000000     
  0.46875000000000000       0.43750000000000000        0.0000000000000000     
  0.50000000000000000       0.43750000000000000        0.0000000000000000     
  0.37500000000000000       0.46875000000000000        0.0000000000000000     
  0.40625000000000000       0.46875000000000000        0.0000000000000000     
  0.43750000000000000       0.46875000000000000        0.0000000000000000     
  0.46875000000000000       0.46875000000000000        0.0000000000000000     
  0.50000000000000000       0.46875000000000000        0.0000000000000000     
  0.37500000000000000       0.50000000000000000        0.0000000000000000     
  0.40625000000000000       0.50000000000000000        0.0000000000000000     
  0.43750000000000000       0.50000000000000000        0.0000000000000000     
  0.46875000000000000       0.50000000000000000        0.0000000000000000     
  0.50000000000000000       0.50000000000000000        0.0000000000000000     
  0.50000000000000000       0.37500000000000000        0.0000000000000000     
  0.53125000000000000       0.37500000000000000        0.0000000000000000     
  0.56250000000000000       0.37500000000000000        0.0000000000000000     
  0.59375000000000000       0.37500000000000000        0.0000000000000000     
  0.62500000000000000       0.37500000000000000        0.0000000000000000     
  0.50000000000000000       0.40625000000000000        0.0000000000000000     
  0.53125000000000000       0.40625000000000000        0.0000000000000000     
  0.56250000000000000       0.40625000000000000        0.0000000000000000     
  0.59375000000000000       0.40625000000000000        0.0000000000000000     
  0.62500000000000000       0.40625000000000000        0.0000000000000000     
  0.50000000000000000       0.43750000000000000        0.0000000000000000     
  0.53125000000000000       0.43750000000000000        0.0000000000000000     
  0.56250000000000000       0.43750000000000000        0.0000000000000000     
  0.59375000000000000       0.43750000000000000        0.0000000000000000     
  0.62500000000000000       0.43750000000000000        0.0000000000000000     
  0.50000000000000000       0.46875000000000000        0.0000000000000000     
  0.53125000000000000       0.46875000000000000        0.0000000000000000     
  0.56250000000000000       0.46875000000000000        0.0000000000000000     
  0.59375000000000000       0.46875000000000000        0.0000000000000000     
  0.62500000000000000       0.46875000000000000        0.0000000000000000     
  0.50000000000000000       0.50000000000000000        0.0000000000000000     
  0.53125000000000000       0.50000000000000000        0.0000000000000000     
  0.56250000000000000       0.50000000000000000        0.0000000000000000     
  0.59375000000000000       0.50000000000000000        0.0000000000000000     
  0.62500000000000000       0.50000000000000000        0.0000000000000000     
  0.62500000000000000       0.37500000000000000        0.0000000000000000     
  0.65625000000000000       0.37500000000000000        0.0000000000000000     
  0.68750000000000000       0.37500000000000000        0.0000000000000000     
  0.71875000000000000       0.37500000000000000        0.0000000000000000     
  0.75000000000000000       0.37500000000000000        0.0000000000000000     
  0.62500000000000000       0.40625000000000000        0.0000000000000000     
  0.65625000000000000       0.40625000000000000        0.0000000000000000     
  0.68750000000000000       0.40625000000000000        0.0000000000000000     
  0.71875000000000000       0.40625000000000000        0.0000000000000000     
  0.75000000000000000       0.40625000000000000        0.0000000000000000     
  0.62500000000000000       0.43750000000000000        0.0000000000000000     
  0.65625000000000000       0.43750000000000000        0.0000000000000000     
  0.68750000000000000       0.43750000000000000        0.0000000000000000     
  0.71875000000000000       0.43750000000000000        0.0000000000000000     
  0.75000000000000000       0.43750000000000000        0.0000000000000000     
  0.62500000000000000       0.46875000000000000        0.0000000000000000     
  0.65625000000000000       0.46875000000000000        0.0000000000000000     
  0.68750000000000000       0.46875000000000000        0.0000000000000000     
  0.71875000000000000       0.46875000000000000        0.0000000000000000     
  0.75000000000000000       0.46875000000000000        0.0000000000000000     
  0.62500000000000000       0.50000000000000000        0.0000000000000000     
  0.65625000000000000       0.50000000000000000        0.0000000000000000     
  0.68750000000000000       0.50000000000000000        0.0000000000000000     
  0.71875000000000000       0.50000000000000000        0.0000000000000000     
  0.75000000000000000       0.50000000000000000        0.0000000000000000     
  0.75000000000000000       0.37500000000000000        0.0000000000000000     
  0.78125000000000000       0.37500000000000000        0.0000000000000000     
  0.81250000000000000       0.37500000000000000        0.0000000000000000     
  0.84375000000000000       0.37500000000000000        0.0000000000000000     
  0.87500000000000000       0.37500000000000000        0.0000000000000000     
  0.75000000000000000       0.40625000000000000        0.0000000000000000     
  0.78125000000000000       0.40625000000000000        0.0000000000000000     
  0.81250000000000000       0.40625000000000000        0.0000000000000000     
  0.84375000000000000       0.40625000000000000        0.0000000000000000     
  0.87500000000000000       0.40625000000000000        0.0000000000000000     
  0.75000000000000000       0.43750000000000000        0.0000000000000000     
  0.78125000000000000       0.43750000000000000        0.0000000000000000     
  0.81250000000000000       0.43750000000000000        0.0000000000000000     
  0.84375000000000000       0.43750000000000000        0.0000000000000000     
  0.87500000000000000       0.43750000000000000        0.0000000000000000     
  0.75000000000000000       0.46875000000000000        0.0000000000000000     
  0.78125000000000000       0.46875000000000000        0.0000000000000000     
  0.81250000000000000       0.46875000000000000        0.0000000000000000     
  0.84375000000000000       0.46875000000000000        0.0000000000000000     
  0.87500000000000000       0.46875000000000000        0.0000000000000000     
  0.75000000000000000       0.50000000000000000        0.0000000000000000     
  0.78125000000000000       0.50000000000000000        0.0000000000000000     
  0.81250000000000000       0.50000000000000000        0.0000000000000000     
  0.84375000000000000       0.50000000000000000        0.0000000000000000     
  0.87500000000000000       0.50000000000000000        0.0000000000000000     
  0.87500000000000000       0.37500000000000000        0.0000000000000000     
  0.90625000000000000       0.37500000000000000        0.0000000000000000     
  0.93750000000000000       0.37500000000000000        0.0000000000000000     
  0.96875000000000000       0.37500000000000000        0.0000000000000000     
   1.0000000000000000       0.37500000000000000        0.0000000000000000     
  0.87500000000000000       0.40625000000000000        0.0000000000000000     
  0.90625000000000000       0.40625000000000000        0.0000000000000000     
  0.93750000000000000       0.40625000000000000        0.0000000000000000     
  0.96875000000000000       0.40625000000000000        0.0000000000000000     
   1.0000000000000000       0.40625000000000000        0.0000000000000000     
  0.87500000000000000       0.43750000000000000        0.0000000000000000     
  0.90625000000000000       0.43750000000000000        0.0000000000000000     
  0.93750000000000000       0.43750000000000000        0.0000000000000000     
  0.96875000000000000       0.43750000000000000        0.0000000000000000     
   1.0000000000000000       0.43750000000000000        0.0000000000000000     
  0.87500000000000000       0.46875000000000000        0.0000000000000000     
  0.90625000000000000       0.46875000000000000        0.0000000000000000     
  0.93750000000000000       0.46875000000000000        0.0000000000000000     
  0.96875000000000000       0.46875000000000000        0.0000000000000000     
   1.0000000000000000       0.46875000000000000        0.0000000000000000     
  0.87500000000000000       0.50000000000000000        0.0000000000000000     
  0.90625000000000000       0.50000000000000000        0.0000000000000000     
  0.93750000000000000       0.50000000000000000        0.0000000000000000     
  0.96875000000000000       0.50000000000000000        0.0000000000000000     
   1.0000000000000000       0.50000000000000000        0.0000000000000000     
   0.0000000000000000       0.50000000000000000        0.0000000000000000     
   3.1250000000000000E-002  0.50000000000000000        0.0000000000000000     
   6.2500000000000000E-002  0.50000000000000000        0.0000000000000000     
   9.3750000000000000E-002  0.50000000000000000        0.0000000000000000     
  0.12500000000000000       0.50000000000000000        0.0000000000000000     
   0.0000000000000000       0.53125000000000000        0.0000000000000000     
   3.1250000000000000E-002  0.53125000000000000        0.0000000000000000     
   6.2500000000000000E-002  0.53125000000000000        0.0000000000000000     
   9.3750000000000000E-002  0.53125000000000000        0.0000000000000000     
  0.12500000000000000       0.53125000000000000        0.0000000000000000     
   0.0000000000000000       0.56250000000000000        0.0000000000000000     
   3.1250000000000000E-002  0.56250000000000000        0.0000000000000000     
   6.2500000000000000E-002  0.56250000000000000        0.0000000000000000     
   9.3750000000000000E-002  0.56250000000000000        0.0000000000000000     
  0.12500000000000000       0.56250000000000000        0.0000000000000000     
   0.0000000000000000       0.59375000000000000        0.0000000000000000     
   3.1250000000000000E-002  0.59375000000000000        0.0000000000000000     
   6.2500000000000000E-002  0.59375000000000000        0.0000000000000000     
   9.3750000000000000E-002  0.59375000000000000        0.0000000000000000     
  0.12500000000000000       0.59375000000000000        0.0000000000000000     
   0.0000000000000000       0.62500000000000000        0.0000000000000000     
   3.1250000000000000E-002  0.62500000000000000        0.0000000000000000     
   6.2500000000000000E-002  0.62500000000000000        0.0000000000000000     
   9.3750000000000000E-002  0.62500000000000000        0.0000000000000000     
  0.12500000000000000       0.62500000000000000        0.0000000000000000     
  0.12500000000000000       0.50000000000000000        0.0000000000000000     
  0.15625000000000000       0.50000000000000000        0.0000000000000000     
  0.18750000000000000       0.50000000000000000        0.0000000000000000     
  0.21875000000000000       0.50000000000000000        0.0000000000000000     
  0.25000000000000000       0.50000000000000000        0.0000000000000000     
  0.12500000000000000       0.53125000000000000        0.0000000000000000     
  0.15625000000000000       0.53125000000000000        0.0000000000000000     
  0.18750000000000000       0.53125000000000000        0.0000000000000000     
  0.21875000000000000       0.53125000000000000        0.0000000000000000     
  0.25000000000000000       0.53125000000000000        0.0000000000000000     
  0.12500000000000000       0.56250000000000000        0.0000000000000000     
  0.15625000000000000       0.56250000000000000        0.0000000000000000     
  0.18750000000000000       0.56250000000000000        0.0000000000000000     
  0.21875000000000000       0.56250000000000000        0.0000000000000000     
  0.25000000000000000       0.56250000000000000        0.0000000000000000     
  0.12500000000000000       0.59375000000000000        0.0000000000000000     
  0.15625000000000000       0.59375000000000000        0.0000000000000000     
  0.18750000000000000       0.59375000000000000        0.0000000000000000     
  0.21875000000000000       0.59375000000000000        0.0000000000000000     
  0.25000000000000000       0.59375000000000000        0.0000000000000000     
  0.12500000000000000       0.62500000000000000        0.0000000000000000     
  0.15625000000000000       0.62500000000000000        0.0000000000000000     
  0.18750000000000000       0.62500000000000000        0.0000000000000000     
  0.21875000000000000       0.62500000000000000        0.0000000000000000     
  0.25000000000000000       0.62500000000000000        0.0000000000000000     
  0.25000000000000000       0.50000000000000000        0.0000000000000000     
  0.28125000000000000       0.50000000000000000        0.0000000000000000     
  0.31250000000000000       0.50000000000000000        0.0000000000000000     
  0.34375000000000000       0.50000000000000000        0.0000000000000000     
  0.37500000000000000       0.50000000000000000        0.0000000000000000     
  0.25000000000000000       0.53125000000000000        0.0000000000000000     
  0.28125000000000000       0.53125000000000000        0.0000000000000000     
  0.31250000000000000       0.53125000000000000        0.0000000000000000     
  0.34375000000000000       0.53125000000000000        0.0000000000000000     
  0.37500000000000000       0.53125000000000000        0.0000000000000000     
  0.25000000000000000       0.56250000000000000        0.0000000000000000     
  0.28125000000000000       0.56250000000000000        0.0000000000000000     
  0.31250000000000000       0.56250000000000000        0.0000000000000000     
  0.34375000000000000       0.56250000000000000        0.0000000000000000     
  0.37500000000000000       0.56250000000000000        0.0000000000000000     
  0.25000000000000000       0.59375000000000000        0.0000000000000000     
  0.28125000000000000       0.59375000000000000        0.0000000000000000     
  0.31250000000000000       0.59375000000000000        0.0000000000000000     
  0.34375000000000000       0.59375000000000000        0.0000000000000000     
  0.37500000000000000       0.59375000000000000        0.0000000000000000     
  0.25000000000000000       0.62500000000000000        0.0000000000000000     
  0.28125000000000000       0.62500000000000000        0.0000000000000000     
  0.31250000000000000       0.62500000000000000        0.0000000000000000     
  0.34375000000000000       0.62500000000000000        0.0000000000000000     
  0.37500000000000000       0.62500000000000000        0.0000000000000000     
  0.37500000000000000       0.50000000000000000        0.0000000000000000     
  0.40625000000000000       0.50000000000000000        0.0000000000000000     
  0.43750000000000000       0.50000000000000000        0.0000000000000000     
  0.46875000000000000       0.50000000000000000        0.0000000000000000     
  0.50000000000000000       0.50000000000000000        0.0000000000000000     
  0.37500000000000000       0.53125000000000000        0.0000000000000000     
  0.40625000000000000       0.53125000000000000        0.0000000000000000     
  0.43750000000000000       0.53125000000000000        0.0000000000000000     
  0.46875000000000000       0.53125000000000000        0.0000000000000000     
  0.50000000000000000       0.53125000000000000        0.0000000000000000     
  0.37500000000000000       0.56250000000000000        0.0000000000000000     
  0.40625000000000000       0.56250000000000000        0.0000000000000000     
  0.43750000000000000       0.56250000000000000        0.0000000000000000     
  0.46875000000000000       0.56250000000000000        0.0000000000000000     
  0.50000000000000000       0.56250000000000000        0.0000000000000000     
  0.37500000000000000       0.59375000000000000        0.0000000000000000     
  0.40625000000000000       0.59375000000000000        0.0000000000000000     
  0.43750000000000000       0.59375000000000000        0.0000000000000000     
  0.46875000000000000       0.59375000000000000        0.0000000000000000     
  0.50000000000000000       0.59375000000000000        0.0000000000000000     
  0.37500000000000000       0.62500000000000000        0.0000000000000000     
  0.40625000000000000       0.62500000000000000        0.0000000000000000     
  0.43750000000000000       0.62500000000000000        0.0000000000000000     
  0.46875000000000000       0.62500000000000000        0.0000000000000000     
  0.50000000000000000       0.62500000000000000        0.0000000000000000     
  0.50000000000000000       0.50000000000000000        0.0000000000000000     
  0.53125000000000000       0.50000000000000000        0.0000000000000000     
  0.56250000000000000       0.50000000000000000        0.0000000000000000     
  0.59375000000000000       0.50000000000000000        0.0000000000000000     
  0.62500000000000000       0.50000000000000000        0.0000000000000000     
  0.50000000000000000       0.53125000000000000        0.0000000000000000     
  0.53125000000000000       0.53125000000000000        0.0000000000000000     
  0.56250000000000000       0.53125000000000000        0.0000000000000000     
  0.59375000000000000       0.53125000000000000        0.0000000000000000     
  0.62500000000000000       0.53125000000000000        0.0000000000000000     
  0.50000000000000000       0.56250000000000000        0.0000000000000000     
  0.53125000000000000       0.56250000000000000        0.0000000000000000     
  0.56250000000000000       0.56250000000000000        0.0000000000000000     
  0.59375000000000000       0.56250000000000000        0.0000000000000000     
  0.62500000000000000       0.56250000000000000        0.0000000000000000     
  0.50000000000000000       0.59375000000000000        0.0000000000000000     
  0.53125000000000000       0.59375000000000000        0.0000000000000000     
  0.56250000000000000       0.59375000000000000        0.0000000000000000     
  0.59375000000000000       0.59375000000000000        0.0000000000000000     
  0.62500000000000000       0.59375000000000000        0.0000000000000000     
  0.50000000000000000       0.62500000000000000        0.0000000000000000     
  0.53125000000000000       0.62500000000000000        0.0000000000000000     
  0.56250000000000000       0.62500000000000000        0.0000000000000000     
  0.59375000000000000       0.62500000000000000        0.0000000000000000     
  0.62500000000000000       0.62500000000000000        0.0000000000000000     
  0.62500000000000000       0.50000000000000000        0.0000000000000000     
  0.65625000000000000       0.50000000000000000        0.0000000000000000     
  0.68750000000000000       0.50000000000000000        0.0000000000000000     
  0.71875000000000000       0.50000000000000000        0.0000000000000000     
  0.75000000000000000       0.50000000000000000        0.0000000000000000     
  0.62500000000000000       0.53125000000000000        0.0000000000000000     
  0.65625000000000000       0.53125000000000000        0.0000000000000000     
  0.68750000000000000       0.53125000000000000        0.0000000000000000     
  0.71875000000000000       0.53125000000000000        0.0000000000000000     
  0.75000000000000000       0.53125000000000000        0.0000000000000000     
  0.62500000000000000       0.56250000000000000        0.0000000000000000     
  0.65625000000000000       0.56250000000000000        0.0000000000000000     
  0.68750000000000000       0.56250000000000000        0.0000000000000000     
  0.71875000000000000       0.56250000000000000        0.0000000000000000     
  0.75000000000000000       0.56250000000000000        0.0000000000000000     
  0.62500000000000000       0.59375000000000000        0.0000000000000000     
  0.65625000000000000       0.59375000000000000        0.0000000000000000     
  0.68750000000000000       0.59375000000000000        0.0000000000000000     
  0.71875000000000000       0.59375000000000000        0.0000000000000000     
  0.75000000000000000       0.59375000000000000        0.0000000000000000     
  0.62500000000000000       0.62500000000000000        0.0000000000000000     
  0.65625000000000000       0.62500000000000000        0.0000000000000000     
  0.68750000000000000       0.62500000000000000        0.0000000000000000     
  0.71875000000000000       0.62500000000000000        0.0000000000000000     
  0.75000000000000000       0.62500000000000000        0.0000000000000000     
  0.75000000000000000       0.50000000000000000        0.0000000000000000     
  0.78125000000000000       0.50000000000000000        0.0000000000000000     
  0.81250000000000000       0.50000000000000000        0.0000000000000000     
  0.84375000000000000       0.50000000000000000        0.0000000000000000     
  0.87500000000000000       0.50000000000000000        0.0000000000000000     
  0.75000000000000000       0.53125000000000000        0.0000000000000000     
  0.78125000000000000       0.53125000000000000        0.0000000000000000     
  0.81250000000000000       0.53125000000000000        0.0000000000000000     
  0.84375000000000000       0.53125000000000000        0.0000000000000000     
  0.87500000000000000       0.53125000000000000        0.0000000000000000     
  0.75000000000000000       0.56250000000000000        0.0000000000000000     
  0.78125000000000000       0.56250000000000000        0.0000000000000000     
  0.81250000000000000       0.56250000000000000        0.0000000000000000     
  0.84375000000000000       0.56250000000000000        0.0000000000000000     
  0.87500000000000000       0.56250000000000000        0.0000000000000000     
  0.75000000000000000       0.59375000000000000        0.0000000000000000     
  0.78125000000000000       0.59375000000000000        0.0000000000000000     
  0.81250000000000000       0.59375000000000000        0.0000000000000000     
  0.84375000000000000       0.59375000000000000        0.0000000000000000     
  0.87500000000000000       0.59375000000000000        0.0000000000000000     
  0.75000000000000000       0.62500000000000000        0.0000000000000000     
  0.78125000000000000       0.62500000000000000        0.0000000000000000     
  0.81250000000000000       0.62500000000000000        0.0000000000000000     
  0.84375000000000000       0.62500000000000000        0.0000000000000000     
  0.87500000000000000       0.62500000000000000        0.0000000000000000     
  0.87500000000000000       0.50000000000000000        0.0000000000000000     
  0.90625000000000000       0.50000000000000000        0.0000000000000000     
  0.93750000000000000       0.50000000000000000        0.0000000000000000     
  0.96875000000000000       0.50000000000000000        0.0000000000000000     
   1.0000000000000000       0.50000000000000000        0.0000000000000000     
  0.87500000000000000       0.53125000000000000        0.0000000000000000     
  0.90625000000000000       0.53125000000000000        0.0000000000000000     
  0.93750000000000000       0.53125000000000000        0.0000000000000000     
  0.96875000000000000       0.53125000000000000        0.0000000000000000     
   1.0000000000000000       0.53125000000000000        0.0000000000000000     
  0.87500000000000000       0.56250000000000000        0.0000000000000000     
  0.90625000000000000       0.56250000000000000        0.0000000000000000     
  0.93750000000000000       0.56250000000000000        0.0000000000000000     
  0.96875000000000000       0.56250000000000000        0.0000000000000000     
   1.0000000000000000       0.56250000000000000        0.0000000000000000     
  0.87500000000000000       0.59375000000000000        0.0000000000000000     
  0.90625000000000000       0.59375000000000000        0.0000000000000000     
  0.93750000000000000       0.59375000000000000        0.0000000000000000     
  0.96875000000000000       0.59375000000000000        0.0000000000000000     
   1.0000000000000000       0.59375000000000000        0.0000000000000000     
  0.87500000000000000       0.62500000000000000        0.0000000000000000     
  0.90625000000000000       0.62500000000000000        0.0000000000000000     
  0.93750000000000000       0.62500000000000000        0.0000000000000000     
  0.96875000000000000       0.62500000000000000        0.0000000000000000     
   1.0000000000000000       0.62500000000000000        0.0000000000000000     
   0.0000000000000000       0.62500000000000000        0.0000000000000000     
   3.1250000000000000E-002  0.62500000000000000        0.0000000000000000     
   6.2500000000000000E-002  0.62500000000000000        0.0000000000000000     
   9.3750000000000000E-002  0.62500000000000000        0.0000000000000000     
  0.12500000000000000       0.62500000000000000        0.0000000000000000     
   0.0000000000000000       0.65625000000000000        0.0000000000000000     
   3.1250000000000000E-002  0.65625000000000000        0.0000000000000000     
   6.2500000000000000E-002  0.65625000000000000        0.0000000000000000     
   9.3750000000000000E-002  0.65625000000000000        0.0000000000000000     
  0.12500000000000000       0.65625000000000000        0.0000000000000000     
   0.0000000000000000       0.68750000000000000        0.0000000000000000     
   3.1250000000000000E-002  0.68750000000000000        0.0000000000000000     
   6.2500000000000000E-002  0.68750000000000000        0.0000000000000000     
   9.3750000000000000E-002  0.68750000000000000        0.0000000000000000     
  0.12500000000000000       0.68750000000000000        0.0000000000000000     
   0.0000000000000000       0.71875000000000000        0.0000000000000000     
   3.1250000000000000E-002  0.71875000000000000        0.0000000000000000     
   6.2500000000000000E-002  0.71875000000000000        0.0000000000000000     
   9.3750000000000000E-002  0.71875000000000000        0.0000000000000000     
  0.12500000000000000       0.71875000000000000        0.0000000000000000     
   0.0000000000000000       0.75000000000000000        0.0000000000000000     
   3.1250000000000000E-002  0.75000000000000000        0.0000000000000000     
   6.2500000000000000E-002  0.75000000000000000        0.0000000000000000     
   9.3750000000000000E-002  0.75000000000000000        0.0000000000000000     
  0.12500000000000000       0.75000000000000000        0.0000000000000000     
  0.12500000000000000       0.62500000000000000        0.0000000000000000     
  0.15625000000000000       0.62500000000000000        0.0000000000000000     
  0.18750000000000000       0.62500000000000000        0.0000000000000000     
  0.21875000000000000       0.62500000000000000        0.0000000000000000     
  0.25000000000000000       0.62500000000000000        0.0000000000000000     
  0.12500000000000000       0.65625000000000000        0.0000000000000000     
  0.15625000000000000       0.65625000000000000        0.0000000000000000     
  0.18750000000000000       0.65625000000000000        0.0000000000000000     
  0.21875000000000000       0.65625000000000000        0.0000000000000000     
  0.25000000000000000       0.65625000000000000        0.0000000000000000     
  0.12500000000000000       0.68750000000000000        0.0000000000000000     
  0.15625000000000000       0.68750000000000000        0.0000000000000000     
  0.18750000000000000       0.68750000000000000        0.0000000000000000     
  0.21875000000000000       0.68750000000000000        0.0000000000000000     
  0.25000000000000000       0.68750000000000000        0.0000000000000000     
  0.12500000000000000       0.71875000000000000        0.0000000000000000     
  0.15625000000000000       0.71875000000000000        0.0000000000000000     
  0.18750000000000000       0.71875000000000000        0.0000000000000000     
  0.21875000000000000       0.71875000000000000        0.0000000000000000     
  0.25000000000000000       0.71875000000000000        0.0000000000000000     
  0.12500000000000000       0.75000000000000000        0.0000000000000000     
  0.15625000000000000       0.75000000000000000        0.0000000000000000     
  0.18750000000000000       0.75000000000000000        0.0000000000000000     
  0.21875000000000000       0.75000000000000000        0.0000000000000000     
  0.25000000000000000       0.75000000000000000        0.0000000000000000     
  0.25000000000000000       0.62500000000000000        0.0000000000000000     
  0.28125000000000000       0.62500000000000000        0.0000000000000000     
  0.31250000000000000       0.62500000000000000        0.0000000000000000     
  0.34375000000000000       0.62500000000000000        0.0000000000000000     
  0.37500000000000000       0.62500000000000000        0.0000000000000000     
  0.25000000000000000       0.65625000000000000        0.0000000000000000     
  0.28125000000000000       0.65625000000000000        0.0000000000000000     
  0.31250000000000000       0.65625000000000000        0.0000000000000000     
  0.34375000000000000       0.65625000000000000        0.0000000000000000     
  0.37500000000000000       0.65625000000000000        0.0000000000000000     
  0.25000000000000000       0.68750000000000000        0.0000000000000000     
  0.28125000000000000       0.68750000000000000        0.0000000000000000     
  0.31250000000000000       0.68750000000000000        0.0000000000000000     
  0.34375000000000000       0.68750000000000000        0.0000000000000000     
  0.37500000000000000       0.68750000000000000        0.0000000000000000     
  0.25000000000000000       0.71875000000000000        0.0000000000000000     
  0.28125000000000000       0.71875000000000000        0.0000000000000000     
  0.31250000000000000       0.71875000000000000        0.0000000000000000     
  0.34375000000000000       0.71875000000000000        0.0000000000000000     
  0.37500000000000000       0.71875000000000000        0.0000000000000000     
  0.25000000000000000       0.75000000000000000        0.0000000000000000     
  0.28125000000000000       0.75000000000000000        0.0000000000000000     
  0.31250000000000000       0.75000000000000000        0.0000000000000000     
  0.34375000000000000       0.75000000000000000        0.0000000000000000     
  0.37500000000000000       0.75000000000000000        0.0000000000000000     
  0.37500000000000000       0.62500000000000000        0.0000000000000000     
  0.40625000000000000       0.62500000000000000        0.0000000000000000     
  0.43750000000000000       0.62500000000000000        0.0000000000000000     
  0.46875000000000000       0.62500000000000000        0.0000000000000000     
  0.50000000000000000       0.62500000000000000        0.0000000000000000     
  0.37500000000000000       0.65625000000000000        0.0000000000000000     
  0.40625000000000000       0.65625000000000000        0.0000000000000000     
  0.43750000000000000       0.65625000000000000        0.0000000000000000     
  0.46875000000000000       0.65625000000000000        0.0000000000000000     
  0.50000000000000000       0.65625000000000000        0.0000000000000000     
  0.37500000000000000       0.68750000000000000        0.0000000000000000     
  0.40625000000000000       0.68750000000000000        0.0000000000000000     
  0.43750000000000000       0.68750000000000000        0.0000000000000000     
  0.46875000000000000       0.68750000000000000        0.0000000000000000     
  0.50000000000000000       0.68750000000000000        0.0000000000000000     
  0.37500000000000000       0.71875000000000000        0.0000000000000000     
  0.40625000000000000       0.71875000000000000        0.0000000000000000     
  0.43750000000000000       0.71875000000000000        0.0000000000000000     
  0.46875000000000000       0.71875000000000000        0.0000000000000000     
  0.50000000000000000       0.71875000000000000        0.0000000000000000     
  0.37500000000000000       0.75000000000000000        0.0000000000000000     
  0.40625000000000000       0.75000000000000000        0.0000000000000000     
  0.43750000000000000       0.75000000000000000        0.0000000000000000     
  0.46875000000000000       0.75000000000000000        0.0000000000000000     
  0.50000000000000000       0.75000000000000000        0.0000000000000000     
  0.50000000000000000       0.62500000000000000        0.0000000000000000     
  0.53125000000000000       0.62500000000000000        0.0000000000000000     
  0.56250000000000000       0.62500000000000000        0.0000000000000000     
  0.59375000000000000       0.62500000000000000        0.0000000000000000     
  0.62500000000000000       0.62500000000000000        0.0000000000000000     
  0.50000000000000000       0.65625000000000000        0.0000000000000000     
  0.53125000000000000       0.65625000000000000        0.0000000000000000     
  0.56250000000000000       0.65625000000000000        0.0000000000000000     
  0.59375000000000000       0.65625000000000000        0.0000000000000000     
  0.62500000000000000       0.65625000000000000        0.0000000000000000     
  0.50000000000000000       0.68750000000000000        0.0000000000000000     
  0.53125000000000000       0.68750000000000000        0.0000000000000000     
  0.56250000000000000       0.68750000000000000        0.0000000000000000     
  0.59375000000000000       0.68750000000000000        0.0000000000000000     
  0.62500000000000000       0.68750000000000000        0.0000000000000000     
  0.50000000000000000       0.71875000000000000        0.0000000000000000     
  0.53125000000000000       0.71875000000000000        0.0000000000000000     
  0.56250000000000000       0.71875000000000000        0.0000000000000000     
  0.59375000000000000       0.71875000000000000        0.0000000000000000     
  0.62500000000000000       0.71875000000000000        0.0000000000000000     
  0.50000000000000000       0.75000000000000000        0.0000000000000000     
  0.53125000000000000       0.75000000000000000        0.0000000000000000     
  0.56250000000000000       0.75000000000000000        0.0000000000000000     
  0.59375000000000000       0.75000000000000000        0.0000000000000000     
  0.62500000000000000       0.75000000000000000        0.0000000000000000     
  0.62500000000000000       0.62500000000000000        0.0000000000000000     
  0.65625000000000000       0.62500000000000000        0.0000000000000000     
  0.68750000000000000       0.62500000000000000        0.0000000000000000     
  0.71875000000000000       0.62500000000000000        0.0000000000000000     
  0.75000000000000000       0.62500000000000000        0.0000000000000000     
  0.62500000000000000       0.65625000000000000        0.0000000000000000     
  0.65625000000000000       0.65625000000000000        0.0000000000000000     
  0.68750000000000000       0.65625000000000000        0.0000000000000000     
  0.71875000000000000       0.65625000000000000        0.0000000000000000     
  0.75000000000000000       0.65625000000000000        0.0000000000000000     
  0.62500000000000000       0.68750000000000000        0.0000000000000000     
  0.65625000000000000       0.68750000000000000        0.0000000000000000     
  0.68750000000000000       0.68750000000000000        0.0000000000000000     
  0.71875000000000000       0.68750000000000000        0.0000000000000000     
  0.75000000000000000       0.68750000000000000        0.0000000000000000     
  0.62500000000000000       0.71875000000000000        0.0000000000000000     
  0.65625000000000000       0.71875000000000000        0.0000000000000000     
  0.68750000000000000       0.71875000000000000        0.0000000000000000     
  0.71875000000000000       0.71875000000000000        0.0000000000000000     
  0.75000000000000000       0.71875000000000000        0.0000000000000000     
  0.62500000000000000       0.75000000000000000        0.0000000000000000     
  0.65625000000000000       0.75000000000000000        0.0000000000000000     
  0.68750000000000000       0.75000000000000000        0.0000000000000000     
  0.71875000000000000       0.75000000000000000        0.0000000000000000     
  0.75000000000000000       0.75000000000000000        0.0000000000000000     
  0.75000000000000000       0.62500000000000000        0.0000000000000000     
  0.78125000000000000       0.62500000000000000        0.0000000000000000     
  0.81250000000000000       0.62500000000000000        0.0000000000000000     
  0.84375000000000000       0.62500000000000000        0.0000000000000000     
  0.87500000000000000       0.62500000000000000        0.0000000000000000     
  0.75000000000000000       0.65625000000000000        0.0000000000000000     
  0.78125000000000000       0.65625000000000000        0.0000000000000000     
  0.81250000000000000       0.65625000000000000        0.0000000000000000     
  0.84375000000000000       0.65625000000000000        0.0000000000000000     
  0.87500000000000000       0.65625000000000000        0.0000000000000000     
  0.75000000000000000       0.68750000000000000        0.0000000000000000     
  0.78125000000000000       0.68750000000000000        0.0000000000000000     
  0.81250000000000000       0.68750000000000000        0.0000000000000000     
  0.84375000000000000       0.68750000000000000        0.0000000000000000     
  0.87500000000000000       0.68750000000000000        0.0000000000000000     
  0.75000000000000000       0.71875000000000000        0.0000000000000000     
  0.78125000000000000       0.71875000000000000        0.0000000000000000     
  0.81250000000000000       0.71875000000000000        0.0000000000000000     
  0.84375000000000000       0.71875000000000000        0.0000000000000000     
  0.87500000000000000       0.71875000000000000        0.0000000000000000     
  0.75000000000000000       0.75000000000000000        0.0000000000000000     
  0.78125000000000000       0.75000000000000000        0.0000000000000000     
  0.81250000000000000       0.75000000000000000        0.0000000000000000     
  0.84375000000000000       0.75000000000000000        0.0000000000000000     
  0.87500000000000000       0.75000000000000000        0.0000000000000000     
  0.87500000000000000       0.62500000000000000        0.0000000000000000     
  0.90625000000000000       0.62500000000000000        0.0000000000000000     
  0.93750000000000000       0.62500000000000000        0.0000000000000000     
  0.96875000000000000       0.62500000000000000        0.0000000000000000     
   1.0000000000000000       0.62500000000000000        0.0000000000000000     
  0.87500000000000000       0.65625000000000000        0.0000000000000000     
  0.90625000000000000       0.65625000000000000        0.0000000000000000     
  0.93750000000000000       0.65625000000000000        0.0000000000000000     
  0.96875000000000000       0.65625000000000000        0.0000000000000000     
   1.0000000000000000       0.65625000000000000        0.0000000000000000     
  0.87500000000000000       0.68750000000000000        0.0000000000000000     
  0.90625000000000000       0.68750000000000000        0.0000000000000000     
  0.93750000000000000       0.68750000000000000        0.0000000000000000     
  0.96875000000000000       0.68750000000000000        0.0000000000000000     
   1.0000000000000000       0.68750000000000000        0.0000000000000000     
  0.87500000000000000       0.71875000000000000        0.0000000000000000     
  0.90625000000000000       0.71875000000000000        0.0000000000000000     
  0.93750000000000000       0.71875000000000000        0.0000000000000000     
  0.96875000000000000       0.71875000000000000        0.0000000000000000     
   1.0000000000000000       0.71875000000000000        0.0000000000000000     
  0.87500000000000000       0.75000000000000000        0.0000000000000000     
  0.90625000000000000       0.75000000000000000        0.0000000000000000     
  0.93750000000000000       0.75000000000000000        0.0000000000000000     
  0.96875000000000000       0.75000000000000000        0.0000000000000000     
   1.0000000000000000       0.75000000000000000        0.0000000000000000     
   0.0000000000000000       0.75000000000000000        0.0000000000000000     
   3.1250000000000000E-002  0.75000000000000000        0.0000000000000000     
   6.2500000000000000E-002  0.75000000000000000        0.0000000000000000     
   9.3750000000000000E-002  0.75000000000000000        0.0000000000000000     
  0.12500000000000000       0.75000000000000000        0.0000000000000000     
   0.0000000000000000       0.78125000000000000        0.0000000000000000     
   3.1250000000000000E-002  0.78125000000000000        0.0000000000000000     
   6.2500000000000000E-002  0.78125000000000000        0.0000000000000000     
   9.3750000000000000E-002  0.78125000000000000        0.0000000000000000     
  0.12500000000000000       0.78125000000000000        0.0000000000000000     
   0.0000000000000000       0.81250000000000000        0.0000000000000000     
   3.1250000000000000E-002  0.81250000000000000        0.0000000000000000     
   6.2500000000000000E-002  0.81250000000000000        0.0000000000000000     
   9.3750000000000000E-002  0.81250000000000000        0.0000000000000000     
  0.12500000000000000       0.81250000000000000        0.0000000000000000     
   0.0000000000000000       0.84375000000000000        0.0000000000000000     
   3.1250000000000000E-002  0.84375000000000000        0.0000000000000000     
   6.2500000000000000E-002  0.84375000000000000        0.0000000000000000     
   9.3750000000000000E-002  0.84375000000000000        0.0000000000000000     
  0.12500000000000000       0.84375000000000000        0.0000000000000000     
   0.0000000000000000       0.87500000000000000        0.0000000000000000     
   3.1250000000000000E-002  0.87500000000000000        0.0000000000000000     
   6.2500000000000000E-002  0.87500000000000000        0.0000000000000000     
   9.3750000000000000E-002  0.87500000000000000        0.0000000000000000     
  0.12500000000000000       0.87500000000000000        0.0000000000000000     
  0.12500000000000000       0.75000000000000000        0.0000000000000000     
  0.15625000000000000       0.75000000000000000        0.0000000000000000     
  0.18750000000000000       0.75000000000000000        0.0000000000000000     
  0.21875000000000000       0.75000000000000000        0.0000000000000000     
  0.25000000000000000       0.75000000000000000        0.0000000000000000     
  0.12500000000000000       0.78125000000000000        0.0000000000000000     
  0.15625000000000000       0.78125000000000000        0.0000000000000000     
  0.18750000000000000       0.78125000000000000        0.0000000000000000     
  0.21875000000000000       0.78125000000000000        0.0000000000000000     
  0.25000000000000000       0.78125000000000000        0.0000000000000000     
  0.12500000000000000       0.81250000000000000        0.0000000000000000     
  0.15625000000000000       0.81250000000000000        0.0000000000000000     
  0.18750000000000000       0.81250000000000000        0.0000000000000000     
  0.21875000000000000       0.81250000000000000        0.0000000000000000     
  0.25000000000000000       0.81250000000000000        0.0000000000000000     
  0.12500000000000000       0.84375000000000000        0.0000000000000000     
  0.15625000000000000       0.84375000000000000        0.0000000000000000     
  0.18750000000000000       0.84375000000000000        0.0000000000000000     
  0.21875000000000000       0.84375000000000000        0.0000000000000000     
  0.25000000000000000       0.84375000000000000        0.0000000000000000     
  0.12500000000000000       0.87500000000000000        0.0000000000000000     
  0.15625000000000000       0.87500000000000000        0.0000000000000000     
  0.18750000000000000       0.87500000000000000        0.0000000000000000     
  0.21875000000000000       0.87500000000000000        0.0000000000000000     
  0.25000000000000000       0.87500000000000000        0.0000000000000000     
  0.25000000000000000       0.75000000000000000        0.0000000000000000     
  0.28125000000000000       0.75000000000000000        0.0000000000000000     
  0.31250000000000000       0.75000000000000000        0.0000000000000000     
  0.34375000000000000       0.75000000000000000        0.0000000000000000     
  0.37500000000000000       0.75000000000000000        0.0000000000000000     
  0.25000000000000000       0.78125000000000000        0.0000000000000000     
  0.28125000000000000       0.78125000000000000        0.0000000000000000     
  0.31250000000000000       0.78125000000000000        0.0000000000000000     
  0.34375000000000000       0.78125000000000000        0.0000000000000000     
  0.37500000000000000       0.78125000000000000        0.0000000000000000     
  0.25000000000000000       0.81250000000000000        0.0000000000000000     
  0.28125000000000000       0.81250000000000000        0.0000000000000000     
  0.31250000000000000       0.81250000000000000        0.0000000000000000     
  0.34375000000000000       0.81250000000000000        0.0000000000000000     
  0.37500000000000000       0.81250000000000000        0.0000000000000000     
  0.25000000000000000       0.84375000000000000        0.0000000000000000     
  0.28125000000000000       0.84375000000000000        0.0000000000000000     
  0.31250000000000000       0.84375000000000000        0.0000000000000000     
  0.34375000000000000       0.84375000000000000        0.0000000000000000     
  0.37500000000000000       0.84375000000000000        0.0000000000000000     
  0.25000000000000000       0.87500000000000000        0.0000000000000000     
  0.28125000000000000       0.87500000000000000        0.0000000000000000     
  0.31250000000000000       0.87500000000000000        0.0000000000000000     
  0.34375000000000000       0.87500000000000000        0.0000000000000000     
  0.37500000000000000       0.87500000000000000        0.0000000000000000     
  0.37500000000000000       0.75000000000000000        0.0000000000000000     
  0.40625000000000000       0.75000000000000000        0.0000000000000000     
  0.43750000000000000       0.75000000000000000        0.0000000000000000     
  0.46875000000000000       0.75000000000000000        0.0000000000000000     
  0.50000000000000000       0.75000000000000000        0.0000000000000000     
  0.37500000000000000       0.78125000000000000        0.0000000000000000     
  0.40625000000000000       0.78125000000000000        0.0000000000000000     
  0.43750000000000000       0.78125000000000000        0.0000000000000000     
  0.46875000000000000       0.78125000000000000        0.0000000000000000     
  0.50000000000000000       0.78125000000000000        0.0000000000000000     
  0.37500000000000000       0.81250000000000000        0.0000000000000000     
  0.40625000000000000       0.81250000000000000        0.0000000000000000     
  0.43750000000000000       0.81250000000000000        0.0000000000000000     
  0.46875000000000000       0.81250000000000000        0.0000000000000000     
  0.50000000000000000       0.81250000000000000        0.0000000000000000     
  0.37500000000000000       0.84375000000000000        0.0000000000000000     
  0.40625000000000000       0.84375000000000000        0.0000000000000000     
  0.43750000000000000       0.84375000000000000        0.0000000000000000     
  0.46875000000000000       0.84375000000000000        0.0000000000000000     
  0.50000000000000000       0.84375000000000000        0.0000000000000000     
  0.37500000000000000       0.87500000000000000        0.0000000000000000     
  0.40625000000000000       0.87500000000000000        0.0000000000000000     
  0.43750000000000000       0.87500000000000000        0.0000000000000000     
  0.46875000000000000       0.87500000000000000        0.0000000000000000     
  0.50000000000000000       0.87500000000000000        0.0000000000000000     
  0.50000000000000000       0.75000000000000000        0.0000000000000000     
  0.53125000000000000       0.75000000000000000        0.0000000000000000     
  0.56250000000000000       0.75000000000000000        0.0000000000000000     
  0.59375000000000000       0.75000000000000000        0.0000000000000000     
  0.62500000000000000       0.75000000000000000        0.0000000000000000     
  0.50000000000000000       0.78125000000000000        0.0000000000000000     
  0.53125000000000000       0.78125000000000000        0.0000000000000000     
  0.56250000000000000       0.78125000000000000        0.0000000000000000     
  0.59375000000000000       0.78125000000000000        0.0000000000000000     
  0.62500000000000000       0.78125000000000000        0.0000000000000000     
  0.50000000000000000       0.81250000000000000        0.0000000000000000     
  0.53125000000000000       0.81250000000000000        0.0000000000000000     
  0.56250000000000000       0.81250000000000000        0.0000000000000000     
  0.59375000000000000       0.81250000000000000        0.0000000000000000     
  0.62500000000000000       0.81250000000000000        0.0000000000000000     
  0.50000000000000000       0.84375000000000000        0.0000000000000000     
  0.53125000000000000       0.84375000000000000        0.0000000000000000     
  0.56250000000000000       0.84375000000000000        0.0000000000000000     
  0.59375000000000000       0.84375000000000000        0.0000000000000000     
  0.62500000000000000       0.84375000000000000        0.0000000000000000     
  0.50000000000000000       0.87500000000000000        0.0000000000000000     
  0.53125000000000000       0.87500000000000000        0.0000000000000000     
  0.56250000000000000       0.87500000000000000        0.0000000000000000     
  0.59375000000000000       0.87500000000000000        0.0000000000000000     
  0.62500000000000000       0.87500000000000000        0.0000000000000000     
  0.62500000000000000       0.75000000000000000        0.0000000000000000     
  0.65625000000000000       0.75000000000000000        0.0000000000000000     
  0.68750000000000000       0.75000000000000000        0.0000000000000000     
  0.71875000000000000       0.75000000000000000        0.0000000000000000     
  0.75000000000000000       0.75000000000000000        0.0000000000000000     
  0.62500000000000000       0.78125000000000000        0.0000000000000000     
  0.65625000000000000       0.78125000000000000        0.0000000000000000     
  0.68750000000000000       0.78125000000000000        0.0000000000000000     
  0.71875000000000000       0.78125000000000000        0.0000000000000000     
  0.75000000000000000       0.78125000000000000        0.0000000000000000     
  0.62500000000000000       0.81250000000000000        0.0000000000000000     
  0.65625000000000000       0.81250000000000000        0.0000000000000000     
  0.68750000000000000       0.81250000000000000        0.0000000000000000     
  0.71875000000000000       0.81250000000000000        0.0000000000000000     
  0.75000000000000000       0.81250000000000000        0.0000000000000000     
  0.62500000000000000       0.84375000000000000        0.0000000000000000     
  0.65625000000000000       0.84375000000000000        0.0000000000000000     
  0.68750000000000000       0.84375000000000000        0.0000000000000000     
  0.71875000000000000       0.84375000000000000        0.0000000000000000     
  0.75000000000000000       0.84375000000000000        0.0000000000000000     
  0.62500000000000000       0.87500000000000000        0.0000000000000000     
  0.65625000000000000       0.87500000000000000        0.0000000000000000     
  0.68750000000000000       0.87500000000000000        0.0000000000000000     
  0.71875000000000000       0.87500000000000000        0.0000000000000000     
  0.75000000000000000       0.87500000000000000        0.0000000000000000     
  0.75000000000000000       0.75000000000000000        0.0000000000000000     
  0.78125000000000000       0.75000000000000000        0.0000000000000000     
  0.81250000000000000       0.75000000000000000        0.0000000000000000     
  0.84375000000000000       0.75000000000000000        0.0000000000000000     
  0.87500000000000000       0.75000000000000000        0.0000000000000000     
  0.75000000000000000       0.78125000000000000        0.0000000000000000     
  0.78125000000000000       0.78125000000000000        0.0000000000000000     
  0.81250000000000000       0.78125000000000000        0.0000000000000000     
  0.84375000000000000       0.78125000000000000        0.0000000000000000     
  0.87500000000000000       0.78125000000000000        0.0000000000000000     
  0.75000000000000000       0.81250000000000000        0.0000000000000000     
  0.78125000000000000       0.81250000000000000        0.0000000000000000     
  0.81250000000000000       0.81250000000000000        0.0000000000000000     
  0.84375000000000000       0.81250000000000000        0.0000000000000000     
  0.87500000000000000       0.81250000000000000        0.0000000000000000     
  0.75000000000000000       0.84375000000000000        0.0000000000000000     
  0.78125000000000000       0.84375000000000000        0.0000000000000000     
  0.81250000000000000       0.84375000000000000        0.0000000000000000     
  0.84375000000000000       0.84375000000000000        0.0000000000000000     
  0.87500000000000000       0.84375000000000000        0.0000000000000000     
  0.75000000000000000       0.87500000000000000        0.0000000000000000     
  0.78125000000000000       0.87500000000000000        0.0000000000000000     
  0.81250000000000000       0.87500000000000000        0.0000000000000000     
  0.84375000000000000       0.87500000000000000        0.0000000000000000     
  0.87500000000000000       0.87500000000000000        0.0000000000000000     
  0.87500000000000000       0.75000000000000000        0.0000000000000000     
  0.90625000000000000       0.75000000000000000        0.0000000000000000     
  0.93750000000000000       0.75000000000000000        0.0000000000000000     
  0.96875000000000000       0.75000000000000000        0.0000000000000000     
   1.0000000000000000       0.75000000000000000        0.0000000000000000     
  0.87500000000000000       0.78125000000000000        0.0000000000000000     
  0.90625000000000000       0.78125000000000000        0.0000000000000000     
  0.93750000000000000       0.78125000000000000        0.0000000000000000     
  0.96875000000000000       0.78125000000000000        0.0000000000000000     
   1.0000000000000000       0.78125000000000000        0.0000000000000000     
  0.87500000000000000       0.81250000000000000        0.0000000000000000     
  0.90625000000000000       0.81250000000000000        0.0000000000000000     
  0.93750000000000000       0.81250000000000000        0.0000000000000000     
  0.96875000000000000       0.81250000000000000        0.0000000000000000     
   1.0000000000000000       0.81250000000000000        0.0000000000000000     
  0.87500000000000000       0.84375000000000000        0.0000000000000000     
  0.90625000000000000       0.84375000000000000        0.0000000000000000     
  0.93750000000000000       0.84375000000000000        0.0000000000000000     
  0.96875000000000000       0.84375000000000000        0.0000000000000000     
   1.0000000000000000       0.84375000000000000        0.0000000000000000     
  0.87500000000000000       0.87500000000000000        0.0000000000000000     
  0.90625000000000000       0.87500000000000000        0.0000000000000000     
  0.93750000000000000       0.87500000000000000        0.0000000000000000     
  0.96875000000000000       0.87500000000000000        0.0000000000000000     
   1.0000000000000000       0.87500000000000000        0.0000000000000000     
   0.0000000000000000       0.87500000000000000        0.0000000000000000     
   3.1250000000000000E-002  0.87500000000000000        0.0000000000000000     
   6.2500000000000000E-002  0.87500000000000000        0.0000000000000000     
   9.3750000000000000E-002  0.87500000000000000        0.0000000000000000     
  0.12500000000000000       0.87500000000000000        0.0000000000000000     
   0.0000000000000000       0.90625000000000000        0.0000000000000000     
   3.1250000000000000E-002  0.90625000000000000        0.0000000000000000     
   6.2500000000000000E-002  0.90625000000000000        0.0000000000000000     
   9.3750000000000000E-002  0.90625000000000000        0.0000000000000000     
  0.12500000000000000       0.90625000000000000        0.0000000000000000     
   0.0000000000000000       0.93750000000000000        0.0000000000000000     
   3.1250000000000000E-002  0.93750000000000000        0.0000000000000000     
   6.2500000000000000E-002  0.93750000000000000        0.0000000000000000     
   9.3750000000000000E-002  0.93750000000000000        0.0000000000000000     
  0.12500000000000000       0.93750000000000000        0.0000000000000000     
   0.0000000000000000       0.96875000000000000        0.0000000000000000     
   3.1250000000000000E-002  0.96875000000000000        0.0000000000000000     
   6.2500000000000000E-002  0.96875000000000000        0.0000000000000000     
   9.3750000000000000E-002  0.96875000000000000        0.0000000000000000     
  0.12500000000000000       0.96875000000000000        0.0000000000000000     
   0.0000000000000000        1.0000000000000000        0.0000000000000000     
   3.1250000000000000E-002   1.0000000000000000        0.0000000000000000     
   6.2500000000000000E-002   1.0000000000000000        0.0000000000000000     
   9.3750000000000000E-002   1.0000000000000000        0.0000000000000000     
  0.12500000000000000        1.0000000000000000        0.0000000000000000     
  0.12500000000000000       0.87500000000000000        0.0000000000000000     
  0.15625000000000000       0.87500000000000000        0.0000000000000000     
  0.18750000000000000       0.87500000000000000        0.0000000000000000     
  0.21875000000000000       0.87500000000000000        0.0000000000000000     
  0.25000000000000000       0.87500000000000000        0.0000000000000000     
  0.12500000000000000       0.90625000000000000        0.0000000000000000     
  0.15625000000000000       0.90625000000000000        0.0000000000000000     
  0.18750000000000000       0.90625000000000000        0.0000000000000000     
  0.21875000000000000       0.90625000000000000        0.0000000000000000     
  0.25000000000000000       0.90625000000000000        0.0000000000000000     
  0.12500000000000000       0.93750000000000000        0.0000000000000000     
  0.15625000000000000       0.93750000000000000        0.0000000000000000     
  0.18750000000000000       0.93750000000000000        0.0000000000000000     
  0.21875000000000000       0.93750000000000000        0.0000000000000000     
  0.25000000000000000       0.93750000000000000        0.0000000000000000     
  0.12500000000000000       0.96875000000000000        0.0000000000000000     
  0.15625000000000000       0.96875000000000000        0.0000000000000000     
  0.18750000000000000       0.96875000000000000        0.0000000000000000     
  0.21875000000000000       0.96875000000000000        0.0000000000000000     
  0.25000000000000000       0.96875000000000000        0.0000000000000000     
  0.12500000000000000        1.0000000000000000        0.0000000000000000     
  0.15625000000000000        1.0000000000000000        0.0000000000000000     
  0.18750000000000000        1.0000000000000000        0.0000000000000000     
  0.21875000000000000        1.0000000000000000        0.0000000000000000     
  0.25000000000000000        1.0000000000000000        0.0000000000000000     
  0.25000000000000000       0.87500000000000000        0.0000000000000000     
  0.28125000000000000       0.87500000000000000        0.0000000000000000     
  0.31250000000000000       0.87500000000000000        0.0000000000000000     
  0.34375000000000000       0.87500000000000000        0.0000000000000000     
  0.37500000000000000       0.87500000000000000        0.0000000000000000     
  0.25000000000000000       0.90625000000000000        0.0000000000000000     
  0.28125000000000000       0.90625000000000000        0.0000000000000000     
  0.31250000000000000       0.90625000000000000        0.0000000000000000     
  0.34375000000000000       0.90625000000000000        0.0000000000000000     
  0.37500000000000000       0.90625000000000000        0.0000000000000000     
  0.25000000000000000       0.93750000000000000        0.0000000000000000     
  0.28125000000000000       0.93750000000000000        0.0000000000000000     
  0.31250000000000000       0.93750000000000000        0.0000000000000000     
  0.34375000000000000       0.93750000000000000        0.0000000000000000     
  0.37500000000000000       0.93750000000000000        0.0000000000000000     
  0.25000000000000000       0.96875000000000000        0.0000000000000000     
  0.28125000000000000       0.96875000000000000        0.0000000000000000     
  0.31250000000000000       0.96875000000000000        0.0000000000000000     
  0.34375000000000000       0.96875000000000000        0.0000000000000000     
  0.37500000000000000       0.96875000000000000        0.0000000000000000     
  0.25000000000000000        1.0000000000000000        0.0000000000000000     
  0.28125000000000000        1.0000000000000000        0.0000000000000000     
  0.31250000000000000        1.0000000000000000        0.0000000000000000     
  0.34375000000000000        1.0000000000000000        0.0000000000000000     
  0.37500000000000000        1.0000000000000000        0.0000000000000000     
  0.37500000000000000       0.87500000000000000        0.0000000000000000     
  0.40625000000000000       0.87500000000000000        0.0000000000000000     
  0.43750000000000000       0.87500000000000000        0.0000000000000000     
  0.46875000000000000       0.87500000000000000        0.0000000000000000     
  0.50000000000000000       0.87500000000000000        0.0000000000000000     
  0.37500000000000000       0.90625000000000000        0.0000000000000000     
  0.40625000000000000       0.90625000000000000        0.0000000000000000     
  0.43750000000000000       0.90625000000000000        0.0000000000000000     
  0.46875000000000000       0.90625000000000000        0.0000000000000000     
  0.50000000000000000       0.90625000000000000        0.0000000000000000     
  0.37500000000000000       0.93750000000000000        0.0000000000000000     
  0.40625000000000000       0.93750000000000000        0.0000000000000000     
  0.43750000000000000       0.93750000000000000        0.0000000000000000     
  0.46875000000000000       0.93750000000000000        0.0000000000000000     
  0.50000000000000000       0.93750000000000000        0.0000000000000000     
  0.37500000000000000       0.96875000000000000        0.0000000000000000     
  0.40625000000000000       0.96875000000000000        0.0000000000000000     
  0.43750000000000000       0.96875000000000000        0.0000000000000000     
  0.46875000000000000       0.96875000000000000        0.0000000000000000     
  0.50000000000000000       0.96875000000000000        0.0000000000000000     
  0.37500000000000000        1.0000000000000000        0.0000000000000000     
  0.40625000000000000        1.0000000000000000        0.0000000000000000     
  0.43750000000000000        1.0000000000000000        0.0000000000000000     
  0.46875000000000000        1.0000000000000000        0.0000000000000000     
  0.50000000000000000        1.0000000000000000        0.0000000000000000     
  0.50000000000000000       0.87500000000000000        0.0000000000000000     
  0.53125000000000000       0.87500000000000000        0.0000000000000000     
  0.56250000000000000       0.87500000000000000        0.0000000000000000     
  0.59375000000000000       0.87500000000000000        0.0000000000000000     
  0.62500000000000000       0.87500000000000000        0.0000000000000000     
  0.50000000000000000       0.90625000000000000        0.0000000000000000     
  0.53125000000000000       0.90625000000000000        0.0000000000000000     
  0.56250000000000000       0.90625000000000000        0.0000000000000000     
  0.59375000000000000       0.90625000000000000        0.0000000000000000     
  0.62500000000000000       0.90625000000000000        0.0000000000000000     
  0.50000000000000000       0.93750000000000000        0.0000000000000000     
  0.53125000000000000       0.93750000000000000        0.0000000000000000     
  0.56250000000000000       0.93750000000000000        0.0000000000000000     
  0.59375000000000000       0.93750000000000000        0.0000000000000000     
  0.62500000000000000       0.93750000000000000        0.0000000000000000     
  0.50000000000000000       0.96875000000000000        0.0000000000000000     
  0.53125000000000000       0.96875000000000000        0.0000000000000000     
  0.56250000000000000       0.96875000000000000        0.0000000000000000     
  0.59375000000000000       0.96875000000000000        0.0000000000000000     
  0.62500000000000000       0.96875000000000000        0.0000000000000000     
  0.50000000000000000        1.0000000000000000        0.0000000000000000     
  0.53125000000000000        1.0000000000000000        0.0000000000000000     
  0.56250000000000000        1.0000000000000000        0.0000000000000000     
  0.59375000000000000        1.0000000000000000        0.0000000000000000     
  0.62500000000000000        1.0000000000000000        0.0000000000000000     
  0.62500000000000000       0.87500000000000000        0.0000000000000000     
  0.65625000000000000       0.87500000000000000        0.0000000000000000     
  0.68750000000000000       0.87500000000000000        0.0000000000000000     
  0.71875000000000000       0.87500000000000000        0.0000000000000000     
  0.75000000000000000       0.87500000000000000        0.0000000000000000     
  0.62500000000000000       0.90625000000000000        0.0000000000000000     
  0.65625000000000000       0.90625000000000000        0.0000000000000000     
  0.68750000000000000       0.90625000000000000        0.0000000000000000     
  0.71875000000000000       0.90625000000000000        0.0000000000000000     
  0.75000000000000000       0.90625000000000000        0.0000000000000000     
  0.62500000000000000       0.93750000000000000        0.0000000000000000     
  0.65625000000000000       0.93750000000000000        0.0000000000000000     
  0.68750000000000000       0.93750000000000000        0.0000000000000000     
  0.71875000000000000       0.93750000000000000        0.0000000000000000     
  0.75000000000000000       0.93750000000000000        0.0000000000000000     
  0.62500000000000000       0.96875000000000000        0.0000000000000000     
  0.65625000000000000       0.96875000000000000        0.0000000000000000     
  0.68750000000000000       0.96875000000000000        0.0000000000000000     
  0.71875000000000000       0.96875000000000000        0.0000000000000000     
  0.75000000000000000       0.96875000000000000        0.0000000000000000     
  0.62500000000000000        1.0000000000000000        0.0000000000000000     
  0.65625000000000000        1.0000000000000000        0.0000000000000000     
  0.68750000000000000        1.0000000000000000        0.0000000000000000     
  0.71875000000000000        1.0000000000000000        0.0000000000000000     
  0.75000000000000000        1.0000000000000000        0.0000000000000000     
  0.75000000000000000       0.87500000000000000        0.0000000000000000     
  0.78125000000000000       0.87500000000000000        0.0000000000000000     
  0.81250000000000000       0.87500000000000000        0.0000000000000000     
  0.84375000000000000       0.87500000000000000        0.0000000000000000     
  0.87500000000000000       0.87500000000000000        0.0000000000000000     
  0.75000000000000000       0.90625000000000000        0.0000000000000000     
  0.78125000000000000       0.90625000000000000        0.0000000000000000     
  0.81250000000000000       0.90625000000000000        0.0000000000000000     
  0.84375000000000000       0.90625000000000000        0.0000000000000000     
  0.87500000000000000       0.90625000000000000        0.0000000000000000     
  0.75000000000000000       0.93750000000000000        0.0000000000000000     
  0.78125000000000000       0.93750000000000000        0.0000000000000000     
  0.81250000000000000       0.93750000000000000        0.0000000000000000     
  0.84375000000000000       0.93750000000000000        0.0000000000000000     
  0.87500000000000000       0.93750000000000000        0.0000000000000000     
  0.75000000000000000       0.96875000000000000        0.0000000000000000     
  0.78125000000000000       0.96875000000000000        0.0000000000000000     
  0.81250000000000000       0.96875000000000000        0.0000000000000000     
  0.84375000000000000       0.96875000000000000        0.0000000000000000     
  0.87500000000000000       0.96875000000000000        0.0000000000000000     
  0.75000000000000000        1.0000000000000000        0.0000000000000000     
  0.78125000000000000        1.0000000000000000        0.0000000000000000     
  0.81250000000000000        1.0000000000000000        0.0000000000000000     
  0.84375000000000000        1.0000000000000000        0.0000000000000000     
  0.87500000000000000        1.0000000000000000        0.0000000000000000     
  0.87500000000000000       0.87500000000000000        0.0000000000000000     
  0.90625000000000000       0.87500000000000000        0.0000000000000000     
  0.93750000000000000       0.87500000000000000        0.0000000000000000     
  0.96875000000000000       0.87500000000000000        0.0000000000000000     
   1.0000000000000000       0.87500000000000000        0.0000000000000000     
  0.87500000000000000       0.90625000000000000        0.0000000000000000     
  0.90625000000000000       0.90625000000000000        0.0000000000000000     
  0.93750000000000000       0.90625000000000000        0.0000000000000000     
  0.96875000000000000       0.90625000000000000        0.0000000000000000     
   1.0000000000000000       0.90625000000000000        0.0000000000000000     
  0.87500000000000000       0.93750000000000000        0.0000000000000000     
  0.90625000000000000       0.93750000000000000        0.0000000000000000     
  0.93750000000000000       0.93750000000000000        0.0000000000000000     
  0.96875000000000000       0.93750000000000000        0.0000000000000000     
   1.0000000000000000       0.93750000000000000        0.0000000000000000     
  0.87500000000000000       0.96875000000000000        0.0000000000000000     
  0.90625000000000000       0.96875000000000000        0.0000000000000000     
  0.93750000000000000       0.96875000000000000        0.0000000000000000     
  0.96875000000000000       0.96875000000000000        0.0000000000000000     
   1.0000000000000000       0.96875000000000000        0.0000000000000000     
  0.87500000000000000        1.0000000000000000        0.0000000000000000     
  0.90625000000000000        1.0000000000000000        0.0000000000000000     
  0.93750000000000000        1.0000000000000000        0.0000000000000000     
  0.96875000000000000        1.0000000000000000        0.0000000000000000     
   1.0000000000000000        1.0000000000000000        0.0000000000000000     
 </DataArray>
 </Points>
 <Cells>
 <DataArray  type="Int32"  Name="connectivity"  format="ascii">
           0           1           6           5
           1           2           7           6
           2           3           8           7
           3           4           9           8
           5           6          11          10
           6           7          12          11
           7           8          13          12
           8           9          14          13
          10          11          16          15
          11          12          17          16
          12          13          18          17
          13          14          19          18
          15          16          21          20
          16          17          22          21
          17          18          23          22
          18          19          24          23
          25          26          31          30
          26          27          32          31
          27          28          33          32
          28          29          34          33
          30          31          36          35
          31          32          37          36
          32          33          38          37
          33          34          39          38
          35          36          41          40
          36          37          42          41
          37          38          43          42
          38          39          44          43
          40          41          46          45
          41          42          47          46
          42          43          48          47
          43          44          49          48
          50          51          56          55
          51          52          57          56
          52          53          58          57
          53          54          59          58
          55          56          61          60
          56          57          62          61
          57          58          63          62
          58          59          64          63
          60          61          66          65
          61          62          67          66
          62          63          68          67
          63          64          69          68
          65          66          71          70
          66          67          72          71
          67          68          73          72
          68          69          74          73
          75          76          81          80
          76          77          82          81
          77          78          83          82
          78          79          84          83
          80          81          86          85
          81          82          87          86
          82          83          88          87
          83          84          89          88
          85          86          91          90
          86          87          92          91
          87          88          93          92
          88          89          94          93
          90          91          96          95
          91          92          97          96
          92          93          98          97
          93          94          99          98
         100         101         106         105
         101         102         107         106
         102         103         108         107
         103         104         109         108
         105         106         111         110
         106         107         112         111
         107         108         113         112
         108         109         114         113
         110         111         116         115
         111         112         117         116
         112         113         118         117
         113         114         119         118
         115         116         121         120
         116         117         122         121
         117         118         123         122
         118         119         124         123
         125         126         131         130
         126         127         132         131
         127         128         133         132
         128         129         134         133
         130         131         136         135
         131         132         137         136
         132         133         138         137
         133         134         139         138
         135         136         141         140
         136         137         142         141
         137         138         143         142
         138         139         144         143
         140         141         146         145
         141         142         147         146
         142         143         148         147
         143         144         149         148
         150         151         156         155
         151         152         157         156
         152         153         158         157
         153         154         159         158
         155         156         161         160
         156         157         162         161
         157         158         163         162
         158         159         164         163
         160         161         166         165
         161         162         167         166
         162         163         168         167
         163         164         169         168
         165         166         171         170
         166         167         172         171
         167         168         173         172
         168         169         174         173
         175         176         181         180
         176         177         182         181
         177         178         183         182
         178         179         184         183
         180         181         186         185
         181         182         187         186
         182         183         188         187
         183         184         189         188
         185         186         191         190
         186         187         192         191
         187         188         193         192
         188         189         194         193
         190         191         196         195
         191         192         197         196
         192         193         198         197
         193         194         199         198
         200         201         206         205
         201         202         207         206
         202         203         208         207
         203         204         209         208
         205         206         211         210
         206         207         212         211
         207         208         213         212
         208         209         214         213
         210         211         216         215
         211         212         217         216
         212         213         218         217
         213         214         219         218
         215         216         221         220
         216         217         222         221
         217         218         223         222
         218         219         224         223
         225         226         231         230
         226         227         232         231
         227         228         233         232
         228         229         234         233
         230         231         236         235
         231         232         237         236
         232         233         238         237
         233         234         239         238
         235         236         241         240
         236         237         242         241
         237         238         243         242
         238         239         244         243
         240         241         246         245
         241         242         247         246
         242         243         248         247
         243         244         249         248
         250         251         256         255
         251         252         257         256
         252         253         258         257
         253         254         259         258
         255         256         261         260
         256         257         262         261
         257         258         263         262
         258         259         264         263
         260         261         266         265
         261         262         267         266
         262         263         268         267
         263         264         269         268
         265         266         271         270
         266         267         272         271
         267         268         273         272
         268         269         274         273
         275         276         281         280
         276         277         282         281
         277         278         283         282
         278         279         284         283
         280         281         286         285
         281         282         287         286
         282         283         288         287
         283         284         289         288
         285         286         291         290
         286         287         292         291
         287         288         293         292
         288         289         294         293
         290         291         296         295
         291         292         297         296
         292         293         298         297
         293         294         299         298
         300         301         306         305
         301         302         307         306
         302         303         308         307
         303         304         309         308
         305         306         311         310
         306         307         312         311
         307         308         313         312
         308         309         314         313
         310         311         316         315
         311         312         317         316
         312         313         318         317
         313         314         319         318
         315         316         321         320
         316         317         322         321
         317         318         323         322
         318         319         324         323
         325         326         331         330
         326         327         332         331
         327         328         333         332
         328         329         334         333
         330         331         336         335
         331         332         337         336
         332         333         338         337
         333         334         339         338
         335         336         341         340
         336         337         342         341
         337         338         343         342
         338         339         344         343
         340         341         346         345
         341         342         347         346
         342         343         348         347
         343         344         349         348
         350         351         356         355
         351         352         357         356
         352         353         358         357
         353         354         359         358
         355         356         361         360
         356         357         362         361
         357         358         363         362
         358         359         364         363
         360         361         366         365
         361         362         367         366
         362         363         368         367
         363         364         369         368
         365         366         371         370
         366         367         372         371
         367         368         373         372
         368         369         374         373
         375         376         381         380
         376         377         382         381
         377         378         383         382
         378         379         384         383
         380         381         386         385
         381         382         387         386
         382         383         388         387
         383         384         389         388
         385         386         391         390
         386         387         392         391
         387         388         393         392
         388         389         394         393
         390         391         396         395
         391         392         397         396
         392         393         398         397
         393         394         399         398
         400         401         406         405
         401         402         407         406
         402         403         408         407
         403         404         409         408
         405         406         411         410
         406         407         412         411
         407         408         413         412
         408         409         414         413
         410         411         416         415
         411         412         417         416
         412         413         418         417
         413         414         419         418
         415         416         421         420
         416         417         422         421
         417         418         423         422
         418         419         424         423
         425         426         431         430
         426         427         432         431
         427         428         433         432
         428         429         434         433
         430         431         436         435
         431         432         437         436
         432         433         438         437
         433         434         439         438
         435         436         441         440
         436         437         442         441
         437         438         443         442
         438         439         444         443
         440         441         446         445
         441         442         447         446
         442         443         448         447
         443         444         449         448
         450         451         456         455
         451         452         457         456
         452         453         458         457
         453         454         459         458
         455         456         461         460
         456         457         462         461
         457         458         463         462
         458         459         464         463
         460         461         466         465
         461         462         467         466
         462         463         468         467
         463         464         469         468
         465         466         471         470
         466         467         472         471
         467         468         473         472
         468         469         474         473
         475         476         481         480
         476         477         482         481
         477         478         483         482
         478         479         484         483
         480         481         486         485
         481         482         487         486
         482         483         488         487
         483         484         489         488
         485         486         491         490
         486         487         492         491
         487         488         493         492
         488         489         494         493
         490         491         496         495
         491         492         497         496
         492         493         498         497
         493         494         499         498
         500         501         506         505
         501         502         507         506
         502         503         508         507
         503         504         509         508
         505         506         511         510
         506         507         512         511
         507         508         513         512
         508         509         514         513
         510         511         516         515
         511         512         517         516
         512         513         518         517
         513         514         519         518
         515         516         521         520
         516         517         522         521
         517         518         523         522
         518         519         524         523
         525         526         531         530
         526         527         532         531
         527         528         533         532
         528         529         534         533
         530         531         536         535
         531         532         537         536
         532         533         538         537
         533         534         539         538
         535         536         541         540
         536         537         542         541
         537         538         543         542
         538         539         544         543
         540         541         546         545
         541         542         547         546
         542         543         548         547
         543         544         549         548
         550         551         556         555
         551         552         557         556
         552         553         558         557
         553         554         559         558
         555         556         561         560
         556         557         562         561
         557         558         563         562
         558         559         564         563
         560         561         566         565
         561         562         567         566
         562         563         568         567
         563         564         569         568
         565         566         571         570
         566         567         572         571
         567         568         573         572
         568         569         574         573
         575         576         581         580
         576         577         582         581
         577         578         583         582
         578         579         584         583
         580         581         586         585
         581         582         587         586
         582         583         588         587
         583         584         589         588
         585         586         591         590
         586         587         592         591
         587         588         593         592
         588         589         594         593
         590         591         596         595
         591         592         597         596
         592         593         598         597
         593         594         599         598
         600         601         606         605
         601         602         607         606
         602         603         608         607
         603         604         609         608
         605         606         611         610
         606         607         612         611
         607         608         613         612
         608         609         614         613
         610         611         616         615
         611         612         617         616
         612         613         618         617
         613         614         619         618
         615         616         621         620
         616         617         622         621
         617         618         623         622
         618         619         624         623
         625         626         631         630
         626         627         632         631
         627         628         633         632
         628         629         634         633
         630         631         636         635
         631         632         637         636
         632         633         638         637
         633         634         639         638
         635         636         641         640
         636         637         642         641
         637         638         643         642
         638         639         644         643
         640         641         646         645
         641         642         647         646
         642         643         648         647
         643         644         649         648
         650         651         656         655
         651         652         657         656
         652         653         658         657
         653         654         659         658
         655         656         661         660
         656         657         662         661
         657         658         663         662
         658         659         664         663
         660         661         666         665
         661         662         667         666
         662         663         668         667
         663         664         669         668
         665         666         671         670
         666         667         672         671
         667         668         673         672
         668         669         674         673
         675         676         681         680
         676         677         682         681
         677         678         683         682
         678         679         684         683
         680         681         686         685
         681         682         687         686
         682         683         688         687
         683         684         689         688
         685         686         691         690
         686         687         692         691
         687         688         693         692
         688         689         694         693
         690         691         696         695
         691         692         697         696
         692         693         698         697
         693         694         699         698
         700         701         706         705
         701         702         707         706
         702         703         708         707
         703         704         709         708
         705         706         711         710
         706         707         712         711
         707         708         713         712
         708         709         714         713
         710         711         716         715
         711         712         717         716
         712         713         718         717
         713         714         719         718
         715         716         721         720
         716         717         722         721
         717         718         723         722
         718         719         724         723
         725         726         731         730
         726         727         732         731
         727         728         733         732
         728         729         734         733
         730         731         736         735
         731         732         737         736
         732         733         738         737
         733         734         739         738
         735         736         741         740
         736         737         742         741
         737         738         743         742
         738         739         744         743
         740         741         746         745
         741         742         747         746
         742         743         748         747
         743         744         749         748
         750         751         756         755
         751         752         757         756
         752         753         758         757
         753         754         759         758
         755         756         761         760
         756         757         762         761
         757         758         763         762
         758         759         764         763
         760         761         766         765
         761         762         767         766
         762         763         768         767
         763         764         769         768
         765         766         771         770
         766         767         772         771
         767         768         773         772
         768         769         774         773
         775         776         781         780
         776         777         782         781
         777         778         783         782
         778         779         784         783
         780         781         786         785
         781         782         787         786
         782         783         788         787
         783         784         789         788
         785         786         791         790
         786         787         792         791
         787         788         793         792
         788         789         794         793
         790         791         796         795
         791         792         797         796
         792         793         798         797
         793         794         799         798
         800         801         806         805
         801         802         807         806
         802         803         808         807
         803         804         809         808
         805         806         811         810
         806         807         812         811
         807         808         813         812
         808         809         814         813
         810         811         816         815
         811         812         817         816
         812         813         818         817
         813         814         819         818
         815         816         821         820
         816         817         822         821
         817         818         823         822
         818         819         824         823
         825         826         831         830
         826         827         832         831
         827         828         833         832
         828         829         834         833
         830         831         836         835
         831         832         837         836
         832         833         838         837
         833         834         839         838
         835         836         841         840
         836         837         842         841
         837         838         843         842
         838         839         844         843
         840         841         846         845
         841         842         847         846
         842         843         848         847
         843         844         849         848
         850         851         856         855
         851         852         857         856
         852         853         858         857
         853         854         859         858
         855         856         861         860
         856         857         862         861
         857         858         863         862
         858         859         864         863
         860         861         866         865
         861         862         867         866
         862         863         868         867
         863         864         869         868
         865         866         871         870
         866         867         872         871
         867         868         873         872
         868         869         874         873
         875         876         881         880
         876         877         882         881
         877         878         883         882
         878         879         884         883
         880         881         886         885
         881         882         887         886
         882         883         888         887
         883         884         889         888
         885         886         891         890
         886         887         892         891
         887         888         893         892
         888         889         894         893
         890         891         896         895
         891         892         897         896
         892         893         898         897
         893         894         899         898
         900         901         906         905
         901         902         907         906
         902         903         908         907
         903         904         909         908
         905         906         911         910
         906         907         912         911
         907         908         913         912
         908         909         914         913
         910         911         916         915
         911         912         917         916
         912         913         918         917
         913         914         919         918
         915         916         921         920
         916         917         922         921
         917         918         923         922
         918         919         924         923
         925         926         931         930
         926         927         932         931
         927         928         933         932
         928         929         934         933
         930         931         936         935
         931         932         937         936
         932         933         938         937
         933         934         939         938
         935         936         941         940
         936         937         942         941
         937         938         943         942
         938         939         944         943
         940         941         946         945
         941         942         947         946
         942         943         948         947
         943         944         949         948
         950         951         956         955
         951         952         957         956
         952         953         958         957
         953         954         959         958
         955         956         961         960
         956         957         962         961
         957         958         963         962
         958         959         964         963
         960         961         966         965
         961         962         967         966
         962         963         968         967
         963         964         969         968
         965         966         971         970
         966         967         972         971
         967         968         973         972
         968         969         974         973
         975         976         981         980
         976         977         982         981
         977         978         983         982
         978         979         984         983
         980         981         986         985
         981         982         987         986
         982         983         988         987
         983         984         989         988
         985         986         991         990
         986         987         992         991
         987         988         993         992
         988         989         994         993
         990         991         996         995
         991         992         997         996
         992         993         998         997
         993         994         999         998
        1000        1001        1006        1005
        1001        1002        1007        1006
        1002        1003        1008        1007
        1003        1004        1009        1008
        1005        1006        1011        1010
        1006        1007        1012        1011
        1007        1008        1013        1012
        1008        1009        1014        1013
        1010        1011        1016        1015
        1011        1012        1017        1016
        1012        1013        1018        1017
        1013        1014        1019        1018
        1015        1016        1021        1020
        1016        1017        1022        1021
        1017        1018        1023        1022
        1018        1019        1024        1023
        1025        1026        1031        1030
        1026        1027        1032        1031
        1027        1028        1033        1032
        1028        1029        1034        1033
        1030        1031        1036        1035
        1031        1032        1037        1036
        1032        1033        1038        1037
        1033        1034        1039        1038
        1035        1036        1041        1040
        1036        1037        1042        1041
        1037        1038        1043        1042
        1038        1039        1044        1043
        1040        1041        1046        1045
        1041        1042        1047        1046
        1042        1043        1048        1047
        1043        1044        1049        1048
        1050        1051        1056        1055
        1051        1052        1057        1056
        1052        1053        1058        1057
        1053        1054        1059        1058
        1055        1056        1061        1060
        1056        1057        1062        1061
        1057        1058        1063        1062
        1058        1059        1064        1063
        1060        1061        1066        1065
        1061        1062        1067        1066
        1062        1063        1068        1067
        1063        1064        1069        1068
        1065        1066        1071        1070
        1066        1067        1072        1071
        1067        1068        1073        1072
        1068        1069        1074        1073
        1075        1076        1081        1080
        1076        1077        1082        1081
        1077        1078        1083        1082
        1078        1079        1084        1083
        1080        1081        1086        1085
        1081        1082        1087        1086
        1082        1083        1088        1087
        1083        1084        1089        1088
        1085        1086        1091        1090
        1086        1087        1092        1091
        1087        1088        1093        1092
        1088        1089        1094        1093
        1090        1091        1096        1095
        1091        1092        1097        1096
        1092        1093        1098        1097
        1093        1094        1099        1098
        1100        1101        1106        1105
        1101        1102        1107        1106
        1102        1103        1108        1107
        1103        1104        1109        1108
        1105        1106        1111        1110
        1106        1107        1112        1111
        1107        1108        1113        1112
        1108        1109        1114        1113
        1110        1111        1116        1115
        1111        1112        1117        1116
        1112        1113        1118        1117
        1113        1114        1119        1118
        1115        1116        1121        1120
        1116        1117        1122        1121
        1117        1118        1123        1122
        1118        1119        1124        1123
        1125        1126        1131        1130
        1126        1127        1132        1131
        1127        1128        1133        1132
        1128        1129        1134        1133
        1130        1131        1136        1135
        1131        1132        1137        1136
        1132        1133        1138        1137
        1133        1134        1139        1138
        1135        1136        1141        1140
        1136        1137        1142        1141
        1137        1138        1143        1142
        1138        1139        1144        1143
        1140        1141        1146        1145
        1141        1142        1147        1146
        1142        1143        1148        1147
        1143        1144        1149        1148
        1150        1151        1156        1155
        1151        1152        1157        1156
        1152        1153        1158        1157
        1153        1154        1159        1158
        1155        1156        1161        1160
        1156        1157        1162        1161
        1157        1158        1163        1162
        1158        1159        1164        1163
        1160        1161        1166        1165
        1161        1162        1167        1166
        1162        1163        1168        1167
        1163        1164        1169        1168
        1165        1166        1171        1170
        1166        1167        1172        1171
        1167        1168        1173        1172
        1168        1169        1174        1173
        1175        1176        1181        1180
        1176        1177        1182        1181
        1177        1178        1183        1182
        1178        1179        1184        1183
        1180        1181        1186        1185
        1181        1182        1187        1186
        1182        1183        1188        1187
        1183        1184        1189        1188
        1185        1186        1191        1190
        1186        1187        1192        1191
        1187        1188        1193        1192
        1188        1189        1194        1193
        1190        1191        1196        1195
        1191        1192        1197        1196
        1192        1193        1198        1197
        1193        1194        1199        1198
        1200        1201        1206        1205
        1201        1202        1207        1206
        1202        1203        1208        1207
        1203        1204        1209        1208
        1205        1206        1211        1210
        1206        1207        1212        1211
        1207        1208        1213        1212
        1208        1209        1214        1213
        1210        1211        1216        1215
        1211        1212        1217        1216
        1212        1213        1218        1217
        1213        1214        1219        1218
        1215        1216        1221        1220
        1216        1217        1222        1221
        1217        1218        1223        1222
        1218        1219        1224        1223
        1225        1226        1231        1230
        1226        1227        1232        1231
        1227        1228        1233        1232
        1228        1229        1234        1233
        1230        1231        1236        1235
        1231        1232        1237        1236
        1232        1233        1238        1237
        1233        1234        1239        1238
        1235        1236        1241        1240
        1236        1237        1242        1241
        1237        1238        1243        1242
        1238        1239        1244        1243
        1240        1241        1246        1245
        1241        1242        1247        1246
        1242        1243        1248        1247
        1243        1244        1249        1248
        1250        1251        1256        1255
        1251        1252        1257        1256
        1252        1253        1258        1257
        1253        1254        1259        1258
        1255        1256        1261        1260
        1256        1257        1262        1261
        1257        1258        1263        1262
        1258        1259        1264        1263
        1260        1261        1266        1265
        1261        1262        1267        1266
        1262        1263        1268        1267
        1263        1264        1269        1268
        1265        1266        1271        1270
        1266        1267        1272        1271
        1267        1268        1273        1272
        1268        1269        1274        1273
        1275        1276        1281        1280
        1276        1277        1282        1281
        1277        1278        1283        1282
        1278        1279        1284        1283
        1280        1281        1286        1285
        1281        1282        1287        1286
        1282        1283        1288        1287
        1283        1284        1289        1288
        1285        1286        1291        1290
        1286        1287        1292        1291
        1287        1288        1293        1292
        1288        1289        1294        1293
        1290        1291        1296        1295
        1291        1292        1297        1296
        1292        1293        1298        1297
        1293        1294        1299        1298
        1300        1301        1306        1305
        1301        1302        1307        1306
        1302        1303        1308        1307
        1303        1304        1309        1308
        1305        1306        1311        1310
        1306        1307        1312        1311
        1307        1308        1313        1312
        1308        1309        1314        1313
        1310        1311        1316        1315
        1311        1312        1317        1316
        1312        1313        1318        1317
        1313        1314        1319        1318
        1315        1316        1321        1320
        1316        1317        1322        1321
        1317        1318        1323        1322
        1318        1319        1324        1323
        1325        1326        1331        1330
        1326        1327        1332        1331
        1327        1328        1333        1332
        1328        1329        1334        1333
        1330        1331        1336        1335
        1331        1332        1337        1336
        1332        1333        1338        1337
        1333        1334        1339        1338
        1335        1336        1341        1340
        1336        1337        1342        1341
        1337        1338        1343        1342
        1338        1339        1344        1343
        1340        1341        1346        1345
        1341        1342        1347        1346
        1342        1343        1348        1347
        1343        1344        1349        1348
        1350        1351        1356        1355
        1351        1352        1357        1356
        1352        1353        1358        1357
        1353        1354        1359        1358
        1355        1356        1361        1360
        1356        1357        1362        1361
        1357        1358        1363        1362
        1358        1359        1364        1363
        1360        1361        1366        1365
        1361        1362        1367        1366
        1362        1363        1368        1367
        1363        1364        1369        1368
        1365        1366        1371        1370
        1366        1367        1372        1371
        1367        1368        1373        1372
        1368        1369        1374        1373
        1375        1376        1381        1380
        1376        1377        1382        1381
        1377        1378        1383        1382
        1378        1379        1384        1383
        1380        1381        1386        1385
        1381        1382        1387        1386
        1382        1383        1388        1387
        1383        1384        1389        1388
        1385        1386        1391        1390
        1386        1387        1392        1391
        1387        1388        1393        1392
        1388        1389        1394        1393
        1390        1391        1396        1395
        1391        1392        1397        1396
        1392        1393        1398        1397
        1393        1394        1399        1398
        1400        1401        1406        1405
        1401        1402        1407        1406
        1402        1403        1408        1407
        1403        1404        1409        1408
        1405        1406        1411        1410
        1406        1407        1412        1411
        1407        1408        1413        1412
        1408        1409        1414        1413
        1410        1411        1416        1415
        1411        1412        1417        1416
        1412        1413        1418        1417
        1413        1414        1419        1418
        1415        1416        1421        1420
        1416        1417        1422        1421
        1417        1418        1423        1422
        1418        1419        1424        1423
        1425        1426        1431        1430
        1426        1427        1432        1431
        1427        1428        1433        1432
        1428        1429        1434        1433
        1430        1431        1436        1435
        1431        1432        1437        1436
        1432        1433        1438        1437
        1433        1434        1439        1438
        1435        1436        1441        1440
        1436        1437        1442        1441
        1437        1438        1443        1442
        1438        1439        1444        1443
        1440        1441        1446        1445
        1441        1442        1447        1446
        1442        1443        1448        1447
        1443        1444        1449        1448
        1450        1451        1456        1455
        1451        1452        1457        1456
        1452        1453        1458        1457
        1453        1454        1459        1458
        1455        1456        1461        1460
        1456        1457        1462        1461
        1457        1458        1463        1462
        1458        1459        1464        1463
        1460        1461        1466        1465
        1461        1462        1467        1466
        1462        1463        1468        1467
        1463        1464        1469        1468
        1465        1466        1471        1470
        1466        1467        1472        1471
        1467        1468        1473        1472
        1468        1469        1474        1473
        1475        1476        1481        1480
        1476        1477        1482        1481
        1477        1478        1483        1482
        1478        1479        1484        1483
        1480        1481        1486        1485
        1481        1482        1487        1486
        1482        1483        1488        1487
        1483        1484        1489        1488
        1485        1486        1491        1490
        1486        1487        1492        1491
        1487        1488        1493        1492
        1488        1489        1494        1493
        1490        1491        1496        1495
        1491        1492        1497        1496
        1492        1493        1498        1497
        1493        1494        1499        1498
        1500        1501        1506        1505
        1501        1502        1507        1506
        1502        1503        1508        1507
        1503        1504        1509        1508
        1505        1506        1511        1510
        1506        1507        1512        1511
        1507        1508        1513        1512
        1508        1509        1514        1513
        1510        1511        1516        1515
        1511        1512        1517        1516
        1512        1513        1518        1517
        1513        1514        1519        1518
        1515        1516        1521        1520
        1516        1517        1522        1521
        1517        1518        1523        1522
        1518        1519        1524        1523
        1525        1526        1531        1530
        1526        1527        1532        1531
        1527        1528        1533        1532
        1528        1529        1534        1533
        1530        1531        1536        1535
        1531        1532        1537        1536
        1532        1533        1538        1537
        1533        1534        1539        1538
        1535        1536        1541        1540
        1536        1537        1542        1541
        1537        1538        1543        1542
        1538        1539        1544        1543
        1540        1541        1546        1545
        1541        1542        1547        1546
        1542        1543        1548        1547
        1543        1544        1549        1548
        1550        1551        1556        1555
        1551        1552        1557        1556
        1552        1553        1558        1557
        1553        1554        1559        1558
        1555        1556        1561        1560
        1556        1557        1562        1561
        1557        1558        1563        1562
        1558        1559        1564        1563
        1560        1561        1566        1565
        1561        1562        1567        1566
        1562        1563        1568        1567
        1563        1564        1569        1568
        1565        1566        1571        1570
        1566        1567        1572        1571
        1567        1568        1573        1572
        1568        1569        1574        1573
        1575        1576        1581        1580
        1576        1577        1582        1581
        1577        1578        1583        1582
        1578        1579        1584        1583
        1580        1581        1586        1585
        1581        1582        1587        1586
        1582        1583        1588        1587
        1583        1584        1589        1588
        1585        1586        1591        1590
        1586        1587        1592        1591
        1587        1588        1593        1592
        1588        1589        1594        1593
        1590        1591        1596        1595
        1591        1592        1597        1596
        1592        1593        1598        1597
        1593        1594        1599        1598
 </DataArray>
 <DataArray  type="Int32"  Name="offsets"  format="ascii"> 
           4
           8
          12
          16
          20
          24
          28
          32
          36
          40
          44
          48
          52
          56
          60
          64
          68
          72
          76
          80
          84
          88
          92
          96
         100
         104
         108
         112
         116
         120
         124
         128
         132
         136
         140
         144
         148
         152
         156
         160
         164
         168
         172
         176
         180
         184
         188
         192
         196
         200
         204
         208
         212
         216
         220
         224
         228
         232
         236
         240
         244
         248
         252
         256
         260
         264
         268
         272
         276
         280
         284
         288
         292
         296
         300
         304
         308
         312
         316
         320
         324
         328
         332
         336
         340
         344
         348
         352
         356
         360
         364
         368
         372
         376
         380
         384
         388
         392
         396
         400
         404
         408
         412
         416
         420
         424
         428
         432
         436
         440
         444
         448
         452
         456
         460
         464
         468
         472
         476
         480
         484
         488
         492
         496
         500
         504
         508
         512
         516
         520
         524
         528
         532
         536
         540
         544
         548
         552
         556
         560
         564
         568
         572
         576
         580
         584
         588
         592
         596
         600
         604
         608
         612
         616
         620
         624
         628
         632
         636
         640
         644
         648
         652
         656
         660
         664
         668
         672
         676
         680
         684
         688
         692
         696
         700
         704
         708
         712
         716
         720
         724
         728
         732
         736
         740
         744
         748
         752
         756
         760
         764
         768
         772
         776
         780
         784
         788
         792
         796
         800
         804
         808
         812
         816
         820
         824
         828
         832
         836
         840
         844
         848
         852
         856
         860
         864
         868
         872
         876
         880
         884
         888
         892
         896
         900
         904
         908
         912
         916
         920
         924
         928
         932
         936
         940
         944
         948
         952
         956
         960
         964
         968
         972
         976
         980
         984
         988
         992
         996
        1000
        1004
        1008
        1012
        1016
        1020
        1024
        1028
        1032
        1036
        1040
        1044
        1048
        1052
        1056
        1060
        1064
        1068
        1072
        1076
        1080
        1084
        1088
        1092
        1096
        1100
        1104
        1108
        1112
        1116
        1120
        1124
        1128
        1132
        1136
        1140
        1144
        1148
        1152
        1156
        1160
        1164
        1168
        1172
        1176
        1180
        1184
        1188
        1192
        1196
        1200
        1204
        1208
        1212
        1216
        1220
        1224
        1228
        1232
        1236
        1240
        1244
        1248
        1252
        1256
        1260
        1264
        1268
        1272
        1276
        1280
        1284
        1288
        1292
        1296
        1300
        1304
        1308
        1312
        1316
        1320
        1324
        1328
        1332
        1336
        1340
        1344
        1348
        1352
        1356
        1360
        1364
        1368
        1372
        1376
        1380
        1384
        1388
        1392
        1396
        1400
        1404
        1408
        1412
        1416
        1420
        1424
        1428
        1432
        1436
        1440
        1444
        1448
        1452
        1456
        1460
        1464
        1468
        1472
        1476
        1480
        1484
        1488
        1492
        1496
        1500
        1504
        1508
        1512
        1516
        1520
        1524
        1528
        1532
        1536
        1540
        1544
        1548
        1552
        1556
        1560
        1564
        1568
        1572
        1576
        1580
        1584
        1588
        1592
        1596
        1600
        1604
        1608
        1612
        1616
        1620
        1624
        1628
        1632
        1636
        1640
        1644
        1648
        1652
        1656
        1660
        1664
        1668
        1672
        1676
        1680
        1684
        1688
        1692
        1696
        1700
        1704
        1708
        1712
        1716
        1720
        1724
        1728
        1732
        1736
        1740
        1744
        1748
        1752
        1756
        1760
        1764
        1768
        1772
        1776
        1780
        1784
        1788
        1792
        1796
        1800
        1804
        1808
        1812
        1816
        1820
        1824
        1828
        1832
        1836
        1840
        1844
        1848
        1852
        1856
        1860
        1864
        1868
        1872
        1876
        1880
        1884
        1888
        1892
        1896
        1900
        1904
        1908
        1912
        1916
        1920
        1924
        1928
        1932
        1936
        1940
        1944
        1948
        1952
        1956
        1960
        1964
        1968
        1972
        1976
        1980
        1984
        1988
        1992
        1996
        2000
        2004
        2008
        2012
        2016
        2020
        2024
        2028
        2032
        2036
        2040
        2044
        2048
        2052
        2056
        2060
        2064
        2068
        2072
        2076
        2080
        2084
        2088
        2092
        2096
        2100
        2104
        2108
        2112
        2116
        2120
        2124
        2128
        2132
        2136
        2140
        2144
        2148
        2152
        2156
        2160
        2164
        2168
        2172
        2176
        2180
        2184
        2188
        2192
        2196
        2200
        2204
        2208
        2212
        2216
        2220
        2224
        2228
        2232
        2236
        2240
        2244
        2248
        2252
        2256
        2260
        2264
        2268
        2272
        2276
        2280
        2284
        2288
        2292
        2296
        2300
        2304
        2308
        2312
        2316
        2320
        2324
        2328
        2332
        2336
        2340
        2344
        2348
        2352
        2356
        2360
        2364
        2368
        2372
        2376
        2380
        2384
        2388
        2392
        2396
        2400
        2404
        2408
        2412
        2416
        2420
        2424
        2428
        2432
        2436
        2440
        2444
        2448
        2452
        2456
        2460
        2464
        2468
        2472
        2476
        2480
        2484
        2488
        2492
        2496
        2500
        2504
        2508
        2512
        2516
        2520
        2524
        2528
        2532
        2536
        2540
        2544
        2548
        2552
        2556
        2560
        2564
        2568
        2572
        2576
        2580
        2584
        2588
        2592
        2596
        2600
        2604
        2608
        2612
        2616
        2620
        2624
        2628
        2632
        2636
        2640
        2644
        2648
        2652
        2656
        2660
        2664
        2668
        2672
        2676
        2680
        2684
        2688
        2692
        2696
        2700
        2704
        2708
        2712
        2716
        2720
        2724
        2728
        2732
        2736
        2740
        2744
        2748
        2752
        2756
        2760
        2764
        2768
        2772
        2776
        2780
        2784
        2788
        2792
        2796
        2800
        2804
        2808
        2812
        2816
        2820
        2824
        2828
        2832
        2836
        2840
        2844
        2848
        2852
        2856
        2860
        2864
        2868
        2872
        2876
        2880
        2884
        2888
        2892
        2896
        2900
        2904
        2908
        2912
        2916
        2920
        2924
        2928
        2932
        2936
        2940
        2944
        2948
        2952
        2956
        2960
        2964
        2968
        2972
        2976
        2980
        2984
        2988
        2992
        2996
        3000
        3004
        3008
        3012
        3016
        3020
        3024
        3028
        3032
        3036
        3040
        3044
        3048
        3052
        3056
        3060
        3064
        3068
        3072
        3076
        3080
        3084
        3088
        3092
        3096
        3100
        3104
        3108
        3112
        3116
        3120
        3124
        3128
        3132
        3136
        3140
        3144
        3148
        3152
        3156
        3160
        3164
        3168
        3172
        3176
        3180
        3184
        3188
        3192
        3196
        3200
        3204
        3208
        3212
        3216
        3220
        3224
        3228
        3232
        3236
        3240
        3244
        3248
        3252
        3256
        3260
        3264
        3268
        3272
        3276
        3280
        3284
        3288
        3292
        3296
        3300
        3304
        3308
        3312
        3316
        3320
        3324
        3328
        3332
        3336
        3340
        3344
        3348
        3352
        3356
        3360
        3364
        3368
        3372
        3376
        3380
        3384
        3388
        3392
        3396
        3400
        3404
        3408
        3412
        3416
        3420
        3424
        3428
        3432
        3436
        3440
        3444
        3448
        3452
        3456
        3460
        3464
        3468
        3472
        3476
        3480
        3484
        3488
        3492
        3496
        3500
        3504
        3508
        3512
        3516
        3520
        3524
        3528
        3532
        3536
        3540
        3544
        3548
        3552
        3556
        3560
        3564
        3568
        3572
        3576
        3580
        3584
        3588
        3592
        3596
        3600
        3604
        3608
        3612
        3616
        3620
        3624
        3628
        3632
        3636
        3640
        3644
        3648
        3652
        3656
        3660
        3664
        3668
        3672
        3676
        3680
        3684
        3688
        3692
        3696
        3700
        3704
        3708
        3712
        3716
        3720
        3724
        3728
        3732
        3736
        3740
        3744
        3748
        3752
        3756
        3760
        3764
        3768
        3772
        3776
        3780
        3784
        3788
        3792
        3796
        3800
        3804
        3808
        3812
        3816
        3820
        3824
        3828
        3832
        3836
        3840
        3844
        3848
        3852
        3856
        3860
        3864
        3868
        3872
        3876
        3880
        3884
        3888
        3892
        3896
        3900
        3904
        3908
        3912
        3916
        3920
        3924
        3928
        3932
        3936
        3940
        3944
        3948
        3952
        3956
        3960
        3964
        3968
        3972
        3976
        3980
        3984
        3988
        3992
        3996
        4000
        4004
        4008
        4012
        4016
        4020
        4024
        4028
        4032
        4036
        4040
        4044
        4048
        4052
        4056
        4060
        4064
        4068
        4072
        4076
        4080
        4084
        4088
        4092
        4096
 </DataArray>
 <DataArray  type="UInt8"  Name="types"  format="ascii">
 9
 9
 9
 9
 9
 9
 9
 9
 9
 9
 9
 9
 9
 9
 9
 9
 9
 9
 9
 9
 9
 9
 9
 9
 9
 9
 9
 9
 9
 9
 9
 9
 9
 9
 9
 9
 9
 9
 9
 9
 9
 9
 9
 9
 9
 9
 9
 9
 9
 9
 9
 9
 9
 9
 9
 9
 9
 9
 9
 9
 9
 9
 9
 9
 9
 9
 9
 9
 9
 9
 9
 9
 9
 9
 9
 9
 9
 9
 9
 9
 9
 9
 9
 9
 9
 9
 9
 9
 9
 9
 9
 9
 9
 9
 9
 9
 9
 9
 9
 9
 9
 9
 9
 9
 9
 9
 9
 9
 9
 9
 9
 9
 9
 9
 9
 9
 9
 9
 9
 9
 9
 9
 9
 9
 9
 9
 9
 9
 9
 9
 9
 9
 9
 9
 9
 9
 9
 9
 9
 9
 9
 9
 9
 9
 9
 9
 9
 9
 9
 9
 9
 9
 9
 9
 9
 9
 9
 9
 9
 9
 9
 9
 9
 9
 9
 9
 9
 9
 9
 9
 9
 9
 9
 9
 9
 9
 9
 9
 9
 9
 9
 9
 9
 9
 9
 9
 9
 9
 9
 9
 9
 9
 9
 9
 9
 9
 9
 9
 9
 9
 9
 9
 9
 9
 9
 9
 9
 9
 9
 9
 9
 9
 9
 9
 9
 9
 9
 9
 9
 9
 9
 9
 9
 9
 9
 9
 9
 9
 9
 9
 9
 9
 9
 9
 9
 9
 9
 9
 9
 9
 9
 9
 9
 9
 9
 9
 9
 9
 9
 9
 9
 9
 9
 9
 9
 9
 9
 9
 9
 9
 9
 9
 9
 9
 9
 9
 9
 9
 9
 9
 9
 9
 9
 9
 9
 9
 9
 9
 9
 9
 9
 9
 9
 9
 9
 9
 9
 9
 9
 9
 9
 9
 9
 9
 9
 9
 9
 9
 9
 9
 9
 9
 9
 9
 9
 9
 9
 9
 9
 9
 9
 9
 9
 9
 9
 9
 9
 9
 9
 9
 9
 9
 9
 9
 9
 9
 9
 9
 9
 9
 9
 9
 9
 9
 9
 9
 9
 9
 9
 9
 9
 9
 9
 9
 9
 9
 9
 9
 9
 9
 9
 9
 9
 9
 9
 9
 9
 9
 9
 9
 9
 9
 9
 9
 9
 9
 9
 9
 9
 9
 9
 9
 9
 9
 9
 9
 9
 9
 9
 9
 9
 9
 9
 9
 9
 9
 9
 9
 9
 9
 9
 9
 9
 9
 9
 9
 9
 9
 9
 9
 9
 9
 9
 9
 9
 9
 9
 9
 9
 9
 9
 9
 9
 9
 9
 9
 9
 9
 9
 9
 9
 9
 9
 9
 9
 9
 9
 9
 9
 9
 9
 9
 9
 9
 9
 9
 9
 9
 9
 9
 9
 9
 9
 9
 9
 9
 9
 9
 9
 9
 9
 9
 9
 9
 9
 9
 9
 9
 9
 9
 9
 9
 9
 9
 9
 9
 9
 9
 9
 9
 9
 9
 9
 9
 9
 9
 9
 9
 9
 9
 9
 9
 9
 9
 9
 9
 9
 9
 9
 9
 9
 9
 9
 9
 9
 9
 9
 9
 9
 9
 9
 9
 9
 9
 9
 9
 9
 9
 9
 9
 9
 9
 9
 9
 9
 9
 9
 9
 9
 9
 9
 9
 9
 9
 9
 9
 9
 9
 9
 9
 9
 9
 9
 9
 9
 9
 9
 9
 9
 9
 9
 9
 9
 9
 9
 9
 9
 9
 9
 9
 9
 9
 9
 9
 9
 9
 9
 9
 9
 9
 9
 9
 9
 9
 9
 9
 9
 9
 9
 9
 9
 9
 9
 9
 9
 9
 9
 9
 9
 9
 9
 9
 9
 9
 9
 9
 9
 9
 9
 9
 9
 9
 9
 9
 9
 9
 9
 9
 9
 9
 9
 9
 9
 9
 9
 9
 9
 9
 9
 9
 9
 9
 9
 9
 9
 9
 9
 9
 9
 9
 9
 9
 9
 9
 9
 9
 9
 9
 9
 9
 9
 9
 9
 9
 9
 9
 9
 9
 9
 9
 9
 9
 9
 9
 9
 9
 9
 9
 9
 9
 9
 9
 9
 9
 9
 9
 9
 9
 9
 9
 9
 9
 9
 9
 9
 9
 9
 9
 9
 9
 9
 9
 9
 9
 9
 9
 9
 9
 9
 9
 9
 9
 9
 9
 9
 9
 9
 9
 9
 9
 9
 9
 9
 9
 9
 9
 9
 9
 9
 9
 9
 9
 9
 9
 9
 9
 9
 9
 9
 9
 9
 9
 9
 9
 9
 9
 9
 9
 9
 9
 9
 9
 9
 9
 9
 9
 9
 9
 9
 9
 9
 9
 9
 9
 9
 9
 9
 9
 9
 9
 9
 9
 9
 9
 9
 9
 9
 9
 9
 9
 9
 9
 9
 9
 9
 9
 9
 9
 9
 9
 9
 9
 9
 9
 9
 9
 9
 9
 9
 9
 9
 9
 9
 9
 9
 9
 9
 9
 9
 9
 9
 9
 9
 9
 9
 9
 9
 9
 9
 9
 9
 9
 9
 9
 9
 9
 9
 9
 9
 9
 9
 9
 9
 9
 9
 9
 9
 9
 9
 9
 9
 9
 9
 9
 9
 9
 9
 9
 9
 9
 9
 9
 9
 9
 9
 9
 9
 9
 9
 9
 9
 9
 9
 9
 9
 9
 9
 9
 9
 9
 9
 9
 9
 9
 9
 9
 9
 9
 9
 9
 9
 9
 9
 9
 9
 9
 9
 9
 9
 9
 9
 9
 9
 9
 9
 9
 9
 9
 9
 9
 9
 9
 9
 9
 9
 9
 9
 9
 9
 9
 9
 9
 9
 9
 9
 9
 9
 9
 9
 9
 9
 9
 9
 9
 9
 9
 9
 9
 9
 9
 9
 9
 9
 9
 9
 9
 9
 9
 9
 9
 9
 9
 9
 9
 9
 9
 9
 9
 9
 9
 9
 9
 9
 9
 9
 9
 9
 9
 9
 9
 9
 9
 9
 9
 9
 9
 9
 9
 9
 9
 9
 9
 9
 9
 9
 9
 9
 9
 9
 9
 9
 9
 9
 9
 9
 9
 9
 9
 9
 9
 9
 9
 9
 9
 9
 9
 9
 9
 9
 9
 9
 9
 9
 9
 9
 9
 9
 9
 9
 9
 9
 9
 9
 9
 9
 9
 9
 9
 9
 9
 9
 9
 9
 9
 9
 9
 9
 9
 9
 9
 9
 9
 9
 9
 9
 9
 9
 9
 9
 9
 9
 9
 9
 9
 9
 9
 9
 9
 9
 9
 9
 9
 9
 9
 </DataArray>
 </Cells> 
 <PointData>
 <DataArray  type="Float64" Name="disp" NumberOfComponents="3" format="ascii">
   0.0000000000000000        0.0000000000000000        0.0000000000000000     
   6.0959276753757346E-003   3.7906203366229437E-003   0.0000000000000000     
   1.1665964441593572E-002   7.3240843556720827E-003   0.0000000000000000     
   1.6710110298653512E-002   1.0600392057147419E-002   0.0000000000000000     
   2.1228365246555560E-002   1.3619543441048950E-002   0.0000000000000000     
   0.0000000000000000        0.0000000000000000        0.0000000000000000     
   4.8911556682378716E-003   3.0222332956497916E-003   0.0000000000000000     
   9.5736350843902470E-003   6.0606674035659728E-003   0.0000000000000000     
   1.4047438248457129E-002   9.1153023237485406E-003   0.0000000000000000     
   1.8312565160438513E-002   1.2186138056197502E-002   0.0000000000000000     
   0.0000000000000000        0.0000000000000000        0.0000000000000000     
   3.9535904966993048E-003   2.4251416237623703E-003   0.0000000000000000     
   7.9106431197655154E-003   5.0629598737667687E-003   0.0000000000000000     
   1.1871157869198628E-002   7.9134547500131960E-003   0.0000000000000000     
   1.5835134744998650E-002   1.0976626252501650E-002   0.0000000000000000     
   0.0000000000000000        0.0000000000000000        0.0000000000000000     
   3.2832321607600343E-003   1.9993453209606804E-003   0.0000000000000000     
   6.6769885477193725E-003   4.3309617662744748E-003   0.0000000000000000     
   1.0181269160878016E-002   6.9948493359413806E-003   0.0000000000000000     
   1.3796074000235961E-002   9.9910080299613954E-003   0.0000000000000000     
   0.0000000000000000        0.0000000000000000        0.0000000000000000     
   2.8800806604200599E-003   1.7448443872447219E-003   0.0000000000000000     
   5.8726713682518234E-003   3.8646730810890867E-003   0.0000000000000000     
   8.9777721234952888E-003   6.3594860815330946E-003   0.0000000000000000     
   1.2195382926150458E-002   9.2292833885767450E-003   0.0000000000000000     
   2.1228365246555560E-002   1.3619543441048950E-002   0.0000000000000000     
   2.5433500091794001E-002   1.6612362708643587E-002   0.0000000000000000     
   2.9538285640863120E-002   1.9809674061198240E-002   0.0000000000000000     
   3.3542721893762929E-002   2.3211477498712902E-002   0.0000000000000000     
   3.7446808850493424E-002   2.6817773021187583E-002   0.0000000000000000     
   1.8312565160438513E-002   1.2186138056197502E-002   0.0000000000000000     
   2.2407194005427344E-002   1.5341606727452271E-002   0.0000000000000000     
   2.6369502968516575E-002   1.8650140464052275E-002   0.0000000000000000     
   3.0199492049706185E-002   2.2111739265997504E-002   0.0000000000000000     
   3.3897161248996201E-002   2.5726403133287973E-002   0.0000000000000000     
   1.5835134744998650E-002   1.0976626252501650E-002   0.0000000000000000     
   1.9730801754243486E-002   1.4211285068636961E-002   0.0000000000000000     
   2.3486386904011076E-002   1.7576241885823952E-002   0.0000000000000000     
   2.7101890194301401E-002   2.1071496704062626E-002   0.0000000000000000     
   3.0577311625114477E-002   2.4697049523352981E-002   0.0000000000000000     
   1.3796074000235961E-002   9.9910080299613954E-003   0.0000000000000000     
   1.7404323338242430E-002   1.3221397732197658E-002   0.0000000000000000     
   2.0888937447346632E-002   1.6587978326513278E-002   0.0000000000000000     
   2.4249916327548571E-002   2.0090749812908260E-002   0.0000000000000000     
   2.7487259978848259E-002   2.3729712191382611E-002   0.0000000000000000     
   1.2195382926150458E-002   9.2292833885767450E-003   0.0000000000000000     
   1.5427758757424168E-002   1.2371944718134353E-002   0.0000000000000000     
   1.8577154598523247E-002   1.5685349786120246E-002   0.0000000000000000     
   2.1643570449447706E-002   1.9169498592534411E-002   0.0000000000000000     
   2.4627006310197534E-002   2.2824391137376859E-002   0.0000000000000000     
   3.7446808850493424E-002   2.6817773021187583E-002   0.0000000000000000     
   4.1255099265697572E-002   3.0623365456432135E-002   0.0000000000000000     
   4.4972145894018350E-002   3.4623059632256419E-002   0.0000000000000000     
   4.8597948735455754E-002   3.8816855548660427E-002   0.0000000000000000     
   5.2132507790009788E-002   4.3204753205644174E-002   0.0000000000000000     
   3.3897161248996201E-002   2.5726403133287973E-002   0.0000000000000000     
   3.7485759322010391E-002   2.9522752400911820E-002   0.0000000000000000     
   4.0988535024372559E-002   3.3529407403857216E-002   0.0000000000000000     
   4.4405488356082691E-002   3.7746368142124162E-002   0.0000000000000000     
   4.7736619317140808E-002   4.2173634615712635E-002   0.0000000000000000     
   3.0577311625114477E-002   2.4697049523352981E-002   0.0000000000000000     
   3.3942094981716638E-002   2.8497465072114654E-002   0.0000000000000000     
   3.7225684049374243E-002   3.2517308078767272E-002   0.0000000000000000     
   4.0428078828087272E-002   3.6756578543310846E-002   0.0000000000000000     
   4.3549279317855752E-002   4.1215276465745368E-002   0.0000000000000000     
   2.7487259978848259E-002   2.3729712191382611E-002   0.0000000000000000     
   3.0624106244816315E-002   2.7547503470040619E-002   0.0000000000000000     
   3.3683592969023395E-002   3.1586761656986581E-002   0.0000000000000000     
   3.6665720151469496E-002   3.5847486752220506E-002   0.0000000000000000     
   3.9570487792154621E-002   4.0329678755742372E-002   0.0000000000000000     
   2.4627006310197534E-002   2.2824391137376859E-002   0.0000000000000000     
   2.7531793111309415E-002   2.6672867594689724E-002   0.0000000000000000     
   3.0362261783320021E-002   3.0737768138515139E-002   0.0000000000000000     
   3.3118412326229356E-002   3.5019092768853108E-002   0.0000000000000000     
   3.5800244740037415E-002   3.9516841485703641E-002   0.0000000000000000     
   5.2132507790009788E-002   4.3204753205644174E-002   0.0000000000000000     
   5.5572366659426470E-002   4.7792748473477947E-002   0.0000000000000000     
   5.8914068945451842E-002   5.2586837222432042E-002   0.0000000000000000     
   6.2157614648085890E-002   5.7587019452506473E-002   0.0000000000000000     
   6.5303003767328630E-002   6.2793295163701218E-002   0.0000000000000000     
   4.7736619317140808E-002   4.2173634615712635E-002   0.0000000000000000     
   5.0977252403886293E-002   4.6805150596361728E-002   0.0000000000000000     
   5.4122712112658559E-002   5.1634859855810469E-002   0.0000000000000000     
   5.7172998443457593E-002   5.6662762394058895E-002   0.0000000000000000     
   6.0128111396283421E-002   6.1888858211106977E-002   0.0000000000000000     
   4.3549279317855752E-002   4.1215276465745368E-002   0.0000000000000000     
   4.6584639651681810E-002   4.5880685589450784E-002   0.0000000000000000     
   4.9529513962567558E-002   5.0740089657807068E-002   0.0000000000000000     
   5.2383902250513009E-002   5.5793488670814191E-002   0.0000000000000000     
   5.5147804515518171E-002   6.1040882628472147E-002   0.0000000000000000     
   3.9570487792154621E-002   4.0329678755742372E-002   0.0000000000000000     
   4.2394528402812992E-002   4.5019353452745152E-002   0.0000000000000000     
   4.5134474495178829E-002   4.9902526628421810E-002   0.0000000000000000     
   4.7790326069252133E-002   5.4979198282772347E-002   0.0000000000000000     
   5.0362083125032910E-002   6.0249368415796735E-002   0.0000000000000000     
   3.5800244740037415E-002   3.9516841485703641E-002   0.0000000000000000     
   3.8406918657279875E-002   4.4221154186244810E-002   0.0000000000000000     
   4.0937593710492402E-002   4.9122170767654717E-002   0.0000000000000000     
   4.3392269899674978E-002   5.4219891229933356E-002   0.0000000000000000     
   4.5770947224827621E-002   5.9514315573080727E-002   0.0000000000000000     
   6.5303003767328630E-002   6.2793295163701218E-002   0.0000000000000000     
   6.8355547551863682E-002   6.8190497827661484E-002   0.0000000000000000     
   7.1320557250374686E-002   7.3763460916032461E-002   0.0000000000000000     
   7.4198032862861613E-002   7.9512184428814137E-002   0.0000000000000000     
   7.6987974389324504E-002   8.5436668366006524E-002   0.0000000000000000     
   6.0128111396283421E-002   6.1888858211106977E-002   0.0000000000000000     
   6.2994287440405639E-002   6.7303942395840019E-002   0.0000000000000000     
   6.5777763045093932E-002   7.2898810037143311E-002   0.0000000000000000     
   6.8478538210348272E-002   7.8673461135016845E-002   0.0000000000000000     
   7.1096612936168674E-002   8.4627895689460622E-002   0.0000000000000000     
   5.5147804515518171E-002   6.1040882628472147E-002   0.0000000000000000     
   5.7827461298112746E-002   6.6476354441183050E-002   0.0000000000000000     
   6.0429113138826443E-002   7.2093987019348965E-002   0.0000000000000000     
   6.2952760037659261E-002   7.7893780362969858E-002   0.0000000000000000     
   6.5398401994611208E-002   8.3875734472045799E-002   0.0000000000000000     
   5.0362083125032910E-002   6.0249368415796735E-002   0.0000000000000000     
   5.2855069124984992E-002   6.5707733963690576E-002   0.0000000000000000     
   5.5274607531572213E-002   7.1348991862649397E-002   0.0000000000000000     
   5.7620698344794566E-002   7.7173142112673218E-002   0.0000000000000000     
   5.9893341564652078E-002   8.3180184713762054E-002   0.0000000000000000     
   4.5770947224827621E-002   5.9514315573080727E-002   0.0000000000000000     
   4.8077110921022369E-002   6.4998080963362584E-002   0.0000000000000000     
   5.0314246223331228E-002   7.0663824567044661E-002   0.0000000000000000     
   5.2482353131754221E-002   7.6511546384126938E-002   0.0000000000000000     
   5.4581431646291326E-002   8.2541246414609443E-002   0.0000000000000000     
   7.6987974389324504E-002   8.5436668366006524E-002   0.0000000000000000     
   7.9679907537393277E-002   9.1529322522394582E-002   0.0000000000000000     
   8.2263358014697849E-002   9.7782556692763214E-002   0.0000000000000000     
   8.4738325821238233E-002  0.10419637087711245        0.0000000000000000     
   8.7104810957014417E-002  0.11077076507544228        0.0000000000000000     
   7.1096612936168674E-002   8.4627895689460622E-002   0.0000000000000000     
   7.3622244608124929E-002   9.0751329389421528E-002   0.0000000000000000     
   7.6045690611786856E-002   9.7032977923846450E-002   0.0000000000000000     
   7.8366950947154443E-002  0.10347284129273540        0.0000000000000000     
   8.0586025614227702E-002  0.11007091949608835        0.0000000000000000     
   6.5398401994611208E-002   8.3875734472045799E-002   0.0000000000000000     
   6.7757159767835723E-002   9.0027146625595800E-002   0.0000000000000000     
   7.0020154115486316E-002   9.6335314102639014E-002   0.0000000000000000     
   7.2187385037562946E-002  0.10280023690317543        0.0000000000000000     
   7.4258852534065653E-002  0.10942191502720500        0.0000000000000000     
   5.9893341564652078E-002   8.3180184713762054E-002   0.0000000000000000     
   6.2084653016525652E-002   8.9356774230917438E-002   0.0000000000000000     
   6.4186748525796200E-002   9.5689565229140933E-002   0.0000000000000000     
   6.6199628092463728E-002  0.10217855770843250        0.0000000000000000     
   6.8123291716528228E-002  0.10882375166879216        0.0000000000000000     
   5.4581431646291326E-002   8.2541246414609443E-002   0.0000000000000000     
   5.6604724354194717E-002   8.8740212205386415E-002   0.0000000000000000     
   5.8545473842716536E-002   9.5095731303352166E-002   0.0000000000000000     
   6.0403680111856789E-002  0.10160780370850664        0.0000000000000000     
   6.2179343161615483E-002  0.10827642942084992        0.0000000000000000     
   8.7104810957014417E-002  0.11077076507544228        0.0000000000000000     
   8.9380124782355685E-002  0.11749230948129424        0.0000000000000000     
   9.1581578657591270E-002  0.12434757428820986        0.0000000000000000     
   9.3709172582721198E-002  0.13133655949618919        0.0000000000000000     
   9.5762906557745442E-002  0.13845926510523213        0.0000000000000000     
   8.0586025614227702E-002  0.11007091949608835        0.0000000000000000     
   8.2719433019916411E-002  0.11681500110935249        0.0000000000000000     
   8.4783691571130318E-002  0.12369287470797487        0.0000000000000000     
   8.6778801267869424E-002  0.13070454029195558        0.0000000000000000     
   8.8704762110133784E-002  0.13784999786129454        0.0000000000000000     
   7.4258852534065653E-002  0.10942191502720500        0.0000000000000000     
   7.6250118168870520E-002  0.11618888678397631        0.0000000000000000     
   7.8176743505853699E-002  0.12308969048273781        0.0000000000000000     
   8.0038728545015175E-002  0.13012432612348954        0.0000000000000000     
   8.1836073286354977E-002  0.13729279370623154        0.0000000000000000     
   6.8123291716528228E-002  0.10882375166879216        0.0000000000000000     
   6.9972180229218028E-002  0.11561396650516564        0.0000000000000000     
   7.1760734461761427E-002  0.12253802161249866        0.0000000000000000     
   7.3488954414158439E-002  0.12959591699079115        0.0000000000000000     
   7.5156840086409035E-002  0.13678765264004322        0.0000000000000000     
   6.2179343161615483E-002  0.10827642942084992        0.0000000000000000     
   6.3885619200958949E-002  0.11509024027292060        0.0000000000000000     
   6.5535664438853516E-002  0.12203786809725743        0.0000000000000000     
   6.7129478875299201E-002  0.12911931289386039        0.0000000000000000     
   6.8667062510295973E-002  0.13633457466272952        0.0000000000000000     
   9.5762906557745442E-002  0.13845926510523213        0.0000000000000000     
   9.7713465634088531E-002  0.14571967061433982        0.0000000000000000     
   9.9531534863174953E-002  0.15312175552251336        0.0000000000000000     
  0.10121711424500468       0.16066551982975269        0.0000000000000000     
  0.10277020377957775       0.16835096353605783        0.0000000000000000     
   8.8704762110133784E-002  0.13784999786129454        0.0000000000000000     
   9.0531749361950895E-002  0.14512136122265798        0.0000000000000000     
   9.2229938287348365E-002  0.15251074418271210        0.0000000000000000     
   9.3799328886326194E-002  0.16001814674145690        0.0000000000000000     
   9.5239921158884383E-002  0.16764356889889237        0.0000000000000000     
   8.1836073286354977E-002  0.13729279370623154        0.0000000000000000     
   8.3539122245665592E-002  0.14457969002608101        0.0000000000000000     
   8.5118219938739623E-002  0.15196961187815514        0.0000000000000000     
   8.6573366365577054E-002  0.15946255926245395        0.0000000000000000     
   8.7904561526177857E-002  0.16705853217897743        0.0000000000000000     
   7.5156840086409035E-002  0.13678765264004322        0.0000000000000000     
   7.6735584285232666E-002  0.14409465702460891        0.0000000000000000     
   7.8196379817348741E-002  0.15149835860884250        0.0000000000000000     
   7.9539226682757244E-002  0.15899875739274386        0.0000000000000000     
   8.0764124881458205E-002  0.16659585337631302        0.0000000000000000     
   6.8667062510295973E-002  0.13633457466272952        0.0000000000000000     
   7.0121135480652061E-002  0.14366626221824175        0.0000000000000000     
   7.1464417923175677E-002  0.15109698437477409        0.0000000000000000     
   7.2696909837866794E-002  0.15862674113232658        0.0000000000000000     
   7.3818611224725411E-002  0.16625553249089914        0.0000000000000000     
   0.0000000000000000        0.0000000000000000        0.0000000000000000     
   2.8800806604200599E-003   1.7448443872447219E-003   0.0000000000000000     
   5.8726713682518234E-003   3.8646730810890867E-003   0.0000000000000000     
   8.9777721234952888E-003   6.3594860815330946E-003   0.0000000000000000     
   1.2195382926150458E-002   9.2292833885767450E-003   0.0000000000000000     
   0.0000000000000000        0.0000000000000000        0.0000000000000000     
   2.6103098299331854E-003   1.5889533958651414E-003   0.0000000000000000     
   5.2897283086508467E-003   3.5567521352719914E-003   0.0000000000000000     
   8.0382554361529829E-003   5.9033962182205501E-003   0.0000000000000000     
   1.0855891212439597E-002   8.6288856447108188E-003   0.0000000000000000     
   0.0000000000000000        0.0000000000000000        0.0000000000000000     
   2.3400935035532140E-003   1.4589869200725858E-003   0.0000000000000000     
   4.7201960962044249E-003   3.2998572458845729E-003   0.0000000000000000     
   7.1403077779536323E-003   5.5226109774359610E-003   0.0000000000000000     
   9.6004285488008358E-003   8.1272481147267490E-003   0.0000000000000000     
   0.0000000000000000        0.0000000000000000        0.0000000000000000     
   2.0694316812801452E-003   1.3549449598670555E-003   0.0000000000000000     
   4.1640747309125573E-003   3.0939884129268305E-003   0.0000000000000000     
   6.2839291488972363E-003   5.2171303591793247E-003   0.0000000000000000     
   8.4289949352341804E-003   7.7243707986245401E-003   0.0000000000000000     
   0.0000000000000000        0.0000000000000000        0.0000000000000000     
   1.7983243631139794E-003   1.2768275152485503E-003   0.0000000000000000     
   3.6213642127752434E-003   2.9391456363987651E-003   0.0000000000000000     
   5.4691195489837922E-003   4.9869543634506438E-003   0.0000000000000000     
   7.3415903717396255E-003   7.4202536964041860E-003   0.0000000000000000     
   1.2195382926150458E-002   9.2292833885767450E-003   0.0000000000000000     
   1.5427758757424168E-002   1.2371944718134353E-002   0.0000000000000000     
   1.8577154598523247E-002   1.5685349786120246E-002   0.0000000000000000     
   2.1643570449447706E-002   1.9169498592534411E-002   0.0000000000000000     
   2.4627006310197534E-002   2.2824391137376859E-002   0.0000000000000000     
   1.0855891212439597E-002   8.6288856447108188E-003   0.0000000000000000     
   1.3689260243063871E-002   1.1650933638026422E-002   0.0000000000000000     
   1.6484987133578991E-002   1.4887253421450992E-002   0.0000000000000000     
   1.9243071883984959E-002   1.8337844994984524E-002   0.0000000000000000     
   2.1963514494281772E-002   2.2002708358627027E-002   0.0000000000000000     
   9.6004285488008358E-003   8.1272481147267490E-003   0.0000000000000000     
   1.2076980026436713E-002   1.1046372103453220E-002   0.0000000000000000     
   1.4546383828551938E-002   1.4212586389311652E-002   0.0000000000000000     
   1.7008639955146506E-002   1.7625890972302043E-002   0.0000000000000000     
   1.9463748406220421E-002   2.1286285852424397E-002   0.0000000000000000     
   8.4289949352341804E-003   7.7243707986245401E-003   0.0000000000000000     
   1.0590918107542695E-002   1.0558260114414747E-002   0.0000000000000000     
   1.2761344683442085E-002   1.3661348689702223E-002   0.0000000000000000     
   1.4940274662932353E-002   1.7033636524486966E-002   0.0000000000000000     
   1.7127708046013490E-002   2.0675123618768974E-002   0.0000000000000000     
   7.3415903717396255E-003   7.4202536964041860E-003   0.0000000000000000     
   9.2310744863818191E-003   1.0186597670911004E-002   0.0000000000000000     
   1.1129869698249440E-002   1.3233540322622707E-002   0.0000000000000000     
   1.3037976007342493E-002   1.6561081651539293E-002   0.0000000000000000     
   1.4955393413660976E-002   2.0169221657660767E-002   0.0000000000000000     
   2.4627006310197534E-002   2.2824391137376859E-002   0.0000000000000000     
   2.7531793111309415E-002   2.6672867594689724E-002   0.0000000000000000     
   3.0362261783320021E-002   3.0737768138515139E-002   0.0000000000000000     
   3.3118412326229356E-002   3.5019092768853108E-002   0.0000000000000000     
   3.5800244740037415E-002   3.9516841485703641E-002   0.0000000000000000     
   2.1963514494281772E-002   2.2002708358627027E-002   0.0000000000000000     
   2.4630009894320383E-002   2.5879923459780810E-002   0.0000000000000000     
   2.7226253013951745E-002   2.9967570245848198E-002   0.0000000000000000     
   2.9752243853175851E-002   3.4265648716829196E-002   0.0000000000000000     
   3.2207982411992707E-002   3.8774158872723806E-002   0.0000000000000000     
   1.9463748406220421E-002   2.1286285852424397E-002   0.0000000000000000     
   2.1883610906973661E-002   2.5175037079032715E-002   0.0000000000000000     
   2.4240129182606176E-002   2.9273410701481005E-002   0.0000000000000000     
   2.6533303233117971E-002   3.3581406719769266E-002   0.0000000000000000     
   2.8763133058509065E-002   3.8099025133897499E-002   0.0000000000000000     
   1.7127708046013490E-002   2.0675123618768974E-002   0.0000000000000000     
   1.9292596149269238E-002   2.4558208452445444E-002   0.0000000000000000     
   2.1403890289283318E-002   2.8655289505413555E-002   0.0000000000000000     
   2.3461590466055733E-002   3.2966366777673325E-002   0.0000000000000000     
   2.5465696679586487E-002   3.7491440269224720E-002   0.0000000000000000     
   1.4955393413660976E-002   2.0169221657660767E-002   0.0000000000000000     
   1.6856965621207125E-002   2.4029437580018999E-002   0.0000000000000000     
   1.8717536333983178E-002   2.8113206657645863E-002   0.0000000000000000     
   2.0537105551989128E-002   3.2420528890541353E-002   0.0000000000000000     
   2.2315673275224979E-002   3.6951404278705482E-002   0.0000000000000000     
   3.5800244740037415E-002   3.9516841485703641E-002   0.0000000000000000     
   3.8406918657279875E-002   4.4221154186244810E-002   0.0000000000000000     
   4.0937593710492402E-002   4.9122170767654717E-002   0.0000000000000000     
   4.3392269899674978E-002   5.4219891229933356E-002   0.0000000000000000     
   4.5770947224827621E-002   5.9514315573080727E-002   0.0000000000000000     
   3.2207982411992707E-002   3.8774158872723806E-002   0.0000000000000000     
   3.4594840851956424E-002   4.3488426459112675E-002   0.0000000000000000     
   3.6914191334621128E-002   4.8403777221576488E-002   0.0000000000000000     
   3.9166033859986793E-002   5.3520211160115239E-002   0.0000000000000000     
   4.1350368428053452E-002   5.8837728274728919E-002   0.0000000000000000     
   2.8763133058509065E-002   3.8099025133897499E-002   0.0000000000000000     
   3.0931325423716637E-002   4.2823508940511699E-002   0.0000000000000000     
   3.3039587093677901E-002   4.7752101136257864E-002   0.0000000000000000     
   3.5087918068392863E-002   5.2884801721136000E-002   0.0000000000000000     
   3.7076318347861514E-002   5.8221610695146093E-002   0.0000000000000000     
   2.5465696679586487E-002   3.7491440269224720E-002   0.0000000000000000     
   2.7416372372560512E-002   4.2226401630441869E-002   0.0000000000000000     
   2.9313780987662737E-002   4.7167142511698824E-002   0.0000000000000000     
   3.1157922524893168E-002   5.2313662912995627E-002   0.0000000000000000     
   3.2948796984251801E-002   5.7665962834332243E-002   0.0000000000000000     
   2.2315673275224979E-002   3.6951404278705482E-002   0.0000000000000000     
   2.4049981698488043E-002   4.1697104528903184E-002   0.0000000000000000     
   2.5736773016575620E-002   4.6648901347899410E-002   0.0000000000000000     
   2.7376047229487721E-002   5.1806794735694141E-002   0.0000000000000000     
   2.8967804337224335E-002   5.7170784692287382E-002   0.0000000000000000     
   4.5770947224827621E-002   5.9514315573080727E-002   0.0000000000000000     
   4.8077110921022369E-002   6.4998080963362584E-002   0.0000000000000000     
   5.0314246223331228E-002   7.0663824567044661E-002   0.0000000000000000     
   5.2482353131754221E-002   7.6511546384126938E-002   0.0000000000000000     
   5.4581431646291326E-002   8.2541246414609443E-002   0.0000000000000000     
   4.1350368428053452E-002   5.8837728274728919E-002   0.0000000000000000     
   4.3468766568601207E-002   6.4346121199837222E-002   0.0000000000000000     
   4.5522799811410178E-002   7.0035182569859786E-002   0.0000000000000000     
   4.7512468156480372E-002   7.5904912384796616E-002   0.0000000000000000     
   4.9437771603811784E-002   8.1955310644647755E-002   0.0000000000000000     
   3.7076318347861514E-002   5.8221610695146093E-002   0.0000000000000000     
   3.9005215950097809E-002   6.3750580432752585E-002   0.0000000000000000     
   4.0875038893115702E-002   6.9459763308419881E-002   0.0000000000000000     
   4.2685787176915201E-002   7.5349159322147960E-002   0.0000000000000000     
   4.4437460801496305E-002   8.1418768473936851E-002   0.0000000000000000     
   3.2948796984251801E-002   5.7665962834332243E-002   0.0000000000000000     
   3.4686459065512182E-002   6.3211458662108672E-002   0.0000000000000000     
   3.6370963468447808E-002   6.8937566782724918E-002   0.0000000000000000     
   3.8002310193058733E-002   7.4844287196180928E-002   0.0000000000000000     
   3.9580499239344903E-002   8.0931619902476770E-002   0.0000000000000000     
   2.8967804337224335E-002   5.7170784692287382E-002   0.0000000000000000     
   3.0512495914844319E-002   6.2728755887905524E-002   0.0000000000000000     
   3.2010573537406523E-002   6.8468592992774913E-002   0.0000000000000000     
   3.3462037204910935E-002   7.4390296006895562E-002   0.0000000000000000     
   3.4866886917357565E-002   8.0493864930267472E-002   0.0000000000000000     
   5.4581431646291326E-002   8.2541246414609443E-002   0.0000000000000000     
   5.6604724354194717E-002   8.8740212205386415E-002   0.0000000000000000     
   5.8545473842716536E-002   9.5095731303352166E-002   0.0000000000000000     
   6.0403680111856789E-002  0.10160780370850664        0.0000000000000000     
   6.2179343161615483E-002  0.10827642942084992        0.0000000000000000     
   4.9437771603811784E-002   8.1955310644647755E-002   0.0000000000000000     
   5.1292955157246106E-002   8.8174655772237404E-002   0.0000000000000000     
   5.3072263820625028E-002   9.4551226190389873E-002   0.0000000000000000     
   5.4775697593948555E-002  0.10108502189910515        0.0000000000000000     
   5.6403256477216668E-002  0.10777604289838322        0.0000000000000000     
   4.4437460801496305E-002   8.1418768473936851E-002   0.0000000000000000     
   4.6124926802083029E-002   8.7657300154705103E-002   0.0000000000000000     
   4.7743052213899406E-002   9.4053463755371242E-002   0.0000000000000000     
   4.9291837036945424E-002  0.10060725927593524        0.0000000000000000     
   5.0771281271221089E-002  0.10731868671639712        0.0000000000000000     
   3.9580499239344903E-002   8.0931619902476770E-002   0.0000000000000000     
   4.1100639288705498E-002   8.7188145352789487E-002   0.0000000000000000     
   4.2557839022539679E-002   9.3602443998296217E-002   0.0000000000000000     
   4.3952098440847409E-002  0.10017451583899693        0.0000000000000000     
   4.5283417543628739E-002  0.10690436087489165        0.0000000000000000     
   3.4866886917357565E-002   8.0493864930267472E-002   0.0000000000000000     
   3.6220092617113502E-002   8.6767191366490581E-002   0.0000000000000000     
   3.7516624246545817E-002   9.3198166919164827E-002   0.0000000000000000     
   3.8756481805654532E-002   9.9786791588290222E-002   0.0000000000000000     
   3.9939665294439611E-002  0.10653306537386678        0.0000000000000000     
   6.2179343161615483E-002  0.10827642942084992        0.0000000000000000     
   6.3885619200958949E-002  0.11509024027292060        0.0000000000000000     
   6.5535664438853516E-002  0.12203786809725743        0.0000000000000000     
   6.7129478875299201E-002  0.12911931289386039        0.0000000000000000     
   6.8667062510295973E-002  0.13633457466272952        0.0000000000000000     
   5.6403256477216668E-002  0.10777604289838322        0.0000000000000000     
   5.7966821895299565E-002  0.11461260996545751        0.0000000000000000     
   5.9478275273067385E-002  0.12158304387756140        0.0000000000000000     
   6.0937616610520148E-002  0.12868734463469497        0.0000000000000000     
   6.2344845907657834E-002  0.13592551223685814        0.0000000000000000     
   5.0771281271221089E-002  0.10731868671639712        0.0000000000000000     
   5.2192175123446163E-002  0.11417597746099273        0.0000000000000000     
   5.3565308800340460E-002  0.12116736289395788        0.0000000000000000     
   5.4890682301903963E-002  0.12829284301529259        0.0000000000000000     
   5.6168295628136675E-002  0.13555241782499677        0.0000000000000000     
   4.5283417543628739E-002  0.10690436087489165        0.0000000000000000     
   4.6561678885398812E-002  0.11378034275952631        0.0000000000000000     
   4.7796765020672774E-002  0.12079082514644682        0.0000000000000000     
   4.8988675949450673E-002  0.12793580803565324        0.0000000000000000     
   5.0137411671732489E-002  0.13521529142714550        0.0000000000000000     
   3.9939665294439611E-002  0.10653306537386678        0.0000000000000000     
   4.1075333181157428E-002  0.11342570586105821        0.0000000000000000     
   4.2172643934064315E-002  0.12045343063502827        0.0000000000000000     
   4.3231597553160264E-002  0.12761623969577693        0.0000000000000000     
   4.4252194038445269E-002  0.13491413304330421        0.0000000000000000     
   6.8667062510295973E-002  0.13633457466272952        0.0000000000000000     
   7.0121135480652061E-002  0.14366626221824175        0.0000000000000000     
   7.1464417923175677E-002  0.15109698437477409        0.0000000000000000     
   7.2696909837866794E-002  0.15862674113232658        0.0000000000000000     
   7.3818611224725411E-002  0.16625553249089914        0.0000000000000000     
   6.2344845907657834E-002  0.13592551223685814        0.0000000000000000     
   6.3674576696742147E-002  0.14328301094497839        0.0000000000000000     
   6.4901422510034792E-002  0.15074530501998318        0.0000000000000000     
   6.6025383347535757E-002  0.15831239446187254        0.0000000000000000     
   6.7046459209245027E-002  0.16598427927064641        0.0000000000000000     
   5.6168295628136675E-002  0.13555241782499677        0.0000000000000000     
   5.7374708798321267E-002  0.14293340854281783        0.0000000000000000     
   5.8486481831740461E-002  0.15042313638850299        0.0000000000000000     
   5.9503614728394223E-002  0.15802160136205218        0.0000000000000000     
   6.0426107488282588E-002  0.16572880346346547        0.0000000000000000     
   5.0137411671732489E-002  0.13521529142714550        0.0000000000000000     
   5.1221531785389400E-002  0.14261745501176007        0.0000000000000000     
   5.2219595888292648E-002  0.15013047848033342        0.0000000000000000     
   5.3131603980442199E-002  0.15775436183286551        0.0000000000000000     
   5.3957556061838066E-002  0.16548910506935635        0.0000000000000000     
   4.4252194038445269E-002  0.13491413304330421        0.0000000000000000     
   4.5215045657946561E-002  0.14233515035180508        0.0000000000000000     
   4.6100764679691361E-002  0.14986733129547450        0.0000000000000000     
   4.6909351103679671E-002  0.15751067587431244        0.0000000000000000     
   4.7640804929911504E-002  0.16526518408831900        0.0000000000000000     
   0.0000000000000000        0.0000000000000000        0.0000000000000000     
   1.7983243631139794E-003   1.2768275152485503E-003   0.0000000000000000     
   3.6213642127752434E-003   2.9391456363987651E-003   0.0000000000000000     
   5.4691195489837922E-003   4.9869543634506438E-003   0.0000000000000000     
   7.3415903717396255E-003   7.4202536964041860E-003   0.0000000000000000     
   0.0000000000000000        0.0000000000000000        0.0000000000000000     
   1.5350357715374734E-003   1.2175309070046837E-003   0.0000000000000000     
   3.0994074274704698E-003   2.8208312728129049E-003   0.0000000000000000     
   4.6931149677989894E-003   4.8099010974246639E-003   0.0000000000000000     
   6.3161583925230320E-003   7.1847403808399605E-003   0.0000000000000000     
   0.0000000000000000        0.0000000000000000        0.0000000000000000     
   1.2878301290333838E-003   1.1699514559230691E-003   0.0000000000000000     
   2.6055472606762204E-003   2.7245476786817800E-003   0.0000000000000000     
   3.9531513949285103E-003   4.6637886682761335E-003   0.0000000000000000     
   5.3306425317902525E-003   6.9876744247061280E-003   0.0000000000000000     
   0.0000000000000000        0.0000000000000000        0.0000000000000000     
   1.0567074356017106E-003   1.1340891620037058E-003   0.0000000000000000     
   2.1397837123924958E-003   2.6502948540053899E-003   0.0000000000000000     
   3.2492288303723558E-003   4.5486170760050508E-003   0.0000000000000000     
   4.3850427895412904E-003   6.8290558280026913E-003   0.0000000000000000     
   0.0000000000000000        0.0000000000000000        0.0000000000000000     
   8.4166769124245384E-004   1.1099440252465948E-003   0.0000000000000000     
   1.7021167826192958E-003   2.5980727987837348E-003   0.0000000000000000     
   2.5813472741305259E-003   4.4643863206114201E-003   0.0000000000000000     
   3.4793591657761437E-003   6.7088845907296493E-003   0.0000000000000000     
   7.3415903717396255E-003   7.4202536964041860E-003   0.0000000000000000     
   9.2310744863818191E-003   1.0186597670911004E-002   0.0000000000000000     
   1.1129869698249440E-002   1.3233540322622707E-002   0.0000000000000000     
   1.3037976007342493E-002   1.6561081651539293E-002   0.0000000000000000     
   1.4955393413660976E-002   2.0169221657660767E-002   0.0000000000000000     
   6.3161583925230320E-003   7.1847403808399605E-003   0.0000000000000000     
   7.9558240430065846E-003   9.8957436652537690E-003   0.0000000000000000     
   9.5993982606136282E-003   1.2893305492861065E-002   0.0000000000000000     
   1.1246881045344171E-002   1.6177425863661849E-002   0.0000000000000000     
   1.2898272397198211E-002   1.9748104777656119E-002   0.0000000000000000     
   5.3306425317902525E-003   6.9876744247061280E-003   0.0000000000000000     
   6.7235416574694968E-003   9.6500569897548186E-003   0.0000000000000000     
   8.1173697581742917E-003   1.2604788405205257E-002   0.0000000000000000     
   9.5121268339046355E-003   1.5851868671057440E-002   0.0000000000000000     
   1.0907812884660528E-002   1.9391297787311378E-002   0.0000000000000000     
   4.3850427895412904E-003   6.8290558280026913E-003   0.0000000000000000     
   5.5342273297705599E-003   9.4495376444141532E-003   0.0000000000000000     
   6.6837841909314234E-003   1.2367989059655285E-002   0.0000000000000000     
   7.8337133730238817E-003   1.5584410073726081E-002   0.0000000000000000     
   8.9840148760479358E-003   1.9098800686626550E-002   0.0000000000000000     
   3.4793591657761437E-003   6.7088845907296493E-003   0.0000000000000000     
   4.3878810599097704E-003   9.2941856292317743E-003   0.0000000000000000     
   5.2986415588850248E-003   1.2182907456211147E-002   0.0000000000000000     
   6.2116406627019108E-003   1.5375050071667763E-002   0.0000000000000000     
   7.1268783713604247E-003   1.8870613475601625E-002   0.0000000000000000     
   1.4955393413660976E-002   2.0169221657660767E-002   0.0000000000000000     
   1.6856965621207125E-002   2.4029437580018999E-002   0.0000000000000000     
   1.8717536333983178E-002   2.8113206657645863E-002   0.0000000000000000     
   2.0537105551989128E-002   3.2420528890541353E-002   0.0000000000000000     
   2.2315673275224979E-002   3.6951404278705482E-002   0.0000000000000000     
   1.2898272397198211E-002   1.9748104777656119E-002   0.0000000000000000     
   1.4537312819152040E-002   2.3579280318334520E-002   0.0000000000000000     
   1.6147742814181958E-002   2.7644890569187685E-002   0.0000000000000000     
   1.7729562382287962E-002   3.1944935530215622E-002   0.0000000000000000     
   1.9282771523470056E-002   3.6479415201418341E-002   0.0000000000000000     
   1.0907812884660528E-002   1.9391297787311378E-002   0.0000000000000000     
   1.2294231239468701E-002   2.3198292523973141E-002   0.0000000000000000     
   1.3661185227355875E-002   2.7248069651048808E-002   0.0000000000000000     
   1.5008674848322049E-002   3.1540629168538385E-002   0.0000000000000000     
   1.6336700102367228E-002   3.6075971076441865E-002   0.0000000000000000     
   8.9840148760479358E-003   1.9098800686626550E-002   0.0000000000000000     
   1.0127720882157106E-002   2.2886474196934872E-002   0.0000000000000000     
   1.1257863573504927E-002   2.6922743903229230E-002   0.0000000000000000     
   1.2374442950091394E-002   3.1207609805509628E-002   0.0000000000000000     
   1.3477459011916500E-002   3.5741071903776067E-002   0.0000000000000000     
   7.1268783713604247E-003   1.8870613475601625E-002   0.0000000000000000     
   8.0377817472172611E-003   2.2643825337219696E-002   0.0000000000000000     
   8.9377778526291158E-003   2.6668913325728939E-002   0.0000000000000000     
   9.8268666875959854E-003   3.0945877441129352E-002   0.0000000000000000     
   1.0705048252117873E-002   3.5474717683420934E-002   0.0000000000000000     
   2.2315673275224979E-002   3.6951404278705482E-002   0.0000000000000000     
   2.4049981698488043E-002   4.1697104528903184E-002   0.0000000000000000     
   2.5736773016575620E-002   4.6648901347899410E-002   0.0000000000000000     
   2.7376047229487721E-002   5.1806794735694141E-002   0.0000000000000000     
   2.8967804337224335E-002   5.7170784692287382E-002   0.0000000000000000     
   1.9282771523470056E-002   3.6479415201418341E-002   0.0000000000000000     
   2.0800667675429582E-002   4.1234176586036515E-002   0.0000000000000000     
   2.2276548275867898E-002   4.6195066687310826E-002   0.0000000000000000     
   2.3710413324784994E-002   5.1362085505241274E-002   0.0000000000000000     
   2.5102262822180872E-002   5.6735233039827880E-002   0.0000000000000000     
   1.6336700102367228E-002   3.6075971076441865E-002   0.0000000000000000     
   1.7636944577315489E-002   4.0836176751982714E-002   0.0000000000000000     
   1.8901091860990898E-002   4.5803327572384360E-002   0.0000000000000000     
   2.0129141953393468E-002   5.0977423537646810E-002   0.0000000000000000     
   2.1321094854523194E-002   5.6358464647770078E-002   0.0000000000000000     
   1.3477459011916500E-002   3.5741071903776067E-002   0.0000000000000000     
   1.4558812404145751E-002   4.0503105026741780E-002   0.0000000000000000     
   1.5610403771944633E-002   4.5473684003119998E-002   0.0000000000000000     
   1.6632233115313148E-002   5.0652808832910734E-002   0.0000000000000000     
   1.7624300434251294E-002   5.6040479516113982E-002   0.0000000000000000     
   1.0705048252117873E-002   3.5474717683420934E-002   0.0000000000000000     
   1.1566271155920377E-002   4.0234961410313713E-002   0.0000000000000000     
   1.2404484008729094E-002   4.5206135979517760E-002   0.0000000000000000     
   1.3219686810544027E-002   5.0388241391033053E-002   0.0000000000000000     
   1.4011879561365174E-002   5.5781277644859593E-002   0.0000000000000000     
   2.8967804337224335E-002   5.7170784692287382E-002   0.0000000000000000     
   3.0512495914844319E-002   6.2728755887905524E-002   0.0000000000000000     
   3.2010573537406523E-002   6.8468592992774913E-002   0.0000000000000000     
   3.3462037204910935E-002   7.4390296006895562E-002   0.0000000000000000     
   3.4866886917357565E-002   8.0493864930267472E-002   0.0000000000000000     
   2.5102262822180872E-002   5.6735233039827880E-002   0.0000000000000000     
   2.6453124681242713E-002   6.2303125787323901E-002   0.0000000000000000     
   2.7764026815157695E-002   6.8054380243982665E-002   0.0000000000000000     
   2.9034969223925809E-002   7.3988996409804136E-002   0.0000000000000000     
   3.0265951907547058E-002   8.0106974284788329E-002   0.0000000000000000     
   2.1321094854523194E-002   5.6358464647770078E-002   0.0000000000000000     
   2.2478143547855857E-002   6.1935222037544611E-002   0.0000000000000000     
   2.3601481016867223E-002   6.7696466841760908E-002   0.0000000000000000     
   2.4691107261557314E-002   7.3642199060418953E-002   0.0000000000000000     
   2.5747022281926116E-002   7.9772418693518726E-002   0.0000000000000000     
   1.7624300434251294E-002   5.6040479516113982E-002   0.0000000000000000     
   1.8587552514683733E-002   6.1625044638567640E-002   0.0000000000000000     
   1.9522936142535124E-002   6.7394852786109641E-002   0.0000000000000000     
   2.0430451317805461E-002   7.3349903958739970E-002   0.0000000000000000     
   2.1310098040494756E-002   7.9490198156458650E-002   0.0000000000000000     
   1.4011879561365174E-002   5.5781277644859593E-002   0.0000000000000000     
   1.4781351581726353E-002   6.1372593590393008E-002   0.0000000000000000     
   1.5528392192161379E-002   6.7149538077028892E-002   0.0000000000000000     
   1.6253001392670250E-002   7.3112111104767258E-002   0.0000000000000000     
   1.6955179183252969E-002   7.9260312673608099E-002   0.0000000000000000     
   3.4866886917357565E-002   8.0493864930267472E-002   0.0000000000000000     
   3.6220092617113502E-002   8.6767191366490581E-002   0.0000000000000000     
   3.7516624246545817E-002   9.3198166919164827E-002   0.0000000000000000     
   3.8756481805654532E-002   9.9786791588290222E-002   0.0000000000000000     
   3.9939665294439611E-002  0.10653306537386678        0.0000000000000000     
   3.0265951907547058E-002   8.0106974284788329E-002   0.0000000000000000     
   3.1451803991327104E-002   8.6395378597454234E-002   0.0000000000000000     
   3.2587354600571605E-002   9.2841274076320812E-002   0.0000000000000000     
   3.3672603735280568E-002   9.9444660721388065E-002   0.0000000000000000     
   3.4707551395453992E-002  0.10620553853265599        0.0000000000000000     
   2.5747022281926116E-002   7.9772418693518726E-002   0.0000000000000000     
   2.6764290615366358E-002   8.6073647447326346E-002   0.0000000000000000     
   2.7737976799270779E-002   9.2532407028107888E-002   0.0000000000000000     
   2.8668080833639364E-002   9.9148697435863367E-002   0.0000000000000000     
   2.9554602718472125E-002  0.10592251867059277        0.0000000000000000     
   2.1310098040494756E-002   7.9490198156458650E-002   0.0000000000000000     
   2.2157552489231284E-002   8.5801997916106917E-002   0.0000000000000000     
   2.2968490842643335E-002   9.2271565774526082E-002   0.0000000000000000     
   2.3742913100730918E-002   9.8898901731716157E-002   0.0000000000000000     
   2.4480819263494019E-002  0.10568400578767712        0.0000000000000000     
   1.6955179183252969E-002   7.9260312673608099E-002   0.0000000000000000     
   1.7631589612921869E-002   8.5580430003795963E-002   0.0000000000000000     
   1.8278896730689286E-002   9.2058750315575408E-002   0.0000000000000000     
   1.8897100536555220E-002   9.8695273608946407E-002   0.0000000000000000     
   1.9486201030519665E-002  0.10548999988390900        0.0000000000000000     
   3.9939665294439611E-002  0.10653306537386678        0.0000000000000000     
   4.1075333181157428E-002  0.11342570586105821        0.0000000000000000     
   4.2172643934064315E-002  0.12045343063502827        0.0000000000000000     
   4.3231597553160264E-002  0.12761623969577693        0.0000000000000000     
   4.4252194038445269E-002  0.13491413304330421        0.0000000000000000     
   3.4707551395453992E-002  0.10620553853265599        0.0000000000000000     
   3.5700570047624336E-002  0.11311299368836421        0.0000000000000000     
   3.6660032158324085E-002  0.12015611236675237        0.0000000000000000     
   3.7585937727553226E-002  0.12733489456782043        0.0000000000000000     
   3.8478286755311758E-002  0.13464934029156841        0.0000000000000000     
   2.9554602718472125E-002  0.10592251867059277        0.0000000000000000     
   3.0404821521701798E-002  0.11284313316422009        0.0000000000000000     
   3.1226016311261109E-002  0.11989980334866931        0.0000000000000000     
   3.2018187087150082E-002  0.12709252922394046        0.0000000000000000     
   3.2781333849368696E-002  0.13442131079003350        0.0000000000000000     
   2.4480819263494019E-002  0.10568400578767712        0.0000000000000000     
   2.5188087603389794E-002  0.11261612428862580        0.0000000000000000     
   2.5870596392875395E-002  0.11968450358077912        0.0000000000000000     
   2.6528345631950816E-002  0.12688914366413701        0.0000000000000000     
   2.7161335320616067E-002  0.13423004453869952        0.0000000000000000     
   1.9486201030519665E-002  0.10548999988390900        0.0000000000000000     
   2.0050368292688334E-002  0.11243196706158139        0.0000000000000000     
   2.0593772403166927E-002  0.11951021306308175        0.0000000000000000     
   2.1116413361955445E-002  0.12672473788841010        0.0000000000000000     
   2.1618291169053883E-002  0.13407554153756640        0.0000000000000000     
   4.4252194038445269E-002  0.13491413304330421        0.0000000000000000     
   4.5215045657946561E-002  0.14233515035180508        0.0000000000000000     
   4.6100764679691361E-002  0.14986733129547450        0.0000000000000000     
   4.6909351103679671E-002  0.15751067587431244        0.0000000000000000     
   4.7640804929911504E-002  0.16526518408831900        0.0000000000000000     
   3.8478286755311758E-002  0.13464934029156841        0.0000000000000000     
   3.9319801354148760E-002  0.14208697775123352        0.0000000000000000     
   4.0093203636613270E-002  0.14963533516005301        0.0000000000000000     
   4.0798493602705301E-002  0.15729441251802687        0.0000000000000000     
   4.1435671252424852E-002  0.16506420982515510        0.0000000000000000     
   3.2781333849368696E-002  0.13442131079003350        0.0000000000000000     
   3.3500349812151990E-002  0.14187342039832604        0.0000000000000000     
   3.4160128189734996E-002  0.14943613040019574        0.0000000000000000     
   3.4760668982117715E-002  0.15710944079564251        0.0000000000000000     
   3.5301972189300139E-002  0.16489335158466634        0.0000000000000000     
   2.7161335320616067E-002  0.13423004453869952        0.0000000000000000     
   2.7756691031956267E-002  0.14169447829308265        0.0000000000000000     
   2.8301538339056551E-002  0.14926971701590264        0.0000000000000000     
   2.8795877241916911E-002  0.15695576070715928        0.0000000000000000     
   2.9239707740537337E-002  0.16475260936685271        0.0000000000000000     
   2.1618291169053883E-002  0.13407554153756640        0.0000000000000000     
   2.2088825013561596E-002  0.14155015143550337        0.0000000000000000     
   2.2517434084577931E-002  0.14913609500717367        0.0000000000000000     
   2.2904118382102885E-002  0.15683337225257729        0.0000000000000000     
   2.3248877906136462E-002  0.16464198317171419        0.0000000000000000     
   0.0000000000000000        0.0000000000000000        0.0000000000000000     
   8.4166769124245384E-004   1.1099440252465948E-003   0.0000000000000000     
   1.7021167826192958E-003   2.5980727987837348E-003   0.0000000000000000     
   2.5813472741305259E-003   4.4643863206114201E-003   0.0000000000000000     
   3.4793591657761437E-003   6.7088845907296493E-003   0.0000000000000000     
   0.0000000000000000        0.0000000000000000        0.0000000000000000     
   6.3381475816970520E-004   1.0939432868439123E-003   0.0000000000000000     
   1.2780205183111875E-003   2.5620169621035204E-003   0.0000000000000000     
   1.9326172804244469E-003   4.4042210257788234E-003   0.0000000000000000     
   2.5976050445094836E-003   6.6205554778698238E-003   0.0000000000000000     
   0.0000000000000000        0.0000000000000000        0.0000000000000000     
   4.2425249859755627E-004   1.0825141879878346E-003   0.0000000000000000     
   8.5296896642273823E-004   2.5362627930514523E-003   0.0000000000000000     
   1.2861494034755458E-003   4.3612458151908529E-003   0.0000000000000000     
   1.7237938097559792E-003   6.5574632544060374E-003   0.0000000000000000     
   0.0000000000000000        0.0000000000000000        0.0000000000000000     
   2.1298091252600705E-004   1.0756567286783619E-003   0.0000000000000000     
   4.2696212695394792E-004   2.5208102916275312E-003   0.0000000000000000     
   6.4194364328382266E-004   4.3354606888475079E-003   0.0000000000000000     
   8.5792546151563143E-004   6.5196079203382910E-003   0.0000000000000000     
   0.0000000000000000        0.0000000000000000        0.0000000000000000     
  -4.4942456874086378E-014   1.0733709089154940E-003   0.0000000000000000     
  -9.5183247134783544E-014   2.5156594578317560E-003   0.0000000000000000     
  -1.5072237078209150E-013   4.3268656467487857E-003   0.0000000000000000     
  -2.1155977360590161E-013   6.5069894756665837E-003   0.0000000000000000     
   3.4793591657761437E-003   6.7088845907296493E-003   0.0000000000000000     
   4.3878810599097704E-003   9.2941856292317743E-003   0.0000000000000000     
   5.2986415588850248E-003   1.2182907456211147E-002   0.0000000000000000     
   6.2116406627019108E-003   1.5375050071667763E-002   0.0000000000000000     
   7.1268783713604247E-003   1.8870613475601625E-002   0.0000000000000000     
   2.5976050445094836E-003   6.6205554778698238E-003   0.0000000000000000     
   3.2699918129416024E-003   9.1780133228951209E-003   0.0000000000000000     
   3.9467855880961104E-003   1.2043587565373316E-002   0.0000000000000000     
   4.6279863699730068E-003   1.5217278205304413E-002   0.0000000000000000     
   5.3135941585722921E-003   1.8699085242688405E-002   0.0000000000000000     
   1.7237938097559792E-003   6.5574632544060374E-003   0.0000000000000000     
   2.1660485539205295E-003   9.0950331040916335E-003   0.0000000000000000     
   2.6130600046256878E-003   1.1944073357642275E-002   0.0000000000000000     
   3.0648281618714545E-003   1.5104584015057950E-002   0.0000000000000000     
   3.5213530256578305E-003   1.8576565076338671E-002   0.0000000000000000     
   8.5792546151563143E-004   6.5196079203382910E-003   0.0000000000000000     
   1.0760512828465508E-003   9.0452449728213140E-003   0.0000000000000000     
   1.2974648084737592E-003   1.1884364833018010E-002   0.0000000000000000     
   1.5221660383972549E-003   1.5036967500928382E-002   0.0000000000000000     
   1.7501549726170389E-003   1.8503052976552425E-002   0.0000000000000000     
  -2.1155977360590161E-013   6.5069894756665837E-003   0.0000000000000000     
  -2.8033234370991589E-013   9.0286489290841605E-003   0.0000000000000000     
  -3.5967700985541778E-013   1.1864461991500534E-002   0.0000000000000000     
  -4.4959356536636817E-013   1.5014428662915701E-002   0.0000000000000000     
  -5.5008200685463526E-013   1.8478548943329665E-002   0.0000000000000000     
   7.1268783713604247E-003   1.8870613475601625E-002   0.0000000000000000     
   8.0377817472172611E-003   2.2643825337219696E-002   0.0000000000000000     
   8.9377778526291158E-003   2.6668913325728939E-002   0.0000000000000000     
   9.8268666875959854E-003   3.0945877441129352E-002   0.0000000000000000     
   1.0705048252117873E-002   3.5474717683420934E-002   0.0000000000000000     
   5.3135941585722921E-003   1.8699085242688405E-002   0.0000000000000000     
   5.9966802451585687E-003   2.2461769226931085E-002   0.0000000000000000     
   6.6703159209964428E-003   2.6478090707438222E-002   0.0000000000000000     
   7.3345011860859099E-003   3.0748049684209827E-002   0.0000000000000000     
   7.9892360404269745E-003   3.5271646157245901E-002   0.0000000000000000     
   3.5213530256578305E-003   1.8576565076338671E-002   0.0000000000000000     
   3.9766827864904401E-003   2.2331729148172462E-002   0.0000000000000000     
   4.4248656348749122E-003   2.6341788837247349E-002   0.0000000000000000     
   4.8659015708112452E-003   3.0606744143563333E-002   0.0000000000000000     
   5.2997905942994391E-003   3.5126595067120417E-002   0.0000000000000000     
   1.7501549726170389E-003   1.8503052976552425E-002   0.0000000000000000     
   1.9777893712128740E-003   2.2253705100943832E-002   0.0000000000000000     
   2.2014269942645238E-003   2.6260007715156315E-002   0.0000000000000000     
   2.4210678417719862E-003   3.0521960819189859E-002   0.0000000000000000     
   2.6367119137352645E-003   3.5039564413044476E-002   0.0000000000000000     
  -5.5008200685463526E-013   1.8478548943329665E-002   0.0000000000000000     
  -6.7412964316684865E-013   2.2227697085245208E-002   0.0000000000000000     
  -8.3472294289295423E-013   2.6232747341165125E-002   0.0000000000000000     
  -1.0318629699063338E-012   3.0493699711089416E-002   0.0000000000000000     
  -1.2655479962597749E-012   3.5010554195018077E-002   0.0000000000000000     
   1.0705048252117873E-002   3.5474717683420934E-002   0.0000000000000000     
   1.1566271155920377E-002   4.0234961410313713E-002   0.0000000000000000     
   1.2404484008729094E-002   4.5206135979517760E-002   0.0000000000000000     
   1.3219686810544027E-002   5.0388241391033053E-002   0.0000000000000000     
   1.4011879561365174E-002   5.5781277644859593E-002   0.0000000000000000     
   7.9892360404269745E-003   3.5271646157245901E-002   0.0000000000000000     
   8.6310698692674253E-003   4.0028741793536729E-002   0.0000000000000000     
   9.2565520578550553E-003   4.4999198260072606E-002   0.0000000000000000     
   9.8656826061898611E-003   5.0183015556853519E-002   0.0000000000000000     
   1.0458461514271848E-002   5.5580193683879502E-002   0.0000000000000000     
   5.2997905942994391E-003   3.5126595067120417E-002   0.0000000000000000     
   5.7249575808149631E-003   3.9881442067249015E-002   0.0000000000000000     
   6.1398274058332850E-003   4.4851385603279503E-002   0.0000000000000000     
   6.5444000693544039E-003   5.0036425675211924E-002   0.0000000000000000     
   6.9386755713783188E-003   5.5436562283046255E-002   0.0000000000000000     
   2.6367119137352645E-003   3.5039564413044476E-002   0.0000000000000000     
   2.8479342905629854E-003   3.9793062231450543E-002   0.0000000000000000     
   3.0543100526637811E-003   4.4762698009138464E-002   0.0000000000000000     
   3.2558392000376496E-003   4.9948471746108246E-002   0.0000000000000000     
   3.4525217326845914E-003   5.5350383442359874E-002   0.0000000000000000     
  -1.2655479962597749E-012   3.5010554195018077E-002   0.0000000000000000     
  -1.4885032225894768E-012   3.9763602286141349E-002   0.0000000000000000     
  -1.6534535784810955E-012   4.4733135477649483E-002   0.0000000000000000     
  -1.7603969903979763E-012   4.9919153769542486E-002   0.0000000000000000     
  -1.8093361010829145E-012   5.5321657161820338E-002   0.0000000000000000     
   1.4011879561365174E-002   5.5781277644859593E-002   0.0000000000000000     
   1.4781351581726353E-002   6.1372593590393008E-002   0.0000000000000000     
   1.5528392192161379E-002   6.7149538077028892E-002   0.0000000000000000     
   1.6253001392670250E-002   7.3112111104767258E-002   0.0000000000000000     
   1.6955179183252969E-002   7.9260312673608099E-002   0.0000000000000000     
   1.0458461514271848E-002   5.5580193683879502E-002   0.0000000000000000     
   1.1034512695619367E-002   6.1176954201642035E-002   0.0000000000000000     
   1.1593460063750779E-002   6.6959518670632656E-002   0.0000000000000000     
   1.2135303618666085E-002   7.2927887090851351E-002   0.0000000000000000     
   1.2660043360365282E-002   7.9082059462298154E-002   0.0000000000000000     
   6.9386755713783188E-003   5.5436562283046255E-002   0.0000000000000000     
   7.3220078029984249E-003   6.1037211780936081E-002   0.0000000000000000     
   7.6937506553081091E-003   6.6823790523034943E-002   0.0000000000000000     
   8.0539041283073740E-003   7.2796298509342897E-002   0.0000000000000000     
   8.4024682219962215E-003   7.8954735739859894E-002   0.0000000000000000     
   3.4525217326845914E-003   5.5350383442359874E-002   0.0000000000000000     
   3.6438369038635249E-003   6.0953366328275124E-002   0.0000000000000000     
   3.8292639668333680E-003   6.6742353634235793E-002   0.0000000000000000     
   4.0088029215941210E-003   7.2717345360241853E-002   0.0000000000000000     
   4.1824537681457840E-003   7.8878341506293304E-002   0.0000000000000000     
  -1.8093361010829145E-012   5.5321657161820338E-002   0.0000000000000000     
  -1.7853313228829992E-012   6.0925417843659180E-002   0.0000000000000000     
  -1.6734456160204247E-012   6.6715208004235138E-002   0.0000000000000000     
  -1.4736779369506001E-012   7.2691027643548220E-002   0.0000000000000000     
  -1.1860289226423015E-012   7.8852876761598426E-002   0.0000000000000000     
   1.6955179183252969E-002   7.9260312673608099E-002   0.0000000000000000     
   1.7631589612921869E-002   8.5580430003795963E-002   0.0000000000000000     
   1.8278896730689286E-002   9.2058750315575408E-002   0.0000000000000000     
   1.8897100536555220E-002   9.8695273608946407E-002   0.0000000000000000     
   1.9486201030519665E-002  0.10548999988390900        0.0000000000000000     
   1.2660043360365282E-002   7.9082059462298154E-002   0.0000000000000000     
   1.3165433823507548E-002   8.5408468788795669E-002   0.0000000000000000     
   1.3649229542752059E-002   9.1893548074166567E-002   0.0000000000000000     
   1.4111430518098813E-002   9.8537297318410808E-002   0.0000000000000000     
   1.4552036749547810E-002  0.10533971652152843        0.0000000000000000     
   8.4024682219962215E-003   7.8954735739859894E-002   0.0000000000000000     
   8.7381169580577570E-003   8.5285639349508252E-002   0.0000000000000000     
   9.0595243581750983E-003   9.1775546473210276E-002   0.0000000000000000     
   9.3666904223482401E-003   9.8424457110965966E-002   0.0000000000000000     
   9.6596151505771895E-003  0.10523237126277533        0.0000000000000000     
   4.1824537681457840E-003   7.8878341506293304E-002   0.0000000000000000     
   4.3496390165724975E-003   8.5211941685933712E-002   0.0000000000000000     
   4.5097811769584046E-003   9.1704745512706590E-002   0.0000000000000000     
   4.6628802493035044E-003   9.8356752986611909E-002   0.0000000000000000     
   4.8089362336077978E-003  0.10516796410764970        0.0000000000000000     
  -1.1860289226423015E-012   7.8852876761598426E-002   0.0000000000000000     
  -9.4823346223626981E-013   8.5187375798072063E-002   0.0000000000000000     
  -8.9802324647683673E-013   9.1681145192655453E-002   0.0000000000000000     
  -1.0353998067995709E-012   9.8334184945348624E-002   0.0000000000000000     
  -1.3603610425627632E-012  0.10514649505615155        0.0000000000000000     
   1.9486201030519665E-002  0.10548999988390900        0.0000000000000000     
   2.0050368292688334E-002  0.11243196706158139        0.0000000000000000     
   2.0593772403166927E-002  0.11951021306308175        0.0000000000000000     
   2.1116413361955445E-002  0.12672473788841010        0.0000000000000000     
   2.1618291169053883E-002  0.13407554153756640        0.0000000000000000     
   1.4552036749547810E-002  0.10533971652152843        0.0000000000000000     
   1.4973561269112035E-002  0.11228957708417327        0.0000000000000000     
   1.5378517108804458E-002  0.11937565040699916        0.0000000000000000     
   1.5766904268625089E-002  0.12659793649000611        0.0000000000000000     
   1.6138722748573919E-002  0.13395643533319415        0.0000000000000000     
   9.6596151505771895E-003  0.10523237126277533        0.0000000000000000     
   9.9395642121754973E-003  0.11218786995748792        0.0000000000000000     
   1.0207803276456730E-002  0.11927953422395336        0.0000000000000000     
   1.0464332343420878E-002  0.12650736406217161        0.0000000000000000     
   1.0709151413067950E-002  0.13387135947214268        0.0000000000000000     
   4.8089362336077978E-003  0.10516796410764970        0.0000000000000000     
   4.9483771218787262E-003  0.11212684568152535        0.0000000000000000     
   5.0816309061237335E-003  0.11922186451394429        0.0000000000000000     
   5.2086975863428172E-003  0.12645302060490651        0.0000000000000000     
   5.3295771625359789E-003  0.13382031395441202        0.0000000000000000     
  -1.3603610425627632E-012  0.10514649505615155        0.0000000000000000     
  -1.7782797803733708E-012  0.11210650425628557        0.0000000000000000     
  -2.1945245100296606E-012  0.11920264127697200        0.0000000000000000     
  -2.6090962073135882E-012  0.12643490611821082        0.0000000000000000     
  -3.0219941132836325E-012  0.13380329878000208        0.0000000000000000     
   2.1618291169053883E-002  0.13407554153756640        0.0000000000000000     
   2.2088825013561596E-002  0.14155015143550337        0.0000000000000000     
   2.2517434084577931E-002  0.14913609500717367        0.0000000000000000     
   2.2904118382102885E-002  0.15683337225257729        0.0000000000000000     
   2.3248877906136462E-002  0.16464198317171419        0.0000000000000000     
   1.6138722748573919E-002  0.13395643533319415        0.0000000000000000     
   1.6485796221934957E-002  0.14143900960534680        0.0000000000000000     
   1.6799948361992213E-002  0.14903352197524761        0.0000000000000000     
   1.7081179168745676E-002  0.15673997244289664        0.0000000000000000     
   1.7329488642195356E-002  0.16455836100829385        0.0000000000000000     
   1.0709151413067950E-002  0.13387135947214268        0.0000000000000000     
   1.0936649122043346E-002  0.14135962258237153        0.0000000000000000     
   1.1141214106992462E-002  0.14896025552136316        0.0000000000000000     
   1.1322846367915303E-002  0.15667325828911755        0.0000000000000000     
   1.1481545904811867E-002  0.16449863088563466        0.0000000000000000     
   5.3295771625359789E-003  0.13382031395441202        0.0000000000000000     
   5.4413837138867554E-003  0.14131199036657763        0.0000000000000000     
   5.5412313195786845E-003  0.14891629564552028        0.0000000000000000     
   5.6291199796117616E-003  0.15663322979123998        0.0000000000000000     
   5.7050496939859922E-003  0.16446279280373666        0.0000000000000000     
  -3.0219941132836325E-012  0.13380329878000208        0.0000000000000000     
  -2.5348069997155331E-012  0.14129611295796501        0.0000000000000000     
  -2.4912309628394302E-013  0.14890164234771897        0.0000000000000000     
   3.8350569735948886E-012  0.15661988694926393        0.0000000000000000     
   9.7177335622866678E-012  0.16445084676259986        0.0000000000000000     
   0.0000000000000000        0.0000000000000000        0.0000000000000000     
  -4.4942456874086378E-014   1.0733709089154940E-003   0.0000000000000000     
  -9.5183247134783544E-014   2.5156594578317560E-003   0.0000000000000000     
  -1.5072237078209150E-013   4.3268656467487857E-003   0.0000000000000000     
  -2.1155977360590161E-013   6.5069894756665837E-003   0.0000000000000000     
   0.0000000000000000        0.0000000000000000        0.0000000000000000     
  -2.1298091261363449E-004   1.0756567286971384E-003   0.0000000000000000     
  -4.2696212713915101E-004   2.5208102916601978E-003   0.0000000000000000     
  -6.4194364357654976E-004   4.3354606888891785E-003   0.0000000000000000     
  -8.5792546192583054E-004   6.5196079203840790E-003   0.0000000000000000     
   0.0000000000000000        0.0000000000000000        0.0000000000000000     
  -4.2425249867841124E-004   1.0825141880212020E-003   0.0000000000000000     
  -8.5296896659245122E-004   2.5362627931089267E-003   0.0000000000000000     
  -1.2861494037421197E-003   4.3612458152631735E-003   0.0000000000000000     
  -1.7237938101274167E-003   6.5574632544839456E-003   0.0000000000000000     
   0.0000000000000000        0.0000000000000000        0.0000000000000000     
  -6.3381475823927271E-004   1.0939432868876846E-003   0.0000000000000000     
  -1.2780205184550835E-003   2.5620169621779426E-003   0.0000000000000000     
  -1.9326172806474319E-003   4.4042210258707741E-003   0.0000000000000000     
  -2.5976050448163189E-003   6.6205554779661781E-003   0.0000000000000000     
   0.0000000000000000        0.0000000000000000        0.0000000000000000     
  -8.4166769129621888E-004   1.1099440252965867E-003   0.0000000000000000     
  -1.7021167827270477E-003   2.5980727988672457E-003   0.0000000000000000     
  -2.5813472742924866E-003   4.4643863207119777E-003   0.0000000000000000     
  -3.4793591659925361E-003   6.7088845908307828E-003   0.0000000000000000     
  -2.1155977360590161E-013   6.5069894756665837E-003   0.0000000000000000     
  -2.8033234370991589E-013   9.0286489290841605E-003   0.0000000000000000     
  -3.5967700985541778E-013   1.1864461991500534E-002   0.0000000000000000     
  -4.4959356536636817E-013   1.5014428662915701E-002   0.0000000000000000     
  -5.5008200685463526E-013   1.8478548943329665E-002   0.0000000000000000     
  -8.5792546192583054E-004   6.5196079203840790E-003   0.0000000000000000     
  -1.0760512833891222E-003   9.0452449728718586E-003   0.0000000000000000     
  -1.2974648091685533E-003   1.1884364833079473E-002   0.0000000000000000     
  -1.5221660392641236E-003   1.5036967501006925E-002   0.0000000000000000     
  -1.7501549736758334E-003   1.8503052976654208E-002   0.0000000000000000     
  -1.7237938101274167E-003   6.5574632544839456E-003   0.0000000000000000     
  -2.1660485544088190E-003   9.0950331041760920E-003   0.0000000000000000     
  -2.6130600052468034E-003   1.1944073357744464E-002   0.0000000000000000     
  -3.0648281626413690E-003   1.5104584015189063E-002   0.0000000000000000     
  -3.5213530265925160E-003   1.8576565076509888E-002   0.0000000000000000     
  -2.5976050448163189E-003   6.6205554779661781E-003   0.0000000000000000     
  -3.2699918133394239E-003   9.1780133229968554E-003   0.0000000000000000     
  -3.9467855885944279E-003   1.2043587565495501E-002   0.0000000000000000     
  -4.6279863705813292E-003   1.5217278205462108E-002   0.0000000000000000     
  -5.3135941593001300E-003   1.8699085242896690E-002   0.0000000000000000     
  -3.4793591659925361E-003   6.7088845908307828E-003   0.0000000000000000     
  -4.3878810601809355E-003   9.2941856293341507E-003   0.0000000000000000     
  -5.2986415592114243E-003   1.2182907456332584E-002   0.0000000000000000     
  -6.2116406630840053E-003   1.5375050071826072E-002   0.0000000000000000     
  -7.1268783717986757E-003   1.8870613475814625E-002   0.0000000000000000     
  -5.5008200685463526E-013   1.8478548943329665E-002   0.0000000000000000     
  -6.7412964316684865E-013   2.2227697085245208E-002   0.0000000000000000     
  -8.3472294289295423E-013   2.6232747341165125E-002   0.0000000000000000     
  -1.0318629699063338E-012   3.0493699711089416E-002   0.0000000000000000     
  -1.2655479962597749E-012   3.5010554195018077E-002   0.0000000000000000     
  -1.7501549736758334E-003   1.8503052976654208E-002   0.0000000000000000     
  -1.9777893725080927E-003   2.2253705101057668E-002   0.0000000000000000     
  -2.2014269958653093E-003   2.6260007715253626E-002   0.0000000000000000     
  -2.4210678437474862E-003   3.0521960819242085E-002   0.0000000000000000     
  -2.6367119161546204E-003   3.5039564413023049E-002   0.0000000000000000     
  -3.5213530265925160E-003   1.8576565076509888E-002   0.0000000000000000     
  -3.9766827876265357E-003   2.2331729148362300E-002   0.0000000000000000     
  -4.4248656362697193E-003   2.6341788837401660E-002   0.0000000000000000     
  -4.8659015725220651E-003   3.0606744143627965E-002   0.0000000000000000     
  -5.2997905963835749E-003   3.5126595067041216E-002   0.0000000000000000     
  -5.3135941593001300E-003   1.8699085242896690E-002   0.0000000000000000     
  -5.9966802460294606E-003   2.2461769227159107E-002   0.0000000000000000     
  -6.6703159220479506E-003   2.6478090707609231E-002   0.0000000000000000     
  -7.3345011873556009E-003   3.0748049684247054E-002   0.0000000000000000     
  -7.9892360419524105E-003   3.5271646157072588E-002   0.0000000000000000     
  -7.1268783717986757E-003   1.8870613475814625E-002   0.0000000000000000     
  -8.0377817477168649E-003   2.2643825337448090E-002   0.0000000000000000     
  -8.9377778532000046E-003   2.6668913325876335E-002   0.0000000000000000     
  -9.8268666882480923E-003   3.0945877441099355E-002   0.0000000000000000     
  -1.0705048252861128E-002   3.5474717683117142E-002   0.0000000000000000     
  -1.2655479962597749E-012   3.5010554195018077E-002   0.0000000000000000     
  -1.4885032225894768E-012   3.9763602286141349E-002   0.0000000000000000     
  -1.6534535784810955E-012   4.4733135477649483E-002   0.0000000000000000     
  -1.7603969903979763E-012   4.9919153769542486E-002   0.0000000000000000     
  -1.8093361010829145E-012   5.5321657161820338E-002   0.0000000000000000     
  -2.6367119161546204E-003   3.5039564413023049E-002   0.0000000000000000     
  -2.8479342934034321E-003   3.9793062231308109E-002   0.0000000000000000     
  -3.0543100558106380E-003   4.4762698008808832E-002   0.0000000000000000     
  -3.2558392033762407E-003   4.9948471745525233E-002   0.0000000000000000     
  -3.4525217361002372E-003   5.5350383441457304E-002   0.0000000000000000     
  -5.2997905963835749E-003   3.5126595067041216E-002   0.0000000000000000     
  -5.7249575832457253E-003   3.9881442066937459E-002   0.0000000000000000     
  -6.1398274084999930E-003   4.4851385602612738E-002   0.0000000000000000     
  -6.5444000721463788E-003   5.0036425674067041E-002   0.0000000000000000     
  -6.9386755741848837E-003   5.5436562281300381E-002   0.0000000000000000     
  -7.9892360419524105E-003   3.5271646157072588E-002   0.0000000000000000     
  -8.6310698710153795E-003   4.0028741793029426E-002   0.0000000000000000     
  -9.2565520597215172E-003   4.4999198259061221E-002   0.0000000000000000     
  -9.8656826080708131E-003   5.0183015555167944E-002   0.0000000000000000     
  -1.0458461516063274E-002   5.5580193681349609E-002   0.0000000000000000     
  -1.0705048252861128E-002   3.5474717683117142E-002   0.0000000000000000     
  -1.1566271156712405E-002   4.0234961409584012E-002   0.0000000000000000     
  -1.2404484009475207E-002   4.5206135978154267E-002   0.0000000000000000     
  -1.3219686811149545E-002   5.0388241388827915E-002   0.0000000000000000     
  -1.4011879561735413E-002   5.5781277641604940E-002   0.0000000000000000     
  -1.8093361010829145E-012   5.5321657161820338E-002   0.0000000000000000     
  -1.7853313228829992E-012   6.0925417843659180E-002   0.0000000000000000     
  -1.6734456160204247E-012   6.6715208004235138E-002   0.0000000000000000     
  -1.4736779369506001E-012   7.2691027643548220E-002   0.0000000000000000     
  -1.1860289226423015E-012   7.8852876761598426E-002   0.0000000000000000     
  -3.4525217361002372E-003   5.5350383441457304E-002   0.0000000000000000     
  -3.6438369072129308E-003   6.0953366327136022E-002   0.0000000000000000     
  -3.8292639699446227E-003   6.6742353633092347E-002   0.0000000000000000     
  -4.0088029242953136E-003   7.2717345359326280E-002   0.0000000000000000     
  -4.1824537702650055E-003   7.8878341505837821E-002   0.0000000000000000     
  -6.9386755741848837E-003   5.5436562281300381E-002   0.0000000000000000     
  -7.3220078056840578E-003   6.1037211778753403E-002   0.0000000000000000     
  -7.6937506577124566E-003   6.6823790520866677E-002   0.0000000000000000     
  -8.0539041302700835E-003   7.2796298507640286E-002   0.0000000000000000     
  -8.4024682233569299E-003   7.8954735739074161E-002   0.0000000000000000     
  -1.0458461516063274E-002   5.5580193681349609E-002   0.0000000000000000     
  -1.1034512697198715E-002   6.1176954198511310E-002   0.0000000000000000     
  -1.1593460064976949E-002   6.6959518667558171E-002   0.0000000000000000     
  -1.2135303619397981E-002   7.2927887088490226E-002   0.0000000000000000     
  -1.2660043360461807E-002   7.9082059461307391E-002   0.0000000000000000     
  -1.4011879561735413E-002   5.5781277641604940E-002   0.0000000000000000     
  -1.4781351581756901E-002   6.1372593586409771E-002   0.0000000000000000     
  -1.5528392191738098E-002   6.7149538073166815E-002   0.0000000000000000     
  -1.6253001391679008E-002   7.3112111101876084E-002   0.0000000000000000     
  -1.6955179181579634E-002   7.9260312672537553E-002   0.0000000000000000     
  -1.1860289226423015E-012   7.8852876761598426E-002   0.0000000000000000     
  -9.4823346223626981E-013   8.5187375798072063E-002   0.0000000000000000     
  -8.9802324647683673E-013   9.1681145192655453E-002   0.0000000000000000     
  -1.0353998067995709E-012   9.8334184945348624E-002   0.0000000000000000     
  -1.3603610425627632E-012  0.10514649505615155        0.0000000000000000     
  -4.1824537702650055E-003   7.8878341505837821E-002   0.0000000000000000     
  -4.3496390182018764E-003   8.5211941685980619E-002   0.0000000000000000     
  -4.5097811784541100E-003   9.1704745513108241E-002   0.0000000000000000     
  -4.6628802510217081E-003   9.8356752987220769E-002   0.0000000000000000     
  -4.8089362359046671E-003  0.10516796410831811        0.0000000000000000     
  -8.4024682233569299E-003   7.8954735739074161E-002   0.0000000000000000     
  -8.7381169588858724E-003   8.5285639349716696E-002   0.0000000000000000     
  -9.0595243587697841E-003   9.1775546474116301E-002   0.0000000000000000     
  -9.3666904230086563E-003   9.8424457112272962E-002   0.0000000000000000     
  -9.6596151516024960E-003  0.10523237126418668        0.0000000000000000     
  -1.2660043360461807E-002   7.9082059461307391E-002   0.0000000000000000     
  -1.3165433823000229E-002   8.5408468789280351E-002   0.0000000000000000     
  -1.3649229541845043E-002   9.1893548075679607E-002   0.0000000000000000     
  -1.4111430516996247E-002   9.8537297320505216E-002   0.0000000000000000     
  -1.4552036748453847E-002  0.10533971652375718        0.0000000000000000     
  -1.6955179181579634E-002   7.9260312672537553E-002   0.0000000000000000     
  -1.7631589610544937E-002   8.5580430004671498E-002   0.0000000000000000     
  -1.8278896727679891E-002   9.2058750317798171E-002   0.0000000000000000     
  -1.8897100532984483E-002   9.8695273611917558E-002   0.0000000000000000     
  -1.9486201026458722E-002  0.10548999988702965        0.0000000000000000     
  -1.3603610425627632E-012  0.10514649505615155        0.0000000000000000     
  -1.7782797803733708E-012  0.11210650425628557        0.0000000000000000     
  -2.1945245100296606E-012  0.11920264127697200        0.0000000000000000     
  -2.6090962073135882E-012  0.12643490611821082        0.0000000000000000     
  -3.0219941132836325E-012  0.13380329878000208        0.0000000000000000     
  -4.8089362359046671E-003  0.10516796410831811        0.0000000000000000     
  -4.9483771249248382E-003  0.11212684568182678        0.0000000000000000     
  -5.0816309099040689E-003  0.11922186451317313        0.0000000000000000     
  -5.2086975908423629E-003  0.12645302060235719        0.0000000000000000     
  -5.3295771677397113E-003  0.13382031394937899        0.0000000000000000     
  -9.6596151516024960E-003  0.10523237126418668        0.0000000000000000     
  -9.9395642136902631E-003  0.11218786995820722        0.0000000000000000     
  -1.0207803278410922E-002  0.11927953422268445        0.0000000000000000     
  -1.0464332345764472E-002  0.12650736405761825        0.0000000000000000     
  -1.0709151415750916E-002  0.13387135946300877        0.0000000000000000     
  -1.4552036748453847E-002  0.10533971652375718        0.0000000000000000     
  -1.4973561268074555E-002  0.11228957708542690        0.0000000000000000     
  -1.5378517107715081E-002  0.11937565040550586        0.0000000000000000     
  -1.5766904267375436E-002  0.12659793648399403        0.0000000000000000     
  -1.6138722747055603E-002  0.13395643532089144        0.0000000000000000     
  -1.9486201026458722E-002  0.10548999988702965        0.0000000000000000     
  -2.0050368288077713E-002  0.11243196706348582        0.0000000000000000     
  -2.0593772397816554E-002  0.11951021306163744        0.0000000000000000     
  -2.1116413355675243E-002  0.12672473788148447        0.0000000000000000     
  -2.1618291161653782E-002  0.13407554152302698        0.0000000000000000     
  -3.0219941132836325E-012  0.13380329878000208        0.0000000000000000     
  -2.5348069997155331E-012  0.14129611295796501        0.0000000000000000     
  -2.4912309628394302E-013  0.14890164234771897        0.0000000000000000     
   3.8350569735948886E-012  0.15661988694926393        0.0000000000000000     
   9.7177335622866678E-012  0.16445084676259986        0.0000000000000000     
  -5.3295771677397113E-003  0.13382031394937899        0.0000000000000000     
  -5.4413837180276158E-003  0.14131199035722988        0.0000000000000000     
  -5.5412313191375625E-003  0.14891629562890132        0.0000000000000000     
  -5.6291199710695556E-003  0.15663322976439328        0.0000000000000000     
  -5.7050496738235892E-003  0.16446279276370576        0.0000000000000000     
  -1.0709151415750916E-002  0.13387135946300877        0.0000000000000000     
  -1.0936649123397943E-002  0.14135962256506834        0.0000000000000000     
  -1.1141214103733241E-002  0.14896025549000944        0.0000000000000000     
  -1.1322846356756816E-002  0.15667325823783201        0.0000000000000000     
  -1.1481545882468660E-002  0.16449863080853605        0.0000000000000000     
  -1.6138722747055603E-002  0.13395643532089144        0.0000000000000000     
  -1.6485796218645789E-002  0.14143900958148040        0.0000000000000000     
  -1.6799948354036160E-002  0.14903352193104327        0.0000000000000000     
  -1.7081179153226721E-002  0.15673997236957998        0.0000000000000000     
  -1.7329488616217473E-002  0.16455836089709064        0.0000000000000000     
  -2.1618291161653782E-002  0.13407554152302698        0.0000000000000000     
  -2.2088825003771146E-002  0.14155015140646601        0.0000000000000000     
  -2.2517434070046312E-002  0.14913609495200281        0.0000000000000000     
  -2.2904118360479273E-002  0.15683337215963733        0.0000000000000000     
  -2.3248877875070035E-002  0.16464198302936955        0.0000000000000000     
   0.0000000000000000        0.0000000000000000        0.0000000000000000     
  -8.4166769129621888E-004   1.1099440252965867E-003   0.0000000000000000     
  -1.7021167827270477E-003   2.5980727988672457E-003   0.0000000000000000     
  -2.5813472742924866E-003   4.4643863207119777E-003   0.0000000000000000     
  -3.4793591659925361E-003   6.7088845908307828E-003   0.0000000000000000     
   0.0000000000000000        0.0000000000000000        0.0000000000000000     
  -1.0567074356378687E-003   1.1340891620549342E-003   0.0000000000000000     
  -2.1397837124604497E-003   2.6502948540887122E-003   0.0000000000000000     
  -3.2492288304677430E-003   4.5486170761013340E-003   0.0000000000000000     
  -4.3850427896597478E-003   6.8290558280928006E-003   0.0000000000000000     
   0.0000000000000000        0.0000000000000000        0.0000000000000000     
  -1.2878301290528418E-003   1.1699514559697535E-003   0.0000000000000000     
  -2.6055472607073951E-003   2.7245476787542185E-003   0.0000000000000000     
  -3.9531513949636592E-003   4.6637886683533946E-003   0.0000000000000000     
  -5.3306425318216345E-003   6.9876744247672814E-003   0.0000000000000000     
   0.0000000000000000        0.0000000000000000        0.0000000000000000     
  -1.5350357715411378E-003   1.2175309070410444E-003   0.0000000000000000     
  -3.0994074274678825E-003   2.8208312728637635E-003   0.0000000000000000     
  -4.6931149677802344E-003   4.8099010974681569E-003   0.0000000000000000     
  -6.3161583924781946E-003   7.1847403808542251E-003   0.0000000000000000     
   0.0000000000000000        0.0000000000000000        0.0000000000000000     
  -1.7983243631027562E-003   1.2768275152688071E-003   0.0000000000000000     
  -3.6213642127419132E-003   2.9391456364173479E-003   0.0000000000000000     
  -5.4691195489174711E-003   4.9869543634456226E-003   0.0000000000000000     
  -7.3415903716294289E-003   7.4202536963536309E-003   0.0000000000000000     
  -3.4793591659925361E-003   6.7088845908307828E-003   0.0000000000000000     
  -4.3878810601809355E-003   9.2941856293341507E-003   0.0000000000000000     
  -5.2986415592114243E-003   1.2182907456332584E-002   0.0000000000000000     
  -6.2116406630840053E-003   1.5375050071826072E-002   0.0000000000000000     
  -7.1268783717986757E-003   1.8870613475814625E-002   0.0000000000000000     
  -4.3850427896597478E-003   6.8290558280928006E-003   0.0000000000000000     
  -5.5342273299052655E-003   9.4495376444979559E-003   0.0000000000000000     
  -6.6837841910731000E-003   1.2367989059751642E-002   0.0000000000000000     
  -7.8337133731632477E-003   1.5584410073853864E-002   0.0000000000000000     
  -8.9840148761757103E-003   1.9098800686804612E-002   0.0000000000000000     
  -5.3306425318216345E-003   6.9876744247672814E-003   0.0000000000000000     
  -6.7235416574843295E-003   9.6500569897982318E-003   0.0000000000000000     
  -8.1173697581547553E-003   1.2604788405248601E-002   0.0000000000000000     
  -9.5121268338329099E-003   1.5851868671118385E-002   0.0000000000000000     
  -1.0907812884518794E-002   1.9391297787407592E-002   0.0000000000000000     
  -6.3161583924781946E-003   7.1847403808542251E-003   0.0000000000000000     
  -7.9558240429181259E-003   9.8957436652349889E-003   0.0000000000000000     
  -9.5993982604563894E-003   1.2893305492823462E-002   0.0000000000000000     
  -1.1246881045092992E-002   1.6177425863619654E-002   0.0000000000000000     
  -1.2898272396827925E-002   1.9748104777623551E-002   0.0000000000000000     
  -7.3415903716294289E-003   7.4202536963536309E-003   0.0000000000000000     
  -9.2310744862066536E-003   1.0186597670808215E-002   0.0000000000000000     
  -1.1129869697978004E-002   1.3233540322476221E-002   0.0000000000000000     
  -1.3037976006943492E-002   1.6561081651357650E-002   0.0000000000000000     
  -1.4955393413103108E-002   2.0169221657452496E-002   0.0000000000000000     
  -7.1268783717986757E-003   1.8870613475814625E-002   0.0000000000000000     
  -8.0377817477168649E-003   2.2643825337448090E-002   0.0000000000000000     
  -8.9377778532000046E-003   2.6668913325876335E-002   0.0000000000000000     
  -9.8268666882480923E-003   3.0945877441099355E-002   0.0000000000000000     
  -1.0705048252861128E-002   3.5474717683117142E-002   0.0000000000000000     
  -8.9840148761757103E-003   1.9098800686804612E-002   0.0000000000000000     
  -1.0127720882259585E-002   2.2886474197118065E-002   0.0000000000000000     
  -1.1257863573563972E-002   2.6922743903308399E-002   0.0000000000000000     
  -1.2374442950088868E-002   3.1207609805375586E-002   0.0000000000000000     
  -1.3477459011834272E-002   3.5741071903319661E-002   0.0000000000000000     
  -1.0907812884518794E-002   1.9391297787407592E-002   0.0000000000000000     
  -1.2294231239228456E-002   2.3198292524057858E-002   0.0000000000000000     
  -1.3661185226977943E-002   2.7248069651010825E-002   0.0000000000000000     
  -1.5008674847767255E-002   3.1540629168266499E-002   0.0000000000000000     
  -1.6336700101596394E-002   3.6075971075824886E-002   0.0000000000000000     
  -1.2898272396827925E-002   1.9748104777623551E-002   0.0000000000000000     
  -1.4537312818623480E-002   2.3579280318267448E-002   0.0000000000000000     
  -1.6147742813441925E-002   2.7644890568983629E-002   0.0000000000000000     
  -1.7729562381283256E-002   3.1944935529772095E-002   0.0000000000000000     
  -1.9282771522147489E-002   3.6479415200632831E-002   0.0000000000000000     
  -1.4955393413103108E-002   2.0169221657452496E-002   0.0000000000000000     
  -1.6856965620444642E-002   2.4029437579746852E-002   0.0000000000000000     
  -1.8717536332955906E-002   2.8113206657226802E-002   0.0000000000000000     
  -2.0537105550636869E-002   3.2420528889892351E-002   0.0000000000000000     
  -2.2315673273487560E-002   3.6951404277743488E-002   0.0000000000000000     
  -1.0705048252861128E-002   3.5474717683117142E-002   0.0000000000000000     
  -1.1566271156712405E-002   4.0234961409584012E-002   0.0000000000000000     
  -1.2404484009475207E-002   4.5206135978154267E-002   0.0000000000000000     
  -1.3219686811149545E-002   5.0388241388827915E-002   0.0000000000000000     
  -1.4011879561735413E-002   5.5781277641604940E-002   0.0000000000000000     
  -1.3477459011834272E-002   3.5741071903319661E-002   0.0000000000000000     
  -1.4558812403935455E-002   4.0503105025795877E-002   0.0000000000000000     
  -1.5610403771527680E-002   4.5473684001459500E-002   0.0000000000000000     
  -1.6632233114610949E-002   5.0652808830310550E-002   0.0000000000000000     
  -1.7624300433185264E-002   5.6040479512349028E-002   0.0000000000000000     
  -1.6336700101596394E-002   3.6075971075824886E-002   0.0000000000000000     
  -1.7636944576283203E-002   4.0836176750859668E-002   0.0000000000000000     
  -1.8901091859645548E-002   4.5803327570544519E-002   0.0000000000000000     
  -2.0129141951683405E-002   5.0977423534879461E-002   0.0000000000000000     
  -2.1321094852396801E-002   5.6358464643864487E-002   0.0000000000000000     
  -1.9282771522147489E-002   3.6479415200632831E-002   0.0000000000000000     
  -2.0800667673755654E-002   4.1234176584775406E-002   0.0000000000000000     
  -2.2276548273828797E-002   4.6195066685409340E-002   0.0000000000000000     
  -2.3710413322366918E-002   5.1362085502534634E-002   0.0000000000000000     
  -2.5102262819370016E-002   5.6735233036151314E-002   0.0000000000000000     
  -2.2315673273487560E-002   3.6951404277743488E-002   0.0000000000000000     
  -2.4049981696352803E-002   4.1697104527543084E-002   0.0000000000000000     
  -2.5736773014077442E-002   4.6648901346053942E-002   0.0000000000000000     
  -2.7376047226661482E-002   5.1806794733276089E-002   0.0000000000000000     
  -2.8967804334104910E-002   5.7170784689209518E-002   0.0000000000000000     
  -1.4011879561735413E-002   5.5781277641604940E-002   0.0000000000000000     
  -1.4781351581756901E-002   6.1372593586409771E-002   0.0000000000000000     
  -1.5528392191738098E-002   6.7149538073166815E-002   0.0000000000000000     
  -1.6253001391679008E-002   7.3112111101876084E-002   0.0000000000000000     
  -1.6955179181579634E-002   7.9260312672537553E-002   0.0000000000000000     
  -1.7624300433185264E-002   5.6040479512349028E-002   0.0000000000000000     
  -1.8587552513168685E-002   6.1625044634023719E-002   0.0000000000000000     
  -1.9522936140479286E-002   6.7394852781783421E-002   0.0000000000000000     
  -2.0430451315117067E-002   7.3349903955628126E-002   0.0000000000000000     
  -2.1310098037082031E-002   7.9490198155557870E-002   0.0000000000000000     
  -2.1321094852396801E-002   5.6358464643864487E-002   0.0000000000000000     
  -2.2478143545244151E-002   6.1935222032928096E-002   0.0000000000000000     
  -2.3601481013683905E-002   6.7696466837498817E-002   0.0000000000000000     
  -2.4691107257716057E-002   7.3642199057576629E-002   0.0000000000000000     
  -2.5747022277340621E-002   7.9772418693161568E-002   0.0000000000000000     
  -2.5102262819370016E-002   5.6735233036151314E-002   0.0000000000000000     
  -2.6453124677983286E-002   6.2303125783122915E-002   0.0000000000000000     
  -2.7764026811351945E-002   6.8054380240312989E-002   0.0000000000000000     
  -2.9034969219475980E-002   7.3988996407721566E-002   0.0000000000000000     
  -3.0265951902355395E-002   8.0106974285348617E-002   0.0000000000000000     
  -2.8967804334104910E-002   5.7170784689209518E-002   0.0000000000000000     
  -3.0512495911386106E-002   6.2728755884608162E-002   0.0000000000000000     
  -3.2010573533483404E-002   6.8468592990225965E-002   0.0000000000000000     
  -3.3462037200396824E-002   7.4390296006062923E-002   0.0000000000000000     
  -3.4866886912126360E-002   8.0493864932119047E-002   0.0000000000000000     
  -1.6955179181579634E-002   7.9260312672537553E-002   0.0000000000000000     
  -1.7631589610544937E-002   8.5580430004671498E-002   0.0000000000000000     
  -1.8278896727679891E-002   9.2058750317798171E-002   0.0000000000000000     
  -1.8897100532984483E-002   9.8695273611917558E-002   0.0000000000000000     
  -1.9486201026458722E-002  0.10548999988702965        0.0000000000000000     
  -2.1310098037082031E-002   7.9490198155557870E-002   0.0000000000000000     
  -2.2157552485012250E-002   8.5801997917554773E-002   0.0000000000000000     
  -2.2968490837545808E-002   9.2271565777601025E-002   0.0000000000000000     
  -2.3742913094682704E-002   9.8898901735696598E-002   0.0000000000000000     
  -2.4480819256422936E-002  0.10568400579184151        0.0000000000000000     
  -2.5747022277340621E-002   7.9772418693161568E-002   0.0000000000000000     
  -2.6764290609894416E-002   8.6073647449594698E-002   0.0000000000000000     
  -2.7737976792714298E-002   9.2532407032217184E-002   0.0000000000000000     
  -2.8668080825800253E-002   9.9148697441029013E-002   0.0000000000000000     
  -2.9554602709152295E-002  0.10592251867603016        0.0000000000000000     
  -3.0265951902355395E-002   8.0106974285348617E-002   0.0000000000000000     
  -3.1451803985191436E-002   8.6395378600791259E-002   0.0000000000000000     
  -3.2587354593185354E-002   9.2841274081646649E-002   0.0000000000000000     
  -3.3672603726337146E-002   9.9444660727914760E-002   0.0000000000000000     
  -3.4707551384646790E-002  0.10620553853959561        0.0000000000000000     
  -3.4866886912126360E-002   8.0493864932119047E-002   0.0000000000000000     
  -3.6220092610903316E-002   8.6767191371144484E-002   0.0000000000000000     
  -3.7516624238958976E-002   9.3198166925889447E-002   0.0000000000000000     
  -3.8756481796293353E-002   9.9786791596353897E-002   0.0000000000000000     
  -3.9939665282906447E-002  0.10653306538253784        0.0000000000000000     
  -1.9486201026458722E-002  0.10548999988702965        0.0000000000000000     
  -2.0050368288077713E-002  0.11243196706348582        0.0000000000000000     
  -2.0593772397816554E-002  0.11951021306163744        0.0000000000000000     
  -2.1116413355675243E-002  0.12672473788148447        0.0000000000000000     
  -2.1618291161653782E-002  0.13407554152302698        0.0000000000000000     
  -2.4480819256422936E-002  0.10568400579184151        0.0000000000000000     
  -2.5188087595122220E-002  0.11261612429142959        0.0000000000000000     
  -2.5870596383136272E-002  0.11968450357985465        0.0000000000000000     
  -2.6528345620465094E-002  0.12688914365711670        0.0000000000000000     
  -2.7161335307108677E-002  0.13423004452321574        0.0000000000000000     
  -2.9554602709152295E-002  0.10592251867603016        0.0000000000000000     
  -3.0404821510630550E-002  0.11284313316830377        0.0000000000000000     
  -3.1226016298095183E-002  0.11989980334893297        0.0000000000000000     
  -3.2018187071546175E-002  0.12709252921791775        0.0000000000000000     
  -3.2781333830983535E-002  0.13442131077525810        0.0000000000000000     
  -3.4707551384646790E-002  0.10620553853959561        0.0000000000000000     
  -3.5700570034602717E-002  0.11311299369410842        0.0000000000000000     
  -3.6660032142693283E-002  0.12015611236887243        0.0000000000000000     
  -3.7585937708918493E-002  0.12733489456388766        0.0000000000000000     
  -3.8478286733278348E-002  0.13464934027915412        0.0000000000000000     
  -3.9939665282906447E-002  0.10653306538253784        0.0000000000000000     
  -4.1075333167038694E-002  0.11342570586884348        0.0000000000000000     
  -4.2172643916930569E-002  0.12045343063967301        0.0000000000000000     
  -4.3231597532582024E-002  0.12761623969502645        0.0000000000000000     
  -4.4252194013993114E-002  0.13491413303490371        0.0000000000000000     
  -2.1618291161653782E-002  0.13407554152302698        0.0000000000000000     
  -2.2088825003771146E-002  0.14155015140646601        0.0000000000000000     
  -2.2517434070046312E-002  0.14913609495200281        0.0000000000000000     
  -2.2904118360479273E-002  0.15683337215963733        0.0000000000000000     
  -2.3248877875070035E-002  0.16464198302936955        0.0000000000000000     
  -2.7161335307108677E-002  0.13423004452321574        0.0000000000000000     
  -2.7756691015434525E-002  0.14169447826113044        0.0000000000000000     
  -2.8301538317810113E-002  0.14926971695383948        0.0000000000000000     
  -2.8795877214235446E-002  0.15695576060134281        0.0000000000000000     
  -2.9239707704710519E-002  0.16475260920364057        0.0000000000000000     
  -3.2781333830983535E-002  0.13442131077525810        0.0000000000000000     
  -3.3500349790296417E-002  0.14187342036657882        0.0000000000000000     
  -3.4160128163373972E-002  0.14943613033750458        0.0000000000000000     
  -3.4760668950216206E-002  0.15710944068803548        0.0000000000000000     
  -3.5301972150823105E-002  0.16489335141817138        0.0000000000000000     
  -3.8478286733278348E-002  0.13464934027915412        0.0000000000000000     
  -3.9319801328356829E-002  0.14208697772281112        0.0000000000000000     
  -4.0093203606737890E-002  0.14963533510299817        0.0000000000000000     
  -4.0798493568421544E-002  0.15729441241971512        0.0000000000000000     
  -4.1435671213407792E-002  0.16506420967296204        0.0000000000000000     
  -4.4252194013993114E-002  0.13491413303490371        0.0000000000000000     
  -4.5215045629615751E-002  0.14233515032982744        0.0000000000000000     
  -4.6100764647901867E-002  0.14986733125032017        0.0000000000000000     
  -4.6909351068851475E-002  0.15751067579638187        0.0000000000000000     
  -4.7640804892464583E-002  0.16526518396801251        0.0000000000000000     
   0.0000000000000000        0.0000000000000000        0.0000000000000000     
  -1.7983243631027562E-003   1.2768275152688071E-003   0.0000000000000000     
  -3.6213642127419132E-003   2.9391456364173479E-003   0.0000000000000000     
  -5.4691195489174711E-003   4.9869543634456226E-003   0.0000000000000000     
  -7.3415903716294289E-003   7.4202536963536309E-003   0.0000000000000000     
   0.0000000000000000        0.0000000000000000        0.0000000000000000     
  -2.0694316812560620E-003   1.3549449598692072E-003   0.0000000000000000     
  -4.1640747308536357E-003   3.0939884129096468E-003   0.0000000000000000     
  -6.2839291487927183E-003   5.2171303591213190E-003   0.0000000000000000     
  -8.4289949350733126E-003   7.7243707985042232E-003   0.0000000000000000     
   0.0000000000000000        0.0000000000000000        0.0000000000000000     
  -2.3400935035194190E-003   1.4589869200584099E-003   0.0000000000000000     
  -4.7201960961271959E-003   3.2998572458353345E-003   0.0000000000000000     
  -7.1403077778233303E-003   5.5226109773307743E-003   0.0000000000000000     
  -9.6004285486078235E-003   8.1272481145447280E-003   0.0000000000000000     
   0.0000000000000000        0.0000000000000000        0.0000000000000000     
  -2.6103098298928267E-003   1.5889533958364159E-003   0.0000000000000000     
  -5.2897283085625970E-003   3.5567521351944124E-003   0.0000000000000000     
  -8.0382554360093079E-003   5.9033962180739894E-003   0.0000000000000000     
  -1.0855891212232967E-002   8.6288856444751445E-003   0.0000000000000000     
   0.0000000000000000        0.0000000000000000        0.0000000000000000     
  -2.8800806603762855E-003   1.7448443872032249E-003   0.0000000000000000     
  -5.8726713681598354E-003   3.8646730809868786E-003   0.0000000000000000     
  -8.9777721233506511E-003   6.3594860813509617E-003   0.0000000000000000     
  -1.2195382925948730E-002   9.2292833882954752E-003   0.0000000000000000     
  -7.3415903716294289E-003   7.4202536963536309E-003   0.0000000000000000     
  -9.2310744862066536E-003   1.0186597670808215E-002   0.0000000000000000     
  -1.1129869697978004E-002   1.3233540322476221E-002   0.0000000000000000     
  -1.3037976006943492E-002   1.6561081651357650E-002   0.0000000000000000     
  -1.4955393413103108E-002   2.0169221657452496E-002   0.0000000000000000     
  -8.4289949350733126E-003   7.7243707985042232E-003   0.0000000000000000     
  -1.0590918107302918E-002   1.0558260114222142E-002   0.0000000000000000     
  -1.2761344683089025E-002   1.3661348689438853E-002   0.0000000000000000     
  -1.4940274662431646E-002   1.7033636524154357E-002   0.0000000000000000     
  -1.7127708045330772E-002   2.0675123618368655E-002   0.0000000000000000     
  -9.6004285486078235E-003   8.1272481145447280E-003   0.0000000000000000     
  -1.2076980026159922E-002   1.1046372103180983E-002   0.0000000000000000     
  -1.4546383828158880E-002   1.4212586388943320E-002   0.0000000000000000     
  -1.7008639954604686E-002   1.7625890971831749E-002   0.0000000000000000     
  -1.9463748405497347E-002   2.1286285851846255E-002   0.0000000000000000     
  -1.0855891212232967E-002   8.6288856444751445E-003   0.0000000000000000     
  -1.3689260242777676E-002   1.1650933637684741E-002   0.0000000000000000     
  -1.6484987133187558E-002   1.4887253420989632E-002   0.0000000000000000     
  -1.9243071883462616E-002   1.8337844994389819E-002   0.0000000000000000     
  -2.1963514493602832E-002   2.2002708357885304E-002   0.0000000000000000     
  -1.2195382925948730E-002   9.2292833882954752E-003   0.0000000000000000     
  -1.5427758757156173E-002   1.2371944717733414E-002   0.0000000000000000     
  -1.8577154598175074E-002   1.5685349785577778E-002   0.0000000000000000     
  -2.1643570449005424E-002   1.9169498591828569E-002   0.0000000000000000     
  -2.4627006309647238E-002   2.2824391136485791E-002   0.0000000000000000     
  -1.4955393413103108E-002   2.0169221657452496E-002   0.0000000000000000     
  -1.6856965620444642E-002   2.4029437579746852E-002   0.0000000000000000     
  -1.8717536332955906E-002   2.8113206657226802E-002   0.0000000000000000     
  -2.0537105550636869E-002   3.2420528889892351E-002   0.0000000000000000     
  -2.2315673273487560E-002   3.6951404277743488E-002   0.0000000000000000     
  -1.7127708045330772E-002   2.0675123618368655E-002   0.0000000000000000     
  -1.9292596148356964E-002   2.4558208451949830E-002   0.0000000000000000     
  -2.1403890288080801E-002   2.8655289504765955E-002   0.0000000000000000     
  -2.3461590464502267E-002   3.2966366776817038E-002   0.0000000000000000     
  -2.5465696677621372E-002   3.7491440268103075E-002   0.0000000000000000     
  -1.9463748405497347E-002   2.1286285851846255E-002   0.0000000000000000     
  -2.1883610906025436E-002   2.5175037078330142E-002   0.0000000000000000     
  -2.4240129181377520E-002   2.9273410700626688E-002   0.0000000000000000     
  -2.6533303231553607E-002   3.3581406718735898E-002   0.0000000000000000     
  -2.8763133056553699E-002   3.8099025132657768E-002   0.0000000000000000     
  -2.1963514493602832E-002   2.2002708357885304E-002   0.0000000000000000     
  -2.4630009893450044E-002   2.5879923458887795E-002   0.0000000000000000     
  -2.7226253012846063E-002   2.9967570244809005E-002   0.0000000000000000     
  -2.9752243851790896E-002   3.4265648715648939E-002   0.0000000000000000     
  -3.2207982410284532E-002   3.8774158871407588E-002   0.0000000000000000     
  -2.4627006309647238E-002   2.2824391136485791E-002   0.0000000000000000     
  -2.7531793110630802E-002   2.6672867593622786E-002   0.0000000000000000     
  -3.0362261782486435E-002   3.0737768137312903E-002   0.0000000000000000     
  -3.3118412325214119E-002   3.5019092767556145E-002   0.0000000000000000     
  -3.5800244738813880E-002   3.9516841484352513E-002   0.0000000000000000     
  -2.2315673273487560E-002   3.6951404277743488E-002   0.0000000000000000     
  -2.4049981696352803E-002   4.1697104527543084E-002   0.0000000000000000     
  -2.5736773014077442E-002   4.6648901346053942E-002   0.0000000000000000     
  -2.7376047226661482E-002   5.1806794733276089E-002   0.0000000000000000     
  -2.8967804334104910E-002   5.7170784689209518E-002   0.0000000000000000     
  -2.5465696677621372E-002   3.7491440268103075E-002   0.0000000000000000     
  -2.7416372370193176E-002   4.2226401629028645E-002   0.0000000000000000     
  -2.9313780984972726E-002   4.7167142509998337E-002   0.0000000000000000     
  -3.1157922521960035E-002   5.2313662911012158E-002   0.0000000000000000     
  -3.2948796981155090E-002   5.7665962832070101E-002   0.0000000000000000     
  -2.8763133056553699E-002   3.8099025132657768E-002   0.0000000000000000     
  -3.0931325421395293E-002   4.2823508939098059E-002   0.0000000000000000     
  -3.3039587091095897E-002   4.7752101134762553E-002   0.0000000000000000     
  -3.5087918065655511E-002   5.2884801719651216E-002   0.0000000000000000     
  -3.7076318345074140E-002   5.8221610693764095E-002   0.0000000000000000     
  -3.2207982410284532E-002   3.8774158871407588E-002   0.0000000000000000     
  -3.4594840849959160E-002   4.3488426457751327E-002   0.0000000000000000     
  -3.6914191332446965E-002   4.8403777220346562E-002   0.0000000000000000     
  -3.9166033857747938E-002   5.3520211159193296E-002   0.0000000000000000     
  -4.1350368425862080E-002   5.8837728274291491E-002   0.0000000000000000     
  -3.5800244738813880E-002   3.9516841484352513E-002   0.0000000000000000     
  -3.8406918655884789E-002   4.4221154184988454E-002   0.0000000000000000     
  -4.0937593709025923E-002   4.9122170766750392E-002   0.0000000000000000     
  -4.3392269898237280E-002   5.4219891229638335E-002   0.0000000000000000     
  -4.5770947223518890E-002   5.9514315573652297E-002   0.0000000000000000     
  -2.8967804334104910E-002   5.7170784689209518E-002   0.0000000000000000     
  -3.0512495911386106E-002   6.2728755884608162E-002   0.0000000000000000     
  -3.2010573533483404E-002   6.8468592990225965E-002   0.0000000000000000     
  -3.3462037200396824E-002   7.4390296006062923E-002   0.0000000000000000     
  -3.4866886912126360E-002   8.0493864932119047E-002   0.0000000000000000     
  -3.2948796981155090E-002   5.7665962832070101E-002   0.0000000000000000     
  -3.4686459062214021E-002   6.3211458659989853E-002   0.0000000000000000     
  -3.6370963464792939E-002   6.8937566781589091E-002   0.0000000000000000     
  -3.8002310188891837E-002   7.4844287196867809E-002   0.0000000000000000     
  -3.9580499234510735E-002   8.0931619905826022E-002   0.0000000000000000     
  -3.7076318345074140E-002   5.8221610693764095E-002   0.0000000000000000     
  -3.9005215947228472E-002   6.3750580431873982E-002   0.0000000000000000     
  -4.0875038889995177E-002   6.9459763308753711E-002   0.0000000000000000     
  -4.2685787173374269E-002   7.5349159324403295E-002   0.0000000000000000     
  -4.4437460797365741E-002   8.1418768478822720E-002   0.0000000000000000     
  -4.1350368425862080E-002   5.8837728274291491E-002   0.0000000000000000     
  -4.3468766566429458E-002   6.4346121200260550E-002   0.0000000000000000     
  -4.5522799809090131E-002   7.0035182571719853E-002   0.0000000000000000     
  -4.7512468153844099E-002   7.5904912388669366E-002   0.0000000000000000     
  -4.9437771600691356E-002   8.1955310651109142E-002   0.0000000000000000     
  -4.5770947223518890E-002   5.9514315573652297E-002   0.0000000000000000     
  -4.8077110919816972E-002   6.4998080965149585E-002   0.0000000000000000     
  -5.0314246222077787E-002   7.0663824570487491E-002   0.0000000000000000     
  -5.2482353130301328E-002   7.6511546389666063E-002   0.0000000000000000     
  -5.4581431644487609E-002   8.2541246422685274E-002   0.0000000000000000     
  -3.4866886912126360E-002   8.0493864932119047E-002   0.0000000000000000     
  -3.6220092610903316E-002   8.6767191371144484E-002   0.0000000000000000     
  -3.7516624238958976E-002   9.3198166925889447E-002   0.0000000000000000     
  -3.8756481796293353E-002   9.9786791596353897E-002   0.0000000000000000     
  -3.9939665282906447E-002  0.10653306538253784        0.0000000000000000     
  -3.9580499234510735E-002   8.0931619905826022E-002   0.0000000000000000     
  -4.1100639282896492E-002   8.7188145358897420E-002   0.0000000000000000     
  -4.2557839015295966E-002   9.3602444006515725E-002   0.0000000000000000     
  -4.3952098431709198E-002  0.10017451584868092        0.0000000000000000     
  -4.5283417532136147E-002  0.10690436088539300        0.0000000000000000     
  -4.4437460797365741E-002   8.1418768478822720E-002   0.0000000000000000     
  -4.6124926797037412E-002   8.7657300162293145E-002   0.0000000000000000     
  -4.7743052207457150E-002   9.4053463765095685E-002   0.0000000000000000     
  -4.9291837028624948E-002  0.10060725928723038        0.0000000000000000     
  -5.0771281260540799E-002  0.10731868672869720        0.0000000000000000     
  -4.9437771600691356E-002   8.1955310651109142E-002   0.0000000000000000     
  -5.1292955153326103E-002   8.8174655781331643E-002   0.0000000000000000     
  -5.3072263815442527E-002   9.4551226201629340E-002   0.0000000000000000     
  -5.4775697587040630E-002  0.10108502191200228        0.0000000000000000     
  -5.6403256468120395E-002  0.10777604291245042        0.0000000000000000     
  -5.4581431644487609E-002   8.2541246422685274E-002   0.0000000000000000     
  -5.6604724351762552E-002   8.8740212216012887E-002   0.0000000000000000     
  -5.8545473839252085E-002   9.5095731316116677E-002   0.0000000000000000     
  -6.0403680106956230E-002  0.10160780372299660        0.0000000000000000     
  -6.2179343154874951E-002  0.10827642943665271        0.0000000000000000     
  -3.9939665282906447E-002  0.10653306538253784        0.0000000000000000     
  -4.1075333167038694E-002  0.11342570586884348        0.0000000000000000     
  -4.2172643916930569E-002  0.12045343063967301        0.0000000000000000     
  -4.3231597532582024E-002  0.12761623969502645        0.0000000000000000     
  -4.4252194013993114E-002  0.13491413303490371        0.0000000000000000     
  -4.5283417532136147E-002  0.10690436088539300        0.0000000000000000     
  -4.6561678871103782E-002  0.11378034276952317        0.0000000000000000     
  -4.7796765003139070E-002  0.12079082515394264        0.0000000000000000     
  -4.8988675928242006E-002  0.12793580803865137        0.0000000000000000     
  -5.0137411646412590E-002  0.13521529142364944        0.0000000000000000     
  -5.0771281260540799E-002  0.10731868672869720        0.0000000000000000     
  -5.2192175109963254E-002  0.11417597747316163        0.0000000000000000     
  -5.3565308783650852E-002  0.12116736290428919        0.0000000000000000     
  -5.4890682281603612E-002  0.12829284302207988        0.0000000000000000     
  -5.6168295603821528E-002  0.13555241782653366        0.0000000000000000     
  -5.6403256468120395E-002  0.10777604291245042        0.0000000000000000     
  -5.7966821883617070E-002  0.11461260997975886        0.0000000000000000     
  -5.9478275258465892E-002  0.12158304389071270        0.0000000000000000     
  -6.0937616592666825E-002  0.12868734464531190        0.0000000000000000     
  -6.2344845886219920E-002  0.13592551224355648        0.0000000000000000     
  -6.2179343154874951E-002  0.10827642943665271        0.0000000000000000     
  -6.3885619192065285E-002  0.11509024028931489        0.0000000000000000     
  -6.5535664427584184E-002  0.12203786811321313        0.0000000000000000     
  -6.7129478861431682E-002  0.12911931290834744        0.0000000000000000     
  -6.8667062493607767E-002  0.13633457467471780        0.0000000000000000     
  -4.4252194013993114E-002  0.13491413303490371        0.0000000000000000     
  -4.5215045629615751E-002  0.14233515032982744        0.0000000000000000     
  -4.6100764647901867E-002  0.14986733125032017        0.0000000000000000     
  -4.6909351068851475E-002  0.15751067579638187        0.0000000000000000     
  -4.7640804892464583E-002  0.16526518396801251        0.0000000000000000     
  -5.0137411646412590E-002  0.13521529142364944        0.0000000000000000     
  -5.1221531756266613E-002  0.14261745499779183        0.0000000000000000     
  -5.2219595856419866E-002  0.15013047844993369        0.0000000000000000     
  -5.3131603946872358E-002  0.15775436178007496        0.0000000000000000     
  -5.3957556027624094E-002  0.16548910498821567        0.0000000000000000     
  -5.6168295603821528E-002  0.13555241782653366        0.0000000000000000     
  -5.7374708770502852E-002  0.14293340853686834        0.0000000000000000     
  -5.8486481801845853E-002  0.15042313637230170        0.0000000000000000     
  -5.9503614697850565E-002  0.15802160133283372        0.0000000000000000     
  -6.0426107458516926E-002  0.16572880341846433        0.0000000000000000     
  -6.2344845886219920E-002  0.13592551224355648        0.0000000000000000     
  -6.3674576672324484E-002  0.14328301094705703        0.0000000000000000     
  -6.4901422484179863E-002  0.15074530501742422        0.0000000000000000     
  -6.6025383321786063E-002  0.15831239445465808        0.0000000000000000     
  -6.7046459185143098E-002  0.16598427925875853        0.0000000000000000     
  -6.8667062493607767E-002  0.13633457467471780        0.0000000000000000     
  -7.0121135461731474E-002  0.14366626222835782        0.0000000000000000     
  -7.1464417903421867E-002  0.15109698438530128        0.0000000000000000     
  -7.2696909818678893E-002  0.15862674114554806        0.0000000000000000     
  -7.3818611207502605E-002  0.16625553250909825        0.0000000000000000     
   0.0000000000000000        0.0000000000000000        0.0000000000000000     
  -2.8800806603762855E-003   1.7448443872032249E-003   0.0000000000000000     
  -5.8726713681598354E-003   3.8646730809868786E-003   0.0000000000000000     
  -8.9777721233506511E-003   6.3594860813509617E-003   0.0000000000000000     
  -1.2195382925948730E-002   9.2292833882954752E-003   0.0000000000000000     
   0.0000000000000000        0.0000000000000000        0.0000000000000000     
  -3.2832321607099632E-003   1.9993453209072977E-003   0.0000000000000000     
  -6.6769885476185824E-003   4.3309617661500682E-003   0.0000000000000000     
  -1.0181269160725854E-002   6.9948493357283141E-003   0.0000000000000000     
  -1.3796074000031782E-002   9.9910080296420328E-003   0.0000000000000000     
   0.0000000000000000        0.0000000000000000        0.0000000000000000     
  -3.9535904966340289E-003   2.4251416236970940E-003   0.0000000000000000     
  -7.9106431196385007E-003   5.0629598736213156E-003   0.0000000000000000     
  -1.1871157869013419E-002   7.9134547497726644E-003   0.0000000000000000     
  -1.5835134744758780E-002   1.0976626252151142E-002   0.0000000000000000     
   0.0000000000000000        0.0000000000000000        0.0000000000000000     
  -4.8911556681484813E-003   3.0222332955726146E-003   0.0000000000000000     
  -9.5736350842195936E-003   6.0606674034006198E-003   0.0000000000000000     
  -1.4047438248213338E-002   9.1153023234840126E-003   0.0000000000000000     
  -1.8312565160129714E-002   1.2186138055822800E-002   0.0000000000000000     
   0.0000000000000000        0.0000000000000000        0.0000000000000000     
  -6.0959276752533221E-003   3.7906203365338591E-003   0.0000000000000000     
  -1.1665964441361861E-002   7.3240843554879800E-003   0.0000000000000000     
  -1.6710110298325621E-002   1.0600392056862362E-002   0.0000000000000000     
  -2.1228365246144597E-002   1.3619543440657005E-002   0.0000000000000000     
  -1.2195382925948730E-002   9.2292833882954752E-003   0.0000000000000000     
  -1.5427758757156173E-002   1.2371944717733414E-002   0.0000000000000000     
  -1.8577154598175074E-002   1.5685349785577778E-002   0.0000000000000000     
  -2.1643570449005424E-002   1.9169498591828569E-002   0.0000000000000000     
  -2.4627006309647238E-002   2.2824391136485791E-002   0.0000000000000000     
  -1.3796074000031782E-002   9.9910080296420328E-003   0.0000000000000000     
  -1.7404323337986020E-002   1.3221397731748886E-002   0.0000000000000000     
  -2.0888937447038226E-002   1.6587978325906527E-002   0.0000000000000000     
  -2.4249916327188394E-002   2.0090749812114967E-002   0.0000000000000000     
  -2.7487259978436530E-002   2.3729712190374189E-002   0.0000000000000000     
  -1.5835134744758780E-002   1.0976626252151142E-002   0.0000000000000000     
  -1.9730801753957840E-002   1.4211285068153036E-002   0.0000000000000000     
  -2.3486386903693840E-002   1.7576241885174634E-002   0.0000000000000000     
  -2.7101890193966791E-002   2.1071496703215946E-002   0.0000000000000000     
  -3.0577311624776688E-002   2.4697049522276960E-002   0.0000000000000000     
  -1.8312565160129714E-002   1.2186138055822800E-002   0.0000000000000000     
  -2.2407194005071608E-002   1.5341606726945865E-002   0.0000000000000000     
  -2.6369502968141910E-002   1.8650140463382106E-002   0.0000000000000000     
  -3.0199492049340616E-002   2.2111739265131519E-002   0.0000000000000000     
  -3.3897161248667713E-002   2.5726403132194108E-002   0.0000000000000000     
  -2.1228365246144597E-002   1.3619543440657005E-002   0.0000000000000000     
  -2.5433500091327350E-002   1.6612362708127375E-002   0.0000000000000000     
  -2.9538285640382436E-002   1.9809674060528935E-002   0.0000000000000000     
  -3.3542721893309861E-002   2.3211477497861691E-002   0.0000000000000000     
  -3.7446808850109620E-002   2.6817773020125633E-002   0.0000000000000000     
  -2.4627006309647238E-002   2.2824391136485791E-002   0.0000000000000000     
  -2.7531793110630802E-002   2.6672867593622786E-002   0.0000000000000000     
  -3.0362261782486435E-002   3.0737768137312903E-002   0.0000000000000000     
  -3.3118412325214119E-002   3.5019092767556145E-002   0.0000000000000000     
  -3.5800244738813880E-002   3.9516841484352513E-002   0.0000000000000000     
  -2.7487259978436530E-002   2.3729712190374189E-002   0.0000000000000000     
  -3.0624106244352758E-002   2.7547503468839232E-002   0.0000000000000000     
  -3.3683592968507203E-002   3.1586761655665124E-002   0.0000000000000000     
  -3.6665720150899868E-002   3.5847486750851879E-002   0.0000000000000000     
  -3.9570487791530752E-002   4.0329678754399467E-002   0.0000000000000000     
  -3.0577311624776688E-002   2.4697049522276960E-002   0.0000000000000000     
  -3.3942094981400939E-002   2.8497465070841263E-002   0.0000000000000000     
  -3.7225684049116935E-002   3.2517308077392421E-002   0.0000000000000000     
  -4.0428078827924666E-002   3.6756578541930450E-002   0.0000000000000000     
  -4.3549279317824152E-002   4.1215276464455351E-002   0.0000000000000000     
  -3.3897161248667713E-002   2.5726403132194108E-002   0.0000000000000000     
  -3.7485759321775357E-002   2.9522752399628864E-002   0.0000000000000000     
  -4.0988535024315632E-002   3.3529407402494792E-002   0.0000000000000000     
  -4.4405488356288519E-002   3.7746368140791881E-002   0.0000000000000000     
  -4.7736619317694073E-002   4.2173634614520145E-002   0.0000000000000000     
  -3.7446808850109620E-002   2.6817773020125633E-002   0.0000000000000000     
  -4.1255099265476006E-002   3.0623365455202053E-002   0.0000000000000000     
  -4.4972145894103283E-002   3.4623059630972230E-002   0.0000000000000000     
  -4.8597948735991450E-002   3.8816855547436163E-002   0.0000000000000000     
  -5.2132507791140530E-002   4.3204753204593868E-002   0.0000000000000000     
  -3.5800244738813880E-002   3.9516841484352513E-002   0.0000000000000000     
  -3.8406918655884789E-002   4.4221154184988454E-002   0.0000000000000000     
  -4.0937593709025923E-002   4.9122170766750392E-002   0.0000000000000000     
  -4.3392269898237280E-002   5.4219891229638335E-002   0.0000000000000000     
  -4.5770947223518890E-002   5.9514315573652297E-002   0.0000000000000000     
  -3.9570487791530752E-002   4.0329678754399467E-002   0.0000000000000000     
  -4.2394528402175072E-002   4.5019353451626561E-002   0.0000000000000000     
  -4.5134474494608050E-002   4.9902526627851794E-002   0.0000000000000000     
  -4.7790326068829700E-002   5.4979198283075174E-002   0.0000000000000000     
  -5.0362083124839994E-002   6.0249368417296702E-002   0.0000000000000000     
  -4.3549279317824152E-002   4.1215276464455351E-002   0.0000000000000000     
  -4.6584639651832960E-002   4.5880685588482802E-002   0.0000000000000000     
  -4.9529513962968674E-002   5.0740089657528561E-002   0.0000000000000000     
  -5.2383902251231296E-002   5.5793488671592603E-002   0.0000000000000000     
  -5.5147804516620817E-002   6.1040882630674941E-002   0.0000000000000000     
  -4.7736619317694073E-002   4.2173634614520145E-002   0.0000000000000000     
  -5.0977252404858439E-002   4.6805150595557204E-002   0.0000000000000000     
  -5.4122712114107761E-002   5.1634859855780695E-002   0.0000000000000000     
  -5.7172998445442068E-002   5.6662762395190622E-002   0.0000000000000000     
  -6.0128111398861366E-002   6.1888858213786986E-002   0.0000000000000000     
  -5.2132507791140530E-002   4.3204753204593868E-002   0.0000000000000000     
  -5.5572366661251482E-002   4.7792748472849728E-002   0.0000000000000000     
  -5.8914068948025332E-002   5.2586837222608186E-002   0.0000000000000000     
  -6.2157614651462030E-002   5.7587019453869223E-002   0.0000000000000000     
  -6.5303003771561619E-002   6.2793295166632845E-002   0.0000000000000000     
  -4.5770947223518890E-002   5.9514315573652297E-002   0.0000000000000000     
  -4.8077110919816972E-002   6.4998080965149585E-002   0.0000000000000000     
  -5.0314246222077787E-002   7.0663824570487491E-002   0.0000000000000000     
  -5.2482353130301328E-002   7.6511546389666063E-002   0.0000000000000000     
  -5.4581431644487609E-002   8.2541246422685274E-002   0.0000000000000000     
  -5.0362083124839994E-002   6.0249368417296702E-002   0.0000000000000000     
  -5.2855069124992049E-002   6.5707733966710147E-002   0.0000000000000000     
  -5.5274607531638958E-002   7.1348991867509301E-002   0.0000000000000000     
  -5.7620698344780723E-002   7.7173142119694157E-002   0.0000000000000000     
  -5.9893341564417314E-002   8.3180184723264730E-002   0.0000000000000000     
  -5.5147804516620817E-002   6.1040882630674941E-002   0.0000000000000000     
  -5.7827461299555717E-002   6.6476354445111421E-002   0.0000000000000000     
  -6.0429113140454432E-002   7.2093987025237949E-002   0.0000000000000000     
  -6.2952760039316977E-002   7.7893780371054502E-002   0.0000000000000000     
  -6.5398401996143343E-002   8.3875734482561082E-002   0.0000000000000000     
  -6.0128111398861366E-002   6.1888858213786986E-002   0.0000000000000000     
  -6.2994287443507976E-002   6.7303942400353381E-002   0.0000000000000000     
  -6.5777763048524229E-002   7.2898810043673407E-002   0.0000000000000000     
  -6.8478538213910117E-002   7.8673461143747070E-002   0.0000000000000000     
  -7.1096612939665668E-002   8.4627895700574371E-002   0.0000000000000000     
  -6.5303003771561619E-002   6.2793295166632845E-002   0.0000000000000000     
  -6.8355547556848806E-002   6.8190497832435998E-002   0.0000000000000000     
  -7.1320557255848308E-002   7.3763460922815688E-002   0.0000000000000000     
  -7.4198032868560138E-002   7.9512184437771860E-002   0.0000000000000000     
  -7.6987974394984296E-002   8.5436668377304556E-002   0.0000000000000000     
  -5.4581431644487609E-002   8.2541246422685274E-002   0.0000000000000000     
  -5.6604724351762552E-002   8.8740212216012887E-002   0.0000000000000000     
  -5.8545473839252085E-002   9.5095731316116677E-002   0.0000000000000000     
  -6.0403680106956230E-002  0.10160780372299660        0.0000000000000000     
  -6.2179343154874951E-002  0.10827642943665271        0.0000000000000000     
  -5.9893341564417314E-002   8.3180184723264730E-002   0.0000000000000000     
  -6.2084653015828856E-002   8.9356774242888931E-002   0.0000000000000000     
  -6.4186748524295414E-002   9.5689565243234714E-002   0.0000000000000000     
  -6.6199628089816970E-002  0.10217855772430208        0.0000000000000000     
  -6.8123291712393549E-002  0.10882375168609103        0.0000000000000000     
  -6.5398401996143343E-002   8.3875734482561082E-002   0.0000000000000000     
  -6.7757159769007175E-002   9.0027146638511774E-002   0.0000000000000000     
  -7.0020154115982086E-002   9.6335314117660539E-002   0.0000000000000000     
  -7.2187385037068133E-002  0.10280023692000743        0.0000000000000000     
  -7.4258852532265246E-002  0.10942191504555242        0.0000000000000000     
  -7.1096612939665668E-002   8.4627895700574371E-002   0.0000000000000000     
  -7.3622244611297460E-002   9.0751329402881359E-002   0.0000000000000000     
  -7.6045690614312156E-002   9.7032977939394138E-002   0.0000000000000000     
  -7.8366950948709643E-002  0.10347284131011263        0.0000000000000000     
  -8.0586025614490048E-002  0.11007091951503691        0.0000000000000000     
  -7.6987974394984296E-002   8.5436668377304556E-002   0.0000000000000000     
  -7.9679907542699754E-002   9.1529322535997770E-002   0.0000000000000000     
  -8.2263358019285540E-002   9.7782556708435484E-002   0.0000000000000000     
  -8.4738325824741598E-002  0.10419637089461771        0.0000000000000000     
  -8.7104810959067969E-002  0.11077076509454445        0.0000000000000000     
  -6.2179343154874951E-002  0.10827642943665271        0.0000000000000000     
  -6.3885619192065285E-002  0.11509024028931489        0.0000000000000000     
  -6.5535664427584184E-002  0.12203786811321313        0.0000000000000000     
  -6.7129478861431682E-002  0.12911931290834744        0.0000000000000000     
  -6.8667062493607767E-002  0.13633457467471780        0.0000000000000000     
  -6.8123291712393549E-002  0.10882375168609103        0.0000000000000000     
  -6.9972180223394950E-002  0.11561396652337094        0.0000000000000000     
  -7.1760734454191025E-002  0.12253802163091121        0.0000000000000000     
  -7.3488954404781745E-002  0.12959591700871184        0.0000000000000000     
  -7.5156840075167125E-002  0.13678765265677284        0.0000000000000000     
  -7.4258852532265246E-002  0.10942191504555242        0.0000000000000000     
  -7.6250118165693173E-002  0.11618888680346824        0.0000000000000000     
  -7.8176743501471621E-002  0.12308969050292759        0.0000000000000000     
  -8.0038728539600604E-002  0.13012432614393041        0.0000000000000000     
  -8.1836073280080079E-002  0.13729279372647679        0.0000000000000000     
  -8.0586025614490048E-002  0.11007091951503691        0.0000000000000000     
  -8.2719433018959940E-002  0.11681500112960683        0.0000000000000000     
  -8.4783691569426001E-002  0.12369287472926226        0.0000000000000000     
  -8.6778801265888217E-002  0.13070454031400319        0.0000000000000000     
  -8.8704762108346602E-002  0.13784999788382965        0.0000000000000000     
  -8.7104810959067969E-002  0.11077076509454445        0.0000000000000000     
  -8.9380124783195278E-002  0.11749230950178663        0.0000000000000000     
  -9.1581578658054191E-002  0.12434757430991519        0.0000000000000000     
  -9.3709172583644640E-002  0.13133655951893014        0.0000000000000000     
  -9.5762906559966693E-002  0.13845926512883142        0.0000000000000000     
  -6.8667062493607767E-002  0.13633457467471780        0.0000000000000000     
  -7.0121135461731474E-002  0.14366626222835782        0.0000000000000000     
  -7.1464417903421867E-002  0.15109698438530128        0.0000000000000000     
  -7.2696909818678893E-002  0.15862674114554806        0.0000000000000000     
  -7.3818611207502605E-002  0.16625553250909825        0.0000000000000000     
  -7.5156840075167125E-002  0.13678765265677284        0.0000000000000000     
  -7.6735584272672644E-002  0.14409465704182151        0.0000000000000000     
  -7.8196379804623767E-002  0.15149835863058514        0.0000000000000000     
  -7.9539226671020466E-002  0.15899875742306374        0.0000000000000000     
  -8.0764124871862741E-002  0.16659585341925731        0.0000000000000000     
  -8.1836073280080079E-002  0.13729279372647679        0.0000000000000000     
  -8.3539122239096805E-002  0.14457969004849869        0.0000000000000000     
  -8.5118219932837524E-002  0.15196961190792813        0.0000000000000000     
  -8.6573366361302195E-002  0.15946255930476508        0.0000000000000000     
  -8.7904561524490832E-002  0.16705853223900960        0.0000000000000000     
  -8.8704762108346602E-002  0.13784999788382965        0.0000000000000000     
  -9.0531749361003958E-002  0.14512136124838942        0.0000000000000000     
  -9.2229938288063112E-002  0.15251074421733024        0.0000000000000000     
  -9.3799328889524108E-002  0.16001814679065213        0.0000000000000000     
  -9.5239921165386876E-002  0.16764356896835511        0.0000000000000000     
  -9.5762906559966693E-002  0.13845926512883142        0.0000000000000000     
  -9.7713465638394087E-002  0.14571967064149366        0.0000000000000000     
  -9.9531534870300573E-002  0.15312175555879148        0.0000000000000000     
 -0.10121711425568616       0.16066551988072486        0.0000000000000000     
 -0.10277020379455087       0.16835096360729379        0.0000000000000000     
 </DataArray>
 <DataArray  type="Float64" Name="stress" NumberOfComponents="3" format="ascii">
   13416523526.937351        4024957058.0812058        2894177350.4565015     
   11766375672.563299        1890166028.7782359        1715938525.2173762     
   10313585538.801273        413234068.18201780        810747918.84525526     
   9058153125.6512718       -405838823.70745039        178605531.34013867     
   8000078433.1132956       -567052646.89016819       -180488637.29797435     
   10539942950.570097        3161982885.1710291        2225821210.7199483     
   9667507485.3964748        1589392681.2727923        1446768083.0361390     
   8943766402.4414902        512450418.10334539        863168383.85379446     
   8368719701.7051411       -68843904.337311268        475022113.17291462     
   7942367383.1874275       -154490286.04918003        282329270.99350053     
   8337989134.4510298        2501396740.3353090        1712347060.1659250     
   8021566657.4334402        1424497541.5284858        1275705735.2451441     
   7805175224.2411003        681035155.47249198        956923048.46028936     
   7688814834.8740063        271009582.16732645        755998999.81136084     
   7672485489.3321619        194420821.61298990        672933589.29835820     
   6810662078.5801468        2043198623.5740442        1353754898.7944303     
   6828553188.6741924        1395480609.5453150        1202751481.8443925     
   6897812004.2000971        918988280.28945398        1092011912.6647413     
   7018438525.1578636        613721635.80646110        1021536191.2554777     
   7190432751.5474901        479680676.09633684        991324317.61660063     
   5957961782.9574509        1787388534.8872354        1150044726.6054652     
   6088467079.1187353        1502341885.3232818        1227905322.8338838     
   6221676742.3184900        1226309792.5542350        1268434976.4671495     
   6357590772.5567188        959292256.58009601        1271633687.5052648     
   6496209169.8334179        701289277.40086365        1237501455.9482272     
   8000078433.1132956       -567052646.89016819       -180488637.29797435     
   7917717635.7415104       -199353142.64583874       -78422912.406208113     
   7793734826.9074917        29606323.391057014       -8904798.4485552330     
   7628130006.6112471        119825751.22051859        28065704.574982554     
   7420903174.8527670        71305140.842542648        32488596.664402675     
   7942367383.1874275       -154490286.04918003        282329270.99350053     
   7739725203.7725573        16883026.725407600        281096887.49695963     
   7513601819.7801037        109985657.57471418        265194019.08671594     
   7263997231.2100716        124817606.49875546        234620665.76277179     
   6990911438.0624542        61378873.497518063        189376827.52512574     
   7672485489.3321619        194420821.61298990        672933589.29835820     
   7400639430.7896709        184791193.79246950        589567372.11226499     
   7123452974.5542488        157360240.32883930        509407796.03288466     
   6840926120.6258926        112127961.22209167        432454861.06021458     
   6553058869.0046024        49094356.472233534        358708567.19425780     
   7190432751.5474901        479680676.09633684        991324317.61660063     
   6900460316.7928514        304371358.55535460        846988541.43971288     
   6623288291.2299261        171730071.65341854        723736532.38994849     
   6358916674.8587160        81756815.390531540        621568290.46730983     
   6107345467.6792173        34451589.766688108        540483815.67179990     
   6496209169.8334179        701289277.40086365        1237501455.9482272     
   6239187861.7820950        375623521.01405764        1053360395.4792982     
   6013107769.8071346        153095151.54845786        908180228.15791106     
   5817968893.9085369        33704169.004067183        801960953.98405766     
   5653771234.0862980        17450573.380883455        734702572.95774662     
   7420903174.8527670        71305140.842542648        32488596.664402675     
   7218325969.7889748       -19991973.316515923        15113029.034234671     
   7028246781.6009340       -69629031.223063946        2033892.2914130888     
   6850665610.2886524       -77606032.877090931       -6748813.5640591867     
   6685582455.8521204       -43922978.278605461       -11235088.532182477     
   6990911438.0624542        61378873.497518063        189376827.52512574     
   6808197267.7778788        1594811.3885793686        180923071.97107303     
   6633498269.5654306       -31472010.479946613        176179900.27134579     
   6466814443.4250984       -37821592.108070374        175147312.42595041     
   6308145789.3568926       -17453933.495789289        177825308.43488303     
   6553058869.0046024        49094356.472233534        358708567.19425780     
   6388533884.8334770        20321191.813686132        353946638.11207950     
   6227541227.9308453        3322451.3834400177        352309445.85121095     
   6070080898.2967052       -1901864.8185019493        353796990.41165447     
   5916152895.9310541        4648243.2078607082        358409271.79340702     
   6107345467.6792173        34451589.766688108        540483815.67179990     
   5959335820.9557743        36187167.958801031        534183727.45726073     
   5810375656.6971903        34754354.367107153        530422529.03101391     
   5660464974.9034653        30153148.991612673        529200220.39305836     
   5509603775.5746012        22383551.832315922        530516801.54339463     
   5653771234.0862980        17450573.380883455        734702572.95774662     
   5520603076.1447668        49192739.823922634        721634340.00661385     
   5382001555.8644600        62823698.471053123        710519149.81074977     
   5237966673.2453823        58343449.322273016        701357002.37015891     
   5088498428.2875328        35751992.377588272        694147897.68484151     
   6685582455.8521204       -43922978.278605461       -11235088.532182477     
   6509076994.9300070       -4072380.9812247753       -3930829.8934811382     
   6326399386.1285639        15204390.051730156        4947186.7346480610     
   6137549629.4477940        13907334.820251226        15398961.352195194     
   5942527724.8876905       -7963546.6756603718        27424493.959166985     
   6308145789.3568926       -17453933.495789289        177825308.43488303     
   6131840629.7771606        3971820.2670769691        174830116.56117007     
   5951706482.8312702        12634282.809403181        174667131.62321749     
   5767743348.5192127        8533454.1311726570        177336353.62102717     
   5579951226.8409853       -8330665.7676126957        182837782.55460232     
   5916152895.9310541        4648243.2078607082        358409271.79340702     
   5743643606.1118193        8727823.9616398811        347848316.67263734     
   5569648489.4395885        7854648.5387604237        341378017.43396878     
   5394167545.9143572        2028716.9392120838        338998374.07740241     
   5217200775.5361271       -8749970.8369960785        340709386.60293710     
   5509603775.5746012        22383551.832315922        530516801.54339463     
   5344485923.9339743        10195630.102445126        515123770.44092995     
   5180225405.9535131        865487.23979234695        505079844.16690141     
   5016822221.6332254       -5606876.7556290627        500385022.72131771     
   4854276370.9730978       -9221461.8838346004        501039306.10416865     
   5088498428.2875328        35751992.377588272        694147897.68484151     
   4934367583.2436266        8375238.6894993782        676656477.86603689     
   4783437232.3730574       -8333201.0874793530        665772611.82201278     
   4635707375.6758118       -14373326.953357935        661496299.55277014     
   4491178013.1519089       -9745138.9081246853        663827541.05830491     
   5942527724.8876905       -7963546.6756603718        27424493.959166985     
   5768365694.0347958       -28285498.964684010        19647345.323084645     
   5597270954.2006226       -38383147.857992649        15490667.659533270     
   5429243505.3851538       -38256493.355598927        14954460.968514463     
   5264283347.5884027       -27905535.457492828        18038725.250022139     
   5579951226.8409853       -8330665.7676126957        182837782.55460232     
   5417573942.3651733       -20305468.309746265        177919595.92076412     
   5257222260.3297567       -25528262.717234373        176519862.50901493     
   5098896180.7347279       -23999048.990082026        178638582.31936550     
   4942595703.5800953       -15717827.128280878        184275755.35181186     
   5217200775.5361271       -8749970.8369960785        340709386.60293710     
   5066316758.1504393       -12465067.418337584        337434858.62996340     
   4916416654.6268263       -12900451.126094818        337576766.12865013     
   4767500464.9652882       -10056121.960268021        341135109.09900367     
   4619568189.1658278       -3932079.9208540916        348109887.54102194     
   4854276370.9730978       -9221461.8838346004        501039306.10416865     
   4714594141.3905859       -4764296.2904736996        498193133.45069104     
   4574854137.0918293       -499713.08457899094        498661378.51844823     
   4435056358.0768299        3572287.7338359356        502444041.30743021     
   4295200804.3455935        7451706.1647746563        509541121.81764203     
   4491178013.1519089       -9745138.9081246853        663827541.05830491     
   4362406092.0856199        2796845.0738615990        660194420.38294840     
   4232534707.7247705        11673951.407316685        659773699.67839670     
   4101563860.0693622        16886180.092235565        662565378.94463921     
   3969493549.1193910        18433531.128619671        668569458.18168283     
   5264283347.5884027       -27905535.457492828        18038725.250022139     
   5055765768.6280088       -28675039.101315975        14025001.565861959     
   4845464479.8404541       -35390242.169014454        14615129.459252166     
   4633379481.2257271       -48051144.660620928        19809108.930177391     
   4419510772.7838364       -66657746.576098919        29606939.978647880     
   4942595703.5800953       -15717827.128280878        184275755.35181186     
   4745591110.2367172       -18411527.855799198        178092725.47506142     
   4547376065.3984289       -25140066.899687529        176606032.28394291     
   4347950569.0652199       -35903444.259979248        179815675.77845055     
   4147314621.2370934       -50701659.936654806        187721655.95858753     
   4619568189.1658278       -3932079.9208540916        348109887.54102194     
   4434340824.6054230       -8470704.7822916508        340426352.85930616     
   4248476266.8823543       -15133306.852594376        337531639.97130382     
   4061974515.9966164       -23919886.131806612        339425748.87701762     
   3874835571.9482236       -34830442.619865656        346108679.57644904     
   4295200804.3455935        7451706.1647746563        509541121.81764203     
   4122014911.7341199        1147430.1192176342        501025883.71858913     
   3948765084.2922401       -5369962.0277106762        497391952.52133179     
   3775451322.0199437       -12100470.276021004        498639328.22588170     
   3602073624.9172339       -19044094.625710487        504768010.83223051     
   3969493549.1193910        18433531.128619671        668569458.18168283     
   3808613371.6228228        10442876.848735332        659891318.05291224     
   3648242517.6280837        4149967.5749671459        656186969.93402839     
   3488380987.1351871       -445196.69267416000        657456413.82503963     
   3329028780.1441250       -3342615.9541912079        663699649.72592998     
   4419510772.7838364       -66657746.576098919        29606939.978647880     
   4277828005.3894973       -66229957.214292288        23648779.013770629     
   4136200558.1276278       -65617767.410891056        21244364.598883312     
   3994628430.9982233       -64821177.165956736        22393696.733993616     
   3853111624.0012884       -63840186.479453802        27096775.419091288     
   4147314621.2370934       -50701659.936654806        187721655.95858753     
   4015795144.8339925       -46547245.975029230        181642559.40973243     
   3884310969.2955589       -42275162.464511871        178967642.16572696     
   3752862094.6217985       -37885409.405089378        179696904.22657141     
   3621448520.8127069       -33377986.796749353        183830345.59226868     
   3874835571.9482236       -34830442.619865656        346108679.57644904     
   3753052051.5502462       -27077604.554277182        339885291.63117951     
   3631283812.7491484       -19273827.832421541        336916515.74562079     
   3509530855.5449152       -11419112.454346418        337202351.91978329     
   3387793179.9375715       -3513458.4199812412        340742800.15365279     
   3602073624.9172339       -19044094.625710487        504768010.83223051     
   3489598725.5382748       -7821032.9519731998        498376975.67812037     
   3377119088.4883928        3386236.4853720665        495090985.33858645     
   3264634713.7675848        14577713.686282516        494910039.81362951     
   3152145601.3758535        25753398.650790691        497834139.10323679     
   3329028780.1441250       -3342615.9541912079        663699649.72592998     
   3225435166.7980661        11222468.831857920        657117611.55055356     
   3121816796.5132880        25705030.488842249        653491050.94460583     
   3018173669.2897859        40105069.016752839        652819967.90809989     
   2914505785.1275725        54422584.415613651        655104362.44102454     
   3853111624.0012884       -63840186.479453802        27096775.419091288     
   3579060619.1355500       -129408513.58922338        40603834.025945485     
   3287291178.6853070       -254038292.64733219        56410278.107758515     
   2977803302.6505308       -437729523.65389848        74516107.664542571     
   2650596991.0312476       -680482206.60880220        94921322.696299538     
   3621448520.8127069       -33377986.796749353        183830345.59226868     
   3358082110.6675439       -86956731.528213024        179594929.10571331     
   3082482388.8188133       -181313181.93824136        178512219.45733169     
   2794649355.2665095       -316447338.02682972        180582216.64712894     
   2494583010.0106468       -492359199.79398000        185804920.67509481     
   3387793179.9375715       -3513458.4199812412        340742800.15365279     
   3137549425.5507140       -44371202.461869717        325164219.76812953     
   2880557483.3412447       -107722905.91247380        313591667.58399463     
   2616817353.3091674       -193568568.77178061        306025143.60124052     
   2346329035.4544539       -301908191.03983545        302464647.81987184     
   3152145601.3758535        25753398.650790691        497834139.10323679     
   2917462563.7850604       -1651926.3901634216        477311706.01318747     
   2681516462.2525969       -33267464.570009708        461648622.48773700     
   2444307296.7784700       -69093215.888746262        450844888.52688384     
   2205835067.3626747       -109129180.34636021        444900504.13063127     
   2914505785.1275725        54422584.415613651        655104362.44102454     
   2697821525.3705764        41201096.686880231        636037387.84089053     
   2485359325.5528727        42053142.089124918        622683084.16856992     
   2277119185.6744504        56978720.622299671        615041451.42405486     
   2073101105.7353110        85977832.286439776        613112489.60735583     
   5957961782.9574509        1787388534.8872354        1150044726.6054652     
   6088467079.1187353        1502341885.3232818        1227905322.8338838     
   6221676742.3184900        1226309792.5542350        1268434976.4671495     
   6357590772.5567188        959292256.58009601        1271633687.5052648     
   6496209169.8334179        701289277.40086365        1237501455.9482272     
   5434561066.6358452        1630368319.9907537        1033499611.6388582     
   5489903544.7903709        1372547894.9518604        1113882453.5649767     
   5547429474.1012154        1122005640.4340315        1167495710.8829579     
   5607138854.5683784        878741556.43726575        1194339383.5928013     
   5669031686.1918612        642755642.96156335        1194413471.6945066     
   4895132748.6682339        1468539824.6004703        936402621.93443847     
   4905487717.3503284        1246998216.6469362        1018699974.3624121     
   4917505221.3065882        1030998392.9406219        1084789100.1692619     
   4931185260.5370150        820540353.48152828        1134669999.3549888     
   4946527835.0416059        615624098.26965439        1168342671.9195924     
   4339676829.0546179        1301903048.7163854        858753757.49220610     
   4335219596.7986078        1125692850.4085081        942357885.22618937     
   4331903983.9346085        953288050.07400703        1020315144.3260634     
   4329729990.4626226        784688647.71288228        1092625534.7918286     
   4328697616.3826513        619894643.32513499        1159289056.6234846     
   3768193307.7949967        1130457992.3384991        800553018.31216109     
   3779099183.1352062        1008631796.2365761        884856186.15630877     
   3790625761.9852762        888874611.83418632        974073843.35336137     
   3802773044.3452058        771186439.13132930        1068205989.9033191     
   3815541030.2149963        655567278.12800550        1167252625.8061826     
   6496209169.8334179        701289277.40086365        1237501455.9482272     
   6239187861.7820950        375623521.01405764        1053360395.4792982     
   6013107769.8071346        153095151.54845786        908180228.15791106     
   5817968893.9085369        33704169.004067183        801960953.98405766     
   5653771234.0862980        17450573.380883455        734702572.95774662     
   5669031686.1918612        642755642.96156335        1194413471.6945066     
   5518865023.3688469        383109796.91676450        1073571339.9702348     
   5392860787.9157906        204005375.43848848        980728832.11820078     
   5291018979.8326874        105442378.52673125        915885948.13840115     
   5213339599.1195459        87420806.181499243        879042688.03083742     
   4946527835.0416059        615624098.26965439        1168342671.9195924     
   4871897905.2317514        412602788.90231729        1102890882.1158371     
   4814651614.0854464        267526941.74681568        1054477446.9090161     
   4774788961.6026917        180396556.80315113        1023102366.2991285     
   4752309947.7834902        151211634.07132316        1008765640.2861736     
   4328697616.3826513        619894643.32513499        1159289056.6234846     
   4298286507.3708048        464102496.97071469        1141319021.9161060     
   4278480248.3161030        343659850.47344530        1129426072.5303578     
   4269278839.2185469        258566703.83332586        1123610208.4662426     
   4270682280.0781379        208823057.05035877        1123871429.7237575     
   3815541030.2149963        655567278.12800550        1167252625.8061826     
   3798030829.7860084        537608921.12195718        1188855759.3710413     
   3784346690.6077604        432404101.61837351        1205574708.9822278     
   3774488612.6802516        339952819.61725473        1217409474.6397431     
   3768456596.0034823        260255075.11860287        1224360056.3435862     
   5653771234.0862980        17450573.380883455        734702572.95774662     
   5520603076.1447668        49192739.823922634        721634340.00661385     
   5382001555.8644600        62823698.471053123        710519149.81074977     
   5237966673.2453823        58343449.322273016        701357002.37015891     
   5088498428.2875328        35751992.377588272        694147897.68484151     
   5213339599.1195459        87420806.181499243        879042688.03083742     
   5077861308.1032467        85441097.400247812        855389421.37307775     
   4940230394.1048555        76285978.678687572        835788057.72352254     
   4800446857.1243753        59955450.016821623        820238597.08217549     
   4658510697.1617975        36449511.414646387        808741039.44903171     
   4752309947.7834902        151211634.07132316        1008765640.2861736     
   4620518267.2722368        117309073.13972354        978354869.17124879     
   4489854703.1355724        87166900.123418331        954094861.31746244     
   4360319255.3734951        60785115.022405863        935985616.72481549     
   4231911923.9860067        38163717.836688519        924027135.39331079     
   4270682280.0781379        208823057.05035877        1123871429.7237575     
   4148573953.6517401        144796667.04235387        1090530683.4011264     
   4030874482.9566131        95466462.805247784        1065439560.5925691     
   3917583867.9927521        60832444.339031935        1048598061.2980866     
   3808702108.7601595        40894611.643712521        1040006185.5176755     
   3768456596.0034823        260255075.11860287        1224360056.3435862     
   3662028367.2417526        167903879.10813856        1191916864.0627108     
   3563289733.5679717        101184666.72416830        1169822155.5488436     
   3472240694.9821396        60097437.966696501        1158075930.8019829     
   3388881251.4842582        44642192.835722208        1156678189.8221302     
   5088498428.2875328        35751992.377588272        694147897.68484151     
   4934367583.2436266        8375238.6894993782        676656477.86603689     
   4783437232.3730574       -8333201.0874793530        665772611.82201278     
   4635707375.6758118       -14373326.953357935        661496299.55277014     
   4491178013.1519089       -9745138.9081246853        663827541.05830491     
   4658510697.1617975        36449511.414646387        808741039.44903171     
   4522460148.2990608        14998608.585934401        795332350.26071858     
   4388753004.2493038        1359055.1338210106        787856523.39251792     
   4257389265.0125227       -4469148.9417068958        786313558.84442496     
   4128368930.5887194       -2486003.6406371593        790703456.61643720     
   4231911923.9860067        38163717.836688519        924027135.39331079     
   4112013981.4339495        22060358.906205654        913701239.24841297     
   3993602354.3345160        10911384.817806005        908633513.96895099     
   3876677042.6877069        4716795.5714879036        908823959.55492890     
   3761238046.4935250        3476591.1672537327        914272576.00634539     
   3808702108.7601595        40894611.643712521        1040006185.5176755     
   3703029082.6482944        29560489.650313854        1031763144.8291117     
   3597985282.6286974        20323787.964482546        1028103583.5513157     
   3493570708.7013760        13184506.586227894        1029027501.6842864     
   3389785360.8663211        8142645.5155370235        1034534899.2280241     
   3388881251.4842582        44642192.835722208        1156678189.8221302     
   3295505451.9420938        37499000.818259597        1149518067.0028222     
   3201901789.1318474        29596264.573853254        1146266732.1396086     
   3108070263.0535202        20933984.102510095        1146924185.2324922     
   3014010873.7071085        11512159.404222608        1151490426.2814703     
   4491178013.1519089       -9745138.9081246853        663827541.05830491     
   4362406092.0856199        2796845.0738615990        660194420.38294840     
   4232534707.7247705        11673951.407316685        659773699.67839670     
   4101563860.0693622        16886180.092235565        662565378.94463921     
   3969493549.1193910        18433531.128619671        668569458.18168283     
   4128368930.5887194       -2486003.6406371593        790703456.61643720     
   4006872500.2272196        4461240.6825561523        784821904.32232380     
   3884817452.6154504        9546427.5048427582        782615577.13620389     
   3762203787.7534041        12769556.826203823        784084475.05807841     
   3639031505.6410809        14130628.646655798        789228598.08794367     
   3761238046.4935250        3476591.1672537327        914272576.00634539     
   3648339464.3716593        5225803.0921113491        906773579.14513767     
   3535423111.0438018        6915777.6636672020        903412632.52911747     
   3422488986.5099564        8546514.8819286823        904189736.15828514     
   3309537090.7701240        10118014.746895075        909104890.03263724     
   3389785360.8663211        8142645.5155370235        1034534899.2280241     
   3286806984.5189257        5090532.3025121689        1026049444.8513881     
   3184351683.0098243        3782001.8837975264        1022164865.8571355     
   3082419456.3390217        4217054.2594089508        1022881162.2452612     
   2981010304.5065141        6395689.4293363094        1028198334.0157722     
   3014010873.7071085        11512159.404222608        1151490426.2814703     
   2922275060.6690254        4055428.3137594461        1142649501.4410765     
   2831603168.5135179        145100.16522514820        1138872277.1202550     
   2741995197.2405963       -218825.04136288166        1140158753.3190088     
   2653451146.8502579        2963652.6939903498        1146508930.0373394     
   3969493549.1193910        18433531.128619671        668569458.18168283     
   3808613371.6228228        10442876.848735332        659891318.05291224     
   3648242517.6280837        4149967.5749671459        656186969.93402839     
   3488380987.1351871       -445196.69267416000        657456413.82503963     
   3329028780.1441250       -3342615.9541912079        663699649.72592998     
   3639031505.6410809        14130628.646655798        789228598.08794367     
   3491465777.5214257        7844164.6023666859        781335874.57124090     
   3344241412.5448766        2695577.7017726898        778317968.51099086     
   3197358410.7114363       -1315132.0551259518        780174879.90718746     
   3050816772.0211077       -4187964.6683282852        786906608.75982821     
   3309537090.7701240        10118014.746895075        909104890.03263724     
   3175003027.5889792        5450905.6066869497        901801629.37615836     
   3040642367.1922169        1361805.7477456331        899274211.62268722     
   2906455109.5798340       -2149284.8299331665        901522636.77222121     
   2772441254.7518263       -5082366.1263511181        908546904.82476342     
   2981010304.5065141        6395689.4293363094        1028198334.0157722     
   2859225121.8254833        3263099.8616905212        1021288582.4676585     
   2737445381.5701060        148651.71288681030        1019055699.2691177     
   2615671083.7403717       -2947655.0171035528        1021499684.4201379     
   2493902228.3362937       -6025820.3282444477        1028620537.9207261     
   2653451146.8502579        2963652.6939903498        1146508930.0373394     
   2544132060.2309356        1280747.3673785925        1139796733.8457479     
   2434650455.6785378       -943884.40281605721        1137662431.4502783     
   2325006333.1930590       -3710242.6166181564        1140106022.8509409     
   2215199692.7744994       -7018327.2740194798        1147127508.0477226     
   3329028780.1441250       -3342615.9541912079        663699649.72592998     
   3225435166.7980661        11222468.831857920        657117611.55055356     
   3121816796.5132880        25705030.488842249        653491050.94460583     
   3018173669.2897859        40105069.016752839        652819967.90809989     
   2914505785.1275725        54422584.415613651        655104362.44102454     
   3050816772.0211077       -4187964.6683282852        786906608.75982821     
   2954626762.8367653        8695729.4002798796        780390240.61492634     
   2858524646.2214203        21872398.698863506        777001488.26747894     
   2762510422.1750517        35342043.227391005        776740351.71747696     
   2666584090.6976886        49104662.985906124        779606830.96493256     
   2772441254.7518263       -5082366.1263511181        908546904.82476342     
   2684146673.2378273        6267484.2774018049        902227631.13599992     
   2596052633.8005290        18285808.270160079        899208111.47270262     
   2508159136.4399252        30972605.851907849        899488345.83487368     
   2420466181.1560259        44327877.022661924        903068334.22251832     
   2493902228.3362937       -6025820.3282444477        1028620537.9207261     
   2413994898.0012560        3937733.4632446766        1022629783.1137586     
   2334400759.2506289        14945259.202766061        1020110920.5602794     
   2255119812.0844069        26996756.890315652        1021063950.2602873     
   2176152056.5025978        40092226.525899410        1025488872.2137789     
   2215199692.7744994       -7018327.2740194798        1147127508.0477226     
   2144171437.1270440        1706476.9577823877        1141596696.5482180     
   2073569022.5717118        11850751.496663690        1139709915.5302165     
   2003392449.1084938        23414496.342590809        1141467164.9937208     
   1933641716.7373979        36397711.495592117        1146868444.9387295     
   2914505785.1275725        54422584.415613651        655104362.44102454     
   2697821525.3705764        41201096.686880231        636037387.84089053     
   2485359325.5528727        42053142.089124918        622683084.16856992     
   2277119185.6744504        56978720.622299671        615041451.42405486     
   2073101105.7353110        85977832.286439776        613112489.60735583     
   2666584090.6976886        49104662.985906124        779606830.96493256     
   2465111735.9997787        35993992.392978549        765550560.29326975     
   2266710071.1162271        33118954.514589190        757457510.93868303     
   2071379096.0470366        40479549.350705028        755327682.90116310     
   1879118810.7921908        58075776.901334047        759161076.18072629     
   2420466181.1560259        44327877.022661924        903068334.22251832     
   2234921589.7722540        31542781.042075515        892679502.33356738     
   2051296318.0779128        25155417.359566331        888504442.15096474     
   1869590366.0729835        25165785.975126624        890543153.67468941     
   1689803733.7574830        31573886.888772011        898795636.90475428     
   2176152056.5025978        40092226.525899410        1025488872.2137789     
   2007251086.6879997        27847462.634138346        1017424213.9617994     
   1839118066.4378929        18162530.624031782        1015823877.8054221     
   1671752995.7522831        11037430.495556831        1020687863.7446374     
   1505155874.6311440        6472162.2487074137        1032016171.7794622     
   1933641716.7373979        36397711.495592117        1146868444.9387295     
   1782100226.7470117        24908037.169184685        1139784695.1779521     
   1630175316.1961856        12140294.307982683        1139415817.9020414     
   1477866985.0849233       -1905517.0880264044        1145761813.1109982     
   1325175233.4132166       -17229397.018827140        1158822680.8048258     
   3768193307.7949967        1130457992.3384991        800553018.31216109     
   3779099183.1352062        1008631796.2365761        884856186.15630877     
   3790625761.9852762        888874611.83418632        974073843.35336137     
   3802773044.3452058        771186439.13132930        1068205989.9033191     
   3815541030.2149963        655567278.12800550        1167252625.8061826     
   3207809046.5189524        962342713.95568573        756661792.69138312     
   3235880027.7867169        868162991.38355279        853047521.99346805     
   3263683314.9324875        773090955.07144070        951342734.14927649     
   3291218907.9562645        677126605.01934934        1051547429.1588082     
   3318486806.8580475        580269941.22727799        1153661607.0220642     
   2685650906.8560681        805695272.05682039        721941468.92695212     
   2722301261.1965823        736586303.15803599        829373295.78314495     
   2757795523.7832489        663623695.07976031        935709598.99387944     
   2792133694.6160693        586807447.82199323        1040950378.5591563     
   2825315773.6950412        506137561.38473439        1145095634.4789751     
   2201718888.8063436        660515666.64190304        696392047.01886785     
   2238362883.3648038        613901731.56002617        813833507.52533913     
   2272962388.5375628        560472831.85914552        927174437.88717103     
   2305517404.3246217        500228967.53926122        1036414838.1043633     
   2336027930.7259784        433170138.60037327        1141554708.1769164     
   1756012992.3697789        526803897.71093363        680013526.96713042     
   1784064894.2913809        500109276.58952284        806428157.22005081     
   1809183909.1954277        463638365.40959609        925737250.82915032     
   1831370037.0819199        417391164.17115355        1037940807.7944289     
   1850623277.9508576        361367672.87419492        1143038828.1158869     
   3815541030.2149963        655567278.12800550        1167252625.8061826     
   3798030829.7860084        537608921.12195718        1188855759.3710413     
   3784346690.6077604        432404101.61837351        1205574708.9822278     
   3774488612.6802516        339952819.61725473        1217409474.6397431     
   3768456596.0034823        260255075.11860287        1224360056.3435862     
   3318486806.8580475        580269941.22727799        1153661607.0220642     
   3293831381.5318608        473070360.54962039        1181919612.2247820     
   3272894692.3383083        378266566.98074043        1207082679.9998505     
   3255676739.2773881        295858560.52063942        1229150810.3472726     
   3242177522.3491015        225846341.16931605        1248124003.2670450     
   2825315773.6950412        506137561.38473439        1145095634.4789751     
   2798627256.4031506        411230396.91491467        1179883298.6817620     
   2775550150.1257896        328361269.16018772        1213365271.9829235     
   2756084454.8629541        257530178.12055087        1245541554.3824601     
   2740230170.6146479        198737123.79600692        1276412145.8803716     
   2336027930.7259784        433170138.60037327        1141554708.1769164     
   2312418454.3998795        352089030.21784168        1182746818.7419815     
   2292313063.9702034        282688208.15671474        1224422484.9314444     
   2275711759.4369488        224967672.41699284        1266581706.7453063     
   2262614540.8001151        178927422.99867475        1309224484.1835666     
   1850623277.9508576        361367672.87419492        1143038828.1158869     
   1835204975.5220468        295646260.45839864        1190510172.4054399     
   1823183433.8715513        241247383.97032160        1240254318.8454149     
   1814558652.9993711        198171043.40996081        1292271267.4358110     
   1809330632.9055064        166417238.77731949        1346561018.1766295     
   3768456596.0034823        260255075.11860287        1224360056.3435862     
   3662028367.2417526        167903879.10813856        1191916864.0627108     
   3563289733.5679717        101184666.72416830        1169822155.5488436     
   3472240694.9821396        60097437.966696501        1158075930.8019829     
   3388881251.4842582        44642192.835722208        1156678189.8221302     
   3242177522.3491015        225846341.16931605        1248124003.2670450     
   3164969037.5419650        151591457.45856321        1231034366.6928530     
   3093846288.6928935        97622360.274695039        1221896900.4014084     
   3028809275.8018870        63939049.617711425        1220711604.3927047     
   2969857998.8689461        50541525.487612844        1227478478.6667485     
   2740230170.6146479        198737123.79600692        1276412145.8803716     
   2685394819.8070669        140524569.39845645        1272804896.0279999     
   2635041345.8276682        97251604.428178072        1274753502.9741104     
   2589169748.6764517        68918228.885172606        1282257966.7187030     
   2547780028.3534164        55524442.769439936        1295318287.2617803     
   2262614540.8001151        178927422.99867475        1309224484.1835666     
   2223305714.0370560        134703214.92781329        1317228452.0681493     
   2186874904.9722967        100072399.18461597        1328391963.2669539     
   2153322113.6058350        75034975.769077420        1342715017.7799788     
   2122647339.9376721        59590944.681200147        1360197615.6072233     
   1809330632.9055064        166417238.77731949        1346561018.1766295     
   1778701720.2319353        134127394.04664105        1364305034.8133042     
   1749346966.1267784        106084744.54401100        1382812281.2799370     
   1721266370.5900364        82289290.269429445        1402082757.5765283     
   1694459933.6217096        62741031.222898185        1422116463.7030790     
   3388881251.4842582        44642192.835722208        1156678189.8221302     
   3295505451.9420938        37499000.818259597        1149518067.0028222     
   3201901789.1318474        29596264.573853254        1146266732.1396086     
   3108070263.0535202        20933984.102510095        1146924185.2324922     
   3014010873.7071085        11512159.404222608        1151490426.2814703     
   2969857998.8689461        50541525.487612844        1227478478.6667485     
   2885800530.2734404        39249493.238375306        1219426842.3581259     
   2802011622.0141344        28852662.109801292        1215591789.6443238     
   2718491274.0910211        19351032.101872802        1215973320.5253417     
   2635239486.5041060        10744603.214605808        1220571435.0011792     
   2547780028.3534164        55524442.769439936        1295318287.2617803     
   2473920306.8152103        40347395.121619344        1286954298.3355052     
   2400825569.2174807        27720293.942055464        1283114688.6427703     
   2328495815.5602260        17643139.230746269        1283799458.1835818     
   2256931045.8434515        10115930.987695098        1289008606.9579363     
   2122647339.9376721        59590944.681200147        1360197615.6072233     
   2059864781.5674031        40792706.467990398        1352100434.9349520     
   1998343630.7418892        26199160.070630908        1348835429.1349478     
   1938083887.4611342        15810305.489131808        1350402598.2072127     
   1879085551.7251348        9626142.7234832048        1356801942.1517463     
   1694459933.6217096        62741031.222898185        1422116463.7030790     
   1643633954.5300190        40585427.277487516        1414865252.1564715     
   1594565806.5873647        24289260.495532036        1412754011.1208570     
   1547255489.7937458        13852530.877025604        1415782740.5962331     
   1501703004.1491640        9275238.4219782352        1423951440.5826018     
   3014010873.7071085        11512159.404222608        1151490426.2814703     
   2922275060.6690254        4055428.3137594461        1142649501.4410765     
   2831603168.5135179        145100.16522514820        1138872277.1202550     
   2741995197.2405963       -218825.04136288166        1140158753.3190088     
   2653451146.8502579        2963652.6939903498        1146508930.0373394     
   2635239486.5041060        10744603.214605808        1220571435.0011792     
   2556874378.4107718        5269817.1767520905        1212847324.4921789     
   2479338933.4986000        2560575.0761129856        1209887299.1781914     
   2402633151.7676010        2616876.9127134085        1211691359.0592194     
   2326757033.2177687        5438722.6865344048        1218259504.1352623     
   2256931045.8434515        10115930.987695098        1289008606.9579363     
   2191080598.9104061        6366276.8671127558        1282128010.1286805     
   2125825557.4571157        4601307.6790392399        1279711883.1698790     
   2061165921.4835796        4821023.4234852791        1281760226.0815330     
   1997101690.9897964        7025424.1004399061        1288273038.8636417     
   1879085551.7251348        9626142.7234832048        1356801942.1517463     
   1824893722.1679285        7344807.3848421574        1350491558.3505843     
   1771063040.3890586        6267297.9739879370        1348346029.0953176     
   1717593506.3885312        6393614.4909440279        1350365354.3859446     
   1664485120.1663437        7723756.9356994629        1356549534.2224691     
   1501703004.1491640        9275238.4219782352        1423951440.5826018     
   1458313748.1833348        8205408.7299286127        1417937969.1578867     
   1415051382.2944312        7558545.9609671235        1415789736.9545071     
   1371915906.4824548        7334650.1150956750        1417506743.9724634     
   1328907320.7474058        7533721.1923136711        1423088990.2117538     
   2653451146.8502579        2963652.6939903498        1146508930.0373394     
   2544132060.2309356        1280747.3673785925        1139796733.8457479     
   2434650455.6785378       -943884.40281605721        1137662431.4502783     
   2325006333.1930590       -3710242.6166181564        1140106022.8509409     
   2215199692.7744994       -7018327.2740194798        1147127508.0477226     
   2326757033.2177687        5438722.6865344048        1218259504.1352623     
   2229457073.1695290        3034959.5532050133        1210522260.8438141     
   2132119676.4515738        506407.52081716061        1207618957.5355530     
   2034744843.0639064       -2146933.4106147289        1209549594.2104719     
   1937332573.0065219       -4925063.2410916090        1216314170.8685727     
   1997101690.9897964        7025424.1004399061        1288273038.8636417     
   1912552418.0470879        4120271.3207126856        1279656676.6129317     
   1828090789.6980302        1507267.1864897013        1276130300.5324647     
   1743716805.9426191       -813588.30224156380        1277693910.6222360     
   1659430466.7808602       -2842295.1454721689        1284347506.8822448     
   1664485120.1663437        7723756.9356994629        1356549534.2224691     
   1593418094.8636138        4536682.6699129343        1347199981.1530914     
   1522563795.4178989        2058694.5941793919        1343196460.4410119     
   1451922221.8291981        289792.70848637819        1344538972.0862274     
   1381493374.0975094       -770022.98715144396        1351227516.0887415     
   1328907320.7474058        7533721.1923136711        1423088990.2117538     
   1272054103.6191034        4284193.6008023024        1413152174.4642978     
   1215538693.6111827        2160689.7438944578        1408817437.2611969     
   1159361090.7236390        1163209.6215748787        1410084778.6024492     
   1103521294.9564734        1291753.2338505387        1416954198.4880548     
   2215199692.7744994       -7018327.2740194798        1147127508.0477226     
   2144171437.1270440        1706476.9577823877        1141596696.5482180     
   2073569022.5717118        11850751.496663690        1139709915.5302165     
   2003392449.1084938        23414496.342590809        1141467164.9937208     
   1933641716.7373979        36397711.495592117        1146868444.9387295     
   1937332573.0065219       -4925063.2410916090        1216314170.8685727     
   1875385269.9625380        3345792.0241594315        1211099879.8673501     
   1813745400.2860985        12641425.181233644        1209331663.9949555     
   1752412963.9772110        22961836.230135441        1211009523.2513933     
   1691387961.0358691        34307025.170872152        1216133457.6366620     
   1659430466.7808602       -2842295.1454721689        1284347506.8822448     
   1605998529.6184232        4804935.1366471648        1279311594.0339684     
   1552755618.0989592        13082250.895352662        1277523800.9618497     
   1499701732.2224758        21989652.130650997        1278984127.6658852     
   1446836871.9889698        31527138.842544317        1283692574.1460845     
   1381493374.0975094       -770022.98715144396        1351227516.0887415     
   1336011216.0946951        6083906.2952509522        1346231839.0480776     
   1290599676.0102863        13173228.639004886        1344286326.4308972     
   1245258753.8442888        20497944.044127822        1345390978.2372022     
   1199988449.5966949        28058052.510598838        1349545794.4669993     
   1103521294.9564734        1291753.2338505387        1416954198.4880548     
   1065423329.3913636        7182705.4999770522        1411860614.9096725     
   1027277574.0200888        12914358.412213027        1409619240.4020998     
   989084028.84264743        18486711.970564842        1410230074.9653406     
   950842693.85904491        23899766.175040841        1413693118.5993974     
   1933641716.7373979        36397711.495592117        1146868444.9387295     
   1782100226.7470117        24908037.169184685        1139784695.1779521     
   1630175316.1961856        12140294.307982683        1139415817.9020414     
   1477866985.0849233       -1905517.0880264044        1145761813.1109982     
   1325175233.4132166       -17229397.018827140        1158822680.8048258     
   1691387961.0358691        34307025.170872152        1216133457.6366620     
   1557518658.7335031        23994842.280189455        1207864254.5317042     
   1423471099.7516439        13088470.457859814        1206202440.6782670     
   1289245284.0902870        1587909.7038810849        1211148016.0763531     
   1154841211.7494538       -10506839.981707752        1222700980.7259564     
   1446836871.9889698        31527138.842544317        1283692574.1460845     
   1330332662.4222028        22300318.901841640        1274477275.5580523     
   1213855360.0568933        13163189.632668376        1271761882.9881966     
   1097404964.8930399        4115751.0350239277        1275546396.4365149     
   980981476.93064690       -4841996.8911081553        1285830815.9030073     
   1199988449.5966949        28058052.510598838        1349545794.4669993     
   1100542237.8131127        19824467.034171104        1339623758.2569988     
   1001328097.1119326        12364451.832413554        1336094144.8318305     
   902346027.49316084        5678006.9053544998        1338956954.1914892     
   803596028.95679998       -234867.74701732397        1348212186.3359787     
   950842693.85904491        23899766.175040841        1413693118.5993974     
   868147384.90622854        16567286.677145690        1403303702.6285419     
   785889310.91676807        10692257.057102531        1399199226.2091651     
   704068471.89066732        6274677.3149219751        1401379689.3412719     
   622684867.82791042        3314547.4505607486        1409845092.0248640     
   1756012992.3697789        526803897.71093363        680013526.96713042     
   1784064894.2913809        500109276.58952284        806428157.22005081     
   1809183909.1954277        463638365.40959609        925737250.82915032     
   1831370037.0819199        417391164.17115355        1037940807.7944289     
   1850623277.9508576        361367672.87419492        1143038828.1158869     
   1326317553.6186023        397895266.08558071        669694591.48509359     
   1339560334.5584803        375535456.59913421        791852961.03087616     
   1350603450.2347856        345843429.56744462        908724894.54954636     
   1359446900.6475172        308819184.99051172        1020310392.0411041     
   1366090685.7966764        264462722.86833623        1126609453.5055499     
   890416908.62504101        267125072.58751231        662323923.28611171     
   894047998.91664851        250659303.83606613        781081457.50440133     
   896212645.69866490        229305390.05264968        896371656.31228769     
   896910848.97108996        203063331.23726267        1008194519.7097702     
   896142608.73392415        171933127.38990545        1116550047.6968493     
   448311057.38909549        134493317.21672866        657901522.37018454     
   447527887.36588567        125480818.30031878        774113646.64062738     
   446011495.58706653        114024246.86521143        888677536.11737514     
   443761882.05263799        100123602.91140610        1001593190.8004277     
   440779046.76260048        83778886.438903809        1112860610.6897852     
  -8.9234251855828312E-002  -2.6770275556748494E-002   656427388.73731220     
  -9.3808283027965400E-002  -8.1078859285773179E-003   770949528.43955314     
 -0.10000978410802557        5.1296907426906929E-003   885642533.96480811     
 -0.10783880942526054        1.2942229991462911E-002   1000506405.3130761     
 -0.11729522458625818        1.5330136427692924E-002   1115541142.4843581     
   1850623277.9508576        361367672.87419492        1143038828.1158869     
   1835204975.5220468        295646260.45839864        1190510172.4054399     
   1823183433.8715513        241247383.97032160        1240254318.8454149     
   1814558652.9993711        198171043.40996081        1292271267.4358110     
   1809330632.9055064        166417238.77731949        1346561018.1766295     
   1366090685.7966764        264462722.86833623        1126609453.5055499     
   1360282851.2118700        216898431.22902653        1181981383.9437239     
   1357022587.2113323        177826041.53728029        1238283075.0092139     
   1356309893.7950644        147245553.79309982        1295514526.7020180     
   1358144770.9630654        125156967.99648237        1353675739.0221391     
   896142608.73392415        171933127.38990545        1116550047.6968493     
   896107980.49853241        141374778.07870567        1178831842.3905907     
   897771732.65336335        116477696.73491576        1240700356.1885414     
   901133865.19841695        97241883.358535200        1302155589.0907009     
   906194378.13369453        83667337.949566036        1363197541.0970688     
   440779046.76260048        83778886.438903809        1112860610.6897852     
   442680363.38203323        69075301.007436171        1181061547.7460403     
   445430870.19764304        57202349.563224956        1247506162.3833976     
   449030567.20942992        48160032.106270537        1312194454.6018572     
   453479454.41739297        41948348.636569768        1375126424.4014208     
 -0.11729522458625818        1.5330136427692924E-002   1115541142.4843581     
 -0.13762672320464447        1.5219281878709398E-002   1188670500.0100722     
 -0.15582795899562926        2.2209043212542967E-002   1258700493.5937827     
 -0.17189863993948451        3.6300350460200033E-002   1325631123.2354894     
 -0.18583838680373599        5.7495812140621744E-002   1389462388.9351923     
   1809330632.9055064        166417238.77731949        1346561018.1766295     
   1778701720.2319353        134127394.04664105        1364305034.8133042     
   1749346966.1267784        106084744.54401100        1382812281.2799370     
   1721266370.5900364        82289290.269429445        1402082757.5765283     
   1694459933.6217096        62741031.222898185        1422116463.7030790     
   1358144770.9630654        125156967.99648237        1353675739.0221391     
   1332493614.8149233        100135742.95912898        1372765478.4084904     
   1307798077.5907142        78299914.334888518        1393243657.6706004     
   1284058159.2904387        59649482.123756230        1415110276.8084688     
   1261273859.9140961        44184446.325736821        1438365335.8220937     
   906194378.13369453        83667337.949566036        1363197541.0970688     
   887307292.92755139        66450626.930509686        1383261373.6478705     
   869057287.00086057        51357513.509627581        1405338856.1202288     
   851444360.35362101        38387997.686917871        1429429988.5141447     
   834468512.98583460        27542079.462382615        1455534770.8296185     
   453479454.41739297        41948348.636569768        1375126424.4014208     
   443142754.56981975        33072045.960782081        1395792720.5314424     
   433124594.35721785        25257542.068231642        1419097876.6288207     
   423424973.77958608        18504836.958915129        1445041892.6935568     
   414043892.83692479        12813930.632833138        1473624768.7256508     
 -0.18583838680373599        5.7495812140621744E-002   1389462388.9351923     
 -0.25827150628777096        4.9946408044253182E-002   1410359519.0592065     
 -0.34021438367968981        1.0697463976909682E-002   1434520719.1963780     
 -0.43166888619009125       -6.0256810415868417E-002   1461945989.3467057     
 -0.53263282063286621      -0.16290901777754424        1492635329.5101900     
   1694459933.6217096        62741031.222898185        1422116463.7030790     
   1643633954.5300190        40585427.277487516        1414865252.1564715     
   1594565806.5873647        24289260.495532036        1412754011.1208570     
   1547255489.7937458        13852530.877025604        1415782740.5962331     
   1501703004.1491640        9275238.4219782352        1423951440.5826018     
   1261273859.9140961        44184446.325736821        1438365335.8220937     
   1225065720.8003497        28141146.897977591        1434918841.0047841     
   1190175955.0427713        16492425.324108481        1436166336.1554418     
   1156604562.6413567        9238281.6041215658        1442107821.2740688     
   1124351543.5961099        6378715.7380262017        1452743296.3606646     
   834468512.98583460        27542079.462382615        1455534770.8296185     
   811603983.72711062        17228815.515398711        1455380291.9832559     
   789618370.03168297        9845270.1127347052        1459473822.5618379     
   768511671.89955199        5391443.2543927729        1467815362.5653663     
   748283889.33071721        3867334.9403726161        1480404911.9938416     
   414043892.83692479        12813930.632833138        1473624768.7256508     
   403248743.31030077        7848433.1297492087        1476249605.0918877     
   392893051.55410165        4347794.8614163697        1482676470.3400457     
   382976817.56832904        2312015.8278377205        1492905364.4701295     
   373500041.35298413        1741096.0290185660        1506936287.4821343     
 -0.53263282063286621      -0.16290901777754424        1492635329.5101900     
 -0.45008218763686270      -0.25897592220896865        1497526780.3306777     
 -0.38997440807733130      -0.42985372587408077        1505774279.4900665     
 -0.35230979077317648      -0.67554085608401515        1517377826.9883544     
 -0.33708814128286579      -0.99603891984084880        1532337422.8255422     
   1501703004.1491640        9275238.4219782352        1423951440.5826018     
   1458313748.1833348        8205408.7299286127        1417937969.1578867     
   1415051382.2944312        7558545.9609671235        1415789736.9545071     
   1371915906.4824548        7334650.1150956750        1417506743.9724634     
   1328907320.7474058        7533721.1923136711        1423088990.2117538     
   1124351543.5961099        6378715.7380262017        1452743296.3606646     
   1091218292.7210758        5398950.7376679182        1447377676.8093147     
   1058180209.4226311        4736410.9926086068        1446015268.5622377     
   1025237293.7007750        4391096.5028441548        1448656071.6194291     
   992389545.55550885        4363007.2683785558        1455300085.9808912     
   748283889.33071721        3867334.9403726161        1480404911.9938416     
   725800849.49772418        3095896.4170836806        1475650134.7321308     
   703381254.74098110        2535941.4812949896        1475036540.8576279     
   681025105.06049025        2187470.1330128908        1478564130.3703289     
   658732400.45625031        2050482.3722333312        1486232903.2702391     
   373500041.35298413        1741096.0290185660        1506936287.4821343     
   362061418.51327574        1296245.7681674808        1502755342.9263344     
   350654518.24948043        957137.42702792585        1502853553.8406785     
   339279340.56159824        723771.00559858978        1507230920.2251613     
   327935885.44962901        596146.50388009846        1515887442.0797882     
 -0.33708814128286579      -0.99603891984084880        1532337422.8255422     
 -0.23226690717268608       -1.2090744843047445        1528693301.3919261     
  -5.1872471519630203E-002  -1.1701993769590531        1529466307.5113883     
  0.20409992377497871      -0.87939791094719877        1534656441.1839278     
  0.53564671013713294      -0.33668146109883174        1544263702.4095459     
   1328907320.7474058        7533721.1923136711        1423088990.2117538     
   1272054103.6191034        4284193.6008023024        1413152174.4642978     
   1215538693.6111827        2160689.7438944578        1408817437.2611969     
   1159361090.7236390        1163209.6215748787        1410084778.6024492     
   1103521294.9564734        1291753.2338505387        1416954198.4880548     
   992389545.55550885        4363007.2683785558        1455300085.9808912     
   950240688.63345647        2073178.4738390446        1446652045.6631222     
   908345187.04006445        627867.44150203466        1443491504.1603518     
   866703040.77533400        27074.171369254589        1445818461.4725773     
   825314249.83926606        270798.66344505548        1453632917.5998039     
   658732400.45625031        2050482.3722333312        1486232903.2702391     
   630960533.08514297        622141.17806917429        1478775111.2918179     
   603357569.25098193       -243188.22627678514        1476690238.3990400     
   575923508.95376348       -545505.84081268311        1479978284.5919032     
   548658352.19348919       -284811.66553464532        1488639249.8704109     
   327935885.44962901        596146.50388009846        1515887442.0797882     
   314213636.97416818       -68918.286494046450        1509521371.3503797     
   300575840.24393356       -452477.25944511592        1508413639.9772580     
   287022495.25892681       -554530.41496947408        1512564247.9604225     
   273553602.01914495       -375077.75307956338        1521973195.2998748     
  0.53564671013713294      -0.33668146109883174        1544263702.4095459     
  0.30052892409081500        8.0143355322100970E-002   1538890825.8388109     
   1.8919527117128354E-002  0.34199682920786179        1538661708.8950064     
 -0.30918233861421729       0.44887453987302128        1543576351.5781343     
 -0.68377208657060295       0.40079368395546611        1553634753.8881948     
   1103521294.9564734        1291753.2338505387        1416954198.4880548     
   1065423329.3913636        7182705.4999770522        1411860614.9096725     
   1027277574.0200888        12914358.412213027        1409619240.4020998     
   989084028.84264743        18486711.970564842        1410230074.9653406     
   950842693.85904491        23899766.175040841        1413693118.5993974     
   825314249.83926606        270798.66344505548        1453632917.5998039     
   794638658.14007258        4058377.5123018920        1449278697.2152240     
   763927224.02588606        7726481.6445149183        1448267179.9837508     
   733179947.49670267        11275111.060073882        1450598365.9053812     
   702396828.55252481        14704265.758980364        1456272254.9801219     
   548658352.19348919       -284811.66553464532        1488639249.8704109     
   526806546.02391273        1819817.2651844323        1485038331.3026638     
   504930844.83050758        3844796.1164740324        1485270609.9703183     
   483031248.61327666        5790124.8883451819        1489336085.8733718     
   461107757.37221694        7655803.5807868540        1497234759.0118239     
   273553602.01914495       -375077.75307956338        1521973195.2998748     
   261926993.04287505        467024.75858944654        1519139517.1719937     
   250288436.43394938        1269301.8280742913        1520629530.3618026     
   238637932.19236657        2031753.4553679079        1526443234.8693125     
   226975480.31812206        2754379.6404555738        1536580630.6945078     
 -0.68377208657060295       0.40079368395546611        1553634753.8881948     
 -0.80303401291252496       -7.4569471476780835E-003   1551582254.8232071     
  -1.1637873814823547       -1.2206790523438482        1554343941.1582081     
  -1.7660269309209782       -3.2388543998799406        1561919812.8931930     
  -2.6097596611235643       -6.0620084044080240        1574309870.0281682     
   950842693.85904491        23899766.175040841        1413693118.5993974     
   868147384.90622854        16567286.677145690        1403303702.6285419     
   785889310.91676807        10692257.057102531        1399199226.2091651     
   704068471.89066732        6274677.3149219751        1401379689.3412719     
   622684867.82791042        3314547.4505607486        1409845092.0248640     
   702396828.55252481        14704265.758980364        1456272254.9801219     
   637257449.64790249        8269535.8878059685        1449197815.5822330     
   572445996.73061848        2927892.6410955489        1449135825.2176189     
   507962469.80067450       -1320663.9811545908        1456086283.8862700     
   443806868.85807014       -4476133.9789320230        1470049191.5881844     
   461107757.37221694        7655803.5807868540        1497234759.0118239     
   415602907.03517276        2742402.8921401501        1493347769.0482254     
   370316673.70945305       -1442274.4254253209        1497200737.5996814     
   325249057.39505953       -4898228.3718976080        1508793664.6661909     
   280400058.09199053       -7625458.9472965449        1528126550.2477531     
   226975480.31812206        2754379.6404555738        1536580630.6945078     
   203183757.06804538       -14112.309835784137        1535753563.0265138     
   179501341.85327241       -2418244.1424461529        1543393963.3553557     
   155928234.67381346       -4458015.8573433757        1559501831.6810403     
   132464435.52966700       -6133427.4545309544        1584077168.0035591     
  -2.6097596611235643       -6.0620084044080240        1574309870.0281682     
 -0.25348734100771741       -9.7181433230345888        1576415197.5170913     
   1.1620776685250647       -16.509972052495598        1587715502.4846432     
   1.6369428706303868       -26.437465071991330        1608210784.9308219     
   1.1711024091868012       -39.500644330539473        1637901044.8556147     
  -8.9234251855828312E-002  -2.6770275556748494E-002   656427388.73731220     
  -9.3808283027965400E-002  -8.1078859285773179E-003   770949528.43955314     
 -0.10000978410802557        5.1296907426906929E-003   885642533.96480811     
 -0.10783880942526054        1.2942229991462911E-002   1000506405.3130761     
 -0.11729522458625818        1.5330136427692924E-002   1115541142.4843581     
  -448311057.56348515       -134493317.26904553        657901522.38585448     
  -447527887.55070454       -125480818.32373184        774113646.65602303     
  -446011495.78524560       -114024246.86948973        888677536.13345420     
  -443761882.26710820       -100123602.90631929        1001593190.8181481     
  -440779046.99629217       -83778886.434220463        1112860610.7101045     
  -890416908.78719342       -267125072.63615802        662323923.31417143     
  -894047999.08777559       -250659303.86340815        781081457.53229129     
  -896212645.88137305       -229305390.06737667        896371656.34192264     
  -896910849.16798627       -203063331.24806365        1008194519.7430657     
  -896142608.94761479       -171933127.40546894        1116550047.7357202     
  -1326317553.7603595       -397895266.12810791        669694591.52226317     
  -1339560334.7050214       -375535456.62713689        791852961.06835747     
  -1350603450.3883924       -345843429.58853120        908724894.59021258     
  -1359446900.8104727       -308819185.01229024        1020310392.0878284     
  -1366090685.9712634       -264462722.89841530        1126609453.5612049     
  -1756012992.4829831       -526803897.74489492        680013527.01012957     
  -1784064894.4024410       -500109276.61491787        806428157.26422226     
  -1809183909.3063033       -463638365.43295306        925737250.87832499     
  -1831370037.1945686       -417391164.19900012        1037940807.8524371     
  -1850623278.0672376       -361367672.91305912        1143038828.1865594     
 -0.11729522458625818        1.5330136427692924E-002   1115541142.4843581     
 -0.13762672320464447        1.5219281878709398E-002   1188670500.0100722     
 -0.15582795899562926        2.2209043212542967E-002   1258700493.5937827     
 -0.17189863993948451        3.6300350460200033E-002   1325631123.2354894     
 -0.18583838680373599        5.7495812140621744E-002   1389462388.9351923     
  -440779046.99629217       -83778886.434220463        1112860610.7101045     
  -442680363.65553665       -69075301.008409932        1181061547.7785501     
  -445430870.50741798       -57202349.558055252        1247506162.4300084     
  -449030567.55193591       -48160032.083155960        1312194454.6644781     
  -453479454.78909081       -41948348.583713844        1375126424.4819596     
  -896142608.94761479       -171933127.40546894        1116550047.7357202     
  -896107980.74572754       -141374778.10372257        1178831842.4530027     
  -897771732.93124473       -116477696.75999016        1240700356.2783124     
  -901133865.50416565       -97241883.374271303        1302155589.2116499     
  -906194378.46449077       -83667337.946565896        1363197541.2530150     
  -1366090685.9712634       -264462722.89841530        1126609453.5612049     
  -1360282851.4082000       -216898431.27072003        1181981384.0334287     
  -1357022587.4273088       -177826041.58359617        1238283075.1386957     
  -1356309894.0285883       -147245553.83704442        1295514526.8770051     
  -1358144771.2120399       -125156968.03106433        1353675739.2483575     
  -1850623278.0672376       -361367672.91305912        1143038828.1865594     
  -1835204975.6429541       -295646260.50940186        1190510172.5198290     
  -1823183433.9956090       -241247384.02887368        1240254319.0111575     
  -1814558653.1252029       -198171043.47147554        1292271267.6605446     
  -1809330633.0317354       -166417238.83720475        1346561018.4679897     
 -0.18583838680373599        5.7495812140621744E-002   1389462388.9351923     
 -0.25827150628777096        4.9946408044253182E-002   1410359519.0592065     
 -0.34021438367968981        1.0697463976909682E-002   1434520719.1963780     
 -0.43166888619009125       -6.0256810415868417E-002   1461945989.3467057     
 -0.53263282063286621      -0.16290901777754424        1492635329.5101900     
  -453479454.78909081       -41948348.583713844        1375126424.4819596     
  -443142755.08151138       -33072045.932046920        1395792720.6081259     
  -433124595.02604026       -25257542.120741427        1419097876.7074800     
  -423424974.62267679       -18504837.149795026        1445041892.7800219     
  -414043893.87142164       -12813931.019209698        1473624768.8257499     
  -906194378.46449077       -83667337.946565896        1363197541.2530150     
  -887307293.37681246       -66450626.955659747        1383261373.7983031     
  -869057287.58383989       -51357513.613772362        1405338856.2768095     
  -851444361.08557272       -38387997.920902908        1429429988.6885335     
  -834468513.88201094       -27542079.877051443        1455534771.0334754     
  -1358144771.2120399       -125156968.03106433        1353675739.2483575     
  -1332493615.1441743       -100135743.02088988        1372765478.6297383     
  -1307798078.0136130       -78299914.468394518        1393243657.9043670     
  -1284058159.8203554       -59649482.373578489        1415110277.0722437     
  -1261273860.5643983       -44184446.736432135        1438365336.1333697     
  -1809330633.0317354       -166417238.83720475        1346561018.4679897     
  -1778701720.3835974       -134127394.12773907        1364305035.1024315     
  -1749346966.3153598       -106084744.68460977        1382812281.5901530     
  -1721266370.8270228       -82289290.507814407        1402082757.9311521     
  -1694459933.9185858       -62741031.597351968        1422116464.1254306     
 -0.53263282063286621      -0.16290901777754424        1492635329.5101900     
 -0.45008218763686270      -0.25897592220896865        1497526780.3306777     
 -0.38997440807733130      -0.42985372587408077        1505774279.4900665     
 -0.35230979077317648      -0.67554085608401515        1517377826.9883544     
 -0.33708814128286579      -0.99603891984084880        1532337422.8255422     
  -414043893.87142164       -12813931.019209698        1473624768.8257499     
  -403248744.17637229       -7848433.6886499971        1476249605.1797748     
  -392893052.29063839       -4347795.7224759907        1482676470.4137549     
  -382976818.21422023       -2312017.1206864566        1492905364.5276895     
  -373500041.94711906       -1741097.8832883388        1506936287.5215781     
  -834468513.88201094       -27542079.877051443        1455534771.0334754     
  -811603984.45716321       -17228816.084672421        1455380292.1696868     
  -789618370.62850499       -9845270.9462573826        1459473822.7269070     
  -768511672.39603579       -5391444.4618053138        1467815362.7051363     
  -748283889.75975525       -3867336.6313168705        1480404912.1043737     
  -1261273860.5643983       -44184446.736432135        1438365336.1333697     
  -1225065721.2924562       -28141147.447047174        1434918841.3004155     
  -1190175955.4035749       -16492426.101200581        1436166336.4295247     
  -1156604562.8977561       -9238282.6988955140        1442107821.5206952     
  -1124351543.7749991       -6378717.2401289344        1452743296.5739305     
  -1694459933.9185858       -62741031.597351968        1422116464.1254306     
  -1643633954.6822498       -40585427.775771797        1414865252.5719590     
  -1594565806.6158473       -24289261.187304318        1412754011.5216038     
  -1547255489.7193816       -13852531.831957281        1415782740.9743681     
  -1501703003.9928486       -9275239.7097227573        1423951440.9302480     
 -0.33708814128286579      -0.99603891984084880        1532337422.8255422     
 -0.23226690717268608       -1.2090744843047445        1528693301.3919261     
  -5.1872471519630203E-002  -1.1701993769590531        1529466307.5113883     
  0.20409992377497871      -0.87939791094719877        1534656441.1839278     
  0.53564671013713294      -0.33668146109883174        1544263702.4095459     
  -373500041.94711906       -1741097.8832883388        1506936287.5215781     
  -362061418.88294184       -1296247.9744374305        1502755343.1641777     
  -350654518.25187230       -957139.50927837193        1502853554.2712312     
  -339279340.05390722       -723772.48780202866        1507230920.8427377     
  -327935884.28904748       -596146.91000810266        1515887442.8786976     
  -748283889.75975525       -3867336.6313168705        1480404912.1043737     
  -725800849.70372260       -3095898.3908359110        1475650135.2297285     
  -703381254.58947420       -2535943.2896382213        1475036541.7309134     
  -681025104.41701531       -2187471.3277364969        1478564131.6079266     
  -658732399.18634021       -2050482.5051142871        1486232904.8607678     
  -1124351543.7749991       -6378717.2401289344        1452743296.5739305     
  -1091218292.6946065       -5398952.4582626224        1447377677.5885801     
  -1058180209.0646811       -4736412.5112844110        1446015269.8904331     
  -1025237292.8852230       -4391097.3991974592        1448656073.4794924     
  -992389544.15623116       -4363007.1219998598        1455300088.3557537     
  -1501703003.9928486       -9275239.7097227573        1423951440.9302480     
  -1458313747.8555961       -8205410.1767218113        1417937970.2407296     
  -1415051381.6774879       -7558547.1742030978        1415789738.7497916     
  -1371915905.4585328       -7334650.7021930814        1417506746.4574358     
  -1328907319.1987200       -7533720.7606616616        1423088993.3636582     
  0.53564671013713294      -0.33668146109883174        1544263702.4095459     
  0.30052892409081500        8.0143355322100970E-002   1538890825.8388109     
   1.8919527117128354E-002  0.34199682920786179        1538661708.8950064     
 -0.30918233861421729       0.44887453987302128        1543576351.5781343     
 -0.68377208657060295       0.40079368395546611        1553634753.8881948     
  -327935884.28904748       -596146.91000810266        1515887442.8786976     
  -314213636.25042212        68918.703730300069        1509521372.0613363     
  -300575840.05089563        452478.18714010715        1508413640.6283276     
  -287022495.69046676        554531.54022449255        1512564248.5796723     
  -273553603.16914070        375078.76296536624        1521973195.9153681     
  -658732399.18634021       -2050482.5051142871        1486232904.8607678     
  -630960532.13848245       -622140.47381389141        1478775112.7054045     
  -603357568.72233069        243189.45180076361        1476690239.6918123     
  -575923508.93788970        545507.27171286941        1479978285.8199937     
  -548658352.78515494        284812.98593840003        1488639251.0899503     
  -992389544.15623116       -4363007.1219998598        1455300088.3557537     
  -950240687.36365020       -2073177.4524827600        1446652047.7710094     
  -908345185.99538732       -627865.86402666569        1443491506.0854592     
  -866703040.05144083       -27072.356623828411        1445818463.2991028     
  -825314249.53181124       -270796.93027704954        1453632919.4119415     
  -1328907319.1987200       -7533720.7606616616        1423088993.3636582     
  -1272054101.9259315       -4284192.2322990894        1413152177.2581558     
  -1215538691.8700657       -2160687.7603424191        1408817439.8092690     
  -1159361089.0311284       -1163207.3448152542        1410084781.0169983     
  -1103521293.4091117       -1291750.9856925011        1416954200.8813443     
 -0.68377208657060295       0.40079368395546611        1553634753.8881948     
 -0.80303401291252496       -7.4569471476780835E-003   1551582254.8232071     
  -1.1637873814823547       -1.2206790523438482        1554343941.1582081     
  -1.7660269309209782       -3.2388543998799406        1561919812.8931930     
  -2.6097596611235643       -6.0620084044080240        1574309870.0281682     
  -273553603.16914070        375078.76296536624        1521973195.9153681     
  -261926994.38020608       -467024.46926695108        1519139517.3943493     
  -250288438.36883599       -1269303.6267141700        1520629530.2082579     
  -238637935.13502491       -2031758.7093579769        1526443234.3570991     
  -226975484.67877153       -2754389.7171946466        1536580629.8408689     
  -548658352.78515494        284812.98593840003        1488639251.0899503     
  -526806546.70247489       -1819816.5546193123        1485038331.8208141     
  -504930845.93342757       -3844797.1406188607        1485270609.8215537     
  -483031250.47800922       -5790128.7720474601        1489336085.0921640     
  -461107760.33622408       -7655811.4489214420        1497234757.6326461     
  -825314249.53181124       -270796.93027704954        1453632919.4119415     
  -794638657.76983237       -4058376.2634882331        1449278698.1026080     
  -763927223.85755861       -7726481.7623803616        1448267179.9980910     
  -733179947.79498088       -11275113.426928163        1450598365.0983891     
  -702396829.58211160       -14704271.257171243        1456272253.4035046     
  -1103521293.4091117       -1291750.9856925011        1416954200.8813443     
  -1065423327.5822818       -7182703.5958864689        1411860616.2397292     
  -1027277572.1412295       -12914357.492004693        1409619240.7378731     
  -989084027.08594704       -18486712.674019933        1410230074.3757772     
  -950842692.41644073       -23899769.141960144        1413693117.1534388     
  -2.6097596611235643       -6.0620084044080240        1574309870.0281682     
 -0.25348734100771741       -9.7181433230345888        1576415197.5170913     
   1.1620776685250647       -16.509972052495598        1587715502.4846432     
   1.6369428706303868       -26.437465071991330        1608210784.9308219     
   1.1711024091868012       -39.500644330539473        1637901044.8556147     
  -226975484.67877153       -2754389.7171946466        1536580629.8408689     
  -203183756.58921137        14095.842419303954        1535753560.1203215     
  -179501338.39627674        2418215.0799491182        1543393958.2815790     
  -155928230.09998193        4457967.9953465983        1559501824.3246491     
  -132464431.70031720        6133354.5886448473        1584077158.2495186     
  -461107760.33622408       -7655811.4489214420        1497234757.6326461     
  -415602905.36141562       -2742416.3279438317        1493347763.5873713     
  -370316669.23916984        1442249.2844924480        1497200727.8270915     
  -325249051.96948326        4898185.3883954138        1508793650.3517978     
  -280400053.55236065        7625391.9837535471        1528126531.1615012     
  -702396829.58211160       -14704271.257171243        1456272253.4035046     
  -637257446.57010543       -8269546.2292551100        1449197807.9182539     
  -572445991.36658990       -2927913.8963108659        1449135811.1211801     
  -507962463.97156549        1320625.7416682243        1456086263.0122831     
  -443806864.38503188        4476072.6846672297        1470049163.5915585     
  -950842692.41644073       -23899769.141960144        1413693117.1534388     
  -868147380.21528625       -16567293.861530334        1403303693.1129625     
  -785889304.77854609       -10692274.462481707        1399199208.1638486     
  -704068466.10622776       -6274710.9448396266        1401379662.3060894     
  -622684864.19833028       -3314603.3086005747        1409845055.5396900     
  -1756012992.4829831       -526803897.74489492        680013527.01012957     
  -1784064894.4024410       -500109276.61491787        806428157.26422226     
  -1809183909.3063033       -463638365.43295306        925737250.87832499     
  -1831370037.1945686       -417391164.19900012        1037940807.8524371     
  -1850623278.0672376       -361367672.91305912        1143038828.1865594     
  -2201718888.8872356       -660515666.66617072        696392047.06376290     
  -2238362883.4375377       -613901731.58502150        813833507.56877148     
  -2272962388.6035504       -560472831.88957179        927174437.93208122     
  -2305517404.3852730       -500228967.57982171        1036414838.1536921     
  -2336027930.7827058       -433170138.65577173        1141554708.2336042     
  -2685650906.9052896       -805695272.07158685        721941468.96915531     
  -2722301261.2341752       -736586303.18358684        829373295.82188916     
  -2757795523.8100767       -663623695.11897421        935709599.03121519     
  -2792133694.6329942       -586807447.87774873        1040950378.5971341     
  -2825315773.7029285       -506137561.45991099        1145095634.5196457     
  -3207809046.5371442       -962342713.96114326        756661792.72630668     
  -3235880027.7923512       -868162991.41061401        853047522.02357495     
  -3263683314.9258814       -773090955.12115991        951342734.17572701     
  -3291218907.9377337       -677126605.09278119        1051547429.1827633     
  -3318486806.8279080       -580269941.32547748        1153661607.0446832     
  -3768193307.7827997       -1130457992.3348401        800553018.33521736     
  -3779099183.1120672       -1008631796.2661030        884856186.17382932     
  -3790625761.9509645       -888874611.89612961        974073843.36561656     
  -3802773044.2994895       -771186439.22491837        1068205989.9105788     
  -3815541030.1576443       -655567278.25247073        1167252625.8087170     
  -1850623278.0672376       -361367672.91305912        1143038828.1865594     
  -1835204975.6429541       -295646260.50940186        1190510172.5198290     
  -1823183433.9956090       -241247384.02887368        1240254319.0111575     
  -1814558653.1252029       -198171043.47147554        1292271267.6605446     
  -1809330633.0317354       -166417238.83720475        1346561018.4679897     
  -2336027930.7827058       -433170138.65577173        1141554708.2336042     
  -2312418454.4430351       -352089030.28739303        1182746818.8389344     
  -2292313063.9998336       -282688208.24057263        1224422485.0754132     
  -2275711759.4530993       -224967672.51530939        1266581706.9430401     
  -2262614540.8028307       -178927423.11160207        1309224484.4418163     
  -2825315773.7029285       -506137561.45991099        1145095634.5196457     
  -2798627256.3819013       -411230397.00701982        1179883298.7575860     
  -2775550150.0768714       -328361269.27411497        1213365272.0997653     
  -2756084454.7878356       -257530178.26119471        1245541554.5461826     
  -2740230170.5147967       -198737123.96826065        1276412146.0968387     
  -3318486806.8279080       -580269941.32547748        1153661607.0446832     
  -3293831381.4595523       -473070360.66828144        1181919612.2757843     
  -3272894692.2267218       -378266567.12950170        1207082680.0842135     
  -3255676739.1294155       -295858560.70913386        1229150810.4699717     
  -3242177522.1676321       -225846341.40717912        1248124003.4330587     
  -3815541030.1576443       -655567278.25247073        1167252625.8087170     
  -3798030829.6759892       -537608921.27118003        1188855759.3935280     
  -3784346690.4493847       -432404101.80673110        1205574709.0287588     
  -3774488612.4778347       -339952819.85912418        1217409474.7144072     
  -3768456595.7613363       -260255075.42835987        1224360056.4504755     
  -1809330633.0317354       -166417238.83720475        1346561018.4679897     
  -1778701720.3835974       -134127394.12773907        1364305035.1024315     
  -1749346966.3153598       -106084744.68460977        1382812281.5901530     
  -1721266370.8270228       -82289290.507814407        1402082757.9311521     
  -1694459933.9185858       -62741031.597351968        1422116464.1254306     
  -2262614540.8028307       -178927423.11160207        1309224484.4418163     
  -2223305714.0100198       -134703215.05763340        1317228452.3048084     
  -2186874904.9201941       -100072399.34694850        1328391963.5001538     
  -2153322113.5333524       -75034975.979540348        1342715018.0278521     
  -2122647339.8494925       -59590944.955410719        1360197615.8879042     
  -2740230170.5147967       -198737123.96826065        1276412146.0968387     
  -2685394819.6371007       -140524569.58772504        1272804896.2114503     
  -2635041345.5854721       -97251604.627416134        1274753503.1374896     
  -2589169748.3599129       -68918229.087334752        1282257966.8749564     
  -2547780027.9604201       -55524442.967477918        1295318287.4238498     
  -3242177522.1676321       -225846341.40717912        1248124003.4330587     
  -3164969037.2648382       -151591457.71801353        1231034366.8223581     
  -3093846288.3111963       -97622360.526020527        1221896900.5021603     
  -3028809275.3067045       -63939049.831197381        1220711604.4724629     
  -2969857998.2513661       -50541525.633549571        1227478478.7332692     
  -3768456595.7613363       -260255075.42835987        1224360056.4504755     
  -3662028366.8932333       -167903879.44850016        1191916864.1375327     
  -3563289733.0973635       -101184667.04275632        1169822155.5941648     
  -3472240694.3737297       -60097438.211131811        1158075930.8203750     
  -3388881250.7223330       -44642192.953625679        1156678189.8161604     
  -1694459933.9185858       -62741031.597351968        1422116464.1254306     
  -1643633954.6822498       -40585427.775771797        1414865252.5719590     
  -1594565806.6158473       -24289261.187304318        1412754011.5216038     
  -1547255489.7193816       -13852531.831957281        1415782740.9743681     
  -1501703003.9928486       -9275239.7097227573        1423951440.9302480     
  -2122647339.8494925       -59590944.955410719        1360197615.8879042     
  -2059864781.3387737       -40792706.777005196        1352100435.1639540     
  -1998343630.3737168       -26199160.417471528        1348835429.2963748     
  -1938083886.9543188       -15810305.876802325        1350402598.2851665     
  -1879085551.0805840       -9626143.1550121307        1356801942.1303291     
  -2547780027.9604201       -55524442.967477918        1295318287.4238498     
  -2473920306.3088794       -40347395.272311330        1286954298.4244087     
  -2400825568.5787272       -27720293.981777549        1283114688.6345913     
  -2328495814.7699618       -17643139.095864177        1283799458.0543976     
  -2256931044.8825855       -10115930.614579797        1289008606.6838300     
  -2969857998.2513661       -50541525.633549571        1227478478.7332692     
  -2885800529.5925670       -39249493.261699915        1219426842.3533208     
  -2802011621.2308798       -28852661.880226374        1215591789.5362489     
  -2718491273.1663070       -19351031.489135504        1215973320.2820580     
  -2635239485.3988500       -10744602.088427901        1220571434.5907421     
  -3388881250.7223330       -44642192.953625679        1156678189.8161604     
  -3295505451.1898327       -37499000.745149851        1149518066.9506917     
  -3201901788.3301759       -29596264.112818956        1146266732.0013542     
  -3108070262.1433573       -20933983.056615472        1146924184.9681475     
  -3014010872.6293793       -11512157.576552272        1151490425.8510735     
  -1501703003.9928486       -9275239.7097227573        1423951440.9302480     
  -1458313747.8555961       -8205410.1767218113        1417937970.2407296     
  -1415051381.6774879       -7558547.1742030978        1415789738.7497916     
  -1371915905.4585328       -7334650.7021930814        1417506746.4574358     
  -1328907319.1987200       -7533720.7606616616        1423088993.3636582     
  -1879085551.0805840       -9626143.1550121307        1356801942.1303291     
  -1824893721.3241608       -7344807.7396522760        1350491559.1189435     
  -1771063039.2778370       -6267298.0246304274        1348346030.6431806     
  -1717593504.9416208       -6393614.0099585056        1350365356.7030399     
  -1664485118.3155026       -7723755.6956217289        1356549537.2985184     
  -2256931044.8825855       -10115930.614579797        1289008606.6838300     
  -2191080597.6868739       -6366276.1708359718        1282128010.6411300     
  -2125825555.9522161       -4601306.5972737074        1279711884.4710937     
  -2061165919.6786146       -4821021.8938974142        1281760228.1737206     
  -1997101688.8660712       -7025422.0607091188        1288273041.7490153     
  -2635239485.3988500       -10744602.088427901        1220571434.5907421     
  -2556874376.9437318       -5269815.4702602625        1212847324.8072839     
  -2479338931.7006183       -2560572.8921188116        1209887300.2335289     
  -2402633149.6695156       -2616874.3540092707        1211691360.8694835     
  -2326757030.8504233       -5438719.8559342623        1218259506.7151399     
  -3014010872.6293793       -11512157.576552272        1151490425.8510735     
  -2922275059.0947332       -4055425.6379253864        1142649501.6174080     
  -2831603166.5230474       -145096.90917396545        1138872277.9304905     
  -2741995194.9143248        218828.60970675945        1140158754.7903216     
  -2653451144.2685647       -2963649.0812962055        1146508932.1969004     
  -1328907319.1987200       -7533720.7606616616        1423088993.3636582     
  -1272054101.9259315       -4284192.2322990894        1413152177.2581558     
  -1215538691.8700657       -2160687.7603424191        1408817439.8092690     
  -1159361089.0311284       -1163207.3448152542        1410084781.0169983     
  -1103521293.4091117       -1291750.9856925011        1416954200.8813443     
  -1664485118.3155026       -7723755.6956217289        1356549537.2985184     
  -1593418092.6454370       -4536680.6673735380        1347199983.7638161     
  -1522563792.8911622       -2058692.0250974894        1343196462.6858141     
  -1451922219.0526888       -289789.76882231236        1344538974.0645127     
  -1381493371.1300049        770026.10148203373        1351227517.8999143     
  -1997101688.8660712       -7025422.0607091188        1288273041.7490153     
  -1912552415.3699124       -4120268.7039390802        1279656678.9697621     
  -1828090786.4884186       -1507264.0627171993        1276130302.4472954     
  -1743716802.2215855        813591.86296975613        1277693912.1816168     
  -1659430462.5694168        2842299.0731058121        1284347508.1727257     
  -2326757030.8504233       -5438719.8559342623        1218259506.7151399     
  -2229457070.0993590       -3034956.3420025110        1210522262.8759930     
  -2132119672.6618257       -506403.87317895889        1207618959.0937188     
  -2034744838.5378213        2146937.5505501032        1209549595.3683162     
  -1937332567.7273495        4925067.9291691780        1216314171.6997888     
  -2653451144.2685647       -2963649.0812962055        1146508932.1969004     
  -2544132056.8337717       -1280743.5815458298        1139796735.4825091     
  -2434650451.4113846        943888.54352307320        1137662432.6250782     
  -2325006328.0013919        3710247.2939414978        1140106023.6246037     
  -2215199686.6038017        7018332.6696767807        1147127508.4810913     
  -1103521293.4091117       -1291750.9856925011        1416954200.8813443     
  -1065423327.5822818       -7182703.5958864689        1411860616.2397292     
  -1027277572.1412295       -12914357.492004693        1409619240.7378731     
  -989084027.08594704       -18486712.674019933        1410230074.3757772     
  -950842692.41644073       -23899769.141960144        1413693117.1534388     
  -1381493371.1300049        770026.10148203373        1351227517.8999143     
  -1336011212.5903645       -6083903.1518719196        1346231839.5545728     
  -1290599672.0747733       -13173225.818715096        1344286325.6892877     
  -1245258749.5832155       -20497941.899012327        1345390976.3040581     
  -1199988445.1157076       -28058051.392803192        1349545791.3988810     
  -1659430462.5694168        2842299.0731058121        1284347508.1727257     
  -1605998524.6304064       -4804930.8174442649        1279311593.8790140     
  -1552755612.3537071       -13082246.249035478        1277523799.4056528     
  -1499701725.7393181       -21989647.221658170        1278984124.7526443     
  -1446836864.7872424       -31527133.735326648        1283692569.9199886     
  -1937332567.7273495        4925067.9291691780        1216314171.6997888     
  -1875385263.7024035       -3345786.5926070213        1211099879.2130535     
  -1813745392.9780383       -12641418.782978535        1209331661.8869705     
  -1752412955.5542510       -22961828.641948104        1211009519.7215343     
  -1691387951.4310486       -34307016.169531405        1216133452.7167444     
  -2215199686.6038017        7018332.6696767807        1147127508.4810913     
  -2144171429.8063583       -1706470.4773538113        1141596695.5566907     
  -2073569013.9477630       -11850743.420541286        1139709913.1332376     
  -2003392439.0280175       -23414486.159895420        1141467161.2107310     
  -1933641705.0471213       -36397698.695419550        1146868439.7891679     
  -950842692.41644073       -23899769.141960144        1413693117.1534388     
  -868147380.21528625       -16567293.861530334        1403303693.1129625     
  -785889304.77854609       -10692274.462481707        1399199208.1638486     
  -704068466.10622776       -6274710.9448396266        1401379662.3060894     
  -622684864.19833028       -3314603.3086005747        1409845055.5396900     
  -1199988445.1157076       -28058051.392803192        1349545791.3988810     
  -1100542230.5064754       -19824467.443668127        1339623745.5132816     
  -1001328087.7190890       -12364456.234020889        1336094121.9266794     
  -902346016.75355232       -5678017.7638684511        1338956920.6390705     
  -803596017.60986197        234847.96679425240        1348212141.6504741     
  -1446836864.7872424       -31527133.735326648        1283692569.9199886     
  -1330332652.8909585       -22300312.653798997        1274477261.2889228     
  -1213855347.8739476       -13163181.169848084        1271761858.1645000     
  -1097404949.7362161       -4115739.2834941149        1275546360.5467155     
  -980981458.47775102        4842013.0052951574        1285830768.4355695     
  -1691387951.4310486       -34307016.169531405        1216133452.7167444     
  -1557518647.3687358       -23994829.491912365        1207864240.4398935     
  -1423471085.2431293       -13088449.269978940        1206202416.8773162     
  -1289245265.0542254       -1587875.5037159324        1211147982.0290241     
  -1154841186.8020205        10506891.806871891        1222700935.8950150     
  -1933641705.0471213       -36397698.695419550        1146868439.7891679     
  -1782100213.9398069       -24908017.958020568        1139784682.9661846     
  -1630175299.8266256       -12140260.534400046        1139415798.0651228     
  -1477866962.7075772        1905573.5754438639        1145761785.0859854     
  -1325175202.5826535        17229484.371546328        1158822644.0287769     
  -3768193307.7827997       -1130457992.3348401        800553018.33521736     
  -3779099183.1120672       -1008631796.2661030        884856186.17382932     
  -3790625761.9509645       -888874611.89612961        974073843.36561656     
  -3802773044.2994895       -771186439.22491837        1068205989.9105788     
  -3815541030.1576443       -655567278.25247073        1167252625.8087170     
  -4339676829.0151520       -1301903048.7045457        858753757.50172853     
  -4335219596.7473459       -1125692850.4261847        942357885.22817886     
  -4331903983.8712196       -953288050.12009847        1020315144.3200599     
  -4329729990.3867760       -784688647.78628695        1092625534.7773721     
  -4328697616.2940178       -619894643.42475200        1159289056.6001151     
  -4895132748.6070986       -1468539824.5821297        936402621.93168199     
  -4905487717.2786283       -1246998216.6550679        1018699974.3502413     
  -4917505221.2238941       -1030998392.9737933        1084789100.1464872     
  -4931185260.4428959       -820540353.53830612        1134669999.3204198     
  -4946527834.9356337       -615624098.34860539        1168342671.8720386     
  -5434561066.5586386       -1630368319.9675915        1033499611.6250775     
  -5489903544.7059193       -1372547894.9527535        1113882453.5400171     
  -5547429474.0089884       -1122005640.4572141        1167495710.8448980     
  -5607138854.4678450       -878741556.48097360        1194339383.5397220     
  -5669031686.0824947       -642755643.02403331        1194413471.6244876     
  -5957961782.8697720       -1787388534.8609316        1150044726.5819151     
  -6088467079.0292139       -1502341885.3192401        1227905322.7975054     
  -6221676742.2264986       -1226309792.5703602        1268434976.4152932     
  -6357590772.4616280       -959292256.61429071        1271633687.4352789     
  -6496209169.7345991       -701289277.45103288        1237501455.8574617     
  -3815541030.1576443       -655567278.25247073        1167252625.8087170     
  -3798030829.6759892       -537608921.27118003        1188855759.3935280     
  -3784346690.4493847       -432404101.80673110        1205574709.0287588     
  -3774488612.4778347       -339952819.85912418        1217409474.7144072     
  -3768456595.7613363       -260255075.42835987        1224360056.4504755     
  -4328697616.2940178       -619894643.42475200        1159289056.6001151     
  -4298286507.2216797       -464102497.08864820        1141319021.9008083     
  -4278480248.1110473       -343659850.62489820        1129426072.5235729     
  -4269278838.9621224       -258566704.03350091        1123610208.4684098     
  -4270682279.7749023       -208823057.31445932        1123871429.7353177     
  -4946527834.9356337       -615624098.34860539        1168342671.8720386     
  -4871897905.0678911       -412602788.99627233        1102890882.0641847     
  -4814651613.8685112       -267526941.87180591        1054477446.8500550     
  -4774788961.3374891       -180396556.97520304        1023102366.2296499     
  -4752309947.4748268       -151211634.30646658        1008765640.2029697     
  -5669031686.0824947       -642755643.02403331        1194413471.6244876     
  -5518865023.2146273       -383109796.99405432        1073571339.8836577     
  -5392860787.7217712       -204005375.54745054        980728832.00820446     
  -5291018979.6039314       -105442378.68422914        915885947.99812961     
  -5213339598.8611031       -87420806.404380083        879042687.85342944     
  -6496209169.7345991       -701289277.45103288        1237501455.8574617     
  -6239187861.6618824       -375623521.08199167        1053360395.3592265     
  -6013107769.6708336       -153095151.65183973        908180227.99801970     
  -5817968893.7614517       -33704169.160575390        801960953.77384472     
  -5653771233.9337349       -17450573.608198881        734702572.68669987     
  -3768456595.7613363       -260255075.42835987        1224360056.4504755     
  -3662028366.8932333       -167903879.44850016        1191916864.1375327     
  -3563289733.0973635       -101184667.04275632        1169822155.5941648     
  -3472240694.3737297       -60097438.211131811        1158075930.8203750     
  -3388881250.7223330       -44642192.953625679        1156678189.8161604     
  -4270682279.7749023       -208823057.31445932        1123871429.7353177     
  -4148573953.2396040       -144796667.33192229        1090530683.3784056     
  -4030874482.4179378       -95466463.061492205        1065439560.5337564     
  -3917583867.3099012       -60832444.503165483        1048598061.2013716     
  -3808702107.9154997       -40894611.656948566        1040006185.3812516     
  -4752309947.4748268       -151211634.30646658        1008765640.2029697     
  -4620518266.8646507       -117309073.39894795        978354869.05379117     
  -4489854702.6095066       -87166900.341522932        954094861.15956438     
  -4360319254.7093906       -60785115.134195566        935985616.52028942     
  -4231911923.1642995       -38163717.776959896        924027135.13596618     
  -5213339598.8611031       -87420806.404380083        879042687.85342944     
  -5077861307.7683764       -85441097.649576902        855389421.16369033     
  -4940230393.6720724       -76285978.882855892        835788057.47159040     
  -4800446856.5721941       -59955450.104218245        820238596.77712846     
  -4658510696.4687443       -36449511.313666105        808741039.08030784     
  -5653771233.9337349       -17450573.608198881        734702572.68669987     
  -5520603075.9507751       -49192740.083808422        721634339.70810258     
  -5382001555.6056347       -62823698.685485840        710519149.46983302     
  -5237966672.8983192       -58343449.413239241        701357001.97188878     
  -5088498427.8288240       -35751992.267063141        694147897.21427202     
  -3388881250.7223330       -44642192.953625679        1156678189.8161604     
  -3295505451.1898327       -37499000.745149851        1149518066.9506917     
  -3201901788.3301759       -29596264.112818956        1146266732.0013542     
  -3108070262.1433573       -20933983.056615472        1146924184.9681475     
  -3014010872.6293793       -11512157.576552272        1151490425.8510735     
  -3808702107.9154997       -40894611.656948566        1040006185.3812516     
  -3703029081.9005094       -29560489.477363825        1031763144.6841030     
  -3597985281.9209962       -20323787.416034222        1028103583.3717139     
  -3493570707.9769554       -13184505.472951174        1029027501.4440814     
  -3389785360.0683923       -8142643.6481208801        1034534898.9012064     
  -4231911923.1642995       -38163717.776959896        924027135.13596618     
  -4112013980.7564616       -22060358.653158665        913701239.01740015     
  -3993602353.7467346       -10911384.189724922        908633513.75221872     
  -3876677042.1351137       -4716794.3866541386        908823959.34042108     
  -3761238045.9216042       -3476589.2439479828        914272575.78200710     
  -4658510696.4687443       -36449511.313666105        808741039.08030784     
  -4522460147.7576933       -14998608.272538424        795332349.95058322     
  -4388753003.8073883       -1359054.4338865280        787856523.14286959     
  -4257389264.6178284        4469150.2022755146        786313558.65716445     
  -4128368930.1890097        2486005.6359684467        790703456.49347067     
  -5088498427.8288240       -35751992.267063141        694147897.21427202     
  -4934367582.9042063       -8375238.3355011940        676656477.48364949     
  -4783437232.1029625        8333201.8514678478        665772611.54366410     
  -4635707375.4250994        14373328.293840408        661496299.39431572     
  -4491178012.8706150        9745140.9916222095        663827541.03560126     
  -3014010872.6293793       -11512157.576552272        1151490425.8510735     
  -2922275059.0947332       -4055425.6379253864        1142649501.6174080     
  -2831603166.5230474       -145096.90917396545        1138872277.9304905     
  -2741995194.9143248        218828.60970675945        1140158754.7903216     
  -2653451144.2685647       -2963649.0812962055        1146508932.1969004     
  -3389785360.0683923       -8142643.6481208801        1034534898.9012064     
  -3286806983.1645904       -5090529.5741887093        1026049445.0498266     
  -3184351681.1810098       -3781998.5676665306        1022164866.5967469     
  -3082419454.1176457       -4217050.6285378933        1022881163.5419701     
  -2981010301.9745083       -6395685.7568228245        1028198335.8854948     
  -3761238045.9216042       -3476589.2439479828        914272575.78200710     
  -3648339463.2156353       -5225800.3048126698        906773579.36277556     
  -3535423109.3871441       -6915774.2906072140        903412633.19339991     
  -3422488984.4361324       -8546511.2013339996        904189737.27387881     
  -3309537088.3626013       -10118011.036989689        909104891.60421503     
  -4128368930.1890097        2486005.6359684467        790703456.49347067     
  -4006872499.2478657       -4461237.8297939301        784821904.55625427     
  -3884817451.1414585       -9546424.0780084133        782615577.72044826     
  -3762203785.8697815       -12769553.108672857        784084475.98605394     
  -3639031503.4328489       -14130624.921805143        789228599.35306561     
  -4491178012.8706150        9745140.9916222095        663827541.03560126     
  -4362406091.2612839       -2796842.1491277218        660194420.63026726     
  -4232534706.4439416       -11673947.929852009        659773700.17789614     
  -4101563858.4186001       -16886176.350570440        662565379.67848599     
  -3969493547.1852508       -18433527.411266804        668569459.13204181     
  -2653451144.2685647       -2963649.0812962055        1146508932.1969004     
  -2544132056.8337717       -1280743.5815458298        1139796735.4825091     
  -2434650451.4113846        943888.54352307320        1137662432.6250782     
  -2325006328.0013919        3710247.2939414978        1140106023.6246037     
  -2215199686.6038017        7018332.6696767807        1147127508.4810913     
  -2981010301.9745083       -6395685.7568228245        1028198335.8854948     
  -2859225118.3549666       -3263096.0037896633        1021288583.8359108     
  -2737445377.1085672       -148647.49456787109        1019055700.1668797     
  -2615671078.2353172        2947659.7708284855        1021499684.8784016     
  -2493902221.7352085        6025825.7924081087        1028620537.9704752     
  -3309537088.3626013       -10118011.036989689        909104891.60421503     
  -3175003024.2051840       -5450901.7247232199        901801630.46523559     
  -3040642362.7816586       -1361801.5254276991        899274212.23040354     
  -2906455104.0920253        2149289.5608941317        901522636.89971304     
  -2772441248.1362810        5082371.5342481136        908546904.47317028     
  -3639031503.4328489       -14130624.921805143        789228599.35306561     
  -3491465774.3844337       -7844160.7443652153        781335875.37048817     
  -3344241408.4306560       -2695573.5490577221        778317968.81564987     
  -3197358405.5715194        1315136.6641206741        780174879.68854451     
  -3050816765.8070149        4187969.8951853514        786906607.98917997     
  -3969493547.1852508       -18433527.411266804        668569459.13204181     
  -3808613368.8927178       -10442873.062735558        659891318.55166268     
  -3648242514.0555673       -4149963.5654687881        656186969.92261386     
  -3488380982.6738024        445201.08050513268        657456413.24489319     
  -3329028774.7474151        3342620.8752229214        663699648.51850605     
  -2215199686.6038017        7018332.6696767807        1147127508.4810913     
  -2144171429.8063583       -1706470.4773538113        1141596695.5566907     
  -2073569013.9477630       -11850743.420541286        1139709913.1332376     
  -2003392439.0280175       -23414486.159895420        1141467161.2107310     
  -1933641705.0471213       -36397698.695419550        1146868439.7891679     
  -2493902221.7352085        6025825.7924081087        1028620537.9704752     
  -2413994890.2408681       -3937726.9268485308        1022629781.7692622     
  -2334400750.1574039       -14945251.015699983        1020110917.8121572     
  -2255119801.4848170       -26996746.474145293        1021063946.0991603     
  -2176152044.2231112       -40092213.302192807        1025488866.6302655     
  -2772441248.1362810        5082371.5342481136        908546904.47317028     
  -2684146665.5360131       -6267477.8345288038        902227629.44444537     
  -2596052624.8186498       -18285800.146335840        899208108.40298820     
  -2508159125.9841971       -30972595.401175857        899488341.34879494     
  -2420466169.0326576       -44327863.599051476        903068328.28186810     
  -3050816765.8070149        4187969.8951853514        786906607.98917997     
  -2954626755.6917901       -8695723.2004013062        780390238.58224142     
  -2858524637.9315047       -21872390.812454820        777001484.90572441     
  -2762510412.5261583       -35342032.940974236        776740346.95963895     
  -2666584079.4757566       -49104649.585973382        779606824.74397326     
  -3329028774.7474151        3342620.8752229214        663699648.51850605     
  -3225435160.7082052       -11222463.024461865        657117609.18264639     
  -3121816789.4959683       -25705023.014056563        653491047.32037485     
  -3018173661.1107016       -40105059.093551278        652819962.93168283     
  -2914505775.5524035       -54422571.262952924        655104356.01658404     
  -1933641705.0471213       -36397698.695419550        1146868439.7891679     
  -1782100213.9398069       -24908017.958020568        1139784682.9661846     
  -1630175299.8266256       -12140260.534400046        1139415798.0651228     
  -1477866962.7075772        1905573.5754438639        1145761785.0859854     
  -1325175202.5826535        17229484.371546328        1158822644.0287769     
  -2176152044.2231112       -40092213.302192807        1025488866.6302655     
  -2007251074.7024288       -27847443.651473761        1017424203.8389429     
  -1839118052.5833447       -18162498.672749400        1015823862.7713666     
  -1671752977.8658590       -11037378.366006136        1020687843.4275388     
  -1505155850.5499611       -6472082.7312343717        1032016145.8074496     
  -2420466169.0326576       -44327863.599051476        903068328.28186810     
  -2234921578.8076854       -31542762.347720861        892679494.04682934     
  -2051296306.3917794       -25155387.126610518        888504431.33735526     
  -1869590351.7849314       -25165737.935696840        890543140.15344834     
  -1689803714.9871428       -31573814.774990618        898795620.49511647     
  -2666584079.4757566       -49104649.585973382        779606824.74397326     
  -2465111726.2555718       -35993974.046748519        765550553.58983994     
  -2266710061.2519207       -33118925.895975113        757457503.76309705     
  -2071379084.4647977       -40479505.133624077        755327675.26374531     
  -1879118795.8942056       -58075711.759701252        759161068.09177923     
  -2914505775.5524035       -54422571.262952924        655104356.01658404     
  -2697821517.0460954       -41201078.748583913        636037382.46798074     
  -2485359317.1637869       -42053114.980881929        622683080.04858732     
  -2277119175.9054642       -56978679.959798932        615041448.75839937     
  -2073101093.2711370       -85977773.685379148        613112488.59743547     
  -5957961782.8697720       -1787388534.8609316        1150044726.5819151     
  -6088467079.0292139       -1502341885.3192401        1227905322.7975054     
  -6221676742.2264986       -1226309792.5703602        1268434976.4152932     
  -6357590772.4616280       -959292256.61429071        1271633687.4352789     
  -6496209169.7345991       -701289277.45103288        1237501455.8574617     
  -6810662078.4751873       -2043198623.5425560        1353754898.7615213     
  -6828553188.5753899       -1395480609.5385027        1202751481.8063970     
  -6897812004.1060858       -918988280.30276632        1092011912.6187146     
  -7018438525.0672789       -613721635.83534908        1021536191.1984733     
  -7190432751.4589682       -479680676.13624978        991324317.54567361     
  -8337989134.3095684       -2501396740.2928705        1712347060.1232224     
  -8021566657.3069773       -1424497541.5133889        1275705735.2059555     
  -7805175224.1275330       -681035155.47773147        956923048.42137527     
  -7688814834.7712364       -271009582.18589926        755998999.76948035     
  -7672485489.2380848       -194420821.63788986        672933589.25027001     
  -10539942950.372921       -3161982885.1118765        2225821210.6670175     
  -9667507485.2239780       -1589392681.2438989        1446768082.9961817     
  -8943766402.2908382       -512450418.09525251        863168383.82327545     
  -8368719701.5734978        68843904.334060192        475022113.14829993     
  -7942367383.0719557        154490286.04404116        282329270.97125322     
  -13416523526.665239       -4024957057.9995718        2894177350.3929071     
  -11766375672.326397       -1890166028.7300339        1715938525.1770751     
  -10313585538.596006       -413234068.15533543        810747918.82441640     
  -9058153125.4740677        405838823.72452688        178605531.33493146     
  -8000078432.9605770        567052646.90955019       -180488637.29138091     
  -6496209169.7345991       -701289277.45103288        1237501455.8574617     
  -6239187861.6618824       -375623521.08199167        1053360395.3592265     
  -6013107769.6708336       -153095151.65183973        908180227.99801970     
  -5817968893.7614517       -33704169.160575390        801960953.77384472     
  -5653771233.9337349       -17450573.608198881        734702572.68669987     
  -7190432751.4589682       -479680676.13624978        991324317.54567361     
  -6900460316.7091579       -304371358.60991073        846988541.34012318     
  -6623288291.1542664       -171730071.73329711        723736532.25131369     
  -6358916674.7942934       -81756815.506408215        621568290.27924538     
  -6107345467.6292381       -34451589.929248333        540483815.42391992     
  -7672485489.2380848       -194420821.63788986        672933589.25027001     
  -7400639430.7262936       -184791193.82878590        589567372.03861213     
  -7123452974.5226736       -157360240.38024664        509407795.92340708     
  -6840926120.6272202       -112127961.29226899        432454860.90465385     
  -6553058869.0399351       -49094356.564854383        358708566.98235416     
  -7942367383.0719557        154490286.04404116        282329270.97125322     
  -7739725203.7132921       -16883026.738620281        281096887.45469344     
  -7513601819.7760506       -109985657.59268808        265194019.01429716     
  -7263997231.2602262       -124817606.51815319        234620665.65006566     
  -6990911438.1658258       -61378873.515022755        189376827.36200106     
  -8000078432.9605770        567052646.90955019       -180488637.29138091     
  -7917717635.6701536        199353142.66058302       -78422912.411634073     
  -7793734826.9143991       -29606323.370621204       -8904798.4760108348     
  -7628130006.6933165       -119825751.18406105        28065704.515487455     
  -7420903175.0069056       -71305140.779743195        32488596.562859543     
  -5653771233.9337349       -17450573.608198881        734702572.68669987     
  -5520603075.9507751       -49192740.083808422        721634339.70810258     
  -5382001555.6056347       -62823698.685485840        710519149.46983302     
  -5237966672.8983192       -58343449.413239241        701357001.97188878     
  -5088498427.8288240       -35751992.267063141        694147897.21427202     
  -6107345467.6292381       -34451589.929248333        540483815.42391992     
  -5959335820.9109049       -36187168.143535376        534183727.20768273     
  -5810375656.6399155       -34754354.515632629        530422528.75648397     
  -5660464974.8162708       -30153149.045548201        529200220.07032794     
  -5509603775.4399681       -22383551.733271360        530516801.14920938     
  -6553058869.0399351       -49094356.564854383        358708566.98235416     
  -6388533884.9441919       -20321191.925208330        353946637.91736507     
  -6227541228.1053143       -3322451.4751179218        352309445.64213133     
  -6070080898.5233030        1901864.7854175568        353796990.15664637     
  -5916152896.1981573       -4648243.1435973644        358409271.46092129     
  -6990911438.1658258       -61378873.515022755        189376827.36200106     
  -6808197268.0506315       -1594811.4288282394        180923071.83715189     
  -6633498270.0018282        31472010.436067581        176179900.12677145     
  -6466814444.0194149        37821592.079661608        175147312.23085663     
  -6308145790.1033916        17453933.501958847        177825308.14940390     
  -7420903175.0069056       -71305140.779743195        32488596.562859543     
  -7218325970.2302284        19991973.345604420        15113028.967041625     
  -7028246782.3294621        69629031.217910290        2033892.2104028903     
  -6850665611.3046093        77606032.837175846       -6748813.7070594616     
  -6685582457.1556635        43922978.203413010       -11235088.785338948     
  -5088498427.8288240       -35751992.267063141        694147897.21427202     
  -4934367582.9042063       -8375238.3355011940        676656477.48364949     
  -4783437232.1029625        8333201.8514678478        665772611.54366410     
  -4635707375.4250994        14373328.293840408        661496299.39431572     
  -4491178012.8706150        9745140.9916222095        663827541.03560126     
  -5509603775.4399681       -22383551.733271360        530516801.14920938     
  -5344485923.8987207       -10195629.815032244        515123770.15538138     
  -5180225405.9827709       -865486.64778518677        505079844.00216639     
  -5016822221.6921253        5606877.7684636116        500385022.68956351     
  -4854276371.0267735        9221463.4337053299        501039306.21757448     
  -5916152896.1981573       -4648243.1435973644        358409271.46092129     
  -5743643606.4689198       -8727823.7672624588        347848316.45164359     
  -5569648489.8669014       -7854648.1483278275        341378017.33295488     
  -5394167546.3921061       -2028716.2868096828        338998374.10485756     
  -5217200776.0445347        8749971.8173067570        340709386.76734775     
  -6308145790.1033916        17453933.501958847        177825308.14940390     
  -6131840630.6147957       -3971820.1921970844        174830116.37243488     
  -5951706483.7553463       -12634282.650165319        174667131.53603479     
  -5767743349.5250483       -8533453.8719677925        177336353.64019737     
  -5579951227.9238911        8330666.1424269676        182837782.68492776     
  -6685582457.1556635        43922978.203413010       -11235088.785338948     
  -6509076996.3363600        4072380.9101550579       -3930830.0822359193     
  -6326399387.6481161       -15204390.153307438        4947186.6114004953     
  -6137549631.0909433       -13907334.987004042        15398961.295586148     
  -5942527726.6648397        7963546.4090726376        27424493.970309351     
  -4491178012.8706150        9745140.9916222095        663827541.03560126     
  -4362406091.2612839       -2796842.1491277218        660194420.63026726     
  -4232534706.4439416       -11673947.929852009        659773700.17789614     
  -4101563858.4186001       -16886176.350570440        662565379.67848599     
  -3969493547.1852508       -18433527.411266804        668569459.13204181     
  -4854276371.0267735        9221463.4337053299        501039306.21757448     
  -4714594140.9868031        4764298.4673304558        498193133.71342492     
  -4574854136.2955923        499715.67175579071        498661378.93195206     
  -4435056356.9531488       -3572284.9530510902        502444041.87315130     
  -4295200802.9594679       -7451703.4070551395        509541122.53701997     
  -5217200776.0445347        8749971.8173067570        340709386.76734775     
  -5066316758.2318916        12465068.827919006        337434858.84815860     
  -4916416654.3247852        12900452.820090294        337576766.42134637     
  -4767500464.3232059        10056123.793825150        341135109.48692316     
  -4619568188.2271643        3932081.7491056919        348109888.04488009     
  -5579951227.9238911        8330666.1424269676        182837782.68492776     
  -5417573942.9965525        20305468.932641983        177919596.03446028     
  -5257222260.5315151        25528263.515173435        176519862.64608756     
  -5098896180.5287790        23999049.890041828        178638582.51980489     
  -4942595702.9883499        15717828.057217121        184275755.65561548     
  -5942527726.6648397        7963546.4090726376        27424493.970309351     
  -5768365695.2807789        28285498.781475067        19647345.272336777     
  -5597270954.9157839        38383147.756999016        15490667.606161861     
  -5429243505.5698671        38256493.335591555        14954460.971796133     
  -5264283347.2430182        27905535.517289639        18038725.369228065     
  -3969493547.1852508       -18433527.411266804        668569459.13204181     
  -3808613368.8927178       -10442873.062735558        659891318.55166268     
  -3648242514.0555673       -4149963.5654687881        656186969.92261386     
  -3488380982.6738024        445201.08050513268        657456413.24489319     
  -3329028774.7474151        3342620.8752229214        663699648.51850605     
  -4295200802.9594679       -7451703.4070551395        509541122.53701997     
  -4122014909.6739478       -1147427.3032681942        501025884.08321351     
  -3948765081.5208249        5369965.0258684158        497391952.49838817     
  -3775451318.5000939        12100473.580363989        498639327.78254884     
  -3602073620.6117535        19044098.360218763        504768009.93569767     
  -4619568188.2271643        3932081.7491056919        348109888.04488009     
  -4434340823.0410776        8470706.6804149151        340426353.09446388     
  -4248476264.6643963        15133308.913714647        337531639.93068630     
  -4061974513.0971165        23919888.448996782        339425748.55355328     
  -3874835568.3392420        34830445.286266804        346108678.96305060     
  -4942595702.9883499        15717828.057217121        184275755.65561548     
  -4745591108.9941187        18411528.888314962        178092725.58541337     
  -4547376063.4862871        25140068.098058462        176606032.21950457     
  -4347950566.4648752        35903445.686408758        179815675.55789593     
  -4147314617.9298778        50701661.653384924        187721655.60057345     
  -5264283347.2430182        27905535.517289639        18038725.369228065     
  -5055765767.5330362        28675039.320492029        14025001.556064667     
  -4845464477.9864931        35390242.578909397        14615129.364852998     
  -4633379478.6033669        48051145.292603731        19809108.795581449     
  -4419510769.3836651        66657747.461538076        29606939.848264996     
  -3329028774.7474151        3342620.8752229214        663699648.51850605     
  -3225435160.7082052       -11222463.024461865        657117609.18264639     
  -3121816789.4959683       -25705023.014056563        653491047.32037485     
  -3018173661.1107016       -40105059.093551278        652819962.93168283     
  -2914505775.5524035       -54422571.262952924        655104356.01658404     
  -3602073620.6117535        19044098.360218763        504768009.93569767     
  -3489598720.9334188        7821037.3071837425        498376973.97869295     
  -3377119083.3995233       -3386230.8939983845        495090982.69051415     
  -3264634708.0100808       -14577706.243345618        494910036.07116359     
  -3152145594.7650909       -25753388.740874410        497834134.12062997     
  -3874835568.3392420        34830445.286266804        346108678.96305060     
  -3753052048.1782360        27077607.532963276        339885290.51451439     
  -3631283809.4791527        19273831.573230982        336916513.93003851     
  -3509530852.2419934        11419117.407099724        337202349.20962876     
  -3387793176.4667683        3513465.0345103741        340742796.35327870     
  -4147314617.9298778        50701661.653384924        187721655.60057345     
  -4015795142.4426570        46547247.652869225        181642558.79011208     
  -3884310967.7348475        42275164.387650490        178967641.03894690     
  -3752862093.8064356        37885411.857773542        179696902.34708482     
  -3621448520.6574326        33377990.063194275        183830342.71452832     
  -4419510769.3836651        66657747.461538076        29606939.848264996     
  -4277828003.7266946        66229957.666863441        23648778.805479553     
  -4136200558.1666093        65617767.549249887        21244364.017235763     
  -3994628432.7033949        64821177.108721733        22393695.483541310     
  -3853111627.3370833        63840186.345195532        27096773.204380821     
  -2914505775.5524035       -54422571.262952924        655104356.01658404     
  -2697821517.0460954       -41201078.748583913        636037382.46798074     
  -2485359317.1637869       -42053114.980881929        622683080.04858732     
  -2277119175.9054642       -56978679.959798932        615041448.75839937     
  -2073101093.2711370       -85977773.685379148        613112488.59743547     
  -3152145594.7650909       -25753388.740874410        497834134.12062997     
  -2917462558.3272471        1651939.8370424509        477311703.30348992     
  -2681516457.0300636        33267484.612762570        461648622.21288610     
  -2444307290.8735390        69093245.586293340        450844890.84881973     
  -2205835059.8576760        109129222.75760865        444900509.21128446     
  -3387793176.4667683        3513465.0345103741        340742796.35327870     
  -3137549423.2478952        44371211.330824971        325164218.99816084     
  -2880557481.6863451        107722918.76939809        313591669.96690708     
  -2616817351.7821136        193568587.35021913        306025149.25951385     
  -2346329033.5352144        301908217.07329667        302464656.87596619     
  -3621448520.6574326        33377990.063194275        183830342.71452832     
  -3358082111.8080325        86956735.732771873        179594929.55199784     
  -3082482391.1326194        181313187.48905289        178512223.31064561     
  -2794649358.6311998        316447345.33202291        180582223.99048045     
  -2494583014.3037682        492359209.26169682        185804931.59148663     
  -3853111627.3370833        63840186.345195532        27096773.204380821     
  -3579060624.0076723        129408513.04284120        40603834.964990474     
  -3287291185.3689075        254038290.77166510        56410282.244100429     
  -2977803311.4207964        437729519.53163743        74516115.041724920     
  -2650597002.1633449        680482199.32275653        94921333.357837856     
 </DataArray>
 <DataArray  type="Float64" Name="VM" NumberOfComponents="1" format="ascii">
   12935657672.159092     
   11340778437.703932     
   10210329118.851686     
   9272901014.0045338     
   8304035027.3657026     
   10130362981.318960     
   9322060828.5033989     
   8826409521.2470169     
   8443534940.5004492     
   8035621628.6432085     
   7982407342.4182739     
   7735004736.3631163     
   7669163944.2503166     
   7669561964.4143496     
   7666267733.0013371     
   6491702408.2617474     
   6586897949.5178480     
   6757426401.0273647     
   6961204965.7616253     
   7171574218.3953981     
   5657798372.0924978     
   5890904671.5312510     
   6116385856.5810575     
   6331790518.6296911     
   6536898955.5208683     
   8304035027.3657026     
   8020403143.7112417     
   7778989210.6321983     
   7569084637.6089869     
   7385723142.2744503     
   8035621628.6432085     
   7746612657.1245575     
   7473346259.7052221     
   7213854797.0080004     
   6968149437.3015223     
   7666267733.0013371     
   7380976075.9263382     
   7101118585.2548838     
   6826773424.4909973     
   6558146696.8126402     
   7171574218.3953981     
   6910923295.3529940     
   6658183306.1554298     
   6409497803.8167858     
   6161721843.6093693     
   6536898955.5208683     
   6328797426.0146914     
   6142857601.4667320     
   5965168256.6194172     
   5786720638.8615370     
   7385723142.2744503     
   7228390088.8264694     
   7063319577.2119780     
   6889806355.7959375     
   6707680029.3879347     
   6968149437.3015223     
   6814608885.6058016     
   6656288558.8448267     
   6492898773.2590561     
   6324395261.0209799     
   6558146696.8126402     
   6407791366.2909498     
   6255713861.5989637     
   6101880622.6880007     
   5946323115.5904722     
   6161721843.6093693     
   6012935906.5115671     
   5865473677.4124966     
   5719375028.8423223     
   5574697706.2161789     
   5786720638.8615370     
   5636503616.7135429     
   5490563059.3085861     
   5348813206.6166639     
   5211304482.9680605     
   6707680029.3879347     
   6511117700.1989717     
   6318816720.4283390     
   6130665811.6599455     
   5946703211.4146929     
   6324395261.0209799     
   6137330643.2377214     
   5953091630.4541855     
   5771660240.1621733     
   5593093845.6971369     
   5946323115.5904722     
   5770821769.2876034     
   5597045221.5801163     
   5425022035.2452173     
   5254822500.0697365     
   5574697706.2161789     
   5413427826.8998156     
   5253148535.2612371     
   5093900358.0098553     
   4935784517.6283369     
   5211304482.9680605     
   5067575263.5764046     
   4924526581.7738047     
   4782191136.5146770     
   4640748116.4089584     
   5946703211.4146929     
   5782660460.8925886     
   5616624979.6267672     
   5448534052.9218512     
   5278383911.2976694     
   5593093845.6971369     
   5436496321.7938108     
   5278894119.3501196     
   5120295118.9144983     
   4960751844.8319254     
   5254822500.0697365     
   5106119828.5224943     
   4957480948.5654564     
   4808973264.9635735     
   4660700774.3832312     
   4935784517.6283369     
   4795255106.3092308     
   4655917337.2311382     
   4517880521.5572672     
   4381289235.7995100     
   4640748116.4089584     
   4508432519.0395823     
   4378467760.8828487     
   4250979903.4378433     
   4126136499.1851435     
   5278383911.2976694     
   5070222297.7111654     
   4863322060.2821016     
   4657717329.2994642     
   4453509073.4945459     
   4960751844.8319254     
   4764818843.2967215     
   4570246329.6349363     
   4377107565.6205730     
   4185544554.9857774     
   4660700774.3832312     
   4477575526.8665628     
   4296027924.2792130     
   4116187631.1040068     
   3938261007.3042431     
   4381289235.7995100     
   4211811882.4991126     
   4044276883.3594503     
   3878889967.7336025     
   3715947731.3472500     
   4126136499.1851435     
   3971428161.5939589     
   3819200782.8916254     
   3669755023.6389976     
   3523501544.1972966     
   4453509073.4945459     
   4311519107.1060867     
   4169559085.0502334     
   4027617041.9922810     
   3885708535.9996200     
   4185544554.9857774     
   4051503863.2511258     
   3917902120.2255602     
   3784766948.5129905     
   3652158393.0182519     
   3938261007.3042431     
   3812390666.2406788     
   3687427363.8862906     
   3563443450.9436564     
   3440548620.8545952     
   3715947731.3472500     
   3598581877.6449418     
   3482650475.1191897     
   3368273928.3570838     
   3255614098.4010410     
   3523501544.1972966     
   3415079981.4390135     
   3308671353.3749495     
   3204443537.1437259     
   3102607939.9729910     
   3885708535.9996200     
   3646166261.6530795     
   3422785845.5488915     
   3221653304.9450431     
   3052774918.6879025     
   3652158393.0182519     
   3416584229.2225032     
   3192031747.1783996     
   2982011585.6139522     
   2792340107.4592047     
   3440548620.8545952     
   3209765934.0875640     
   2985722167.9150333     
   2769962022.6208959     
   2565002737.3580456     
   3255614098.4010410     
   3033131940.3285418     
   2814285498.5532227     
   2599630824.9160166     
   2390010014.8362517     
   3102607939.9729910     
   2895240229.0318975     
   2690253695.2750831     
   2488694232.5998240     
   2292295883.5633526     
   5657798372.0924978     
   5890904671.5312510     
   6116385856.5810575     
   6331790518.6296911     
   6536898955.5208683     
   5151367099.2755289     
   5311306379.9999037     
   5467884597.5597744     
   5618212048.5791025     
   5760826641.4877062     
   4643359351.4279728     
   4755515616.1423969     
   4868796307.3964806     
   4980568850.1388979     
   5088909776.3944616     
   4134039438.9412208     
   4224370105.9926548     
   4320616496.7181406     
   4421119741.7419376     
   4524423643.7750902     
   3624925825.6226187     
   3719693609.6469059     
   3825703895.6396074     
   3942886817.8533063     
   4071144070.0369215     
   6536898955.5208683     
   6328797426.0146914     
   6142857601.4667320     
   5965168256.6194172     
   5786720638.8615370     
   5760826641.4877062     
   5652254352.9427452     
   5559665476.2463045     
   5473997033.6188173     
   5389707409.9240160     
   5088909776.3944616     
   5054164272.2638397     
   5029926427.4741249     
   5010989165.1444578     
   4994150037.4266500     
   4524423643.7750902     
   4539123247.4715481     
   4558504492.2213907     
   4580087869.4449787     
   4602149307.5258341     
   4071144070.0369215     
   4112461589.9792681     
   4151158547.6416502     
   4186339886.7211661     
   4217275246.9244962     
   5786720638.8615370     
   5636503616.7135429     
   5490563059.3085861     
   5348813206.6166639     
   5211304482.9680605     
   5389707409.9240160     
   5249113333.6438150     
   5111795244.2530079     
   4977795275.1083784     
   4847209119.7192135     
   4994150037.4266500     
   4867489754.6447639     
   4744040221.2087145     
   4623769409.8715677     
   4506718090.8047543     
   4602149307.5258341     
   4494296803.3447342     
   4390641637.1412668     
   4290864881.2241192     
   4194873934.5391912     
   4217275246.9244962     
   4133493938.4678168     
   4056127883.1956334     
   3984321016.2682323     
   3917771723.3329415     
   5211304482.9680605     
   5067575263.5764046     
   4924526581.7738047     
   4782191136.5146770     
   4640748116.4089584     
   4847209119.7192135     
   4720455569.5098505     
   4595361131.2271290     
   4472055150.8598423     
   4350785586.1178942     
   4506718090.8047543     
   4395791510.3537197     
   4287452352.9585824     
   4181894859.5987716     
   4079403200.4470983     
   4194873934.5391912     
   4098468057.4207201     
   4005468436.5152135     
   3916100345.9512682     
   3830652248.3794489     
   3917771723.3329415     
   3834365600.2396522     
   3755005850.4963560     
   3679915754.2402225     
   3609361011.1027002     
   4640748116.4089584     
   4508432519.0395823     
   4378467760.8828487     
   4250979903.4378433     
   4126136499.1851435     
   4350785586.1178942     
   4229067010.3050017     
   4110021054.8087783     
   3993828253.5919633     
   3880718169.4879918     
   4079403200.4470983     
   3969642002.0151320     
   3863065797.4903727     
   3759911008.1974149     
   3660473642.5167093     
   3830652248.3794489     
   3734263897.9743018     
   3641775632.7841148     
   3553475253.1141944     
   3469722347.1831937     
   3609361011.1027002     
   3527718887.4846530     
   3450892036.8046107     
   3379204592.0744748     
   3313064449.1595087     
   4126136499.1851435     
   3971428161.5939589     
   3819200782.8916254     
   3669755023.6389976     
   3523501544.1972966     
   3880718169.4879918     
   3740917590.7703729     
   3604480518.6405883     
   3471790030.2828975     
   3343343126.4340491     
   3660473642.5167093     
   3535973109.6267214     
   3415764836.5330300     
   3300297246.7858291     
   3190128420.2702165     
   3469722347.1831937     
   3360794565.8780580     
   3257088249.9359059     
   3159088289.1730070     
   3067375600.5504928     
   3313064449.1595087     
   3219745482.6781921     
   3132514833.9066138     
   3051855137.9271588     
   2978323436.3256273     
   3523501544.1972966     
   3415079981.4390135     
   3308671353.3749495     
   3204443537.1437259     
   3102607939.9729910     
   3343343126.4340491     
   3245185521.8945003     
   3149652790.7750540     
   3056968572.2701187     
   2967406392.8375640     
   3190128420.2702165     
   3103208644.7572193     
   3019615606.4540315     
   2939621605.6750884     
   2863551050.0795822     
   3067375600.5504928     
   2992523387.5050735     
   2921753054.5669732     
   2855368284.8235631     
   2793721650.3343797     
   2978323436.3256273     
   2916083698.6296329     
   2858683552.8186817     
   2806432430.1304474     
   2759680532.0102105     
   3102607939.9729910     
   2895240229.0318975     
   2690253695.2750831     
   2488694232.5998240     
   2292295883.5633526     
   2967406392.8375640     
   2783441252.5639601     
   2604846633.9761901     
   2433097036.0395288     
   2270309590.0939851     
   2863551050.0795822     
   2704811250.1195221     
   2554440955.6181045     
   2414156802.7685132     
   2286171622.5509362     
   2793721650.3343797     
   2660712620.7125025     
   2538695837.1914053     
   2429370122.4327874     
   2334730523.9006963     
   2759680532.0102105     
   2651309198.0917721     
   2555901672.2920156     
   2474918373.3092065     
   2409943617.2310023     
   3624925825.6226187     
   3719693609.6469059     
   3825703895.6396074     
   3942886817.8533063     
   4071144070.0369215     
   3137951867.0480890     
   3255522304.2536478     
   3382504005.5328779     
   3518423857.5114050     
   3662820642.3675742     
   2694744492.6248026     
   2830521843.7454009     
   2973609164.7778182     
   3122921992.9389281     
   3277547566.7948866     
   2298795954.6383042     
   2449486439.5610032     
   2604901430.6034293     
   2763117818.8287072     
   2922705386.2582016     
   1955322141.6887515     
   2119374565.8030736     
   2284790636.6896639     
   2448611297.5110297     
   2608879255.9859476     
   4071144070.0369215     
   4112461589.9792681     
   4151158547.6416502     
   4186339886.7211661     
   4217275246.9244962     
   3662820642.3675742     
   3702122181.4019647     
   3740059412.9690280     
   3775735508.2995582     
   3808402330.1110725     
   3277547566.7948866     
   3320680375.7191577     
   3364057436.9052186     
   3406856276.0240288     
   3448399087.7111807     
   2922705386.2582016     
   2975523270.6389990     
   3030549982.8427892     
   3087102289.7930317     
   3144646568.9920616     
   2608879255.9859476     
   2676706173.1013103     
   2749009317.2160692     
   2825278211.4241595     
   2905158852.0402455     
   4217275246.9244962     
   4133493938.4678168     
   4056127883.1956334     
   3984321016.2682323     
   3917771723.3329415     
   3808402330.1110725     
   3755870544.2677507     
   3709242848.8691320     
   3668041045.0236945     
   3632164653.7939544     
   3448399087.7111807     
   3422546632.5810027     
   3401709606.9775143     
   3385655799.9910221     
   3374366661.4925442     
   3144646568.9920616     
   3141181180.9488325     
   3141252320.4664168     
   3144757980.6450605     
   3151682869.6319170     
   2905158852.0402455     
   2920133905.3063293     
   2936392203.1427279     
   2953878100.9203744     
   2972551841.2725697     
   3917771723.3329415     
   3834365600.2396522     
   3755005850.4963560     
   3679915754.2402225     
   3609361011.1027002     
   3632164653.7939544     
   3560494977.7293887     
   3493457643.7402906     
   3431287951.5609164     
   3374266124.4918470     
   3374366661.4925442     
   3315244705.0949335     
   3261492012.9681234     
   3213338639.8057446     
   3171062706.0155940     
   3151682869.6319170     
   3105673238.1720934     
   3065906029.6307397     
   3032579587.4150062     
   3005944337.1918249     
   2972551841.2725697     
   2939728424.9294667     
   2914124387.0627375     
   2895872984.8824706     
   2885165923.2577467     
   3609361011.1027002     
   3527718887.4846530     
   3450892036.8046107     
   3379204592.0744748     
   3313064449.1595087     
   3374266124.4918470     
   3307137129.7561746     
   3245344573.4415379     
   3189193215.1641808     
   3139051121.4884481     
   3171062706.0155940     
   3117448058.5474873     
   3069586520.5409966     
   3027741584.1611528     
   2992219293.8312650     
   3005944337.1918249     
   2964518493.4563785     
   2929115025.8708735     
   2899939046.2111344     
   2877219875.0847511     
   2885165923.2577467     
   2854194196.2051935     
   2829330937.3485031     
   2810715324.6127129     
   2798497209.0448551     
   3313064449.1595087     
   3219745482.6781921     
   3132514833.9066138     
   3051855137.9271588     
   2978323436.3256273     
   3139051121.4884481     
   3059381338.1201296     
   2986617734.0796180     
   2921230957.9949393     
   2863753433.3263040     
   2992219293.8312650     
   2926184738.4497514     
   2867871757.5552673     
   2817707013.9693055     
   2776162765.2546115     
   2877219875.0847511     
   2824290413.8788939     
   2779856192.2354288     
   2744269048.0570850     
   2717910174.7429819     
   2798497209.0448551     
   2757478463.2663822     
   2725658140.1289444     
   2703292096.7412815     
   2690652902.4915538     
   2978323436.3256273     
   2916083698.6296329     
   2858683552.8186817     
   2806432430.1304474     
   2759680532.0102105     
   2863753433.3263040     
   2812666921.8168001     
   2766650154.3448701     
   2725962585.7609901     
   2690889346.9836493     
   2776162765.2546115     
   2735224325.2908959     
   2699464539.9269958     
   2669084507.3740940     
   2644298799.7649050     
   2717910174.7429819     
   2685862116.6766582     
   2658972898.5727463     
   2637384109.0074978     
   2621242405.5466452     
   2690652902.4915538     
   2666003943.7069874     
   2646370830.5325336     
   2631841685.2245193     
   2622505063.8581691     
   2759680532.0102105     
   2651309198.0917721     
   2555901672.2920156     
   2474918373.3092065     
   2409943617.2310023     
   2690889346.9836493     
   2601129731.9281454     
   2524397592.3267298     
   2461858499.0705786     
   2414724707.8418956     
   2644298799.7649050     
   2571671136.0620246     
   2511926503.1991177     
   2465938721.6930013     
   2434580184.2728124     
   2621242405.5466452     
   2563892354.3024306     
   2519101557.3556061     
   2487479495.7251868     
   2469612048.4524183     
   2622505063.8581691     
   2578246566.1252294     
   2546096782.6688042     
   2526445939.1231513     
   2519657330.4370761     
   1955322141.6887515     
   2119374565.8030736     
   2284790636.6896639     
   2448611297.5110297     
   2608879255.9859476     
   1653836738.4637027     
   1820299344.3071771     
   1988462428.6791313     
   2155630248.7030830     
   2320045433.4647689     
   1393687315.1076491     
   1571087264.2006776     
   1749490816.3935733     
   1926894561.5675881     
   2102048524.9420514     
   1207178385.6212425     
   1399151991.0139701     
   1590696371.9674456     
   1781034829.7914753     
   1969708940.0845604     
   1136965588.7727909     
   1335323753.3285732     
   1533977866.1710927     
   1732927927.3003480     
   1932173936.7163403     
   2608879255.9859476     
   2676706173.1013103     
   2749009317.2160692     
   2825278211.4241595     
   2905158852.0402455     
   2320045433.4647689     
   2406992132.1607323     
   2496368035.7377014     
   2587782998.3171234     
   2680961436.3414068     
   2102048524.9420514     
   2205729541.8102393     
   2309329529.4769077     
   2412612237.2393279     
   2515410942.8235888     
   1969708940.0845604     
   2086834483.2965164     
   2201139693.9156184     
   2312549539.4717479     
   2421011898.8843737     
   1932173936.7163403     
   2058837699.4757469     
   2180133206.4164557     
   2296060457.5384674     
   2406619452.8417816     
   2905158852.0402455     
   2920133905.3063293     
   2936392203.1427279     
   2953878100.9203744     
   2972551841.2725697     
   2680961436.3414068     
   2702885742.7873278     
   2727168839.6229143     
   2753793982.7674742     
   2782754003.8095536     
   2515410942.8235888     
   2544209872.5312362     
   2576469957.6143594     
   2612193746.4895759     
   2651387877.0361910     
   2421011898.8843737     
   2455101948.9363642     
   2493754507.8381214     
   2536973382.2460823     
   2584763217.2594147     
   2406619452.8417816     
   2442814343.9489522     
   2484662770.1583729     
   2532164731.4700427     
   2585320227.8839617     
   2972551841.2725697     
   2939728424.9294667     
   2914124387.0627375     
   2895872984.8824706     
   2885165923.2577467     
   2782754003.8095536     
   2764792836.8743348     
   2754066657.0205574     
   2750665251.5446210     
   2754709497.9467001     
   2651387877.0361910     
   2645639859.4779267     
   2646887154.7019029     
   2655172628.3210888     
   2670551624.8983846     
   2584763217.2594147     
   2587942226.1111751     
   2597626644.0712891     
   2613826777.2633882     
   2636555695.6868062     
   2585320227.8839617     
   2593792469.2277713     
   2608077556.8072143     
   2628175490.6222873     
   2654086270.6729927     
   2885165923.2577467     
   2854194196.2051935     
   2829330937.3485031     
   2810715324.6127129     
   2798497209.0448551     
   2754709497.9467001     
   2733057170.1319222     
   2718020655.4719386     
   2709694100.0319467     
   2708176741.6341090     
   2670551624.8983846     
   2656535227.2954397     
   2649559638.3955655     
   2649672794.8039889     
   2656924272.3500628     
   2636555695.6868062     
   2627820711.6407895     
   2626467265.2808995     
   2632508418.7662621     
   2645957485.2386212     
   2654086270.6729927     
   2647774467.2010188     
   2649113353.0744886     
   2658102928.2934012     
   2674743192.8577585     
   2798497209.0448551     
   2757478463.2663822     
   2725658140.1289444     
   2703292096.7412815     
   2690652902.4915538     
   2708176741.6341090     
   2679439879.8119764     
   2659985755.6793666     
   2649966748.2744684     
   2649540746.5659103     
   2656924272.3500628     
   2637810934.1212745     
   2627932519.2095561     
   2627357897.9596615     
   2636156820.3755779     
   2645957485.2386212     
   2633384928.4079819     
   2629908206.0054469     
   2635544193.4477744     
   2650309706.3108101     
   2674743192.8577585     
   2665437097.6544490     
   2665040255.4669046     
   2673552666.2951288     
   2690974330.1391215     
   2690652902.4915538     
   2666003943.7069874     
   2646370830.5325336     
   2631841685.2245193     
   2622505063.8581691     
   2649540746.5659103     
   2632388335.7862792     
   2621101964.1186371     
   2615744661.7947493     
   2616378400.0850339     
   2636156820.3755779     
   2625373553.1034927     
   2621281163.6472611     
   2623913457.3157187     
   2633302982.1114140     
   2650309706.3108101     
   2644208437.1899633     
   2645613487.7934909     
   2654534645.6760950     
   2670981164.7609138     
   2690974330.1391215     
   2687419297.4760756     
   2692202678.5228658     
   2705324473.2794847     
   2726784681.7459431     
   2622505063.8581691     
   2578246566.1252294     
   2546096782.6688042     
   2526445939.1231513     
   2519657330.4370761     
   2616378400.0850339     
   2588709822.4928303     
   2574103892.8323050     
   2572792308.1706729     
   2584976786.8772058     
   2633302982.1114140     
   2619514501.6699963     
   2619637525.1659608     
   2633776576.2776699     
   2662016675.3892140     
   2670981164.7609138     
   2667752523.3374772     
   2679338619.1494379     
   2705765419.9627538     
   2747052662.2525258     
   2726784681.7459431     
   2730431215.9233289     
   2750003918.2681522     
   2785502788.7804084     
   2836927827.4600754     
   1136965588.7727909     
   1335323753.3285732     
   1533977866.1710927     
   1732927927.3003480     
   1932173936.7163403     
   1207178385.6980255     
   1399151991.0887072     
   1590696372.0425656     
   1781034829.8691282     
   1969708940.1666510     
   1393687315.2294960     
   1571087264.3225884     
   1749490816.5189049     
   1926894561.6997499     
   2102048525.0843091     
   1653836738.5986671     
   1820299344.4442887     
   1988462428.8223658     
   2155630248.8567781     
   2320045433.6332698     
   1955322141.8139293     
   2119374565.9291854     
   2284790636.8214750     
   2448611297.6537814     
   2608879256.1449337     
   1932173936.7163403     
   2058837699.4757469     
   2180133206.4164557     
   2296060457.5384674     
   2406619452.8417816     
   1969708940.1666510     
   2086834483.4051347     
   2201139694.0539198     
   2312549539.6430469     
   2421011899.0920477     
   2102048525.0843091     
   2205729541.9993320     
   2309329529.7190094     
   2412612237.5409007     
   2515410943.1912394     
   2320045433.6332698     
   2406992132.3869677     
   2496368036.0308061     
   2587782998.6866689     
   2680961436.7972455     
   2608879256.1449337     
   2676706173.3183084     
   2749009317.5029559     
   2825278211.7935004     
   2905158852.5051699     
   2406619452.8417816     
   2442814343.9489522     
   2484662770.1583729     
   2532164731.4700427     
   2585320227.8839617     
   2421011899.0920477     
   2455101949.1582737     
   2493754508.0811558     
   2536973382.5169334     
   2584763217.5647378     
   2515410943.1912394     
   2544209872.9236889     
   2576469958.0459242     
   2612193746.9743662     
   2651387877.5883765     
   2680961436.7972455     
   2702885743.2677183     
   2727168840.1497407     
   2753793983.3626380     
   2782754004.4952679     
   2905158852.5051699     
   2920133905.7794986     
   2936392203.6531296     
   2953878101.4973297     
   2972551841.9460235     
   2585320227.8839617     
   2593792469.2277713     
   2608077556.8072143     
   2628175490.6222873     
   2654086270.6729927     
   2584763217.5647378     
   2587942226.3533649     
   2597626644.2446132     
   2613826777.3627958     
   2636555695.7082939     
   2651387877.5883765     
   2645639859.9235668     
   2646887155.0306625     
   2655172628.5238018     
   2670551624.9676571     
   2782754004.4952679     
   2764792837.4341192     
   2754066657.4409204     
   2750665251.8134131     
   2754709498.0538478     
   2972551841.9460235     
   2939728425.4810228     
   2914124387.4775467     
   2895872985.1469822     
   2885165923.3603816     
   2654086270.6729927     
   2647774467.2010188     
   2649113353.0744886     
   2658102928.2934012     
   2674743192.8577585     
   2636555695.7082939     
   2627820711.9487715     
   2626467265.8820601     
   2632508419.6665659     
   2645957486.4429379     
   2670551624.9676571     
   2656535227.9134893     
   2649559639.5756173     
   2649672796.5581226     
   2656924274.6884680     
   2754709498.0538478     
   2733057171.0193458     
   2718020657.1597552     
   2709694102.5391970     
   2708176744.9776244     
   2885165923.3603816     
   2854194197.2865996     
   2829330939.4356875     
   2810715327.7322025     
   2798497213.2212596     
   2674743192.8577585     
   2665437097.6544490     
   2665040255.4669046     
   2673552666.2951288     
   2690974330.1391215     
   2645957486.4429379     
   2633384929.5691319     
   2629908207.1568260     
   2635544194.6225061     
   2650309707.5422144     
   2656924274.6884680     
   2637810936.3564076     
   2627932521.4082637     
   2627357900.1886387     
   2636156822.7023249     
   2708176744.9776244     
   2679439882.9566569     
   2659985758.7258058     
   2649966751.3241129     
   2649540749.7225246     
   2798497213.2212596     
   2757478467.0955338     
   2725658143.7449694     
   2703292100.2814302     
   2690652906.0983138     
   2690974330.1391215     
   2687419297.4760756     
   2692202678.5228658     
   2705324473.2794847     
   2726784681.7459431     
   2650309707.5422144     
   2644208437.7198358     
   2645613487.6270990     
   2654534644.8237500     
   2670981163.2382040     
   2636156822.7023249     
   2625373554.1894884     
   2621281163.5088892     
   2623913455.9777913     
   2633302979.6076121     
   2649540749.7225246     
   2632388337.3270297     
   2621101964.0767674     
   2615744660.2136192     
   2616378397.0187907     
   2690652906.0983138     
   2666003945.4749060     
   2646370830.5184503     
   2631841683.4955282     
   2622505060.4924927     
   2726784681.7459431     
   2730431215.9233289     
   2750003918.2681522     
   2785502788.7804084     
   2836927827.4600754     
   2670981163.2382040     
   2667752517.6547651     
   2679338609.1485062     
   2705765405.5176039     
   2747052643.2702031     
   2633302979.6076121     
   2619514491.0140834     
   2619637505.9860010     
   2633776548.2680573     
   2662016638.3166585     
   2616378397.0187907     
   2588709807.6290350     
   2574103865.4957132     
   2572792267.7824888     
   2584976732.9733582     
   2622505060.4924927     
   2578246547.8597765     
   2546096748.4236908     
   2526445887.9279037     
   2519657261.4692726     
   1955322141.8139293     
   2119374565.9291854     
   2284790636.8214750     
   2448611297.6537814     
   2608879256.1449337     
   2298795954.7403116     
   2449486439.6564884     
   2604901430.6951365     
   2763117818.9197540     
   2922705386.3518329     
   2694744492.6974759     
   2830521843.8050847     
   2973609164.8255186     
   3122921992.9759989     
   3277547566.8229117     
   3137951867.0880442     
   3255522304.2759314     
   3382504005.5369539     
   3518423857.4971199     
   3662820642.3351011     
   3624925825.6278777     
   3719693609.6320457     
   3825703895.6026616     
   3942886817.7927589     
   4071144069.9516845     
   2608879256.1449337     
   2676706173.3183084     
   2749009317.5029559     
   2825278211.7935004     
   2905158852.5051699     
   2922705386.3518329     
   2975523270.7668023     
   3030549983.0144281     
   3087102290.0186558     
   3144646569.2822924     
   3277547566.8229117     
   3320680375.7559824     
   3364057436.9577966     
   3406856276.0994115     
   3448399087.8165731     
   3662820642.3351011     
   3702122181.3534741     
   3740059412.9086609     
   3775735508.2310987     
   3808402330.0380440     
   4071144069.9516845     
   4112461589.8549542     
   4151158547.4798217     
   4186339886.5226235     
   4217275246.6894078     
   2905158852.5051699     
   2920133905.7794986     
   2936392203.6531296     
   2953878101.4973297     
   2972551841.9460235     
   3144646569.2822924     
   3141181181.1876230     
   3141252320.6754899     
   3144757980.8467631     
   3151682869.8496146     
   3448399087.8165731     
   3422546632.5893211     
   3401709606.9055681     
   3385655799.8565202     
   3374366661.3141861     
   3808402330.0380440     
   3755870544.0683126     
   3709242848.5571542     
   3668041044.6143346     
   3632164653.3030930     
   4217275246.6894078     
   4133493938.0939097     
   4056127882.6952977     
   3984321015.6558208     
   3917771722.6232786     
   2972551841.9460235     
   2939728425.4810228     
   2914124387.4775467     
   2895872985.1469822     
   2885165923.3603816     
   3151682869.8496146     
   3105673238.2226334     
   3065906029.4953265     
   3032579587.0747094     
   3005944336.6274343     
   3374366661.3141861     
   3315244704.7693214     
   3261492012.4767084     
   3213338639.1285553     
   3171062705.1305752     
   3632164653.3030930     
   3560494977.1671576     
   3493457643.0926509     
   3431287950.8115315     
   3374266123.6211967     
   3917771722.6232786     
   3834365599.5806060     
   3755005849.8822446     
   3679915753.6626515     
   3609361010.5498023     
   2885165923.3603816     
   2854194197.2865996     
   2829330939.4356875     
   2810715327.7322025     
   2798497213.2212596     
   3005944336.6274343     
   2964518493.8797727     
   2929115027.3225327     
   2899939048.7340121     
   2877219878.7227616     
   3171062705.1305752     
   3117448058.5643225     
   3069586521.5003090     
   3027741586.1091595     
   2992219296.8190327     
   3374266123.6211967     
   3307137129.6267581     
   3245344574.0814862     
   3189193216.6094928     
   3139051123.7836471     
   3609361010.5498023     
   3527718887.4580188     
   3450892037.3093019     
   3379204593.1240358     
   3313064450.7784457     
   2798497213.2212596     
   2757478467.0955338     
   2725658143.7449694     
   2703292100.2814302     
   2690652906.0983138     
   2877219878.7227616     
   2824290416.9268837     
   2779856194.8080873     
   2744269050.2733407     
   2717910176.7278891     
   2992219296.8190327     
   2926184740.6453252     
   2867871759.0602999     
   2817707014.8901391     
   2776162765.7040362     
   3139051123.7836471     
   3059381339.4634447     
   2986617734.5659633     
   2921230957.7237759     
   2863753432.4033260     
   3313064450.7784457     
   3219745483.2270079     
   3132514833.4798102     
   3051855136.6232438     
   2978323434.2487893     
   2690652906.0983138     
   2666003945.4749060     
   2646370830.5184503     
   2631841683.4955282     
   2622505060.4924927     
   2717910176.7278891     
   2685862116.4737759     
   2658972896.2179737     
   2637384104.5434804     
   2621242399.0242953     
   2776162765.7040362     
   2735224323.4095492     
   2699464535.7405677     
   2669084500.9087977     
   2644298791.0489521     
   2863753432.4033260     
   2812666918.6056151     
   2766650148.8743529     
   2725962578.0524106     
   2690889337.0512528     
   2978323434.2487893     
   2916083694.4631491     
   2858683546.6097593     
   2806432421.9100227     
   2759680521.7916040     
   2622505060.4924927     
   2578246547.8597765     
   2546096748.4236908     
   2526445887.9279037     
   2519657261.4692726     
   2621242399.0242953     
   2563892331.1339803     
   2519101516.3461962     
   2487479435.7152448     
   2469611968.3553791     
   2644298791.0489521     
   2571671111.5200686     
   2511926461.6402893     
   2465938661.8620062     
   2434580104.8874536     
   2690889337.0512528     
   2601129709.2551761     
   2524397555.9295516     
   2461858447.7905359     
   2414724640.3739758     
   2759680521.7916040     
   2651309180.0701170     
   2555901645.9705906     
   2474918337.9246273     
   2409943571.7575798     
   3624925825.6278777     
   3719693609.6320457     
   3825703895.6026616     
   3942886817.7927589     
   4071144069.9516845     
   4134039438.9144268     
   4224370105.9438496     
   4320616496.6443892     
   4421119741.6407566     
   4524423643.6443939     
   4643359351.3753901     
   4755515616.0679531     
   4868796307.2967644     
   4980568850.0110855     
   5088909776.2362909     
   5151367099.2028885     
   5311306379.9075899     
   5467884597.4442863     
   5618212048.4378033     
   5760826641.3188639     
   5657798372.0051966     
   5890904671.4284525     
   6116385856.4594727     
   6331790518.4872627     
   6536898955.3568707     
   4071144069.9516845     
   4112461589.8549542     
   4151158547.4798217     
   4186339886.5226235     
   4217275246.6894078     
   4524423643.6443939     
   4539123247.2826395     
   4558504491.9719610     
   4580087869.1327944     
   4602149307.1492319     
   5088909776.2362909     
   5054164272.0411501     
   5029926427.1819897     
   5010989164.7781963     
   4994150036.9824286     
   5760826641.3188639     
   5652254352.7155647     
   5559665475.9546070     
   5473997033.2564182     
   5389707409.4851437     
   6536898955.3568707     
   6328797425.8103399     
   6142857601.2160692     
   5965168256.3161545     
   5786720638.4991083     
   4217275246.6894078     
   4133493938.0939097     
   4056127882.6952977     
   3984321015.6558208     
   3917771722.6232786     
   4602149307.1492319     
   4494296802.8300829     
   4390641636.4977198     
   4290864880.4620070     
   4194873933.6690588     
   4994150036.9824286     
   4867489754.0751553     
   4744040220.5212002     
   4623769409.0742216     
   4506718089.9058762     
   5389707409.4851437     
   5249113333.1036911     
   5111795243.6187944     
   4977795274.3873091     
   4847209118.9189501     
   5786720638.4991083     
   5636503616.2847300     
   5490563058.8213644     
   5348813206.0784693     
   5211304482.3868971     
   3917771722.6232786     
   3834365599.5806060     
   3755005849.8822446     
   3679915753.6626515     
   3609361010.5498023     
   4194873933.6690588     
   4098468056.7151508     
   4005468435.9865499     
   3916100345.6097054     
   3830652248.2316918     
   4506718089.9058762     
   4395791509.6947002     
   4287452352.5649571     
   4181894859.4948111     
   4079403200.6542034     
   4847209118.9189501     
   4720455568.9844189     
   4595361131.0107698     
   4472055150.9864092     
   4350785586.6192646     
   5211304482.3868971     
   5067575263.2647724     
   4924526581.7706680     
   4782191136.8592520     
   4640748117.1392403     
   3609361010.5498023     
   3527718887.4580188     
   3450892037.3093019     
   3379204593.1240358     
   3313064450.7784457     
   3830652248.2316918     
   3734263898.1437273     
   3641775633.2550960     
   3553475253.8788629     
   3469722348.2431951     
   4079403200.6542034     
   3969642002.3797593     
   3863065797.9792008     
   3759911008.7836757     
   3660473643.1811261     
   4350785586.6192646     
   4229067010.8562865     
   4110021055.3625860     
   3993828254.1062241     
   3880718169.9260488     
   4640748117.1392403     
   4508432519.7640381     
   4378467761.5437288     
   4250979903.9817305     
   4126136499.5622249     
   3313064450.7784457     
   3219745483.2270079     
   3132514833.4798102     
   3051855136.6232438     
   2978323434.2487893     
   3469722348.2431951     
   3360794565.8118625     
   3257088248.8013964     
   3159088287.0293269     
   3067375597.4591331     
   3660473643.1811261     
   3535973109.1610842     
   3415764834.9653325     
   3300297244.1418772     
   3190128416.5737147     
   3880718169.9260488     
   3740917590.1389294     
   3604480516.9456449     
   3471790027.5249796     
   3343343122.6069293     
   4126136499.5622249     
   3971428161.0334225     
   3819200781.3857365     
   3669755021.1720490     
   3523501540.7429643     
   2978323434.2487893     
   2916083694.4631491     
   2858683546.6097593     
   2806432421.9100227     
   2759680521.7916040     
   3067375597.4591331     
   2992523382.4994822     
   2921753047.6752677     
   2855368276.0530849     
   2793721639.6693454     
   3190128416.5737147     
   3103208639.4012351     
   3019615599.4598103     
   2939621597.0393262     
   2863551039.7709537     
   3343343122.6069293     
   3245185516.7381597     
   3149652784.3161578     
   3056968564.5085564     
   2967406383.7419500     
   3523501540.7429643     
   3415079977.0538325     
   3308671348.1019912     
   3204443530.9988222     
   3102607932.9397407     
   2759680521.7916040     
   2651309180.0701170     
   2555901645.9705906     
   2474918337.9246273     
   2409943571.7575798     
   2793721639.6693454     
   2660712607.0823135     
   2538695820.5019636     
   2429370102.2560639     
   2334730499.3795934     
   2863551039.7709537     
   2704811240.4243197     
   2554440946.8487864     
   2414156794.9153838     
   2286171615.1077337     
   2967406383.7419500     
   2783441246.3528585     
   2604846631.2833071     
   2433097037.2487845     
   2270309595.1313443     
   3102607932.9397407     
   2895240225.8955412     
   2690253696.8277416     
   2488694239.4686809     
   2292295896.0151982     
   5657798372.0051966     
   5890904671.4284525     
   6116385856.4594727     
   6331790518.4872627     
   6536898955.3568707     
   6491702408.1541672     
   6586897949.4071608     
   6757426400.9104958     
   6961204965.6371784     
   7171574218.2628517     
   7982407342.2740602     
   7735004736.2292709     
   7669163944.1230097     
   7669561964.2920990     
   7666267732.8838844     
   10130362981.122004     
   9322060828.3306675     
   8826409521.0934124     
   8443534940.3636436     
   8035621628.5229836     
   12935657671.893448     
   11340778437.476561     
   10210329118.655930     
   9272901013.8363438     
   8304035027.2235899     
   6536898955.3568707     
   6328797425.8103399     
   6142857601.2160692     
   5965168256.3161545     
   5786720638.4991083     
   7171574218.2628517     
   6910923295.2098198     
   6658183305.9982634     
   6409497803.6425667     
   6161721843.4150877     
   7666267732.8838844     
   7380976075.8286381     
   7101118585.1753540     
   6826773424.4287453     
   6558146696.7674599     
   8035621628.5229836     
   7746612657.0542374     
   7473346259.6846981     
   7213854797.0376425     
   6968149437.3828497     
   8304035027.2235899     
   8020403143.6477146     
   7778989210.6493587     
   7569084637.7081776     
   7385723142.4581814     
   5786720638.4991083     
   5636503616.2847300     
   5490563058.8213644     
   5348813206.0784693     
   5211304482.3868971     
   6161721843.4150877     
   6012935906.3102837     
   5865473677.2087669     
   5719375028.6402655     
   5574697706.0193968     
   6558146696.7674599     
   6407791366.3136511     
   6255713861.6916914     
   6101880622.8526278     
   5946323115.8279133     
   6968149437.3828497     
   6814608885.8475027     
   6656288559.2472105     
   6492898773.8226147     
   6324395261.7456055     
   7385723142.4581814     
   7228390089.2819014     
   7063319577.9377947     
   6889806356.7919712     
   6707680030.6547585     
   5211304482.3868971     
   5067575263.2647724     
   4924526581.7706680     
   4782191136.8592520     
   4640748117.1392403     
   5574697706.0193968     
   5413427826.9248629     
   5253148535.5343676     
   5093900358.5584068     
   4935784518.4807453     
   5946323115.8279133     
   5770821769.6992264     
   5597045222.1802673     
   5425022036.0494089     
   5254822501.0951862     
   6324395261.7456055     
   6137330644.0955639     
   5953091631.4486551     
   5771660241.2974806     
   5593093846.9786110     
   6707680030.6547585     
   6511117701.5700979     
   6318816721.8969927     
   6130665813.2195578     
   5946703213.0583811     
   4640748117.1392403     
   4508432519.7640381     
   4378467761.5437288     
   4250979903.9817305     
   4126136499.5622249     
   4935784518.4807453     
   4795255107.0662107     
   4655917337.8529282     
   4517880522.0060797     
   4381289236.0398655     
   5254822501.0951862     
   5106119829.3494072     
   4957480949.1697073     
   4808973265.3216171     
   4660700774.4729567     
   5593093846.9786110     
   5436496322.7480240     
   5278894119.9664783     
   5120295119.1822243     
   4960751844.7409754     
   5946703213.0583811     
   5782660462.0457468     
   5616624980.2904530     
   5448534053.0964766     
   5278383910.9836512     
   4126136499.5622249     
   3971428161.0334225     
   3819200781.3857365     
   3669755021.1720490     
   3523501540.7429643     
   4381289236.0398655     
   4211811881.9904575     
   4044276882.1108379     
   3878889965.7495728     
   3715947728.6264982     
   4660700774.4729567     
   4477575526.3129673     
   4296027923.0987387     
   4116187629.3110518     
   3938261004.9110126     
   4960751844.7409754     
   4764818842.5872746     
   4570246328.3224134     
   4377107563.7198677     
   4185544552.5118880     
   5278383910.9836512     
   5070222296.7266521     
   4863322058.6345291     
   4657717326.9964228     
   4453509070.5448780     
   3523501540.7429643     
   3415079977.0538325     
   3308671348.1019912     
   3204443530.9988222     
   3102607932.9397407     
   3715947728.6264982     
   3598581874.5895882     
   3482650471.7631888     
   3368273924.7142687     
   3255614094.4598608     
   3938261004.9110126     
   3812390664.0978336     
   3687427362.0213528     
   3563443449.3708243     
   3440548619.5694098     
   4185544552.5118880     
   4051503861.6345935     
   3917902119.4894738     
   3784766948.6732669     
   3652158394.0783648     
   4453509070.5448780     
   4311519105.6715479     
   4169559085.1511221     
   4027617043.6470461     
   3885708539.2197294     
   3102607932.9397407     
   2895240225.8955412     
   2690253696.8277416     
   2488694239.4686809     
   2292295896.0151982     
   3255614094.4598608     
   3033131940.2724977     
   2814285503.1964703     
   2599630835.2443686     
   2390010032.0835748     
   3440548619.5694098     
   3209765936.0439439     
   2985722173.7053094     
   2769962033.0742154     
   2565002753.6643863     
   3652158394.0783648     
   3416584232.6016483     
   3192031753.1204433     
   2982011594.4781613     
   2792340119.7506533     
   3885708539.2197294     
   3646166266.2658100     
   3422785851.3805327     
   3221653311.6939721     
   3052774925.8014674     
 </DataArray>
 <DataArray  type="Float64" Name="strain" NumberOfComponents="3" format="ascii">
  0.20348394015854984        0.0000000000000000       0.12541435185311506     
  0.18665543106549715       -2.7329111216512565E-002   7.4357336092752968E-002
  0.16982692197244448       -4.4680693224306067E-002   3.5132409816627727E-002
  0.15299841287939178       -5.2054746023380533E-002   7.7395730247393421E-003
  0.13616990378633909       -4.9451269613735943E-002  -7.8211742829122216E-003
  0.15985580141697980        0.0000000000000000        9.6452252464531096E-002
  0.15317816135024395       -2.1847659405769167E-002   6.2693283598232688E-002
  0.14650052128350810       -3.6177991710485025E-002   3.7403963300331092E-002
  0.13982288121677225       -4.2990996914147567E-002   2.0584291570826301E-002
  0.13314524115003637       -4.2286675016756807E-002   1.2234268409718356E-002
  0.12645950187250729        0.0000000000000000        7.4201705940523416E-002
  0.12657028991624825       -1.6366207595025772E-002   5.5280581860622909E-002
  0.12668107795998920       -2.7675290196663968E-002   4.1466665433279204E-002
  0.12679186600373013       -3.3927247804914594E-002   3.2759956658492302E-002
  0.12690265404747109       -3.5122080419777643E-002   2.9160455536262189E-002
  0.10329504152513223        0.0000000000000000        5.8662712281091975E-002
  0.10683181676350996       -1.0884755784282376E-002   5.2119230879923678E-002
  0.11036859200188769       -1.9172588682842918E-002   4.7320516215472119E-002
  0.11390536724026543       -2.4863498695681632E-002   4.4266568287737368E-002
  0.11744214247864317       -2.7957485822798507E-002   4.2957387096719361E-002
   9.0362420374854674E-002   0.0000000000000000        4.9835271486236822E-002
   9.3962741892029175E-002  -5.4033039735389811E-003   5.3209230656134962E-002
   9.7563063409203662E-002  -1.0669887169021869E-002   5.4965515646909817E-002
  0.10116338492637816       -1.5799749586448659E-002   5.5104126458561470E-002
  0.10476370644355264       -2.0792891225819357E-002   5.3625063091089845E-002
  0.13616990378633909       -4.9451269613735943E-002  -7.8211742829122216E-003
  0.13295872630892103       -4.2911140556138198E-002  -3.3983262042690185E-003
  0.12974754883150291       -3.8475235411353177E-002  -3.8587459943739341E-004
  0.12653637135408485       -3.6143554179380928E-002   1.2161805315825773E-003
  0.12332519387666674       -3.5916096860221458E-002   1.4078391887907826E-003
  0.13314524115003637       -4.2286675016756807E-002   1.2234268409718356E-002
  0.12891100492924892       -3.8417242240105995E-002   1.2180865124868250E-002
  0.12467676870846151       -3.5734914805988616E-002   1.1491740827091024E-002
  0.12044253248767409       -3.4239692714404434E-002   1.0166895516386778E-002
  0.11620829626688664       -3.3931575965353636E-002   8.2063291927554488E-003
  0.12690265404747109       -3.5122080419777643E-002   2.9160455536262189E-002
  0.12242003454419884       -3.3923343924073868E-002   2.5547919458198148E-002
  0.11793741504092663       -3.2994594200623922E-002   2.2074337828091668E-002
  0.11345479553765443       -3.2335831249427939E-002   1.8739710645942632E-002
  0.10897217603438221       -3.1947055070485786E-002   1.5544037911751171E-002
  0.11744214247864317       -2.7957485822798507E-002   4.2957387096719361E-002
  0.11348581515377075       -2.9429445608041678E-002   3.6702836795720895E-002
  0.10952948782889835       -3.0254273595259326E-002   3.1361916403564435E-002
  0.10557316050402593       -3.0431969784451385E-002   2.6934625920250095E-002
  0.10161683317915352       -2.9962534175617950E-002   2.3420965345777995E-002
  0.10476370644355264       -2.0792891225819357E-002   5.3625063091089845E-002
  0.10210834675796462       -2.4935547292009516E-002   4.5645617137436256E-002
   9.9452987072376611E-002  -2.7513952989894706E-002   3.9354476553509481E-002
   9.6797627386788598E-002  -2.8528108319474894E-002   3.4751641339309164E-002
   9.4142267701200544E-002  -2.7978013280750100E-002   3.1837111494835688E-002
  0.12332519387666674       -3.5916096860221458E-002   1.4078391887907826E-003
  0.12040539269639883       -3.6424829404220135E-002   6.5489792481683573E-004
  0.11748559151613089       -3.6301717761722405E-002   8.8135332627900520E-005
  0.11456579033586299       -3.5546761932728113E-002  -2.9244858777589811E-004
  0.11164598915559504       -3.4159961917237358E-002  -4.8685383639457402E-004
  0.11620829626688664       -3.3931575965353636E-002   8.2063291927554488E-003
  0.11346198040602175       -3.4014406149079732E-002   7.8399997854131653E-003
  0.11071566454515690       -3.3692024855826258E-002   7.6344623450916513E-003
  0.10796934868429200       -3.2964432085593333E-002   7.5897168717911842E-003
  0.10522303282342715       -3.1831627838380949E-002   7.7057633655115976E-003
  0.10897217603438221       -3.1947055070485786E-002   1.5544037911751171E-002
  0.10637395878815618       -3.1603982893939279E-002   1.5337687651523445E-002
  0.10377574154193023       -3.1082331949930229E-002   1.5266742653552476E-002
  0.10117752429570426       -3.0382102238458560E-002   1.5331202917838360E-002
   9.8579307049478274E-002  -2.9503293759524263E-002   1.5531068444380972E-002
  0.10161683317915352       -2.9962534175617950E-002   2.3420965345777995E-002
   9.9141327842802232E-002  -2.9193559638798851E-002   2.3147961523147964E-002
   9.6665822506450977E-002  -2.8472639044034170E-002   2.2984976258010603E-002
   9.4190317170099694E-002  -2.7799772391323783E-002   2.2932009550365864E-002
   9.1714811833748439E-002  -2.7174959680667743E-002   2.2989061400213767E-002
   9.4142267701200544E-002  -2.7978013280750100E-002   3.1837111494835688E-002
   9.1764087569959824E-002  -2.6783136383658451E-002   3.1270821400286600E-002
   8.9385907438719076E-002  -2.5862946138138086E-002   3.0789163158465825E-002
   8.7007727307478341E-002  -2.5217442544189027E-002   3.0392136769373555E-002
   8.4629547176237607E-002  -2.4846625601811195E-002   3.0079742233009799E-002
  0.11164598915559504       -3.4159961917237358E-002  -4.8685383639457402E-004
  0.10850497848707291       -3.2613257991003786E-002  -1.7033596205084933E-004
  0.10536396781855076       -3.1378590429780653E-002   2.1437809183474932E-004
  0.10222295715002865       -3.0455959233568117E-002   6.6728832526179171E-004
   9.9081946481506478E-002  -2.9845364402366126E-002   1.1883947382305693E-003
  0.10522303282342715       -3.1831627838380949E-002   7.7057633655115976E-003
  0.10217748472828397       -3.0593006144434526E-002   7.5759717176507035E-003
   9.9131936633140821E-002  -2.9547961033999634E-002   7.5689090370060913E-003
   9.6086388537997683E-002  -2.8696492507076520E-002   7.6845753235778441E-003
   9.3040840442854489E-002  -2.8038600563665139E-002   7.9229705773661008E-003
   9.8579307049478274E-002  -2.9503293759524263E-002   1.5531068444380972E-002
   9.5683754315388794E-002  -2.8572754297865099E-002   1.5073427055814284E-002
   9.2788201581299357E-002  -2.7717331638218608E-002   1.4793047422138647E-002
   8.9892648847209891E-002  -2.6937025780584919E-002   1.4689929543354106E-002
   8.6997096113120426E-002  -2.6231836724963903E-002   1.4764073419460608E-002
   9.1714811833748439E-002  -2.7174959680667743E-002   2.2989061400213767E-002
   8.9023787248387345E-002  -2.6552502451295784E-002   2.2322030052440298E-002
   8.6332762663026266E-002  -2.5886702242437696E-002   2.1886793247232396E-002
   8.3641738077665242E-002  -2.5177559054093281E-002   2.1683350984590434E-002
   8.0950713492304149E-002  -2.4425072886262736E-002   2.1711703264513976E-002
   8.4629547176237607E-002  -2.4846625601811195E-002   3.0079742233009799E-002
   8.2197583527279627E-002  -2.4532250604726483E-002   2.9321780707528264E-002
   7.9765619878321689E-002  -2.4056072846656611E-002   2.8850146512287220E-002
   7.7333656229363668E-002  -2.3418092327601697E-002   2.8664839647286708E-002
   7.4901692580405771E-002  -2.2618309047561624E-002   2.8765860112526548E-002
   9.9081946481506478E-002  -2.9845364402366126E-002   1.1883947382305693E-003
   9.6280855728736681E-002  -2.9313253452918714E-002   8.5138496400033459E-004
   9.3479764975966995E-002  -2.8626073901969654E-002   6.7126226524644172E-004
   9.0678674223197225E-002  -2.7783825749519087E-002   6.4802664196896009E-004
   8.7877583470427512E-002  -2.6786508995566893E-002   7.8167809416762601E-004
   9.3040840442854489E-002  -2.8038600563665139E-002   7.9229705773661008E-003
   9.0394426380968285E-002  -2.7426294183654970E-002   7.7098491565664451E-003
   8.7748012319082108E-002  -2.6711582346936019E-002   7.6491940420573140E-003
   8.5101598257195862E-002  -2.5894465053508335E-002   7.7410052338391724E-003
   8.2455184195309672E-002  -2.4974942303371828E-002   7.9852827319118469E-003
   8.6997096113120426E-002  -2.6231836724963903E-002   1.4764073419460608E-002
   8.4500937972932344E-002  -2.5539334914391157E-002   1.4622177207298415E-002
   8.2004779832744248E-002  -2.4797090791902378E-002   1.4628326532241505E-002
   7.9508621692556153E-002  -2.4005104357497579E-002   1.4782521394290159E-002
   7.7012463552368071E-002  -2.3163375611176706E-002   1.5084761793444285E-002
   8.0950713492304149E-002  -2.4425072886262736E-002   2.1711703264513976E-002
   7.8600390504628789E-002  -2.3652375645127489E-002   2.1588369116196611E-002
   7.6250067516953388E-002  -2.2882599236868795E-002   2.1608659735799424E-002
   7.3899744529277986E-002  -2.2115743661486883E-002   2.1772575123321977E-002
   7.1549421541602681E-002  -2.1351808918981724E-002   2.2080115278764488E-002
   7.4901692580405771E-002  -2.2618309047561624E-002   2.8765860112526548E-002
   7.2692783976057690E-002  -2.1765416375863739E-002   2.8608424883261097E-002
   7.0483875371709595E-002  -2.0968107681835241E-002   2.8590193652730522E-002
   6.8274966767361528E-002  -2.0226382965476221E-002   2.8711166420934367E-002
   6.6066058163013419E-002  -1.9540242226786630E-002   2.8971343187872922E-002
   8.7877583470427512E-002  -2.6786508995566893E-002   7.8167809416762601E-004
   8.4406138005973408E-002  -2.5756746161495314E-002   6.0775006785401819E-004
   8.0934692541519304E-002  -2.4817159768685843E-002   6.3332227656759388E-004
   7.7463247077065228E-002  -2.3967749817138985E-002   8.5839472030768693E-004
   7.3991801612611097E-002  -2.3208516306854166E-002   1.2829673990747414E-003
   8.2455184195309672E-002  -2.4974942303371828E-002   7.9852827319118469E-003
   7.9185242809890949E-002  -2.4034814348780242E-002   7.7173514372526619E-003
   7.5915301424472253E-002  -2.3155881441986936E-002   7.6529280656375265E-003
   7.2645360039053572E-002  -2.2338143582992423E-002   7.7920126170661907E-003
   6.9375418653634835E-002  -2.1581600771796383E-002   8.1346050915387935E-003
   7.7012463552368071E-002  -2.3163375611176706E-002   1.5084761793444285E-002
   7.3948033934001844E-002  -2.2312882536065309E-002   1.4751808623903268E-002
   7.0883604315635548E-002  -2.1494603115288349E-002   1.4626371065423166E-002
   6.7819174697269308E-002  -2.0708537348846524E-002   1.4708449118004098E-002
   6.4754745078903053E-002  -1.9954685236738878E-002   1.4998042781646126E-002
   7.1549421541602681E-002  -2.1351808918981724E-002   2.2080115278764488E-002
   6.8694511378305914E-002  -2.0590950723350307E-002   2.1711121627805530E-002
   6.5839601215009230E-002  -1.9833324788589714E-002   2.1553651275924377E-002
   6.2984691051712505E-002  -1.9078931114700069E-002   2.1607704223121540E-002
   6.0129780888415786E-002  -1.8327769701681346E-002   2.1873280469396655E-002
   6.6066058163013419E-002  -1.9540242226786630E-002   2.8971343187872922E-002
   6.3424675142803366E-002  -1.8869018910635194E-002   2.8595290448959532E-002
   6.0783292122593230E-002  -1.8172046461890967E-002   2.8434768697141233E-002
   5.8141909102383163E-002  -1.7449324880553840E-002   2.8489777932418386E-002
   5.5500526082173041E-002  -1.6700854166623813E-002   2.8760318154790299E-002
   7.3991801612611097E-002  -2.3208516306854166E-002   1.2829673990747414E-003
   7.1628283209229759E-002  -2.2492972647185694E-002   1.0247804239300606E-003
   6.9264764805848256E-002  -2.1774632247486325E-002   9.2058913261827691E-004
   6.6901246402466835E-002  -2.1053495107757059E-002   9.7039352513972332E-004
   6.4537727999085415E-002  -2.0329561227997339E-002   1.1741936014939558E-003
   6.9375418653634835E-002  -2.1581600771796383E-002   8.1346050915387935E-003
   6.7162655310441688E-002  -2.0854763157087119E-002   7.8711775744217394E-003
   6.4949891967248541E-002  -2.0126140887552990E-002   7.7552644938481685E-003
   6.2737128624055422E-002  -1.9395733963193815E-002   7.7868658498180948E-003
   6.0524365280862191E-002  -1.8663542384009357E-002   7.9659816423316432E-003
   6.4754745078903053E-002  -1.9954685236738878E-002   1.4998042781646126E-002
   6.2686255548608821E-002  -1.9216553666989183E-002   1.4728362637351111E-002
   6.0617766018314576E-002  -1.8477649527619433E-002   1.4599715682310235E-002
   5.8549276488020323E-002  -1.7737972818630349E-002   1.4612101916523942E-002
   5.6480786957726098E-002  -1.6997523540020876E-002   1.4765521339991622E-002
   6.0129780888415786E-002  -1.8327769701681346E-002   2.1873280469396655E-002
   5.8199083923731111E-002  -1.7578344176890928E-002   2.1596335612718551E-002
   5.6268386959046360E-002  -1.6829158167685765E-002   2.1453942698005414E-002
   5.4337689994361671E-002  -1.6080211674066550E-002   2.1446101725257280E-002
   5.2406993029676933E-002  -1.5331504696032755E-002   2.1572812694473593E-002
   5.5500526082173041E-002  -1.6700854166623813E-002   2.8760318154790299E-002
   5.3701140435808481E-002  -1.5940134686792701E-002   2.8475096500523989E-002
   5.1901754789443921E-002  -1.5180666807752402E-002   2.8317945540932921E-002
   5.0102369143079334E-002  -1.4422450529503049E-002   2.8288865276017663E-002
   4.8302983496714802E-002  -1.3665485852044301E-002   2.8387855705777731E-002
   6.4537727999085415E-002  -2.0329561227997339E-002   1.1741936014939558E-003
   6.0298052886871956E-002  -2.0052111655498139E-002   1.7594994744576375E-003
   5.6058377774658441E-002  -2.0670427437548738E-002   2.4444453846695358E-003
   5.1818702662445010E-002  -2.2184508574150962E-002   3.2290313321301778E-003
   4.7579027550231467E-002  -2.4594355065302942E-002   4.1132573168396469E-003
   6.0524365280862191E-002  -1.8663542384009357E-002   7.9659816423316432E-003
   5.6402818835433466E-002  -1.8239689412141269E-002   7.7824469279142439E-003
   5.2281272390004768E-002  -1.8434298309731423E-002   7.7355295098177068E-003
   4.8159725944575973E-002  -1.9247369076779708E-002   7.8252293880422541E-003
   4.4038179499147345E-002  -2.0678901713286235E-002   8.0515465625874416E-003
   5.6480786957726098E-002  -1.6997523540020876E-002   1.4765521339991622E-002
   5.2514346438154585E-002  -1.6427267168784732E-002   1.4090449523285614E-002
   4.8547905918583115E-002  -1.6198169181914121E-002   1.3588972261973101E-002
   4.4581465399011692E-002  -1.6310229579408846E-002   1.3261089556053755E-002
   4.0615024879440076E-002  -1.6763448361269528E-002   1.3106801405527779E-002
   5.2406993029676933E-002  -1.5331504696032755E-002   2.1572812694473593E-002
   4.8632635695035162E-002  -1.4614844925428028E-002   2.0683507260571457E-002
   4.4858278360393328E-002  -1.3962040054096479E-002   2.0004773641135270E-002
   4.1083921025751563E-002  -1.3373090082038122E-002   1.9536611836164966E-002
   3.7309563691109715E-002  -1.2847995009252711E-002   1.9279021845660688E-002
   4.8302983496714802E-002  -1.3665485852044301E-002   2.8387855705777731E-002
   4.4757686606075209E-002  -1.2802422682071546E-002   2.7561620139771925E-002
   4.1212389715435588E-002  -1.1725910926278948E-002   2.6982933647304697E-002
   3.7667092824796009E-002  -1.0435950584667258E-002   2.6651796228375713E-002
   3.4121795934156318E-002  -8.9325416572358929E-003   2.6568207882985417E-002
   9.0362420374854674E-002   0.0000000000000000        4.9835271486236822E-002
   9.3962741892029175E-002  -5.4033039735389811E-003   5.3209230656134962E-002
   9.7563063409203662E-002  -1.0669887169021869E-002   5.4965515646909817E-002
  0.10116338492637816       -1.5799749586448659E-002   5.5104126458561470E-002
  0.10476370644355264       -2.0792891225819357E-002   5.3625063091089845E-002
   8.2424176177310321E-002   0.0000000000000000        4.4784983171017187E-002
   8.4635652938413547E-002  -4.5737194747541782E-003   4.8268239654482320E-002
   8.6847129699516773E-002  -9.0370533632722246E-003   5.0591480804928174E-002
   8.9058606460619985E-002  -1.3390001665554133E-002   5.1754706622354721E-002
   9.1270083221723211E-002  -1.7632564381599918E-002   5.1757917106761954E-002
   7.4242846688134884E-002   0.0000000000000000        4.0577446950492334E-002
   7.5523137539270799E-002  -3.7441349759693731E-003   4.4143665555704523E-002
   7.6803428390406686E-002  -7.4042195575225733E-003   4.7007527674001355E-002
   7.8083719241542601E-002  -1.0980253744659602E-002   4.9169033305382852E-002
   7.9364010092678502E-002  -1.4472237537380458E-002   5.0628182449848999E-002
   6.5818431907328376E-002   0.0000000000000000        3.7212662824662263E-002
   6.6625195694600917E-002  -2.9145504771845689E-003   4.0835508359801542E-002
   6.7431959481873444E-002  -5.7713857517729256E-003   4.4213656254129416E-002
   6.8238723269145971E-002  -8.5705058237650743E-003   4.7347106507645911E-002
   6.9045487056418511E-002  -1.1311910693161007E-002   5.0235859120351001E-002
   5.7150931834890784E-002   0.0000000000000000        3.4690630793526980E-002
   5.7941827404403894E-002  -2.0849659783997651E-003   3.8343768066773379E-002
   5.8732722973917004E-002  -4.1385519460232761E-003   4.2209866545312329E-002
   5.9523618543430121E-002  -6.1607579028705433E-003   4.6288926229143830E-002
   6.0314514112943245E-002  -8.1515838489415564E-003   5.0580947118267910E-002
  0.10476370644355264       -2.0792891225819357E-002   5.3625063091089845E-002
  0.10210834675796462       -2.4935547292009516E-002   4.5645617137436256E-002
   9.9452987072376611E-002  -2.7513952989894706E-002   3.9354476553509481E-002
   9.6797627386788598E-002  -2.8528108319474894E-002   3.4751641339309164E-002
   9.4142267701200544E-002  -2.7978013280750100E-002   3.1837111494835688E-002
   9.1270083221723211E-002  -1.7632564381599918E-002   5.1757917106761954E-002
   9.0065534738230299E-002  -2.1209161834898162E-002   4.6521424732043508E-002
   8.8860986254737401E-002  -2.3564214348937480E-002   4.2498249391788701E-002
   8.7656437771244475E-002  -2.4697721923717917E-002   3.9688391085997386E-002
   8.6451889287751604E-002  -2.4609684559239411E-002   3.8091849814669620E-002
   7.9364010092678502E-002  -1.4472237537380458E-002   5.0628182449848999E-002
   7.9135284476017601E-002  -1.7482776377786800E-002   4.7791938225019606E-002
   7.8906558859356699E-002  -1.9614475707980306E-002   4.5694022699390699E-002
   7.8677833242695783E-002  -2.0867335527960943E-002   4.4334435872962236E-002
   7.8449107626034881E-002  -2.1241355837728730E-002   4.3713177745734189E-002
   6.9045487056418511E-002  -1.1311910693161007E-002   5.0235859120351001E-002
   6.9317595971326501E-002  -1.3756390920675442E-002   4.9457157616364593E-002
   6.9589704886234491E-002  -1.5664737067023093E-002   4.8941796476315511E-002
   6.9861813801142494E-002  -1.7036949132203973E-002   4.8689775700203844E-002
   7.0133922716050512E-002  -1.7873027116218045E-002   4.8701095288029496E-002
   6.0314514112943245E-002  -8.1515838489415564E-003   5.0580947118267910E-002
   6.0612469224157021E-002  -1.0030005463564090E-002   5.1517082906078454E-002
   6.0910424335370805E-002  -1.1714998426065909E-002   5.2241570722563205E-002
   6.1208379446584582E-002  -1.3206562736447009E-002   5.2754410567722204E-002
   6.1506334557798366E-002  -1.4504698394707367E-002   5.3055602441555404E-002
   9.4142267701200544E-002  -2.7978013280750100E-002   3.1837111494835688E-002
   9.1764087569959824E-002  -2.6783136383658451E-002   3.1270821400286600E-002
   8.9385907438719076E-002  -2.5862946138138086E-002   3.0789163158465825E-002
   8.7007727307478341E-002  -2.5217442544189027E-002   3.0392136769373555E-002
   8.4629547176237607E-002  -2.4846625601811195E-002   3.0079742233009799E-002
   8.6451889287751604E-002  -2.4609684559239411E-002   3.8091849814669620E-002
   8.4203816314719543E-002  -2.3965288250512105E-002   3.7066874926166705E-002
   8.1955743341687495E-002  -2.3429718992546155E-002   3.6217482501352642E-002
   7.9707670368655476E-002  -2.3002976785341512E-002   3.5543672540227604E-002
   7.7459597395623400E-002  -2.2685061628898218E-002   3.5045445042791376E-002
   7.8449107626034881E-002  -2.1241355837728730E-002   4.3713177745734189E-002
   7.6422092422171989E-002  -2.1147440117365787E-002   4.2395377664087450E-002
   7.4395077218309111E-002  -2.0996491846954221E-002   4.1344110657090039E-002
   7.2368062014446233E-002  -2.0788511026494049E-002   4.0559376724742004E-002
   7.0341046810583341E-002  -2.0523497655985226E-002   4.0041175867043470E-002
   7.0133922716050512E-002  -1.7873027116218045E-002   4.8701095288029496E-002
   6.8418915892317231E-002  -1.8329591984219469E-002   4.7256329614048811E-002
   6.6703909068583978E-002  -1.8563264701362270E-002   4.6169047625677993E-002
   6.4988902244850710E-002  -1.8574045267646562E-002   4.5439249322917090E-002
   6.3273895421117429E-002  -1.8361933683072255E-002   4.5066934705765942E-002
   6.1506334557798366E-002  -1.4504698394707367E-002   5.3055602441555404E-002
   6.0194286725155186E-002  -1.5511743851073120E-002   5.1649730776050805E-002
   5.8882238892512026E-002  -1.6130037555770388E-002   5.0692293407116562E-002
   5.7570191059868846E-002  -1.6359579508799092E-002   5.0183290334752592E-002
   5.6258143227225693E-002  -1.6200369710159257E-002   5.0122721558958971E-002
   8.4629547176237607E-002  -2.4846625601811195E-002   3.0079742233009799E-002
   8.2197583527279627E-002  -2.4532250604726483E-002   2.9321780707528264E-002
   7.9765619878321689E-002  -2.4056072846656611E-002   2.8850146512287220E-002
   7.7333656229363668E-002  -2.3418092327601697E-002   2.8664839647286708E-002
   7.4901692580405771E-002  -2.2618309047561624E-002   2.8765860112526548E-002
   7.7459597395623400E-002  -2.2685061628898218E-002   3.5045445042791376E-002
   7.5299342762054675E-002  -2.2362323931729731E-002   3.4464401844631141E-002
   7.3139088128485963E-002  -2.1921114102349502E-002   3.4140449347009112E-002
   7.0978833494917251E-002  -2.1361432140757732E-002   3.4073587549925080E-002
   6.8818578861348512E-002  -2.0683278046954218E-002   3.4263816453378948E-002
   7.0341046810583341E-002  -2.0523497655985226E-002   4.0041175867043470E-002
   6.8423264562701466E-002  -2.0192397258732987E-002   3.9593720367431230E-002
   6.6505482314819578E-002  -1.9786155358042481E-002   3.9374118938654543E-002
   6.4587700066937676E-002  -1.9304771953913738E-002   3.9382371580713588E-002
   6.2669917819055815E-002  -1.8748247046346728E-002   3.9618478293608303E-002
   6.3273895421117429E-002  -1.8361933683072255E-002   4.5066934705765942E-002
   6.1569348929220002E-002  -1.8022470585736240E-002   4.4709736275928176E-002
   5.9864802437322548E-002  -1.7651196613735445E-002   4.4551155287223677E-002
   5.8160255945425121E-002  -1.7248111767069745E-002   4.4591191739652411E-002
   5.6455709453527667E-002  -1.6813216045739321E-002   4.4829845633214377E-002
   5.6258143227225693E-002  -1.6200369710159257E-002   5.0122721558958971E-002
   5.4737595861610269E-002  -1.5852543912739478E-002   4.9812449570122291E-002
   5.3217048495994859E-002  -1.5516237869428351E-002   4.9671558392716378E-002
   5.1696501130379449E-002  -1.5191451580225765E-002   4.9700048026741328E-002
   5.0175953764764025E-002  -1.4878185045131831E-002   4.9897918472197045E-002
   7.4901692580405771E-002  -2.2618309047561624E-002   2.8765860112526548E-002
   7.2692783976057690E-002  -2.1765416375863739E-002   2.8608424883261097E-002
   7.0483875371709595E-002  -2.0968107681835241E-002   2.8590193652730522E-002
   6.8274966767361528E-002  -2.0226382965476221E-002   2.8711166420934367E-002
   6.6066058163013419E-002  -1.9540242226786630E-002   2.8971343187872922E-002
   6.8818578861348512E-002  -2.0683278046954218E-002   3.4263816453378948E-002
   6.6758902133707554E-002  -1.9960008489760164E-002   3.4008949187300699E-002
   6.4699225406066624E-002  -1.9264980137996539E-002   3.3913341675902167E-002
   6.2639548678425722E-002  -1.8598192991663626E-002   3.3976993919183400E-002
   6.0579871950784736E-002  -1.7959647050761141E-002   3.4199905917144224E-002
   6.2669917819055815E-002  -1.8748247046346728E-002   3.9618478293608303E-002
   6.0779528724067090E-002  -1.8154600603656437E-002   3.9293521762955967E-002
   5.8889139629078366E-002  -1.7561852594157892E-002   3.9147880742928423E-002
   5.6998750534089634E-002  -1.6970003017850972E-002   3.9181555233525692E-002
   5.5108361439100931E-002  -1.6379051874735706E-002   3.9394545234747613E-002
   5.6455709453527667E-002  -1.6813216045739321E-002   4.4829845633214377E-002
   5.4754663747136195E-002  -1.6349192717552759E-002   4.4462142610226817E-002
   5.3053618040744752E-002  -1.5858725050319163E-002   4.4293810853809207E-002
   5.1352572334353315E-002  -1.5341813044038291E-002   4.4324850363961318E-002
   4.9651526627961892E-002  -1.4798456698710299E-002   4.4555261140683464E-002
   5.0175953764764025E-002  -1.4878185045131831E-002   4.9897918472197045E-002
   4.8684307202914959E-002  -1.4543784831449136E-002   4.9514811729113317E-002
   4.7192660641065837E-002  -1.4155597506480502E-002   4.9351132008544379E-002
   4.5701014079216756E-002  -1.3713623070225698E-002   4.9406879310490384E-002
   4.4209367517367676E-002  -1.3217861522684782E-002   4.9682053634951373E-002
   6.6066058163013419E-002  -1.9540242226786630E-002   2.8971343187872922E-002
   6.3424675142803366E-002  -1.8869018910635194E-002   2.8595290448959532E-002
   6.0783292122593230E-002  -1.8172046461890967E-002   2.8434768697141233E-002
   5.8141909102383163E-002  -1.7449324880553840E-002   2.8489777932418386E-002
   5.5500526082173041E-002  -1.6700854166623813E-002   2.8760318154790299E-002
   6.0579871950784736E-002  -1.7959647050761141E-002   3.4199905917144224E-002
   5.8151875469011932E-002  -1.7326592810901015E-002   3.3857887898087108E-002
   5.5723878987239087E-002  -1.6676280767694840E-002   3.3727111968809606E-002
   5.3295882505466241E-002  -1.6008710921142616E-002   3.3807578129311455E-002
   5.0867886023693437E-002  -1.5323883271244343E-002   3.4099286379592558E-002
   5.5108361439100931E-002  -1.6379051874735706E-002   3.9394545234747613E-002
   5.2889462598449552E-002  -1.5784166711166780E-002   3.9078070606300197E-002
   5.0670563757798222E-002  -1.5180515073498657E-002   3.8968549170316447E-002
   4.8451664917146905E-002  -1.4568096961731392E-002   3.9065980926796251E-002
   4.6232766076495527E-002  -1.3946912375864984E-002   3.9370365875739749E-002
   4.9651526627961892E-002  -1.4798456698710299E-002   4.4555261140683464E-002
   4.7637436531116267E-002  -1.4241740611432574E-002   4.4255838573598535E-002
   4.5623346434270670E-002  -1.3684749379302419E-002   4.4159080301661768E-002
   4.3609256337425045E-002  -1.3127483002320250E-002   4.4264986324872642E-002
   4.1595166240579448E-002  -1.2569941480485541E-002   4.4573556643231461E-002
   4.4209367517367676E-002  -1.3217861522684782E-002   4.9682053634951373E-002
   4.2395797267012036E-002  -1.2699314511698367E-002   4.9391191799982415E-002
   4.0582227016656383E-002  -1.2188983685106292E-002   4.9298705362845391E-002
   3.8768656766300737E-002  -1.1686869042908929E-002   4.9404594323540774E-002
   3.6955086515945090E-002  -1.1192970585106155E-002   4.9708858682067980E-002
   5.5500526082173041E-002  -1.6700854166623813E-002   2.8760318154790299E-002
   5.3701140435808481E-002  -1.5940134686792701E-002   2.8475096500523989E-002
   5.1901754789443921E-002  -1.5180666807752402E-002   2.8317945540932921E-002
   5.0102369143079334E-002  -1.4422450529503049E-002   2.8288865276017663E-002
   4.8302983496714802E-002  -1.3665485852044301E-002   2.8387855705777731E-002
   5.0867886023693437E-002  -1.5323883271244343E-002   3.4099286379592558E-002
   4.9200300733611355E-002  -1.4628204990845828E-002   3.3816910426646807E-002
   4.7532715443529355E-002  -1.3928083252792711E-002   3.3670064491590754E-002
   4.5865130153447245E-002  -1.3223518057085409E-002   3.3658748574424004E-002
   4.4197544863365273E-002  -1.2514509403723340E-002   3.3782962675147077E-002
   4.6232766076495527E-002  -1.3946912375864984E-002   3.9370365875739749E-002
   4.4704440465910114E-002  -1.3316275294899108E-002   3.9096530682559999E-002
   4.3176114855324688E-002  -1.2675499697833312E-002   3.8965684830483779E-002
   4.1647789244739213E-002  -1.2024585584667829E-002   3.8977828319511194E-002
   4.0119463634153793E-002  -1.1363532955402433E-002   3.9132961149642459E-002
   4.1595166240579448E-002  -1.2569941480485541E-002   4.4573556643231461E-002
   4.0213559632704704E-002  -1.2004345598952200E-002   4.4313957268262871E-002
   3.8831953024829988E-002  -1.1422916142873711E-002   4.4204806557612109E-002
   3.7450346416955202E-002  -1.0825653112250108E-002   4.4246104511279118E-002
   3.6068739809080472E-002  -1.0212556507081333E-002   4.4437851129263753E-002
   3.6955086515945090E-002  -1.1192970585106155E-002   4.9708858682067980E-002
   3.5727658233995152E-002  -1.0692415903005514E-002   4.9469190183756118E-002
   3.4500229952045214E-002  -1.0170332587914166E-002   4.9387429672976046E-002
   3.3272801670095276E-002  -9.6267206398326227E-003   4.9463577149727905E-002
   3.2045373388145337E-002  -9.0615800587604545E-003   4.9697632614011611E-002
   4.8302983496714802E-002  -1.3665485852044301E-002   2.8387855705777731E-002
   4.4757686606075209E-002  -1.2802422682071546E-002   2.7561620139771925E-002
   4.1212389715435588E-002  -1.1725910926278948E-002   2.6982933647304697E-002
   3.7667092824796009E-002  -1.0435950584667258E-002   2.6651796228375713E-002
   3.4121795934156318E-002  -8.9325416572358929E-003   2.6568207882985417E-002
   4.4197544863365273E-002  -1.2514509403723340E-002   3.3782962675147077E-002
   4.0905225638031423E-002  -1.1725658806782585E-002   3.3173857612708357E-002
   3.7612906412697503E-002  -1.0781567780337981E-002   3.2823158807342934E-002
   3.4320587187363756E-002  -9.6822363243901019E-003   3.2730866259050403E-002
   3.1028267962029843E-002  -8.4276644389387201E-003   3.2896979967831474E-002
   4.0119463634153793E-002  -1.1363532955402433E-002   3.9132961149642459E-002
   3.7090979257660528E-002  -1.0648894931493347E-002   3.8682778434454584E-002
   3.4062494881167381E-002  -9.8372246343967906E-003   3.8501859159875140E-002
   3.1034010504674091E-002  -8.9285220641128066E-003   3.8590203325903211E-002
   2.8005526128180858E-002  -7.9227872206412142E-003   3.8947810932539351E-002
   3.6068739809080472E-002  -1.0212556507081333E-002   4.4437851129263753E-002
   3.3314947464962635E-002  -9.5721310562043582E-003   4.4088382605011307E-002
   3.0561155120844723E-002  -8.8928814884556007E-003   4.4019034704901622E-002
   2.7807362776726935E-002  -8.1748078038354696E-003   4.4229807428934287E-002
   2.5053570432608863E-002  -7.4179100023439304E-003   4.4720700777110031E-002
   3.2045373388145337E-002  -9.0615800587604545E-003   4.9697632614011611E-002
   2.9577130259937606E-002  -8.4953671809153142E-003   4.9390670124377922E-002
   2.7108887131729847E-002  -7.9485383425145495E-003   4.9374685442421795E-002
   2.4640644003522186E-002  -7.4210935435583894E-003   4.9649678568143257E-002
   2.2172400875314413E-002  -6.9130327840465355E-003   5.0215649501542448E-002
   5.7150931834890784E-002   0.0000000000000000        3.4690630793526980E-002
   5.7941827404403894E-002  -2.0849659783997651E-003   3.8343768066773379E-002
   5.8732722973917004E-002  -4.1385519460232761E-003   4.2209866545312329E-002
   5.9523618543430121E-002  -6.1607579028705433E-003   4.6288926229143830E-002
   6.0314514112943245E-002  -8.1515838489415564E-003   5.0580947118267910E-002
   4.8651770538870778E-002   0.0000000000000000        3.2788677683293271E-002
   4.9590518839527517E-002  -1.7100169492077029E-003   3.6965392619716951E-002
   5.0529267140184256E-002  -3.4335673234717600E-003   4.1224851813135316E-002
   5.1468015440840995E-002  -5.1706511227921654E-003   4.5567055263548359E-002
   5.2406763741497733E-002  -6.9212683471689363E-003   4.9992002970956115E-002
   4.0732372087317031E-002   0.0000000000000000        3.1284130320167927E-002
   4.1688756170819526E-002  -1.3350679200156441E-003   3.5939509483936281E-002
   4.2645140254322020E-002  -2.7285827009202413E-003   4.0547415956401441E-002
   4.3601524337824521E-002  -4.1805443427137918E-003   4.5107849737563439E-002
   4.4557908421327015E-002  -5.6909528453962990E-003   4.9620810827422257E-002
   3.3392736480229543E-002   0.0000000000000000        3.0176988704150941E-002
   3.4236539398279933E-002  -9.6011889082358312E-004   3.5266118659431363E-002
   3.5080342316330324E-002  -2.0235980783687240E-003   4.0177558975110744E-002
   3.5924145234380721E-002  -3.1904375626354196E-003   4.4911309651189078E-002
   3.6767948152431104E-002  -4.4606373436236703E-003   4.9467370687666372E-002
   2.6632863717608313E-002   0.0000000000000000        2.9467252835242319E-002
   2.7233868521908733E-002  -5.8516986163152391E-004   3.4945220146202202E-002
   2.7834873326209150E-002  -1.3186134558172049E-003   4.0115280869263178E-002
   2.8435878130509566E-002  -2.2003307825570403E-003   4.4977435004425255E-002
   2.9036882934809986E-002  -3.2303218418510398E-003   4.9531682551688438E-002
   6.0314514112943245E-002  -8.1515838489415564E-003   5.0580947118267910E-002
   6.0612469224157021E-002  -1.0030005463564090E-002   5.1517082906078454E-002
   6.0910424335370805E-002  -1.1714998426065909E-002   5.2241570722563205E-002
   6.1208379446584582E-002  -1.3206562736447009E-002   5.2754410567722204E-002
   6.1506334557798366E-002  -1.4504698394707367E-002   5.3055602441555404E-002
   5.2406763741497733E-002  -6.9212683471689363E-003   4.9992002970956115E-002
   5.2531837889449581E-002  -8.5846508984989654E-003   5.1216516529740554E-002
   5.2656912037401429E-002  -1.0060030678679197E-002   5.2306916133326851E-002
   5.2781986185353277E-002  -1.1347407687709619E-002   5.3263201781715147E-002
   5.2907060333305111E-002  -1.2446781925590240E-002   5.4085373474905288E-002
   4.4557908421327015E-002  -5.6909528453962990E-003   4.9620810827422257E-002
   4.4587635622144607E-002  -7.1392963334338420E-003   5.1128276276209687E-002
   4.4617362822962220E-002  -8.4050629312924854E-003   5.2579161785926684E-002
   4.4647090023779812E-002  -9.4882526389722544E-003   5.3973467356573268E-002
   4.4676817224597425E-002  -1.0388865456473124E-002   5.5311192988149432E-002
   3.6767948152431104E-002  -4.4606373436236703E-003   4.9467370687666372E-002
   3.6779862422242120E-002  -5.6939417683687047E-003   5.1252362145485862E-002
   3.6791776692053149E-002  -6.7500951839057702E-003   5.3058307680362592E-002
   3.6803690961864186E-002  -7.6290975902348632E-003   5.4885207292296609E-002
   3.6815605231675208E-002  -8.3309489873559951E-003   5.6733060981287886E-002
   2.9036882934809986E-002  -3.2303218418510398E-003   4.9531682551688438E-002
   2.9108518289742119E-002  -4.2485872033035900E-003   5.1588774137569057E-002
   2.9180153644674248E-002  -5.0951274365190636E-003   5.3744353816634650E-002
   2.9251788999606378E-002  -5.7699425414975067E-003   5.5998421588885149E-002
   2.9323424354538510E-002  -6.2730325182388733E-003   5.8350977454320614E-002
   6.1506334557798366E-002  -1.4504698394707367E-002   5.3055602441555404E-002
   6.0194286725155186E-002  -1.5511743851073120E-002   5.1649730776050805E-002
   5.8882238892512026E-002  -1.6130037555770388E-002   5.0692293407116562E-002
   5.7570191059868846E-002  -1.6359579508799092E-002   5.0183290334752592E-002
   5.6258143227225693E-002  -1.6200369710159257E-002   5.0122721558958971E-002
   5.2907060333305111E-002  -1.2446781925590240E-002   5.4085373474905288E-002
   5.1991526671739931E-002  -1.3298320896733769E-002   5.3344822556690291E-002
   5.1075993010174750E-002  -1.3842192105552884E-002   5.2948865684061028E-002
   5.0160459348609555E-002  -1.4078395552047577E-002   5.2897502857017206E-002
   4.9244925687044375E-002  -1.4006931236217851E-002   5.3190734075559104E-002
   4.4676817224597425E-002  -1.0388865456473124E-002   5.5311192988149432E-002
   4.4053957483125503E-002  -1.1084897942394393E-002   5.5154878827879998E-002
   4.3431097741653588E-002  -1.1554346655335376E-002   5.5239318462211445E-002
   4.2808238000181666E-002  -1.1797211595296047E-002   5.5564511891143795E-002
   4.2185378258709744E-002  -1.1813492762276417E-002   5.6130459114677150E-002
   3.6815605231675208E-002  -8.3309489873559951E-003   5.6733060981287886E-002
   3.6381579159311866E-002  -8.8714749880550586E-003   5.7079899589619801E-002
   3.5947553086948532E-002  -9.2665012051178844E-003   5.7563651741568009E-002
   3.5513527014585197E-002  -9.5160276385445521E-003   5.8184317437132413E-002
   3.5079500942221870E-002  -9.6200542883350254E-003   5.8941896676313013E-002
   2.9323424354538510E-002  -6.2730325182388733E-003   5.8350977454320614E-002
   2.8974391700299050E-002  -6.6580520337156598E-003   5.9119884841909852E-002
   2.8625359046059586E-002  -6.9786557549003769E-003   5.9921865522130607E-002
   2.8276326391820129E-002  -7.2348436817930260E-003   6.0756919494982894E-002
   2.7927293737580669E-002  -7.4266158143935779E-003   6.1625046760466762E-002
   5.6258143227225693E-002  -1.6200369710159257E-002   5.0122721558958971E-002
   5.4737595861610269E-002  -1.5852543912739478E-002   4.9812449570122291E-002
   5.3217048495994859E-002  -1.5516237869428351E-002   4.9671558392716378E-002
   5.1696501130379449E-002  -1.5191451580225765E-002   4.9700048026741328E-002
   5.0175953764764025E-002  -1.4878185045131831E-002   4.9897918472197045E-002
   4.9244925687044375E-002  -1.4006931236217851E-002   5.3190734075559104E-002
   4.7900428038365465E-002  -1.3774844430727615E-002   5.2841829835518786E-002
   4.6555930389686570E-002  -1.3529180408240651E-002   5.2675644217920696E-002
   4.5211432741007661E-002  -1.3269939168757228E-002   5.2692177222764813E-002
   4.3866935092328738E-002  -1.2997120712277099E-002   5.2891428850051103E-002
   4.2185378258709744E-002  -1.1813492762276417E-002   5.6130459114677150E-002
   4.1030268137978748E-002  -1.1697144948715731E-002   5.5768019594538559E-002
   3.9875158017247732E-002  -1.1542122947053146E-002   5.5601636507853380E-002
   3.8720047896516702E-002  -1.1348426757288692E-002   5.5631309854621877E-002
   3.7564937775785720E-002  -1.1116056379422340E-002   5.5857039634843911E-002
   3.5079500942221870E-002  -9.6200542883350254E-003   5.8941896676313013E-002
   3.4127116160450104E-002  -9.6194454667038430E-003   5.8591018847181250E-002
   3.3174731378678338E-002  -9.5550654858655992E-003   5.8449535262514403E-002
   3.2222346596906579E-002  -9.4269143458201414E-003   5.8517445922312547E-002
   3.1269961815134834E-002  -9.2349920465676222E-003   5.8794750826575676E-002
   2.7927293737580669E-002  -7.4266158143935779E-003   6.1625046760466762E-002
   2.7190972105779546E-002  -7.5417459846919693E-003   6.1310827593447095E-002
   2.6454650473978415E-002  -7.5680080246779552E-003   6.1219340481903806E-002
   2.5718328842177302E-002  -7.5054019343516361E-003   6.1350585425836768E-002
   2.4982007210376175E-002  -7.3539277137128489E-003   6.1704562425246079E-002
   5.0175953764764025E-002  -1.4878185045131831E-002   4.9897918472197045E-002
   4.8684307202914959E-002  -1.4543784831449136E-002   4.9514811729113317E-002
   4.7192660641065837E-002  -1.4155597506480502E-002   4.9351132008544379E-002
   4.5701014079216756E-002  -1.3713623070225698E-002   4.9406879310490384E-002
   4.4209367517367676E-002  -1.3217861522684782E-002   4.9682053634951373E-002
   4.3866935092328738E-002  -1.2997120712277099E-002   5.2891428850051103E-002
   4.2588223887629104E-002  -1.2696541605774658E-002   5.2556717394661084E-002
   4.1309512682929442E-002  -1.2354018416224452E-002   5.2428449631054960E-002
   4.0030801478229787E-002  -1.1969551143626116E-002   5.2506625559232842E-002
   3.8752090273530146E-002  -1.1543139787979939E-002   5.2791245179194701E-002
   3.7564937775785720E-002  -1.1116056379422340E-002   5.5857039634843911E-002
   3.6486178597504540E-002  -1.0849298380100153E-002   5.5558880438909483E-002
   3.5407419419223395E-002  -1.0552439325968256E-002   5.5454181604028090E-002
   3.4328660240942235E-002  -1.0225479217026478E-002   5.5542943130199765E-002
   3.3249901062661076E-002  -9.8684180532749854E-003   5.5825165017424475E-002
   3.1269961815134834E-002  -9.2349920465676222E-003   5.8794750826575676E-002
   3.0378171332541264E-002  -9.0020551544256061E-003   5.8521300861858652E-002
   2.9486380849947702E-002  -8.7508602357121608E-003   5.8428327927463761E-002
   2.8594590367354133E-002  -8.4814072904269219E-003   5.8515832023390932E-002
   2.7702799884760564E-002  -8.1936963185700595E-003   5.8783813149640332E-002
   2.4982007210376175E-002  -7.3539277137128489E-003   6.1704562425246079E-002
   2.4264202092739273E-002  -7.1548119287511980E-003   6.1443978663508425E-002
   2.3546396975102350E-002  -6.9492811454560377E-003   6.1350888601361980E-002
   2.2828591857465438E-002  -6.7373353638273473E-003   6.1425292238806745E-002
   2.2110786739828525E-002  -6.5189745838651336E-003   6.1667189575842662E-002
   4.4209367517367676E-002  -1.3217861522684782E-002   4.9682053634951373E-002
   4.2395797267012036E-002  -1.2699314511698367E-002   4.9391191799982415E-002
   4.0582227016656383E-002  -1.2188983685106292E-002   4.9298705362845391E-002
   3.8768656766300737E-002  -1.1686869042908929E-002   4.9404594323540774E-002
   3.6955086515945090E-002  -1.1192970585106155E-002   4.9708858682067980E-002
   3.8752090273530146E-002  -1.1543139787979939E-002   5.2791245179194701E-002
   3.7142443088392790E-002  -1.1096702706627562E-002   5.2455964636565280E-002
   3.5532795903255483E-002  -1.0652158256910918E-002   5.2330154826540631E-002
   3.3923148718118176E-002  -1.0209506438829775E-002   5.2413815749120449E-002
   3.2313501532980821E-002  -9.7687472523841357E-003   5.2706947404304816E-002
   3.3249901062661076E-002  -9.8684180532749854E-003   5.5825165017424475E-002
   3.1855272277514571E-002  -9.4940909015568953E-003   5.5451789319893710E-002
   3.0460643492368055E-002  -9.1153328287153224E-003   5.5298979689740138E-002
   2.9066014707221526E-002  -8.7321438347504540E-003   5.5366736126963564E-002
   2.7671385922075034E-002  -8.3445239196621723E-003   5.5655058631563947E-002
   2.7702799884760564E-002  -8.1936963185700595E-003   5.8783813149640332E-002
   2.6534284834377333E-002  -7.8914790964861870E-003   5.8378665849967301E-002
   2.5365769783994085E-002  -7.5785074005198377E-003   5.8205179952443849E-002
   2.4197254733610868E-002  -7.2547812306712166E-003   5.8263355457069857E-002
   2.3028739683227578E-002  -6.9203005869400702E-003   5.8553192363845472E-002
   2.2110786739828525E-002  -6.5189745838651336E-003   6.1667189575842662E-002
   2.1179480758981045E-002  -6.2888672914154786E-003   6.1236594226786234E-002
   2.0248174778133572E-002  -6.0416819723243392E-003   6.1048755614651867E-002
   1.9316868797286110E-002  -5.7774186265919479E-003   6.1103673739439465E-002
   1.8385562816438633E-002  -5.4960772542181902E-003   6.1401348601149042E-002
   3.6955086515945090E-002  -1.1192970585106155E-002   4.9708858682067980E-002
   3.5727658233995152E-002  -1.0692415903005514E-002   4.9469190183756118E-002
   3.4500229952045214E-002  -1.0170332587914166E-002   4.9387429672976046E-002
   3.3272801670095276E-002  -9.6267206398326227E-003   4.9463577149727905E-002
   3.2045373388145337E-002  -9.0615800587604545E-003   4.9697632614011611E-002
   3.2313501532980821E-002  -9.7687472523841357E-003   5.2706947404304816E-002
   3.1239692205921502E-002  -9.3211631494100333E-003   5.2480994794251834E-002
   3.0165882878862141E-002  -8.8580365817432644E-003   5.2404372106448077E-002
   2.9092073551802843E-002  -8.3793675493837975E-003   5.2477079340893712E-002
   2.8018264224743461E-002  -7.8851560523314768E-003   5.2699116497588683E-002
   2.7671385922075034E-002  -8.3445239196621723E-003   5.5655058631563947E-002
   2.6742617484623817E-002  -7.9499103958146633E-003   5.5436835741471971E-002
   2.5813849047172557E-002  -7.5457405755722518E-003   5.5359364708346820E-002
   2.4885080609721340E-002  -7.1320144589348614E-003   5.5422645532188355E-002
   2.3956312172270108E-002  -6.7087320459024435E-003   5.5626678212996994E-002
   2.3028739683227578E-002  -6.9203005869400702E-003   5.8553192363845472E-002
   2.2236434070102000E-002  -6.5786576422192933E-003   5.8336713025416695E-002
   2.1444128456976415E-002  -6.2334445694013502E-003   5.8252407478672212E-002
   2.0651822843850844E-002  -5.8846613684859807E-003   5.8300275723612099E-002
   1.9859517230725255E-002  -5.5323080394734936E-003   5.8480317760236634E-002
   1.8385562816438633E-002  -5.4960772542181902E-003   6.1401348601149042E-002
   1.7721141962356177E-002  -5.2074048886238677E-003   6.1180626646085812E-002
   1.7056721108273748E-002  -4.9211485632302265E-003   6.1083500417424330E-002
   1.6392300254191298E-002  -4.6373082780371555E-003   6.1109969915164764E-002
   1.5727879400108877E-002  -4.3558840330445436E-003   6.1260035139307223E-002
   3.2045373388145337E-002  -9.0615800587604545E-003   4.9697632614011611E-002
   2.9577130259937606E-002  -8.4953671809153142E-003   4.9390670124377922E-002
   2.7108887131729847E-002  -7.9485383425145495E-003   4.9374685442421795E-002
   2.4640644003522186E-002  -7.4210935435583894E-003   4.9649678568143257E-002
   2.2172400875314413E-002  -6.9130327840465355E-003   5.0215649501542448E-002
   2.8018264224743461E-002  -7.8851560523314768E-003   5.2699116497588683E-002
   2.5838670100824107E-002  -7.3876792556643589E-003   5.2340784363040516E-002
   2.3659075976904767E-002  -6.8992143244605564E-003   5.2268772429391569E-002
   2.1479481852985378E-002  -6.4197612587200831E-003   5.2483080696641968E-002
   1.9299887729066101E-002  -5.9493200584423978E-003   5.2983709164791448E-002
   2.3956312172270108E-002  -6.7087320459024435E-003   5.5626678212996994E-002
   2.2060709445860839E-002  -6.2799913304136534E-003   5.5227348607515603E-002
   2.0165106719451549E-002  -5.8498903064066604E-003   5.5109681596155188E-002
   1.8269503993042214E-002  -5.4184289738814680E-003   5.5273677178915646E-002
   1.6373901266632990E-002  -4.9856073328383710E-003   5.5719335355796984E-002
   1.9859517230725255E-002  -5.5323080394734936E-003   5.8480317760236634E-002
   1.8243248295047691E-002  -5.1723034051627120E-003   5.8050362857803281E-002
   1.6626979359370145E-002  -4.8005662883527714E-003   5.7897412942712653E-002
   1.5010710423692574E-002  -4.4170966890432293E-003   5.8021468014964529E-002
   1.3394441488015087E-002  -4.0218946072342887E-003   5.8422528074559082E-002
   1.5727879400108877E-002  -4.3558840330445436E-003   6.1260035139307223E-002
   1.4386286648384747E-002  -4.0646154799120482E-003   6.0809827113903481E-002
   1.3044693896660624E-002  -3.7512422702987991E-003   6.0631966469063825E-002
   1.1703101144936511E-002  -3.4157644042046367E-003   6.0726453204788450E-002
   1.0361508393212371E-002  -3.0581818816302064E-003   6.1093287321077439E-002
   2.6632863717608313E-002   0.0000000000000000        2.9467252835242319E-002
   2.7233868521908733E-002  -5.8516986163152391E-004   3.4945220146202202E-002
   2.7834873326209150E-002  -1.3186134558172049E-003   4.0115280869263178E-002
   2.8435878130509566E-002  -2.2003307825570403E-003   4.4977435004425255E-002
   2.9036882934809986E-002  -3.2303218418510398E-003   4.9531682551688438E-002
   2.0115816229882136E-002   0.0000000000000000        2.9020098964354056E-002
   2.0448328292979000E-002  -4.3887739614016479E-004   3.4313628311337968E-002
   2.0780840356075869E-002  -9.8896009171651686E-004   3.9378078763813676E-002
   2.1113352419172730E-002  -1.6502480867290580E-003   4.4213450321781179E-002
   2.1445864482269594E-002  -2.4227413811777794E-003   4.8819742985240493E-002
   1.3504656447479790E-002   0.0000000000000000        2.8700703342398177E-002
   1.3647503462763812E-002  -2.9258493064880696E-004   3.3846863158524060E-002
   1.3790350478047834E-002  -6.5930672761582969E-004   3.8842771773532465E-002
   1.3933197493331852E-002  -1.1001653909010721E-003   4.3688429187423376E-002
   1.4076044508615876E-002  -1.6151609205045303E-003   4.8383835400196806E-002
   6.7993843704012820E-003   0.0000000000000000        2.8509065969374664E-002
   6.8313940312631667E-003  -1.4629246515744849E-004   3.3544924687760519E-002
   6.8634036921250514E-003  -3.2965336351514210E-004   3.8509359898419589E-002
   6.8954133529869361E-003  -5.5008269507308798E-004   4.3402371601351866E-002
   6.9274230138488217E-003  -8.0758045983127203E-004   4.8223959796557365E-002
  -1.3533861531467295E-012   0.0000000000000000        2.8445186845283528E-002
  -1.5229319541565367E-012   3.3390998299687169E-013   3.3407812899047304E-002
  -1.6924781888472129E-012   5.8554376625163940E-013   3.8377843138475018E-002
  -1.8620246403783236E-012   7.5489788031735117E-013   4.3355277563566635E-002
  -2.0315710919094343E-012   8.4197839672617292E-013   4.8340116174322184E-002
   2.9036882934809986E-002  -3.2303218418510398E-003   4.9531682551688438E-002
   2.9108518289742119E-002  -4.2485872033035900E-003   5.1588774137569057E-002
   2.9180153644674248E-002  -5.0951274365190636E-003   5.3744353816634650E-002
   2.9251788999606378E-002  -5.7699425414975067E-003   5.5998421588885149E-002
   2.9323424354538510E-002  -6.2730325182388733E-003   5.8350977454320614E-002
   2.1445864482269594E-002  -2.4227413811777794E-003   4.8819742985240493E-002
   2.1586888697386036E-002  -3.1864404022422421E-003   5.1219193304228042E-002
   2.1727912912502468E-002  -3.8213455771019889E-003   5.3658933250399270E-002
   2.1868937127618910E-002  -4.3274569057569923E-003   5.6138962823754114E-002
   2.2009961342735345E-002  -4.7047743882072876E-003   5.8659282024292693E-002
   1.4076044508615876E-002  -1.6151609205045303E-003   4.8383835400196806E-002
   1.4228259117915344E-002  -2.1242936011809008E-003   5.1082713170258927E-002
   1.4380473727214810E-002  -2.5475637176848873E-003   5.3763682101503459E-002
   1.4532688336514275E-002  -2.8849712700164988E-003   5.6426742193930367E-002
   1.4684902945813745E-002  -3.1365162581757054E-003   5.9071893447539645E-002
   6.9274230138488217E-003  -8.0758045983127203E-004   4.8223959796557365E-002
   7.0326295513300401E-003  -1.0621468001195632E-003   5.1179333735661747E-002
   7.1378360888112594E-003  -1.2737818582677992E-003   5.4058600369947231E-002
   7.2430426262924796E-003  -1.4424856342759741E-003   5.6861759699413816E-002
   7.3482491637737006E-003  -1.5682581281441354E-003   5.9588811724061573E-002
  -2.0315710919094343E-012   8.4197839672617292E-013   4.8340116174322184E-002
  -2.3698751294709552E-012   9.4178831400171248E-013   5.1509055000436468E-002
  -2.7081778659898692E-012   1.1492905151871957E-012   5.4543688055730587E-002
  -3.0464790846257417E-012   1.4644990407007563E-012   5.7444015340204539E-002
  -3.3847855074320421E-012   1.8874554696957091E-012   6.0210036853858333E-002
   2.9323424354538510E-002  -6.2730325182388733E-003   5.8350977454320614E-002
   2.8974391700299050E-002  -6.6580520337156598E-003   5.9119884841909852E-002
   2.8625359046059586E-002  -6.9786557549003769E-003   5.9921865522130607E-002
   2.8276326391820129E-002  -7.2348436817930260E-003   6.0756919494982894E-002
   2.7927293737580669E-002  -7.4266158143935779E-003   6.1625046760466762E-002
   2.2009961342735345E-002  -4.7047743882072876E-003   5.8659282024292693E-002
   2.1707548198786408E-002  -4.9935390247557998E-003   5.9486504064367923E-002
   2.1405135054837460E-002  -5.2339918157054289E-003   6.0373891832392682E-002
   2.1102721910888529E-002  -5.4261327610562564E-003   6.1321445328366982E-002
   2.0800308766939585E-002  -5.5699618608082008E-003   6.2329164552290733E-002
   1.4684902945813745E-002  -3.1365162581757054E-003   5.9071893447539645E-002
   1.4456201747473309E-002  -3.3290260157959294E-003   5.9941326191407726E-002
   1.4227500549132872E-002  -3.4893278765105095E-003   6.0898017098543249E-002
   1.3998799350792429E-002  -3.6174218403194746E-003   6.1941966168946268E-002
   1.3770098152451997E-002  -3.7133079072227959E-003   6.3073173402616797E-002
   7.3482491637737006E-003  -1.5682581281441354E-003   5.9588811724061573E-002
   7.2203523463597527E-003  -1.6645130068360641E-003   6.0484351223029170E-002
   7.0924555289458065E-003  -1.7446639373155620E-003   6.1494241320582232E-002
   6.9645587115318586E-003  -1.8087109195826781E-003   6.2618482016720795E-002
   6.8366618941179151E-003  -1.8566539536374049E-003   6.3857073311444870E-002
  -3.3847855074320421E-012   1.8874554696957091E-012   6.0210036853858333E-002
  -4.5542571450174485E-012   2.1237976655097413E-012   6.1115579159232283E-002
  -5.7237270478793789E-012   1.8793629846802773E-012   6.2162564498509709E-002
  -6.8931973844221783E-012   1.1540642573526494E-012   6.3350992871690576E-002
  -8.0626685883267157E-012  -5.1986193128072955E-014   6.4680864278774897E-002
   2.7927293737580669E-002  -7.4266158143935779E-003   6.1625046760466762E-002
   2.7190972105779546E-002  -7.5417459846919693E-003   6.1310827593447095E-002
   2.6454650473978415E-002  -7.5680080246779552E-003   6.1219340481903806E-002
   2.5718328842177302E-002  -7.5054019343516361E-003   6.1350585425836768E-002
   2.4982007210376175E-002  -7.3539277137128489E-003   6.1704562425246079E-002
   2.0800308766939585E-002  -5.5699618608082008E-003   6.2329164552290733E-002
   2.0277056278849275E-002  -5.6563094890354562E-003   6.2179816443540641E-002
   1.9753803790758979E-002  -5.6760060198120486E-003   6.2233874566735813E-002
   1.9230551302668673E-002  -5.6290514531380917E-003   6.2491338921876319E-002
   1.8707298814578367E-002  -5.5154457890134456E-003   6.2952209508962131E-002
   1.3770098152451997E-002  -3.7133079072227959E-003   6.3073173402616797E-002
   1.3440588984541518E-002  -3.7708729933789084E-003   6.3066479319274421E-002
   1.3111079816631043E-002  -3.7840040149461698E-003   6.3243865644346309E-002
   1.2781570648720569E-002  -3.7527009719245472E-003   6.3605332377832544E-002
   1.2452061480810090E-002  -3.6769638643140423E-003   6.4150879519733139E-002
   6.8366618941179151E-003  -1.8566539536374049E-003   6.3857073311444870E-002
   6.6815702228562668E-003  -1.8854364977223502E-003   6.3970816220648472E-002
   6.5264785515946125E-003  -1.8920020100802355E-003   6.4249313714735315E-002
   6.3713868803329625E-003  -1.8763504907110167E-003   6.4692565793705609E-002
   6.2162952090713099E-003  -1.8384819396146113E-003   6.5300572457559158E-002
  -8.0626685883267157E-012  -5.1986193128072955E-014   6.4680864278774897E-002
  -6.2064901829028685E-012  -2.0658544319651639E-012   6.4892827147662702E-002
  -4.3503048385851173E-012  -5.2143567241813571E-012   6.5250218777902880E-002
  -2.4941255657995320E-012  -9.4974653142010368E-012   6.5753039169495361E-002
  -6.3794108884351886E-013  -1.4915207957599819E-011   6.6401288322440161E-002
   2.4982007210376175E-002  -7.3539277137128489E-003   6.1704562425246079E-002
   2.4264202092739273E-002  -7.1548119287511980E-003   6.1443978663508425E-002
   2.3546396975102350E-002  -6.9492811454560377E-003   6.1350888601361980E-002
   2.2828591857465438E-002  -6.7373353638273473E-003   6.1425292238806745E-002
   2.2110786739828525E-002  -6.5189745838651336E-003   6.1667189575842662E-002
   1.8707298814578367E-002  -5.5154457890134456E-003   6.2952209508962131E-002
   1.8159976791662924E-002  -5.3661089513109134E-003   6.2719699328403641E-002
   1.7612654768747477E-002  -5.2119608639030132E-003   6.2660661637696971E-002
   1.7065332745832031E-002  -5.0530015267898059E-003   6.2775096436841926E-002
   1.6518010722916587E-002  -4.8892309399712341E-003   6.3063003725838618E-002
   1.2452061480810090E-002  -3.6769638643140423E-003   6.4150879519733139E-002
   1.2081201342876650E-002  -3.5774059738705594E-003   6.3944839171725665E-002
   1.1710341204943209E-002  -3.4746405823499887E-003   6.3918250103830537E-002
   1.1339481067009775E-002  -3.3686676897522368E-003   6.4071112316047590E-002
   1.0968620929076339E-002  -3.2594872960773624E-003   6.4403425808377032E-002
   6.2162952090713099E-003  -1.8384819396146113E-003   6.5300572457559158E-002
   6.0278757463804247E-003  -1.7887029964302539E-003   6.5119398193474495E-002
   5.8394562836895335E-003  -1.7373203007969365E-003   6.5123653999762735E-002
   5.6510368209986448E-003  -1.6843338527146815E-003   6.5313339876423654E-002
   5.4626173583077501E-003  -1.6297436521834768E-003   6.5688455823457489E-002
  -6.3794108884351886E-013  -1.4915207957599819E-011   6.6401288322440161E-002
   2.1742573019789546E-012  -1.8989906869215645E-011   6.6243376393650133E-002
   4.9864556928014281E-012  -1.9243960591719400E-011   6.6276873325493493E-002
   7.7986549509856395E-012  -1.5677131467994876E-011   6.6501779117970200E-002
   1.0610852474446375E-011  -8.2895912356661938E-012   6.6918093771080323E-002
   2.2110786739828525E-002  -6.5189745838651336E-003   6.1667189575842662E-002
   2.1179480758981045E-002  -6.2888672914154786E-003   6.1236594226786234E-002
   2.0248174778133572E-002  -6.0416819723243392E-003   6.1048755614651867E-002
   1.9316868797286110E-002  -5.7774186265919479E-003   6.1103673739439465E-002
   1.8385562816438633E-002  -5.4960772542181902E-003   6.1401348601149042E-002
   1.6518010722916587E-002  -4.8892309399712341E-003   6.3063003725838618E-002
   1.5826978918188413E-002  -4.7166504686032978E-003   6.2688255312068633E-002
   1.5135947113460231E-002  -4.5312614778419552E-003   6.2551298513615239E-002
   1.4444915308732053E-002  -4.3330639676871820E-003   6.2652133330478352E-002
   1.3753883504003875E-002  -4.1220579381389122E-003   6.2990759762658166E-002
   1.0968620929076339E-002  -3.2594872960773624E-003   6.4403425808377032E-002
   1.0512898178862036E-002  -3.1444336457912281E-003   6.4080254822645441E-002
   1.0057175428647749E-002  -3.0208409833595226E-003   6.3989910330625066E-002
   9.6014526784334552E-003  -2.8887093087823622E-003   6.4132392332315810E-002
   9.1457299282191595E-003  -2.7480386220596897E-003   6.4507700827717812E-002
   5.4626173583077501E-003  -1.6297436521834768E-003   6.5688455823457489E-002
   5.2372385410019403E-003  -1.5722168229790751E-003   6.5412592758516450E-002
   5.0118597236961191E-003  -1.5104204888770865E-003   6.5364591065681182E-002
   4.7864809063902936E-003  -1.4443546498774584E-003   6.5544450744951646E-002
   4.5611020890844803E-003  -1.3740193059803840E-003   6.5952171796327910E-002
   1.0610852474446375E-011  -8.2895912356661938E-012   6.6918093771080323E-002
   4.6080986249030786E-012  -1.6692203175239229E-013   6.6685269119681811E-002
  -1.3946586940871697E-012   5.6053495178787216E-012   6.6675340718783616E-002
  -7.3974116762687281E-012   9.0271540242881088E-012   6.6888308568385818E-002
  -1.3400169862620714E-011   1.0098755165444118E-011   6.7324172668488447E-002
   1.8385562816438633E-002  -5.4960772542181902E-003   6.1401348601149042E-002
   1.7721141962356177E-002  -5.2074048886238677E-003   6.1180626646085812E-002
   1.7056721108273748E-002  -4.9211485632302265E-003   6.1083500417424330E-002
   1.6392300254191298E-002  -4.6373082780371555E-003   6.1109969915164764E-002
   1.5727879400108877E-002  -4.3558840330445436E-003   6.1260035139307223E-002
   1.3753883504003875E-002  -4.1220579381389122E-003   6.2990759762658166E-002
   1.3223685748106367E-002  -3.9055536654953316E-003   6.2802076879326374E-002
   1.2693487992208860E-002  -3.6908614260541817E-003   6.2758244465962537E-002
   1.2163290236311342E-002  -3.4779812198156151E-003   6.2859262522566517E-002
   1.1633092480413845E-002  -3.2669130467796181E-003   6.3105131049138619E-002
   9.1457299282191595E-003  -2.7480386220596897E-003   6.4507700827717812E-002
   8.7710100140726242E-003  -2.6037024423664901E-003   6.4351661023115431E-002
   8.3962900999260889E-003  -2.4605742888779703E-003   6.4361726432047128E-002
   8.0215701857795519E-003  -2.3186541615939638E-003   6.4537897054512780E-002
   7.6468502716330149E-003  -2.1779420605146371E-003   6.4880172890512372E-002
   4.5611020890844803E-003  -1.3740193059803840E-003   6.5952171796327910E-002
   4.3631147602549705E-003  -1.3018512192378845E-003   6.5829379077453065E-002
   4.1651274314254520E-003  -1.2302871517018421E-003   6.5893946315678117E-002
   3.9671401025959370E-003  -1.1593271033723679E-003   6.6145873511003539E-002
   3.7691527737664229E-003  -1.0889710742496839E-003   6.6585160663428677E-002
  -1.3400169862620714E-011   1.0098755165444118E-011   6.7324172668488447E-002
  -1.3346615479470358E-011   3.8908876121013236E-012   6.7235231042338972E-002
  -1.3293061096320002E-011  -1.4525713964985698E-011   6.7354904116855685E-002
  -1.3239510182616598E-011  -4.5150772010060791E-011   6.7683191892038364E-002
  -1.3185952330019290E-011  -8.7984675101182575E-011   6.8220094367887285E-002
   1.5727879400108877E-002  -4.3558840330445436E-003   6.1260035139307223E-002
   1.4386286648384747E-002  -4.0646154799120482E-003   6.0809827113903481E-002
   1.3044693896660624E-002  -3.7512422702987991E-003   6.0631966469063825E-002
   1.1703101144936511E-002  -3.4157644042046367E-003   6.0726453204788450E-002
   1.0361508393212371E-002  -3.0581818816302064E-003   6.1093287321077439E-002
   1.1633092480413845E-002  -3.2669130467796181E-003   6.3105131049138619E-002
   1.0579609814692678E-002  -3.0484616501094131E-003   6.2798572008563425E-002
   9.5261271489714971E-003  -2.8134317729681668E-003   6.2795885759430153E-002
   8.4726444832503474E-003  -2.5618234153559488E-003   6.3097072301738374E-002
   7.4191618175291629E-003  -2.2936365772725509E-003   6.3702131635487991E-002
   7.6468502716330149E-003  -2.1779420605146371E-003   6.4880172890512372E-002
   6.9130031027921784E-003  -2.0323078203068612E-003   6.4711736658756430E-002
   6.1791559339513438E-003  -1.8756212756376872E-003   6.4878698629319526E-002
   5.4453087651104804E-003  -1.7078824265069244E-003   6.5381058802201603E-002
   4.7114615962696588E-003  -1.5290912729148953E-003   6.6218817177402634E-002
   3.7691527737664229E-003  -1.0889710742496839E-003   6.6585160663428677E-002
   3.3864665126832685E-003  -1.0161539905041567E-003   6.6549321064482261E-002
   3.0037802516001042E-003  -9.3781077830713128E-004   6.6880405078732080E-002
   2.6210939905169416E-003  -8.5394143765812371E-004   6.7578412706178412E-002
   2.2384077294337716E-003  -7.6454596855718426E-004   6.8643343946820895E-002
  -1.3185952330019290E-011  -8.7984675101182575E-011   6.8220094367887285E-002
   4.4365927598377652E-011  -1.6070161867887123E-010   6.8311325225740627E-002
   1.0191782140456240E-010  -2.8097658921755198E-010   6.8801005107667873E-002
   1.5946970653712977E-010  -4.4880913221967411E-010   6.9689134013668955E-002
   2.1702159513914410E-010  -6.6419958422159198E-010   7.0975711943743303E-002
  -1.3533861531467295E-012   0.0000000000000000        2.8445186845283528E-002
  -1.5229319541565367E-012   3.3390998299687169E-013   3.3407812899047304E-002
  -1.6924781888472129E-012   5.8554376625163940E-013   3.8377843138475018E-002
  -1.8620246403783236E-012   7.5489788031735117E-013   4.3355277563566635E-002
  -2.0315710919094343E-012   8.4197839672617292E-013   4.8340116174322184E-002
  -6.7993843730461915E-003   0.0000000000000000        2.8509065970053694E-002
  -6.8313940342264162E-003   1.4629246569132504E-004   3.3544924688427666E-002
  -6.8634036954066443E-003   3.2965336443473246E-004   3.8509359899116351E-002
  -6.8954133565868742E-003   5.5008269623021966E-004   4.3402371602119752E-002
  -6.9274230177671006E-003   8.0758046107778664E-004   4.8223959797437863E-002
  -1.3504656449939100E-002   0.0000000000000000        2.8700703343614097E-002
  -1.3647503465479219E-002   2.9258493104874182E-004   3.3846863159732621E-002
  -1.3790350481019334E-002   6.5930672828392028E-004   3.8842771774816647E-002
  -1.3933197496559453E-002   1.1001653917055371E-003   4.3688429188866180E-002
  -1.4076044512099569E-002   1.6151609213135919E-003   4.8383835401881209E-002
  -2.0115816232032121E-002   0.0000000000000000        2.9020098965964740E-002
  -2.0448328295281336E-002   4.3887739640615774E-004   3.4313628312962155E-002
  -2.0780840358530551E-002   9.8896009213310853E-004   3.9378078765575877E-002
  -2.1113352421779762E-002   1.6502480871808602E-003   4.4213450323805900E-002
  -2.1445864485028981E-002   2.4227413815493953E-003   4.8819742987652216E-002
  -2.6632863719325245E-002   0.0000000000000000        2.9467252837105613E-002
  -2.7233868523632764E-002   5.8516986176357366E-004   3.4945220148116296E-002
  -2.7834873327940289E-002   1.3186134559822985E-003   4.0115280871394085E-002
  -2.8435878132247811E-002   2.2003307826561746E-003   4.4977435006938946E-002
  -2.9036882936555333E-002   3.2303218417852036E-003   4.9531682554750905E-002
  -2.0315710919094343E-012   8.4197839672617292E-013   4.8340116174322184E-002
  -2.3698751294709552E-012   9.4178831400171248E-013   5.1509055000436468E-002
  -2.7081778659898692E-012   1.1492905151871957E-012   5.4543688055730587E-002
  -3.0464790846257417E-012   1.4644990407007563E-012   5.7444015340204539E-002
  -3.3847855074320421E-012   1.8874554696957091E-012   6.0210036853858333E-002
  -6.9274230177671006E-003   8.0758046107778664E-004   4.8223959797437863E-002
  -7.0326295558835617E-003   1.0621468014708514E-003   5.1179333737070509E-002
  -7.1378360940000229E-003   1.2737818599028357E-003   5.4058600371967032E-002
  -7.2430426321164849E-003   1.4424856363737467E-003   5.6861759702127382E-002
  -7.3482491702329443E-003   1.5682581308835569E-003   5.9588811727551580E-002
  -1.4076044512099569E-002   1.6151609213135919E-003   4.8383835401881209E-002
  -1.4228259121910180E-002   2.1242936019999284E-003   5.1082713172963451E-002
  -1.4380473731720796E-002   2.5475637186563880E-003   5.3763682105393541E-002
  -1.4532688341531406E-002   2.8849712712829736E-003   5.6426742199171501E-002
  -1.4684902951342019E-002   3.1365162598796896E-003   5.9071893454297315E-002
  -2.1445864485028981E-002   2.4227413815493953E-003   4.8819742987652216E-002
  -2.1586888700449731E-002   3.1864404025289984E-003   5.1219193308115238E-002
  -2.1727912915870496E-002   3.8213455774099400E-003   5.3658933256010150E-002
  -2.1868937131291247E-002   4.3274569061922006E-003   5.6138962831336889E-002
  -2.2009961346712008E-002   4.7047743888757928E-003   5.8659282034095497E-002
  -2.9036882936555333E-002   3.2303218417852036E-003   4.9531682554750905E-002
  -2.9108518291502225E-002   4.2485872030580737E-003   5.1588774142525926E-002
  -2.9180153646449113E-002   5.0951274361634834E-003   5.3744353823816822E-002
  -2.9251789001396005E-002   5.7699425411014233E-003   5.5998421598623602E-002
  -2.9323424356342900E-002   6.2730325178719307E-003   5.8350977466946223E-002
  -3.3847855074320421E-012   1.8874554696957091E-012   6.0210036853858333E-002
  -4.5542571450174485E-012   2.1237976655097413E-012   6.1115579159232283E-002
  -5.7237270478793789E-012   1.8793629846802773E-012   6.2162564498509709E-002
  -6.8931973844221783E-012   1.1540642573526494E-012   6.3350992871690576E-002
  -8.0626685883267157E-012  -5.1986193128072955E-014   6.4680864278774897E-002
  -7.3482491702329443E-003   1.5682581308835569E-003   5.9588811727551580E-002
  -7.2203523550316215E-003   1.6645130098734418E-003   6.0484351226352123E-002
  -7.0924555398302978E-003   1.7446639397845111E-003   6.1494241323990798E-002
  -6.9645587246289714E-003   1.8087109206168005E-003   6.2618482020467617E-002
  -6.8366619094276451E-003   1.8566539523702796E-003   6.3857073315782498E-002
  -1.4684902951342019E-002   3.1365162598796896E-003   5.9071893454297315E-002
  -1.4456201754835243E-002   3.3290260176230668E-003   5.9941326197926470E-002
  -1.4227500558328471E-002   3.4893278776896601E-003   6.0898017105328411E-002
  -1.3998799361821699E-002   3.6174218400794817E-003   6.1941966176503119E-002
  -1.3770098165314926E-002   3.7133079047925316E-003   6.3073173411450606E-002
  -2.2009961346712008E-002   4.7047743888757928E-003   5.8659282034095497E-002
  -2.1707548203965126E-002   4.9935390253727082E-003   5.9486504073955324E-002
  -2.1405135061218244E-002   5.2339918155948229E-003   6.0373891842522572E-002
  -2.1102721918471363E-002   5.4261327595421342E-003   6.1321445339797227E-002
  -2.0800308775724481E-002   5.5699618572147905E-003   6.2329164565779353E-002
  -2.9323424356342900E-002   6.2730325178719307E-003   5.8350977466946223E-002
  -2.8974391702421262E-002   6.6580520331223358E-003   5.9119884854438705E-002
  -2.8625359048499617E-002   6.9786557534999693E-003   5.9921865535573299E-002
  -2.8276326394577975E-002   7.2348436790048744E-003   6.0756919510349922E-002
  -2.7927293740656337E-002   7.4266158096370632E-003   6.1625046778768663E-002
  -8.0626685883267157E-012  -5.1986193128072955E-014   6.4680864278774897E-002
  -6.2064901829028685E-012  -2.0658544319651639E-012   6.4892827147662702E-002
  -4.3503048385851173E-012  -5.2143567241813571E-012   6.5250218777902880E-002
  -2.4941255657995320E-012  -9.4974653142010368E-012   6.5753039169495361E-002
  -6.3794108884351886E-013  -1.4915207957599819E-011   6.6401288322440161E-002
  -6.8366619094276451E-003   1.8566539523702796E-003   6.3857073315782498E-002
  -6.6815702344962891E-003   1.8854364927376951E-003   6.3970816224456911E-002
  -6.5264785595649270E-003   1.8920019994119255E-003   6.4249313717929385E-002
  -6.3713868846335710E-003   1.8763504723929934E-003   6.4692565796199877E-002
  -6.2162952097022089E-003   1.8384819116807893E-003   6.5300572459268388E-002
  -1.3770098165314926E-002   3.7133079047925316E-003   6.3073173411450606E-002
  -1.3440588993862692E-002   3.7708729875412760E-003   6.3066479327353098E-002
  -1.3111079822410464E-002   3.7840040040382356E-003   6.3243865651499309E-002
  -1.2781570650958238E-002   3.7527009542834243E-003   6.3605332383889240E-002
  -1.2452061479506003E-002   3.6769638382768283E-003   6.4150879524522864E-002
  -2.0800308775724481E-002   5.5699618572147905E-003   6.2329164565779353E-002
  -2.0277056284305699E-002   5.6563094823448273E-003   6.2179816456351338E-002
  -1.9753803792886913E-002   5.6760060086645317E-003   6.2233874578612736E-002
  -1.9230551301468123E-002   5.6290514361738552E-003   6.2491338932563464E-002
  -1.8707298810049341E-002   5.5154457648728464E-003   6.2952209518203656E-002
  -2.7927293740656337E-002   7.4266158096370632E-003   6.1625046778768663E-002
  -2.7190972105825304E-002   7.5417459771483855E-003   6.1310827611451554E-002
  -2.6454650470994268E-002   7.5680080132908313E-003   6.1219340499269505E-002
  -2.5718328836163241E-002   7.5054019180642870E-003   6.1350585442222619E-002
  -2.4982007201332198E-002   7.3539276914688645E-003   6.1704562440310751E-002
  -6.3794108884351886E-013  -1.4915207957599819E-011   6.6401288322440161E-002
   2.1742573019789546E-012  -1.8989906869215645E-011   6.6243376393650133E-002
   4.9864556928014281E-012  -1.9243960591719400E-011   6.6276873325493493E-002
   7.7986549509856395E-012  -1.5677131467994876E-011   6.6501779117970200E-002
   1.0610852474446375E-011  -8.2895912356661938E-012   6.6918093771080323E-002
  -6.2162952097022089E-003   1.8384819116807893E-003   6.5300572459268388E-002
  -6.0278757415101764E-003   1.7887029615074185E-003   6.5119398203781029E-002
  -5.8394562733181466E-003   1.7373202661047221E-003   6.5123654018420019E-002
  -5.6510368051261098E-003   1.6843338254728356E-003   6.5313339903185302E-002
  -5.4626173369340843E-003   1.6297436396117693E-003   6.5688455858076894E-002
  -1.2452061479506003E-002   3.6769638382768283E-003   6.4150879524522864E-002
  -1.2081201336441198E-002   3.5774059420046814E-003   6.3944839193288236E-002
  -1.1710341193376380E-002   3.4746405514534014E-003   6.3918250141672919E-002
  -1.1339481050311573E-002   3.3686676666228018E-003   6.4071112369676816E-002
  -1.0968620907246766E-002   3.2594872875131298E-003   6.4403425877299941E-002
  -1.8707298810049341E-002   5.5154457648728464E-003   6.2952209518203656E-002
  -1.8159976782618797E-002   5.3661089225019894E-003   6.2719699362171810E-002
  -1.7612654755188265E-002   5.2119608368019991E-003   6.2660661695252098E-002
  -1.7065332727757728E-002   5.0530015077728235E-003   6.2775096517444673E-002
  -1.6518010700327185E-002   4.8892309354144903E-003   6.3063003828749326E-002
  -2.4982007201332198E-002   7.3539276914688645E-003   6.1704562440310751E-002
  -2.4264202080042992E-002   7.1548119029992835E-003   6.1443978710431613E-002
  -2.3546396958753782E-002   6.9492811221507217E-003   6.1350888679157639E-002
  -2.2828591837464583E-002   6.7373353489227801E-003   6.1425292346488886E-002
  -2.2110786716175359E-002   6.5189745833159063E-003   6.1667189712425186E-002
   1.0610852474446375E-011  -8.2895912356661938E-012   6.6918093771080323E-002
   4.6080986249030786E-012  -1.6692203175239229E-013   6.6685269119681811E-002
  -1.3946586940871697E-012   5.6053495178787216E-012   6.6675340718783616E-002
  -7.3974116762687281E-012   9.0271540242881088E-012   6.6888308568385818E-002
  -1.3400169862620714E-011   1.0098755165444118E-011   6.7324172668488447E-002
  -5.4626173369340843E-003   1.6297436396117693E-003   6.5688455858076894E-002
  -5.2372385310256869E-003   1.5722168263142822E-003   6.5412592789324570E-002
  -5.0118597251172948E-003   1.5104205033734802E-003   6.5364591093894198E-002
  -4.7864809192089018E-003   1.4443546707894085E-003   6.5544450771785806E-002
  -4.5611021133005053E-003   1.3740193285617930E-003   6.5952171822999284E-002
  -1.0968620907246766E-002   3.2594872875131298E-003   6.4403425877299941E-002
  -1.0512898166605639E-002   3.1444336527955141E-003   6.4080254883900858E-002
  -1.0057175425964515E-002   3.0208410011416664E-003   6.3989910386645199E-002
  -9.6014526853233934E-003   2.8887093325513299E-003   6.4132392385533060E-002
  -9.1457299446822734E-003   2.7480386470247475E-003   6.4507700880564511E-002
  -1.6518010700327185E-002   4.8892309354144903E-003   6.3063003828749326E-002
  -1.5826978902131757E-002   4.7166504792768710E-003   6.2688255403410414E-002
  -1.5135947103936322E-002   4.5312614989098249E-003   6.2551298597036564E-002
  -1.4444915305740894E-002   4.3330639943134734E-003   6.2652133409627789E-002
  -1.3753883507545469E-002   4.1220579654877715E-003   6.2990759841184130E-002
  -2.2110786716175359E-002   6.5189745833159063E-003   6.1667189712425186E-002
  -2.1179480737604030E-002   6.2888673057580058E-003   6.1236594347853418E-002
  -2.0248174759032719E-002   6.0416819966779556E-003   6.1048755725068321E-002
  -1.9316868780461398E-002   5.7774186560753879E-003   6.1103673844069922E-002
  -1.8385562801890069E-002   5.4960772839506844E-003   6.1401348704858250E-002
  -1.3400169862620714E-011   1.0098755165444118E-011   6.7324172668488447E-002
  -1.3346615479470358E-011   3.8908876121013236E-012   6.7235231042338972E-002
  -1.3293061096320002E-011  -1.4525713964985698E-011   6.7354904116855685E-002
  -1.3239510182616598E-011  -4.5150772010060791E-011   6.7683191892038364E-002
  -1.3185952330019290E-011  -8.7984675101182575E-011   6.8220094367887285E-002
  -4.5611021133005053E-003   1.3740193285617930E-003   6.5952171822999284E-002
  -4.3631147839904329E-003   1.3018512307465813E-003   6.5829379087088469E-002
  -4.1651274546803622E-003   1.2302871313989439E-003   6.5893946309024509E-002
  -3.9671401253702915E-003   1.1593270305191583E-003   6.6145873488807627E-002
  -3.7691527960602191E-003   1.0889709281072801E-003   6.6585160626437656E-002
  -9.1457299446822734E-003   2.7480386470247475E-003   6.4507700880564511E-002
  -8.7710100289348190E-003   2.6037024576020529E-003   6.4351661045568609E-002
  -8.3962901131873664E-003   2.4605742773234907E-003   6.4361726425600660E-002
  -8.0215701974399173E-003   2.3186541061892552E-003   6.4537897020660442E-002
  -7.6468502816924612E-003   2.1779419441990966E-003   6.4880172830747998E-002
  -1.3753883507545469E-002   4.1220579654877715E-003   6.2990759841184130E-002
  -1.3223685748179765E-002   3.9055536844576910E-003   6.2802076917779684E-002
  -1.2693487988814076E-002   3.6908614232481207E-003   6.2758244466583943E-002
  -1.2163290229448374E-002   3.4779811818594353E-003   6.2859262487596865E-002
  -1.1633092470082672E-002   3.2669129602910379E-003   6.3105130980818533E-002
  -1.8385562801890069E-002   5.4960772839506844E-003   6.1401348704858250E-002
  -1.7721141941725266E-002   5.2074049113133014E-003   6.1180626703721597E-002
  -1.7056721081560471E-002   4.9211485691727369E-003   6.1083500431974497E-002
  -1.6392300221395685E-002   4.6373082575294038E-003   6.1109969889617019E-002
  -1.5727879361230879E-002   4.3558839763828683E-003   6.1260035076649011E-002
  -1.3185952330019290E-011  -8.7984675101182575E-011   6.8220094367887285E-002
   4.4365927598377652E-011  -1.6070161867887123E-010   6.8311325225740627E-002
   1.0191782140456240E-010  -2.8097658921755198E-010   6.8801005107667873E-002
   1.5946970653712977E-010  -4.4880913221967411E-010   6.9689134013668955E-002
   2.1702159513914410E-010  -6.6419958422159198E-010   7.0975711943743303E-002
  -3.7691527960602191E-003   1.0889709281072801E-003   6.6585160626437656E-002
  -3.3864664223656193E-003   1.0161537136530452E-003   6.6549320938547263E-002
  -3.0037800486710248E-003   9.3781027664720240E-004   6.6880404858868425E-002
  -2.6210936749764321E-003   8.5394061708901972E-004   6.7578412387401463E-002
  -2.2384073012818445E-003   7.6454473497900022E-004   6.8643343524145806E-002
  -7.6468502816924612E-003   2.1779419441990966E-003   6.4880172830747998E-002
  -6.9130030077172080E-003   2.0323075880080144E-003   6.4711736422119429E-002
  -6.1791557337419600E-003   1.8756208342707234E-003   6.4878698205840635E-002
  -5.4453084597666981E-003   1.7078816829873399E-003   6.5381058181911242E-002
  -4.7114611857914449E-003   1.5290901341576957E-003   6.6218816350331722E-002
  -1.1633092470082672E-002   3.2669129602910379E-003   6.3105130980818533E-002
  -1.0579609711688814E-002   3.0484614623629419E-003   6.2798571676457665E-002
  -9.5261269532949441E-003   2.8134313918944352E-003   6.2795885148584474E-002
  -8.4726441949011001E-003   2.5618227488856315E-003   6.3097071397198931E-002
  -7.4191614365072007E-003   2.2936355333362801E-003   6.3702130422300871E-002
  -1.5727879361230879E-002   4.3558839763828683E-003   6.1260035076649011E-002
  -1.4386286534280451E-002   4.0646153367175919E-003   6.0809826701561709E-002
  -1.3044693707330027E-002   3.7512419495180360E-003   6.0631965687100109E-002
  -1.1703100880379598E-002   3.4157638147838121E-003   6.0726452033263878E-002
  -1.0361508053429169E-002   3.0581809325149756E-003   6.1093285740053238E-002
  -2.6632863719325245E-002   0.0000000000000000        2.9467252837105613E-002
  -2.7233868523632764E-002   5.8516986176357366E-004   3.4945220148116296E-002
  -2.7834873327940289E-002   1.3186134559822985E-003   4.0115280871394085E-002
  -2.8435878132247811E-002   2.2003307826561746E-003   4.4977435006938946E-002
  -2.9036882936555333E-002   3.2303218417852036E-003   4.9531682554750905E-002
  -3.3392736481456409E-002   0.0000000000000000        3.0176988706096395E-002
  -3.4236539399367195E-002   9.6011889077066755E-004   3.5266118661313434E-002
  -3.5080342317277982E-002   2.0235980781915562E-003   4.0177558977056854E-002
  -3.5924145235188776E-002   3.1904375622626704E-003   4.4911309653326660E-002
  -3.6767948153099569E-002   4.4606373429839988E-003   4.9467370690122844E-002
  -4.0732372088063559E-002   0.0000000000000000        3.1284130321996728E-002
  -4.1688756171318321E-002   1.3350679197777632E-003   3.5939509485615195E-002
  -4.2645140254573076E-002   2.7285827004008148E-003   4.0547415958019327E-002
  -4.3601524337827824E-002   4.1805443418691584E-003   4.5107849739209144E-002
  -4.4557908421082586E-002   5.6909528441827914E-003   4.9620810829184646E-002
  -4.8651770539146690E-002   0.0000000000000000        3.2788677684806623E-002
  -4.9590518839486120E-002   1.7100169487848562E-003   3.6965392621021581E-002
  -5.0529267139825557E-002   3.4335673226100734E-003   4.1224851814281503E-002
  -5.1468015440164987E-002   5.1706511214756473E-003   4.5567055264586410E-002
  -5.2406763740504417E-002   6.9212683453815822E-003   4.9992002971936275E-002
  -5.7150931834705800E-002   0.0000000000000000        3.4690630794526084E-002
  -5.7941827403870612E-002   2.0849659777919527E-003   3.8343768067532605E-002
  -5.8732722973035431E-002   4.1385519448193311E-003   4.2209866545843383E-002
  -5.9523618542200230E-002   6.1607579010821405E-003   4.6288926229458419E-002
  -6.0314514111365049E-002   8.1515838465803757E-003   5.0580947118377739E-002
  -2.9036882936555333E-002   3.2303218417852036E-003   4.9531682554750905E-002
  -2.9108518291502225E-002   4.2485872030580737E-003   5.1588774142525926E-002
  -2.9180153646449113E-002   5.0951274361634834E-003   5.3744353823816822E-002
  -2.9251789001396005E-002   5.7699425411014233E-003   5.5998421598623602E-002
  -2.9323424356342900E-002   6.2730325178719307E-003   5.8350977466946223E-002
  -3.6767948153099569E-002   4.4606373429839988E-003   4.9467370690122844E-002
  -3.6779862422613621E-002   5.6939417674252918E-003   5.1252362149687161E-002
  -3.6791776692127701E-002   6.7500951826562922E-003   5.3058307686601240E-002
  -3.6803690961641780E-002   7.6290975886770078E-003   5.4885207300865074E-002
  -3.6815605231155839E-002   8.3309489854874533E-003   5.6733060992478712E-002
  -4.4557908421082586E-002   5.6909528441827914E-003   4.9620810829184646E-002
  -4.4587635621329925E-002   7.1392963317925091E-003   5.1128276279495392E-002
  -4.4617362821577279E-002   8.4050629291491080E-003   5.2579161790989828E-002
  -4.4647090021824619E-002   9.4882526362526001E-003   5.3973467363667912E-002
  -4.4676817222071973E-002   1.0388865453102972E-002   5.5311192997529679E-002
  -5.2406763740504417E-002   6.9212683453815822E-003   4.9992002971936275E-002
  -5.2531837887651131E-002   8.5846508961597377E-003   5.1216516531950647E-002
  -5.2656912034797859E-002   1.0060030675641915E-002   5.2306916136982587E-002
  -5.2781986181944587E-002   1.1347407683828180E-002   5.3263201787032102E-002
  -5.2907060329091302E-002   1.2446781920718507E-002   5.4085373482099214E-002
  -6.0314514111365049E-002   8.1515838465803757E-003   5.0580947118377739E-002
  -6.0612469221577252E-002   1.0030005460526945E-002   5.1517082907052883E-002
  -6.0910424331789420E-002   1.1714998422134736E-002   5.2241570724579543E-002
  -6.1208379442001623E-002   1.3206562731403772E-002   5.2754410570957644E-002
  -6.1506334552213812E-002   1.4504698388334021E-002   5.3055602446187268E-002
  -2.9323424356342900E-002   6.2730325178719307E-003   5.8350977466946223E-002
  -2.8974391702421262E-002   6.6580520331223358E-003   5.9119884854438705E-002
  -2.8625359048499617E-002   6.9786557534999693E-003   5.9921865535573299E-002
  -2.8276326394577975E-002   7.2348436790048744E-003   6.0756919510349922E-002
  -2.7927293740656337E-002   7.4266158096370632E-003   6.1625046778768663E-002
  -3.6815605231155839E-002   8.3309489854874533E-003   5.6733060992478712E-002
  -3.6381579158212163E-002   8.8714749857562100E-003   5.7079899599875035E-002
  -3.5947553085268494E-002   9.2665012021518282E-003   5.7563651751673328E-002
  -3.5513527012324832E-002   9.5160276346744222E-003   5.8184317447873592E-002
  -3.5079500939381156E-002   9.6200542833239505E-003   5.8941896688475846E-002
  -4.4676817222071973E-002   1.0388865453102972E-002   5.5311192997529679E-002
  -4.4053957479346380E-002   1.1084897938390084E-002   5.5154878835829514E-002
  -4.3431097736620787E-002   1.1554346650803758E-002   5.5239318469291220E-002
  -4.2808237993895208E-002   1.1797211590343986E-002   5.5564511897914774E-002
  -4.2185378251169615E-002   1.1813492757010803E-002   5.6130459121700157E-002
  -5.2907060329091302E-002   1.2446781920718507E-002   5.4085373482099214E-002
  -5.1991526665823899E-002   1.3298320891023965E-002   5.3344822562302184E-002
  -5.1075993002556497E-002   1.3842192099455638E-002   5.2948865688426945E-002
  -5.0160459339289094E-002   1.4078395546013568E-002   5.2897502860473393E-002
  -4.9244925676021692E-002   1.4006931230697673E-002   5.3190734078441666E-002
  -6.1506334552213812E-002   1.4504698388334021E-002   5.3055602446187268E-002
  -6.0194286717644721E-002   1.5511743843657829E-002   5.1649730779293086E-002
  -5.8882238883075609E-002   1.6130037548107545E-002   5.0692293409080477E-002
  -5.7570191048506497E-002   1.6359579501683118E-002   5.0183290335549587E-002
  -5.6258143213937420E-002   1.6200369704384571E-002   5.0122721558700289E-002
  -2.7927293740656337E-002   7.4266158096370632E-003   6.1625046778768663E-002
  -2.7190972105825304E-002   7.5417459771483855E-003   6.1310827611451554E-002
  -2.6454650470994268E-002   7.5680080132908313E-003   6.1219340499269505E-002
  -2.5718328836163241E-002   7.5054019180642870E-003   6.1350585442222619E-002
  -2.4982007201332198E-002   7.3539276914688645E-003   6.1704562440310751E-002
  -3.5079500939381156E-002   9.6200542833239505E-003   5.8941896688475846E-002
  -3.4127116155094540E-002   9.6194454604104501E-003   5.8591018857104674E-002
  -3.3174731370807925E-002   9.5550654782440604E-003   5.8449535269509578E-002
  -3.2222346586521303E-002   9.4269143368248889E-003   5.8517445925690546E-002
  -3.1269961802234673E-002   9.2349920361527171E-003   5.8794750825647599E-002
  -4.2185378251169615E-002   1.1813492757010803E-002   5.6130459121700157E-002
  -4.1030268128786428E-002   1.1697144943672539E-002   5.5768019598391047E-002
  -3.9875158006403233E-002   1.1542122943197343E-002   5.5601636507498955E-002
  -3.8720047884020045E-002   1.1348426755585408E-002   5.5631309849023897E-002
  -3.7564937761636857E-002   1.1116056380836598E-002   5.5857039622965968E-002
  -4.9244925676021692E-002   1.4006931230697673E-002   5.3190734078441666E-002
  -4.7900428026900956E-002   1.3774844426934505E-002   5.2841829835310571E-002
  -4.6555930377780198E-002   1.3529180408150626E-002   5.2675644213237456E-002
  -4.5211432728659434E-002   1.3269939174345942E-002   5.2692177212222510E-002
  -4.3866935079538691E-002   1.2997120725520450E-002   5.2891428832265497E-002
  -5.6258143213937420E-002   1.6200369704384571E-002   5.0122721558700289E-002
  -5.4737595849438131E-002   1.5852543910196665E-002   4.9812449567863307E-002
  -5.3217048484938835E-002   1.5516237873103897E-002   4.9671558386725351E-002
  -5.1696501120439539E-002   1.5191451593106527E-002   4.9700048015286394E-002
  -5.0175953755940222E-002   1.4878185070204358E-002   4.9897918453546519E-002
  -2.4982007201332198E-002   7.3539276914688645E-003   6.1704562440310751E-002
  -2.4264202080042992E-002   7.1548119029992835E-003   6.1443978710431613E-002
  -2.3546396958753782E-002   6.9492811221507217E-003   6.1350888679157639E-002
  -2.2828591837464583E-002   6.7373353489227801E-003   6.1425292346488886E-002
  -2.2110786716175359E-002   6.5189745833159063E-003   6.1667189712425186E-002
  -3.1269961802234673E-002   9.2349920361527171E-003   5.8794750825647599E-002
  -3.0378171316704419E-002   9.0020551442932667E-003   5.8521300895154213E-002
  -2.9486380831174133E-002   8.7508602293120130E-003   5.8428327994537822E-002
  -2.8594590345643892E-002   8.4814072912087965E-003   5.8515832123798392E-002
  -2.7702799860113602E-002   8.1936963299838184E-003   5.8783813282935804E-002
  -3.7564937761636857E-002   1.1116056380836598E-002   5.5857039622965968E-002
  -3.6486178580593720E-002   1.0849298385587104E-002   5.5558880461115637E-002
  -3.5407419399550569E-002   1.0552439336473186E-002   5.5454181660414055E-002
  -3.4328660218507424E-002   1.0225479233494783E-002   5.5542943220861229E-002
  -3.3249901037464308E-002   9.8684180766518692E-003   5.5825165142457334E-002
  -4.3866935079538691E-002   1.2997120725520450E-002   5.2891428832265497E-002
  -4.2588223871710892E-002   1.2696541626880987E-002   5.2556717408315634E-002
  -4.1309512663883045E-002   1.2354018443634446E-002   5.2428449676786247E-002
  -4.0030801456055212E-002   1.1969551175780756E-002   5.2506625637677620E-002
  -3.8752090248227379E-002   1.1543139823319878E-002   5.2791245290989393E-002
  -5.0175953755940222E-002   1.4878185070204358E-002   4.9897918453546519E-002
  -4.8684307190055932E-002   1.4543784868174911E-002   4.9514811736754344E-002
  -4.7192660624171587E-002   1.4155597550795672E-002   4.9351132043654586E-002
  -4.5701014058287283E-002   1.3713623118066736E-002   4.9406879374247266E-002
  -4.4209367492402937E-002   1.3217861569987888E-002   4.9682053728532349E-002
  -2.2110786716175359E-002   6.5189745833159063E-003   6.1667189712425186E-002
  -2.1179480737604030E-002   6.2888673057580058E-003   6.1236594347853418E-002
  -2.0248174759032719E-002   6.0416819966779556E-003   6.1048755725068321E-002
  -1.9316868780461398E-002   5.7774186560753879E-003   6.1103673844069922E-002
  -1.8385562801890069E-002   5.4960772839506844E-003   6.1401348704858250E-002
  -2.7702799860113602E-002   8.1936963299838184E-003   5.8783813282935804E-002
  -2.6534284807420414E-002   7.8914791187709582E-003   5.8378665963098694E-002
  -2.5365769754727215E-002   7.5785074307041858E-003   5.8205180049718613E-002
  -2.4197254702034036E-002   7.2547812657830727E-003   5.8263355542795547E-002
  -2.3028739649340824E-002   6.9203006240080578E-003   5.8553192442329621E-002
  -3.3249901037464308E-002   9.8684180766518692E-003   5.5825165142457334E-002
  -3.1855272245978845E-002   9.4940909317839106E-003   5.5451789422023022E-002
  -3.0460643454493390E-002   9.1153328647301385E-003   5.5298979772716139E-002
  -2.9066014663007941E-002   8.7321438754907575E-003   5.5366736194536727E-002
  -2.7671385871522475E-002   8.3445239640655144E-003   5.5655058687484785E-002
  -3.8752090248227379E-002   1.1543139823319878E-002   5.2791245290989393E-002
  -3.7142443053279302E-002   1.1096702744796752E-002   5.2455964724626360E-002
  -3.5532795858331204E-002   1.0652158298756147E-002   5.2330154894061148E-002
  -3.3923148663383106E-002   1.0209506485198276E-002   5.2413815799293703E-002
  -3.2313501468435007E-002   9.7687473041229017E-003   5.2706947440324184E-002
  -4.4209367492402937E-002   1.3217861569987888E-002   4.9682053728532349E-002
  -4.2395797229321797E-002   1.2699314557809760E-002   4.9391191870908735E-002
  -4.0582226966240691E-002   1.2188983732782308E-002   4.9298705413753391E-002
  -3.8768656703159571E-002   1.1686869094905985E-002   4.9404594357066164E-002
  -3.6955086440078416E-002   1.1192970644180289E-002   4.9708858700847292E-002
  -1.8385562801890069E-002   5.4960772839506844E-003   6.1401348704858250E-002
  -1.7721141941725266E-002   5.2074049113133014E-003   6.1180626703721597E-002
  -1.7056721081560471E-002   4.9211485691727369E-003   6.1083500431974497E-002
  -1.6392300221395685E-002   4.6373082575294038E-003   6.1109969889617019E-002
  -1.5727879361230879E-002   4.3558839763828683E-003   6.1260035076649011E-002
  -2.3028739649340824E-002   6.9203006240080578E-003   5.8553192442329621E-002
  -2.2236434027413383E-002   6.5786576770872907E-003   5.8336713047364819E-002
  -2.1444128405485981E-002   6.2334445967286156E-003   5.8252407446535800E-002
  -2.0651822783558531E-002   5.8846613829325392E-003   5.8300275639842518E-002
  -1.9859517161631111E-002   5.5323080356984855E-003   5.8480317627284839E-002
  -2.7671385871522475E-002   8.3445239640655144E-003   5.5655058687484785E-002
  -2.6742617423086219E-002   7.9499104428612938E-003   5.5436835734757273E-002
  -2.5813848974649944E-002   7.5457406242846123E-003   5.5359364640911617E-002
  -2.4885080526213677E-002   7.1320145083356209E-003   5.5422645405947921E-002
  -2.3956312077777410E-002   6.7087320950141027E-003   5.5626678029866178E-002
  -3.2313501468435007E-002   9.7687473041229017E-003   5.2706947440324184E-002
  -3.1239692128743692E-002   9.3211632086352345E-003   5.2480994765898979E-002
  -3.0165882789052412E-002   8.8580366518405500E-003   5.2404372015102056E-002
  -2.9092073449361107E-002   8.3793676337387858E-003   5.2477079187933151E-002
  -2.8018264109669819E-002   7.8851561543297199E-003   5.2699116284392264E-002
  -3.6955086440078416E-002   1.1192970644180289E-002   4.9708858700847292E-002
  -3.5727658144385874E-002   1.0692415974409231E-002   4.9469190140789931E-002
  -3.4500229848693345E-002   1.0170332679396460E-002   4.9387429569106966E-002
  -3.3272801553000816E-002   9.6267207591418311E-003   4.9463576985798341E-002
  -3.2045373257308260E-002   9.0615802136452817E-003   4.9697632390863944E-002
  -1.5727879361230879E-002   4.3558839763828683E-003   6.1260035076649011E-002
  -1.4386286534280451E-002   4.0646153367175919E-003   6.0809826701561709E-002
  -1.3044693707330027E-002   3.7512419495180360E-003   6.0631965687100109E-002
  -1.1703100880379598E-002   3.4157638147838121E-003   6.0726452033263878E-002
  -1.0361508053429169E-002   3.0581809325149756E-003   6.1093285740053238E-002
  -1.9859517161631111E-002   5.5323080356984855E-003   5.8480317627284839E-002
  -1.8243248171222918E-002   5.1723033618045755E-003   5.8050362305575531E-002
  -1.6626979180814714E-002   4.8005661680284306E-003   5.7897411950156102E-002
  -1.5010710190406529E-002   4.4170964543699537E-003   5.8021466561026386E-002
  -1.3394441199998337E-002   4.0218942208292141E-003   5.8422526138187214E-002
  -2.3956312077777410E-002   6.7087320950141027E-003   5.5626678029866178E-002
  -2.2060709318246982E-002   6.2799913868914758E-003   5.5227347989186659E-002
  -2.0165106558716551E-002   5.8498903865389362E-003   5.5109680520461668E-002
  -1.8269503799186130E-002   5.4184290939561786E-003   5.5273675623691010E-002
  -1.6373901039655660E-002   4.9856075091436747E-003   5.5719333298874685E-002
  -2.8018264109669819E-002   7.8851561543297199E-003   5.2699116284392264E-002
  -2.5838669975352703E-002   7.3876794119784733E-003   5.2340783752395384E-002
  -2.3659075841035593E-002   6.8992146050493308E-003   5.2268771398017042E-002
  -2.1479481706718512E-002   6.4197617335425283E-003   5.2483079221257709E-002
  -1.9299887572401371E-002   5.9493207974579687E-003   5.2983707222117316E-002
  -3.2045373257308260E-002   9.0615802136452817E-003   4.9697632390863944E-002
  -2.9577130142540015E-002   8.4953674370653598E-003   4.9390669595201331E-002
  -2.7108887027771762E-002   7.9485388235597948E-003   4.9374684582821987E-002
  -2.4640643913003506E-002   7.4210943731286179E-003   4.9649677353726038E-002
  -2.2172400798235292E-002   6.9130340857723738E-003   5.0215647907913663E-002
  -5.7150931834705800E-002   0.0000000000000000        3.4690630794526084E-002
  -5.7941827403870612E-002   2.0849659777919527E-003   3.8343768067532605E-002
  -5.8732722973035431E-002   4.1385519448193311E-003   4.2209866545843383E-002
  -5.9523618542200230E-002   6.1607579010821405E-003   4.6288926229458419E-002
  -6.0314514111365049E-002   8.1515838465803757E-003   5.0580947118377739E-002
  -6.5818431906729813E-002   0.0000000000000000        3.7212662825074905E-002
  -6.6625195693658171E-002   2.9145504766336476E-003   4.0835508359887751E-002
  -6.7431959480586501E-002   5.7713857506877892E-003   4.4213656253869263E-002
  -6.8238723267514831E-002   8.5705058221624292E-003   4.7347106507019461E-002
  -6.9045487054443203E-002   1.1311910691057556E-002   5.0235859119338318E-002
  -7.4242846687207667E-002   0.0000000000000000        4.0577446950372888E-002
  -7.5523137538035134E-002   3.7441349754753425E-003   4.4143665555177125E-002
  -7.6803428388862588E-002   7.4042195565562447E-003   4.7007527673014443E-002
  -7.8083719239690069E-002   1.0980253743242713E-002   4.9169033303884863E-002
  -7.9364010090517537E-002   1.4472237535534746E-002   5.0628182447788342E-002
  -8.2424176176139355E-002   0.0000000000000000        4.4784983170420026E-002
  -8.4635652937001551E-002   4.5737194743170383E-003   4.8268239653400741E-002
  -8.6847129697863734E-002   9.0370533624247046E-003   5.0591480803278917E-002
  -8.9058606458725889E-002   1.3390001664323001E-002   5.1754706620054623E-002
  -9.1270083219588086E-002   1.7632564380011921E-002   5.1757917103727798E-002
  -9.0362420373524877E-002   0.0000000000000000        4.9835271485216326E-002
  -9.3962741890557366E-002   5.4033039731587323E-003   5.3209230654558570E-002
  -9.7563063407589842E-002   1.0669887168293157E-002   5.4965515644662712E-002
 -0.10116338492462235        1.5799749585403294E-002   5.5104126455528750E-002
 -0.10476370644165482        2.0792891224489116E-002   5.3625063087156678E-002
  -6.0314514111365049E-002   8.1515838465803757E-003   5.0580947118377739E-002
  -6.0612469221577252E-002   1.0030005460526945E-002   5.1517082907052883E-002
  -6.0910424331789420E-002   1.1714998422134736E-002   5.2241570724579543E-002
  -6.1208379442001623E-002   1.3206562731403772E-002   5.2754410570957644E-002
  -6.1506334552213812E-002   1.4504698388334021E-002   5.3055602446187268E-002
  -6.9045487054443203E-002   1.1311910691057556E-002   5.0235859119338318E-002
  -6.9317595968251433E-002   1.3756390917964267E-002   4.9457157615701693E-002
  -6.9589704882059622E-002   1.5664737063473596E-002   4.8941796476021496E-002
  -6.9861813795867866E-002   1.7036949127585594E-002   4.8689775700297762E-002
  -7.0133922709676083E-002   1.7873027110300192E-002   4.8701095288530435E-002
  -7.9364010090517537E-002   1.4472237535534746E-002   5.0628182447788342E-002
  -7.9135284472816828E-002   1.7482776375401583E-002   4.7791938222781341E-002
  -7.8906558855116160E-002   1.9614475704812458E-002   4.5694022696835715E-002
  -7.8677833237415465E-002   2.0867335523767391E-002   4.4334435869951498E-002
  -7.8449107619714784E-002   2.1241355832266360E-002   4.3713177742128684E-002
  -9.1270083219588086E-002   1.7632564380011921E-002   5.1757917103727798E-002
  -9.0065534735273525E-002   2.1209161832838899E-002   4.6521424728291835E-002
  -8.8860986250958923E-002   2.3564214346151344E-002   4.2498249387022194E-002
  -8.7656437766644377E-002   2.4697721919949171E-002   3.9688391079918950E-002
  -8.6451889282329816E-002   2.4609684554232514E-002   3.8091849806981944E-002
 -0.10476370644165482        2.0792891224489116E-002   5.3625063087156678E-002
 -0.10210834675562143        2.4935547290276222E-002   4.5645617132233147E-002
  -9.9452987069588036E-002   2.7513952987490178E-002   3.9354476546580856E-002
  -9.6797627383554657E-002   2.8528108316131003E-002   3.4751641330199937E-002
  -9.4142267697521251E-002   2.7978013276198692E-002   3.1837111483090326E-002
  -6.1506334552213812E-002   1.4504698388334021E-002   5.3055602446187268E-002
  -6.0194286717644721E-002   1.5511743843657829E-002   5.1649730779293086E-002
  -5.8882238883075609E-002   1.6130037548107545E-002   5.0692293409080477E-002
  -5.7570191048506497E-002   1.6359579501683118E-002   5.0183290335549587E-002
  -5.6258143213937420E-002   1.6200369704384571E-002   5.0122721558700289E-002
  -7.0133922709676083E-002   1.7873027110300192E-002   4.8701095288530435E-002
  -6.8418915884000453E-002   1.8329591977332648E-002   4.7256329613064238E-002
  -6.6703909058324837E-002   1.8563264694398153E-002   4.6169047623129442E-002
  -6.4988902232649193E-002   1.8574045261496749E-002   4.5439249318726102E-002
  -6.3273895406973590E-002   1.8361933678628359E-002   4.5066934699854233E-002
  -7.8449107619714784E-002   2.1241355832266360E-002   4.3713177742128684E-002
  -7.6422092414082779E-002   2.1147440111007457E-002   4.2395377658997618E-002
  -7.4395077208450830E-002   2.0996491840688816E-002   4.1344110650247790E-002
  -7.2368062002818867E-002   2.0788511021310362E-002   4.0559376715879211E-002
  -7.0341046797186849E-002   2.0523497652872161E-002   4.0041175855891870E-002
  -8.6451889282329816E-002   2.4609684554232514E-002   3.8091849806981944E-002
  -8.4203816307891727E-002   2.3965288244682269E-002   3.7066874917093248E-002
  -8.1955743333453596E-002   2.3429718986979431E-002   3.6217482490435583E-002
  -7.9707670359015478E-002   2.3002976781124000E-002   3.5543672527008900E-002
  -7.7459597384577417E-002   2.2685061627115956E-002   3.5045445026813338E-002
  -9.4142267697521251E-002   2.7978013276198692E-002   3.1837111483090326E-002
  -9.1764087565427213E-002   2.6783136378357070E-002   3.1270821387351114E-002
  -8.9385907433333162E-002   2.5862946133270080E-002   3.0789163143692764E-002
  -8.7007727301239124E-002   2.5217442540937607E-002   3.0392136752115183E-002
  -8.4629547169145086E-002   2.4846625601359737E-002   3.0079742212618457E-002
  -5.6258143213937420E-002   1.6200369704384571E-002   5.0122721558700289E-002
  -5.4737595849438131E-002   1.5852543910196665E-002   4.9812449567863307E-002
  -5.3217048484938835E-002   1.5516237873103897E-002   4.9671558386725351E-002
  -5.1696501120439539E-002   1.5191451593106527E-002   4.9700048015286394E-002
  -5.0175953755940222E-002   1.4878185070204358E-002   4.9897918453546519E-002
  -6.3273895406973590E-002   1.8361933678628359E-002   4.5066934699854233E-002
  -6.1569348917621669E-002   1.8022470584879817E-002   4.4709736269644466E-002
  -5.9864802428269762E-002   1.7651196619337745E-002   4.4551155279440938E-002
  -5.8160255938917840E-002   1.7248111782002262E-002   4.4591191729243529E-002
  -5.6455709449565933E-002   1.6813216072873283E-002   4.4829845619052275E-002
  -7.0341046797186849E-002   2.0523497652872161E-002   4.0041175855891870E-002
  -6.8423264552675236E-002   2.0192397259562997E-002   3.9593720357420675E-002
  -6.6505482308163624E-002   1.9786155365571594E-002   3.9374118929262812E-002
  -6.4587700063651957E-002   1.9304771970897999E-002   3.9382371571418245E-002
  -6.2669917819140331E-002   1.8748247075542221E-002   3.9618478283886975E-002
  -7.7459597384577417E-002   2.2685061627115956E-002   3.5045445026813338E-002
  -7.5299342754598875E-002   2.2362323934246163E-002   3.4464401831191940E-002
  -7.3139088124620374E-002   2.1921114111805497E-002   3.4140449336191016E-002
  -7.0978833494641860E-002   2.1361432159793733E-002   3.4073587541810460E-002
  -6.8818578864663346E-002   2.0683278078211194E-002   3.4263816448050398E-002
  -8.4629547169145086E-002   2.4846625601359737E-002   3.0079742212618457E-002
  -8.2197583523392598E-002   2.4532250608929343E-002   2.9321780690958144E-002
  -7.9765619877640054E-002   2.4056072858039280E-002   2.8850146500225445E-002
  -7.7333656231887524E-002   2.3418092348689506E-002   2.8664839640420350E-002
  -7.4901692586135021E-002   2.2618309080880111E-002   2.8765860111542724E-002
  -5.0175953755940222E-002   1.4878185070204358E-002   4.9897918453546519E-002
  -4.8684307190055932E-002   1.4543784868174911E-002   4.9514811736754344E-002
  -4.7192660624171587E-002   1.4155597550795672E-002   4.9351132043654586E-002
  -4.5701014058287283E-002   1.3713623118066736E-002   4.9406879374247266E-002
  -4.4209367492402937E-002   1.3217861569987888E-002   4.9682053728532349E-002
  -5.6455709449565933E-002   1.6813216072873283E-002   4.4829845619052275E-002
  -5.4754663738205568E-002   1.6349192756253142E-002   4.4462142618825820E-002
  -5.3053618026845162E-002   1.5858725096443940E-002   4.4293810885859035E-002
  -5.1352572315484742E-002   1.5341813093445931E-002   4.4324850420152037E-002
  -4.9651526604124356E-002   1.4798456747258826E-002   4.4555261221704778E-002
  -6.2669917819140331E-002   1.8748247075542221E-002   3.9618478283886975E-002
  -6.0779528718736521E-002   1.8154600644331297E-002   3.9293521772386944E-002
  -5.8889139618332698E-002   1.7561852642092268E-002   3.9147880771713994E-002
  -5.6998750517928874E-002   1.6970003068825099E-002   3.9181555281868084E-002
  -5.5108361417525079E-002   1.6379051924529847E-002   3.9394545302849318E-002
  -6.8818578864663346E-002   2.0683278078211194E-002   3.4263816448050398E-002
  -6.6758902131648798E-002   1.9960008532409434E-002   3.4008949197437688E-002
  -6.4699225398634264E-002   1.9264980187740484E-002   3.3913341701219422E-002
  -6.2639548665619660E-002   1.8598193044204361E-002   3.3976993959395671E-002
  -6.0579871932605125E-002   1.7959647101800827E-002   3.4199905971966177E-002
  -7.4901692586135021E-002   2.2618309080880111E-002   2.8765860111542724E-002
  -7.2692783976942427E-002   2.1765416420487627E-002   2.8608424893978246E-002
  -7.0483875367749763E-002   2.0968107733388842E-002   2.8590193674375500E-002
  -6.8274966758557154E-002   2.0226383019583495E-002   2.8711166452734395E-002
  -6.6066058149364504E-002   1.9540242279071807E-002   2.8971343229055146E-002
  -4.4209367492402937E-002   1.3217861569987888E-002   4.9682053728532349E-002
  -4.2395797229321797E-002   1.2699314557809760E-002   4.9391191870908735E-002
  -4.0582226966240691E-002   1.2188983732782308E-002   4.9298705413753391E-002
  -3.8768656703159571E-002   1.1686869094905985E-002   4.9404594357066164E-002
  -3.6955086440078416E-002   1.1192970644180289E-002   4.9708858700847292E-002
  -4.9651526604124356E-002   1.4798456747258826E-002   4.4555261221704778E-002
  -4.7637436492563835E-002   1.4241740658378341E-002   4.4255838632889469E-002
  -4.5623346381003280E-002   1.3684749427300039E-002   4.4159080340564788E-002
  -4.3609256269442766E-002   1.3127483054023729E-002   4.4264986344730736E-002
  -4.1595166157882182E-002   1.2569941538549512E-002   4.4573556645387258E-002
  -5.5108361417525079E-002   1.6379051924529847E-002   3.9394545302849318E-002
  -5.2889462561462784E-002   1.5784166758947199E-002   3.9078070653493543E-002
  -5.0670563705400504E-002   1.5180515121817832E-002   3.8968549196650819E-002
  -4.8451664849338230E-002   1.4568097013141696E-002   3.9065980932320901E-002
  -4.6232765993275922E-002   1.3946912432918873E-002   3.9370365860504047E-002
  -6.0579871932605125E-002   1.7959647101800827E-002   3.4199905971966177E-002
  -5.8151875436018741E-002   1.7326592859516085E-002   3.3857887932721153E-002
  -5.5723878939432314E-002   1.6676280816335650E-002   3.3727111982011497E-002
  -5.3295882442845922E-002   1.6008710972259609E-002   3.3807578119836930E-002
  -5.0867885946259510E-002   1.5323883327288165E-002   3.4099286346197799E-002
  -6.6066058149364504E-002   1.9540242279071807E-002   2.8971343229055146E-002
  -6.3424675116231621E-002   1.8869018960084666E-002   2.8595290470572049E-002
  -6.0783292083098781E-002   1.8172046510853357E-002   2.8434768696646601E-002
  -5.8141909049965905E-002   1.7449324931377436E-002   2.8489777907278704E-002
  -5.5500526016833029E-002   1.6700854221657457E-002   2.8760318102468596E-002
  -3.6955086440078416E-002   1.1192970644180289E-002   4.9708858700847292E-002
  -3.5727658144385874E-002   1.0692415974409231E-002   4.9469190140789931E-002
  -3.4500229848693345E-002   1.0170332679396460E-002   4.9387429569106966E-002
  -3.3272801553000816E-002   9.6267207591418311E-003   4.9463576985798341E-002
  -3.2045373257308260E-002   9.0615802136452817E-003   4.9697632390863944E-002
  -4.1595166157882182E-002   1.2569941538549512E-002   4.4573556645387258E-002
  -4.0213559536046897E-002   1.2004345669090200E-002   4.4313957210001365E-002
  -3.8831952914211570E-002   1.1422916233858688E-002   4.4204806438526811E-002
  -3.7450346292376223E-002   1.0825653232854997E-002   4.4246104330963612E-002
  -3.6068739670540889E-002   1.0212556666079009E-002   4.4437850887311503E-002
  -4.6232765993275922E-002   1.3946912432918873E-002   3.9370365860504047E-002
  -4.4704440369760907E-002   1.3316275363771252E-002   3.9096530609259300E-002
  -4.3176114746245817E-002   1.2675499788320985E-002   3.8965684697462824E-002
  -4.1647789122730740E-002   1.2024585706568055E-002   3.8977828125114446E-002
  -4.0119463499215705E-002   1.1363533118512431E-002   3.9132960892214283E-002
  -5.0867885946259510E-002   1.5323883327288165E-002   3.4099286346197799E-002
  -4.9200300645527828E-002   1.4628205058452262E-002   3.3816910338563794E-002
  -4.7532715344796132E-002   1.3928083342783275E-002   3.3670064345914727E-002
  -4.5865130044064437E-002   1.3223518180281222E-002   3.3658748368251022E-002
  -4.4197544743332748E-002   1.2514509570945895E-002   3.3782962405572173E-002
  -5.5500526016833029E-002   1.6700854221657457E-002   2.8760318102468596E-002
  -5.3701140363347777E-002   1.5940134753133328E-002   2.8475096397914679E-002
  -5.1901754709862524E-002   1.5180666897245565E-002   2.8317945383882909E-002
  -5.0102369056377272E-002   1.4422450653994320E-002   2.8288865060372925E-002
  -4.8302983402891964E-002   1.3665486023379469E-002   2.8387855427385311E-002
  -3.2045373257308260E-002   9.0615802136452817E-003   4.9697632390863944E-002
  -2.9577130142540015E-002   8.4953674370653598E-003   4.9390669595201331E-002
  -2.7108887027771762E-002   7.9485388235597948E-003   4.9374684582821987E-002
  -2.4640643913003506E-002   7.4210943731286179E-003   4.9649677353726038E-002
  -2.2172400798235292E-002   6.9130340857723738E-003   5.0215647907913663E-002
  -3.6068739670540889E-002   1.0212556666079009E-002   4.4437850887311503E-002
  -3.3314947360116441E-002   9.5721313126542473E-003   4.4088382166354190E-002
  -3.0561155049692000E-002   8.8928819517042346E-003   4.4019034053425887E-002
  -2.7807362739267618E-002   8.1748085832291928E-003   4.4229806548526679E-002
  -2.5053570428843180E-002   7.4179112072292330E-003   4.4720699651656148E-002
  -4.0119463499215705E-002   1.1363533118512431E-002   3.9132960892214283E-002
  -3.7090979168389486E-002   1.0648895188243079E-002   3.8682778075362606E-002
  -3.4062494837563274E-002   9.8372250798487229E-003   3.8501858691285397E-002
  -3.1034010506737039E-002   8.9285227933297105E-003   3.8590202739982760E-002
  -2.8005526175910761E-002   7.9227883286858702E-003   3.8947810221455048E-002
  -4.4197544743332748E-002   1.2514509570945895E-002   3.3782962405572173E-002
  -4.0905225567359121E-002   1.1725659063832050E-002   3.3173857322226399E-002
  -3.7612906391385474E-002   1.0781568207993353E-002   3.2823158496400870E-002
  -3.4320587215411848E-002   9.6822370034302559E-003   3.2730865928095633E-002
  -3.1028268039438252E-002   8.4276654501426740E-003   3.2896979617310432E-002
  -4.8302983402891964E-002   1.3665486023379469E-002   2.8387855427385311E-002
  -4.4757686557025333E-002   1.2802422939420743E-002   2.7561619906945833E-002
  -4.1212389711158703E-002   1.1725911336137568E-002   2.6982933468772119E-002
  -3.7667092865292073E-002   1.0435951213530671E-002   2.6651796112863974E-002
  -3.4121796019425388E-002   8.9325425715993667E-003   2.6568207839222202E-002
  -9.0362420373524877E-002   0.0000000000000000        4.9835271485216326E-002
  -9.3962741890557366E-002   5.4033039731587323E-003   5.3209230654558570E-002
  -9.7563063407589842E-002   1.0669887168293157E-002   5.4965515644662712E-002
 -0.10116338492462235        1.5799749585403294E-002   5.5104126455528750E-002
 -0.10476370644165482        2.0792891224489116E-002   5.3625063087156678E-002
 -0.10329504152354034        0.0000000000000000        5.8662712279665928E-002
 -0.10683181676189732        1.0884755783901905E-002   5.2119230878277203E-002
 -0.11036859200025426        1.9172588682150989E-002   4.7320516213477631E-002
 -0.11390536723861124        2.4863498694747244E-002   4.4266568285267177E-002
 -0.11744214247696821        2.7957485821690678E-002   4.2957387093645855E-002
 -0.12645950187036178        0.0000000000000000        7.4201705938672965E-002
 -0.12657028991421601        1.6366207594645073E-002   5.5280581858924739E-002
 -0.12668107795807024        2.7675290196008812E-002   4.1466665431592928E-002
 -0.12679186600192444        3.3927247804091197E-002   3.2759956656677483E-002
 -0.12690265404577863        3.5122080418892261E-002   2.9160455534178367E-002
 -0.15985580141398931        0.0000000000000000        9.6452252462237417E-002
 -0.15317816134751350        2.1847659405388246E-002   6.2693283596501212E-002
 -0.14650052128103772        3.6177991709866651E-002   3.7403963299008601E-002
 -0.13982288121456193        4.2990996913435157E-002   2.0584291569759664E-002
 -0.13314524114808615        4.2286675016093803E-002   1.2234268408754306E-002
 -0.20348394015442281        0.0000000000000000       0.12541435185035932     
 -0.18665543106178978        2.7329111216131418E-002   7.4357336091006587E-002
 -0.16982692196915677        4.4680693223724449E-002   3.5132409815724713E-002
 -0.15299841287652374        5.2054746022779111E-002   7.7395730245136962E-003
 -0.13616990378389071        4.9451269613295386E-002  -7.8211742826265057E-003
 -0.10476370644165482        2.0792891224489116E-002   5.3625063087156678E-002
 -0.10210834675562143        2.4935547290276222E-002   4.5645617132233147E-002
  -9.9452987069588036E-002   2.7513952987490178E-002   3.9354476546580856E-002
  -9.6797627383554657E-002   2.8528108316131003E-002   3.4751641330199937E-002
  -9.4142267697521251E-002   2.7978013276198692E-002   3.1837111483090326E-002
 -0.11744214247696821        2.7957485821690678E-002   4.2957387093645855E-002
 -0.11348581515210308        2.9429445606713948E-002   3.6702836791405340E-002
 -0.10952948782723797        3.0254273593549715E-002   3.1361916397556928E-002
 -0.10557316050237285        3.0431969782197997E-002   2.6934625912100631E-002
 -0.10161683317750773        2.9962534172658720E-002   2.3420965335036532E-002
 -0.12690265404577863        3.5122080418892261E-002   2.9160455534178367E-002
 -0.12242003454296095        3.3923343923151703E-002   2.5547919455006528E-002
 -0.11793741504014332        3.2994594199609255E-002   2.2074337823347639E-002
 -0.11345479553732567        3.2335831248264953E-002   1.8739710639201667E-002
 -0.10897217603450798        3.1947055069118768E-002   1.5544037902568681E-002
 -0.13314524114808615        4.2286675016093803E-002   1.2234268408754306E-002
 -0.12891100492819510        3.8417242239589457E-002   1.2180865123036717E-002
 -0.12467676870830408        3.5734914805668788E-002   1.1491740823952877E-002
 -0.12044253248841301        3.4239692714331915E-002   1.0166895511502846E-002
 -0.11620829626852199        3.3931575965578754E-002   8.2063291856867126E-003
 -0.13616990378389071        4.9451269613295386E-002  -7.8211742826265057E-003
 -0.13295872630780547        4.2911140556027155E-002  -3.3983262045041429E-003
 -0.12974754883172021        3.8475235411728308E-002  -3.8587460062713616E-004
 -0.12653637135563497        3.6143554180398899E-002   1.2161805290044564E-003
 -0.12332519387954971        3.5916096862038810E-002   1.4078391843905802E-003
  -9.4142267697521251E-002   2.7978013276198692E-002   3.1837111483090326E-002
  -9.1764087565427213E-002   2.6783136378357070E-002   3.1270821387351114E-002
  -8.9385907433333162E-002   2.5862946133270080E-002   3.0789163143692764E-002
  -8.7007727301239124E-002   2.5217442540937607E-002   3.0392136752115183E-002
  -8.4629547169145086E-002   2.4846625601359737E-002   3.0079742212618457E-002
 -0.10161683317750773        2.9962534172658720E-002   2.3420965335036532E-002
  -9.9141327841130750E-002   2.9193559635495605E-002   2.3147961512332917E-002
  -9.6665822504753751E-002   2.8472639041272365E-002   2.2984976246114307E-002
  -9.4190317168376766E-002   2.7799772389988882E-002   2.2932009536380877E-002
  -9.1714811831999782E-002   2.7174959681645322E-002   2.2989061383132406E-002
 -0.10897217603450798        3.1947055069118768E-002   1.5544037902568681E-002
 -0.10637395878944383        3.1603982892634157E-002   1.5337687643085820E-002
 -0.10377574154437964        3.1082331949274605E-002   1.5266742644492359E-002
 -0.10117752429931548        3.0382102239040143E-002   1.5331202906788010E-002
  -9.8579307054251303E-002   2.9503293761930831E-002   1.5531068429973257E-002
 -0.11620829626852199        3.3931575965578754E-002   8.2063291856867126E-003
 -0.11346198041036640        3.4014406149772691E-002   7.8399997796099151E-003
 -0.11071566455221081        3.3692024857276931E-002   7.6344623388267625E-003
 -0.10796934869405522        3.2964432088091439E-002   7.5897168633371204E-003
 -0.10522303283589965        3.1831627842216270E-002   7.7057633531408360E-003
 -0.12332519387954971        3.5916096862038810E-002   1.4078391843905802E-003
 -0.12040539270389850        3.6424829406911219E-002   6.5489792190513707E-004
 -0.11748559152824725        3.6301717765279150E-002   8.8135329117458583E-005
 -0.11456579035259604        3.5546761937142644E-002  -2.9244859397257669E-004
 -0.11164598917694479        3.4159961922501869E-002  -4.8685384736468773E-004
  -8.4629547169145086E-002   2.4846625601359737E-002   3.0079742212618457E-002
  -8.2197583523392598E-002   2.4532250608929343E-002   2.9321780690958144E-002
  -7.9765619877640054E-002   2.4056072858039280E-002   2.8850146500225445E-002
  -7.7333656231887524E-002   2.3418092348689506E-002   2.8664839640420350E-002
  -7.4901692586135021E-002   2.2618309080880111E-002   2.8765860111542724E-002
  -9.1714811831999782E-002   2.7174959681645322E-002   2.2989061383132406E-002
  -8.9023787249236846E-002   2.6552502455909732E-002   2.2322030040066526E-002
  -8.6332762666473939E-002   2.5886702252450773E-002   2.1886793240093877E-002
  -8.3641738083711073E-002   2.5177559071268354E-002   2.1683350983214420E-002
  -8.0950713500948082E-002   2.4425072912362289E-002   2.1711703269428229E-002
  -9.8579307054251303E-002   2.9503293761930831E-002   1.5531068429973257E-002
  -9.5683754322312353E-002   2.8572754302890226E-002   1.5073427046237889E-002
  -9.2788201590373376E-002   2.7717331646862374E-002   1.4793047417761379E-002
  -8.9892648858434399E-002   2.6937025793847040E-002   1.4689929544543828E-002
  -8.6997096126495449E-002   2.6231836743844453E-002   1.4764073426585068E-002
 -0.10522303283589965        3.1831627842216270E-002   7.7057633531408360E-003
 -0.10217748474261895        3.0593006149870695E-002   7.5759717094721780E-003
  -9.9131936649338281E-002   2.9547961041273978E-002   7.5689090332281741E-003
  -9.6086388556057625E-002   2.8696492516425778E-002   7.6845753244085520E-003
  -9.3040840462776983E-002   2.8038600575326568E-002   7.9229705830135364E-003
 -0.11164598917694479        3.4159961922501869E-002  -4.8685384736468773E-004
 -0.10850497851015678        3.2613257996851053E-002  -1.7033597023022318E-004
 -0.10536396784336874        3.1378590435685458E-002   2.1437808649402146E-004
 -0.10222295717658071        3.0455959239004651E-002   6.6728832280873313E-004
  -9.9081946509792684E-002   2.9845364406808739E-002   1.1883947387134053E-003
  -7.4901692586135021E-002   2.2618309080880111E-002   2.8765860111542724E-002
  -7.2692783976942427E-002   2.1765416420487627E-002   2.8608424893978246E-002
  -7.0483875367749763E-002   2.0968107733388842E-002   2.8590193674375500E-002
  -6.8274966758557154E-002   2.0226383019583495E-002   2.8711166452734395E-002
  -6.6066058149364504E-002   1.9540242279071807E-002   2.8971343229055146E-002
  -8.0950713500948082E-002   2.4425072912362289E-002   2.1711703269428229E-002
  -7.8600390508783369E-002   2.3652375679389520E-002   2.1588369127581747E-002
  -7.6250067516618641E-002   2.2882599276007221E-002   2.1608659753717924E-002
  -7.3899744524453886E-002   2.2115743702214891E-002   2.1772575147836558E-002
  -7.1549421532289187E-002   2.1351808958013085E-002   2.2080115309937531E-002
  -8.6997096126495449E-002   2.6231836743844453E-002   1.4764073426585068E-002
  -8.4500937981337787E-002   2.5539334938291441E-002   1.4622177216753539E-002
  -8.2004779836180194E-002   2.4797090818625429E-002   1.4628326544925008E-002
  -7.9508621691022560E-002   2.4005104384846449E-002   1.4782521411100003E-002
  -7.7012463545864940E-002   2.3163375636954253E-002   1.5084761815278139E-002
  -9.3040840462776983E-002   2.8038600575326568E-002   7.9229705830135364E-003
  -9.0394426394605751E-002   2.7426294197193460E-002   7.7098491614932783E-003
  -8.7748012326434463E-002   2.6711582361243803E-002   7.6491940479971278E-003
  -8.5101598258263203E-002   2.5894465067477928E-002   7.7410052425248791E-003
  -8.2455184190091915E-002   2.4974942315895365E-002   7.9852827450766703E-003
  -9.9081946509792684E-002   2.9845364406808739E-002   1.1883947387134053E-003
  -9.6280855748587024E-002   2.9313253456095145E-002   8.5138496180126033E-004
  -9.3479764987381392E-002   2.8626073903862237E-002   6.7126226293368063E-004
  -9.0678674226175746E-002   2.7783825750109195E-002   6.4802664211116578E-004
  -8.7877583464970099E-002   2.6786508994836589E-002   7.8167809933321619E-004
  -6.6066058149364504E-002   1.9540242279071807E-002   2.8971343229055146E-002
  -6.3424675116231621E-002   1.8869018960084666E-002   2.8595290470572049E-002
  -6.0783292083098781E-002   1.8172046510853357E-002   2.8434768696646601E-002
  -5.8141909049965905E-002   1.7449324931377436E-002   2.8489777907278704E-002
  -5.5500526016833029E-002   1.6700854221657457E-002   2.8760318102468596E-002
  -7.1549421532289187E-002   2.1351808958013085E-002   2.2080115309937531E-002
  -6.8694511358049451E-002   2.0590950759981935E-002   2.1711121643605918E-002
  -6.5839601183809757E-002   1.9833324824701931E-002   2.1553651274930155E-002
  -6.2984691009570049E-002   1.9078931152173205E-002   2.1607704203910449E-002
  -6.0129780835330326E-002   1.8327769742395750E-002   2.1873280430546899E-002
  -7.7012463545864940E-002   2.3163375636954253E-002   1.5084761815278139E-002
  -7.3948033917420025E-002   2.2312882559878969E-002   1.4751808634093436E-002
  -7.0883604288975180E-002   2.1494603138550561E-002   1.4626371063663074E-002
  -6.7819174660530265E-002   2.0708537372968863E-002   1.4708449103987310E-002
  -6.4754745032085365E-002   1.9954685263133987E-002   1.4998042755065527E-002
  -8.2455184190091915E-002   2.4974942315895365E-002   7.9852827450766703E-003
  -7.9185242794343552E-002   2.4034814359775843E-002   7.7173514420345798E-003
  -7.5915301398595092E-002   2.3155881452399080E-002   7.6529280628451976E-003
  -7.2645360002846632E-002   2.2338143593764521E-002   7.7920126075088237E-003
  -6.9375418607098227E-002   2.1581600783872473E-002   8.1346050760248492E-003
  -8.7877583464970099E-002   2.6786508994836589E-002   7.8167809933321619E-004
  -8.4406137988819741E-002   2.5756746159673383E-002   6.0775006742946891E-004
  -8.0934692512669437E-002   2.4817159766247626E-002   6.3332227247696327E-004
  -7.7463247036519134E-002   2.3967749814560228E-002   8.5839471447519619E-004
  -7.3991801560368775E-002   2.3208516304610627E-002   1.2829673934248165E-003
  -5.5500526016833029E-002   1.6700854221657457E-002   2.8760318102468596E-002
  -5.3701140363347777E-002   1.5940134753133328E-002   2.8475096397914679E-002
  -5.1901754709862524E-002   1.5180666897245565E-002   2.8317945383882909E-002
  -5.0102369056377272E-002   1.4422450653994320E-002   2.8288865060372925E-002
  -4.8302983402891964E-002   1.3665486023379469E-002   2.8387855427385311E-002
  -6.0129780835330326E-002   1.8327769742395750E-002   2.1873280430546899E-002
  -5.8199083868759563E-002   1.7578344226453491E-002   2.1596335539076694E-002
  -5.6268386902188730E-002   1.6829158235430977E-002   2.1453942583255614E-002
  -5.4337689935617953E-002   1.6080211769327977E-002   2.1446101563083755E-002
  -5.2406992969047148E-002   1.5331504828144216E-002   2.1572812478560632E-002
  -6.4754745032085365E-002   1.9954685263133987E-002   1.4998042755065527E-002
  -6.2686255507302086E-002   1.9216553699773903E-002   1.4728362588962290E-002
  -6.0617765982518695E-002   1.8477649573616278E-002   1.4599715603635002E-002
  -5.8549276457735396E-002   1.7737972884661633E-002   1.4612101799083912E-002
  -5.6480786932952026E-002   1.6997523632909017E-002   1.4765521175308743E-002
  -6.9375418607098227E-002   2.1581600783872473E-002   8.1346050760248492E-003
  -6.7162655278975303E-002   2.0854763173094440E-002   7.8711775475715229E-003
  -6.4949891950852379E-002   2.0126140911801746E-002   7.7552644450210317E-003
  -6.2737128622729454E-002   1.9395733999995068E-002   7.7868657683736759E-003
  -6.0524365294606516E-002   1.8663542437673736E-002   7.9659815176295612E-003
  -7.3991801560368775E-002   2.3208516304610627E-002   1.2829673934248165E-003
  -7.1628283183779229E-002   2.2492972646414533E-002   1.0247804149041140E-003
  -6.9264764807189738E-002   2.1774632249987214E-002   9.2058910741354971E-004
  -6.6901246430600192E-002   2.1053495115329002E-002   9.7039347095345674E-004
  -6.4537728054010701E-002   2.0329561242438676E-002   1.1741935055231689E-003
  -4.8302983402891964E-002   1.3665486023379469E-002   2.8387855427385311E-002
  -4.4757686557025333E-002   1.2802422939420743E-002   2.7561619906945833E-002
  -4.1212389711158703E-002   1.1725911336137568E-002   2.6982933468772119E-002
  -3.7667092865292073E-002   1.0435951213530671E-002   2.6651796112863974E-002
  -3.4121796019425388E-002   8.9325425715993667E-003   2.6568207839222202E-002
  -5.2406992969047148E-002   1.5331504828144216E-002   2.1572812478560632E-002
  -4.8632635671306004E-002   1.4614845122253611E-002   2.0683507143151231E-002
  -4.4858278373564868E-002   1.3962040362029693E-002   2.0004773629225064E-002
  -4.1083921075823787E-002   1.3373090547472585E-002   1.9536611936782189E-002
  -3.7309563778082644E-002   1.2847995678581858E-002   1.9279022065822327E-002
  -5.6480786932952026E-002   1.6997523632909017E-002   1.4765521175308743E-002
  -5.2514346444119051E-002   1.6427267305086563E-002   1.4090449489920304E-002
  -4.8547905955286075E-002   1.6198169387921693E-002   1.3588972365232641E-002
  -4.4581465466452988E-002   1.6310229881414218E-002   1.3261089801245601E-002
  -4.0615024977620054E-002   1.6763448785564350E-002   1.3106801797958534E-002
  -6.0524365294606516E-002   1.8663542437673736E-002   7.9659815176295612E-003
  -5.6402818875464403E-002   1.8239689487919694E-002   7.7824469472532395E-003
  -5.2281272456322254E-002   1.8434298413813978E-002   7.7355296767946426E-003
  -4.8159726037180106E-002   1.9247369215356379E-002   7.8252297062541536E-003
  -4.4038179618037951E-002   2.0678901892547119E-002   8.0515470356310875E-003
  -6.4537728054010701E-002   2.0329561242438676E-002   1.1741935055231689E-003
  -6.0298052965342075E-002   2.0052111670752382E-002   1.7594995151495874E-003
  -5.6058377876673449E-002   2.0670427439705624E-002   2.4444455639110185E-003
  -5.1818702788004795E-002   2.2184508549297939E-002   3.2290316518080800E-003
  -4.7579027699336196E-002   2.4594354999529333E-002   4.1132577788396407E-003
 </DataArray>
 </PointData>
 </Piece>
 <Piece  NumberOfPoints="          1600 "  NumberOfCells="         1024 ">
 <Points>
 <DataArray  type="Float64" NumberOfComponents="3"  format="ascii" >
  0.50000000000000000        0.0000000000000000        0.0000000000000000     
  0.53125000000000000        0.0000000000000000        0.0000000000000000     
  0.56250000000000000        0.0000000000000000        0.0000000000000000     
  0.59375000000000000        0.0000000000000000        0.0000000000000000     
  0.62500000000000000        0.0000000000000000        0.0000000000000000     
  0.50000000000000000        3.1250000000000000E-002   0.0000000000000000     
  0.53125000000000000        3.1250000000000000E-002   0.0000000000000000     
  0.56250000000000000        3.1250000000000000E-002   0.0000000000000000     
  0.59375000000000000        3.1250000000000000E-002   0.0000000000000000     
  0.62500000000000000        3.1250000000000000E-002   0.0000000000000000     
  0.50000000000000000        6.2500000000000000E-002   0.0000000000000000     
  0.53125000000000000        6.2500000000000000E-002   0.0000000000000000     
  0.56250000000000000        6.2500000000000000E-002   0.0000000000000000     
  0.59375000000000000        6.2500000000000000E-002   0.0000000000000000     
  0.62500000000000000        6.2500000000000000E-002   0.0000000000000000     
  0.50000000000000000        9.3750000000000000E-002   0.0000000000000000     
  0.53125000000000000        9.3750000000000000E-002   0.0000000000000000     
  0.56250000000000000        9.3750000000000000E-002   0.0000000000000000     
  0.59375000000000000        9.3750000000000000E-002   0.0000000000000000     
  0.62500000000000000        9.3750000000000000E-002   0.0000000000000000     
  0.50000000000000000       0.12500000000000000        0.0000000000000000     
  0.53125000000000000       0.12500000000000000        0.0000000000000000     
  0.56250000000000000       0.12500000000000000        0.0000000000000000     
  0.59375000000000000       0.12500000000000000        0.0000000000000000     
  0.62500000000000000       0.12500000000000000        0.0000000000000000     
  0.62500000000000000        0.0000000000000000        0.0000000000000000     
  0.65625000000000000        0.0000000000000000        0.0000000000000000     
  0.68750000000000000        0.0000000000000000        0.0000000000000000     
  0.71875000000000000        0.0000000000000000        0.0000000000000000     
  0.75000000000000000        0.0000000000000000        0.0000000000000000     
  0.62500000000000000        3.1250000000000000E-002   0.0000000000000000     
  0.65625000000000000        3.1250000000000000E-002   0.0000000000000000     
  0.68750000000000000        3.1250000000000000E-002   0.0000000000000000     
  0.71875000000000000        3.1250000000000000E-002   0.0000000000000000     
  0.75000000000000000        3.1250000000000000E-002   0.0000000000000000     
  0.62500000000000000        6.2500000000000000E-002   0.0000000000000000     
  0.65625000000000000        6.2500000000000000E-002   0.0000000000000000     
  0.68750000000000000        6.2500000000000000E-002   0.0000000000000000     
  0.71875000000000000        6.2500000000000000E-002   0.0000000000000000     
  0.75000000000000000        6.2500000000000000E-002   0.0000000000000000     
  0.62500000000000000        9.3750000000000000E-002   0.0000000000000000     
  0.65625000000000000        9.3750000000000000E-002   0.0000000000000000     
  0.68750000000000000        9.3750000000000000E-002   0.0000000000000000     
  0.71875000000000000        9.3750000000000000E-002   0.0000000000000000     
  0.75000000000000000        9.3750000000000000E-002   0.0000000000000000     
  0.62500000000000000       0.12500000000000000        0.0000000000000000     
  0.65625000000000000       0.12500000000000000        0.0000000000000000     
  0.68750000000000000       0.12500000000000000        0.0000000000000000     
  0.71875000000000000       0.12500000000000000        0.0000000000000000     
  0.75000000000000000       0.12500000000000000        0.0000000000000000     
  0.75000000000000000        0.0000000000000000        0.0000000000000000     
  0.78125000000000000        0.0000000000000000        0.0000000000000000     
  0.81250000000000000        0.0000000000000000        0.0000000000000000     
  0.84375000000000000        0.0000000000000000        0.0000000000000000     
  0.87500000000000000        0.0000000000000000        0.0000000000000000     
  0.75000000000000000        3.1250000000000000E-002   0.0000000000000000     
  0.78125000000000000        3.1250000000000000E-002   0.0000000000000000     
  0.81250000000000000        3.1250000000000000E-002   0.0000000000000000     
  0.84375000000000000        3.1250000000000000E-002   0.0000000000000000     
  0.87500000000000000        3.1250000000000000E-002   0.0000000000000000     
  0.75000000000000000        6.2500000000000000E-002   0.0000000000000000     
  0.78125000000000000        6.2500000000000000E-002   0.0000000000000000     
  0.81250000000000000        6.2500000000000000E-002   0.0000000000000000     
  0.84375000000000000        6.2500000000000000E-002   0.0000000000000000     
  0.87500000000000000        6.2500000000000000E-002   0.0000000000000000     
  0.75000000000000000        9.3750000000000000E-002   0.0000000000000000     
  0.78125000000000000        9.3750000000000000E-002   0.0000000000000000     
  0.81250000000000000        9.3750000000000000E-002   0.0000000000000000     
  0.84375000000000000        9.3750000000000000E-002   0.0000000000000000     
  0.87500000000000000        9.3750000000000000E-002   0.0000000000000000     
  0.75000000000000000       0.12500000000000000        0.0000000000000000     
  0.78125000000000000       0.12500000000000000        0.0000000000000000     
  0.81250000000000000       0.12500000000000000        0.0000000000000000     
  0.84375000000000000       0.12500000000000000        0.0000000000000000     
  0.87500000000000000       0.12500000000000000        0.0000000000000000     
  0.87500000000000000        0.0000000000000000        0.0000000000000000     
  0.90625000000000000        0.0000000000000000        0.0000000000000000     
  0.93750000000000000        0.0000000000000000        0.0000000000000000     
  0.96875000000000000        0.0000000000000000        0.0000000000000000     
   1.0000000000000000        0.0000000000000000        0.0000000000000000     
  0.87500000000000000        3.1250000000000000E-002   0.0000000000000000     
  0.90625000000000000        3.1250000000000000E-002   0.0000000000000000     
  0.93750000000000000        3.1250000000000000E-002   0.0000000000000000     
  0.96875000000000000        3.1250000000000000E-002   0.0000000000000000     
   1.0000000000000000        3.1250000000000000E-002   0.0000000000000000     
  0.87500000000000000        6.2500000000000000E-002   0.0000000000000000     
  0.90625000000000000        6.2500000000000000E-002   0.0000000000000000     
  0.93750000000000000        6.2500000000000000E-002   0.0000000000000000     
  0.96875000000000000        6.2500000000000000E-002   0.0000000000000000     
   1.0000000000000000        6.2500000000000000E-002   0.0000000000000000     
  0.87500000000000000        9.3750000000000000E-002   0.0000000000000000     
  0.90625000000000000        9.3750000000000000E-002   0.0000000000000000     
  0.93750000000000000        9.3750000000000000E-002   0.0000000000000000     
  0.96875000000000000        9.3750000000000000E-002   0.0000000000000000     
   1.0000000000000000        9.3750000000000000E-002   0.0000000000000000     
  0.87500000000000000       0.12500000000000000        0.0000000000000000     
  0.90625000000000000       0.12500000000000000        0.0000000000000000     
  0.93750000000000000       0.12500000000000000        0.0000000000000000     
  0.96875000000000000       0.12500000000000000        0.0000000000000000     
   1.0000000000000000       0.12500000000000000        0.0000000000000000     
   1.0000000000000000        0.0000000000000000        0.0000000000000000     
   1.0312500000000000        0.0000000000000000        0.0000000000000000     
   1.0625000000000000        0.0000000000000000        0.0000000000000000     
   1.0937500000000000        0.0000000000000000        0.0000000000000000     
   1.1250000000000000        0.0000000000000000        0.0000000000000000     
   1.0000000000000000        3.1250000000000000E-002   0.0000000000000000     
   1.0312500000000000        3.1250000000000000E-002   0.0000000000000000     
   1.0625000000000000        3.1250000000000000E-002   0.0000000000000000     
   1.0937500000000000        3.1250000000000000E-002   0.0000000000000000     
   1.1250000000000000        3.1250000000000000E-002   0.0000000000000000     
   1.0000000000000000        6.2500000000000000E-002   0.0000000000000000     
   1.0312500000000000        6.2500000000000000E-002   0.0000000000000000     
   1.0625000000000000        6.2500000000000000E-002   0.0000000000000000     
   1.0937500000000000        6.2500000000000000E-002   0.0000000000000000     
   1.1250000000000000        6.2500000000000000E-002   0.0000000000000000     
   1.0000000000000000        9.3750000000000000E-002   0.0000000000000000     
   1.0312500000000000        9.3750000000000000E-002   0.0000000000000000     
   1.0625000000000000        9.3750000000000000E-002   0.0000000000000000     
   1.0937500000000000        9.3750000000000000E-002   0.0000000000000000     
   1.1250000000000000        9.3750000000000000E-002   0.0000000000000000     
   1.0000000000000000       0.12500000000000000        0.0000000000000000     
   1.0312500000000000       0.12500000000000000        0.0000000000000000     
   1.0625000000000000       0.12500000000000000        0.0000000000000000     
   1.0937500000000000       0.12500000000000000        0.0000000000000000     
   1.1250000000000000       0.12500000000000000        0.0000000000000000     
   1.1250000000000000        0.0000000000000000        0.0000000000000000     
   1.1562500000000000        0.0000000000000000        0.0000000000000000     
   1.1875000000000000        0.0000000000000000        0.0000000000000000     
   1.2187500000000000        0.0000000000000000        0.0000000000000000     
   1.2500000000000000        0.0000000000000000        0.0000000000000000     
   1.1250000000000000        3.1250000000000000E-002   0.0000000000000000     
   1.1562500000000000        3.1250000000000000E-002   0.0000000000000000     
   1.1875000000000000        3.1250000000000000E-002   0.0000000000000000     
   1.2187500000000000        3.1250000000000000E-002   0.0000000000000000     
   1.2500000000000000        3.1250000000000000E-002   0.0000000000000000     
   1.1250000000000000        6.2500000000000000E-002   0.0000000000000000     
   1.1562500000000000        6.2500000000000000E-002   0.0000000000000000     
   1.1875000000000000        6.2500000000000000E-002   0.0000000000000000     
   1.2187500000000000        6.2500000000000000E-002   0.0000000000000000     
   1.2500000000000000        6.2500000000000000E-002   0.0000000000000000     
   1.1250000000000000        9.3750000000000000E-002   0.0000000000000000     
   1.1562500000000000        9.3750000000000000E-002   0.0000000000000000     
   1.1875000000000000        9.3750000000000000E-002   0.0000000000000000     
   1.2187500000000000        9.3750000000000000E-002   0.0000000000000000     
   1.2500000000000000        9.3750000000000000E-002   0.0000000000000000     
   1.1250000000000000       0.12500000000000000        0.0000000000000000     
   1.1562500000000000       0.12500000000000000        0.0000000000000000     
   1.1875000000000000       0.12500000000000000        0.0000000000000000     
   1.2187500000000000       0.12500000000000000        0.0000000000000000     
   1.2500000000000000       0.12500000000000000        0.0000000000000000     
   1.2500000000000000        0.0000000000000000        0.0000000000000000     
   1.2812500000000000        0.0000000000000000        0.0000000000000000     
   1.3125000000000000        0.0000000000000000        0.0000000000000000     
   1.3437500000000000        0.0000000000000000        0.0000000000000000     
   1.3750000000000000        0.0000000000000000        0.0000000000000000     
   1.2500000000000000        3.1250000000000000E-002   0.0000000000000000     
   1.2812500000000000        3.1250000000000000E-002   0.0000000000000000     
   1.3125000000000000        3.1250000000000000E-002   0.0000000000000000     
   1.3437500000000000        3.1250000000000000E-002   0.0000000000000000     
   1.3750000000000000        3.1250000000000000E-002   0.0000000000000000     
   1.2500000000000000        6.2500000000000000E-002   0.0000000000000000     
   1.2812500000000000        6.2500000000000000E-002   0.0000000000000000     
   1.3125000000000000        6.2500000000000000E-002   0.0000000000000000     
   1.3437500000000000        6.2500000000000000E-002   0.0000000000000000     
   1.3750000000000000        6.2500000000000000E-002   0.0000000000000000     
   1.2500000000000000        9.3750000000000000E-002   0.0000000000000000     
   1.2812500000000000        9.3750000000000000E-002   0.0000000000000000     
   1.3125000000000000        9.3750000000000000E-002   0.0000000000000000     
   1.3437500000000000        9.3750000000000000E-002   0.0000000000000000     
   1.3750000000000000        9.3750000000000000E-002   0.0000000000000000     
   1.2500000000000000       0.12500000000000000        0.0000000000000000     
   1.2812500000000000       0.12500000000000000        0.0000000000000000     
   1.3125000000000000       0.12500000000000000        0.0000000000000000     
   1.3437500000000000       0.12500000000000000        0.0000000000000000     
   1.3750000000000000       0.12500000000000000        0.0000000000000000     
   1.3750000000000000        0.0000000000000000        0.0000000000000000     
   1.4062500000000000        0.0000000000000000        0.0000000000000000     
   1.4375000000000000        0.0000000000000000        0.0000000000000000     
   1.4687500000000000        0.0000000000000000        0.0000000000000000     
   1.5000000000000000        0.0000000000000000        0.0000000000000000     
   1.3750000000000000        3.1250000000000000E-002   0.0000000000000000     
   1.4062500000000000        3.1250000000000000E-002   0.0000000000000000     
   1.4375000000000000        3.1250000000000000E-002   0.0000000000000000     
   1.4687500000000000        3.1250000000000000E-002   0.0000000000000000     
   1.5000000000000000        3.1250000000000000E-002   0.0000000000000000     
   1.3750000000000000        6.2500000000000000E-002   0.0000000000000000     
   1.4062500000000000        6.2500000000000000E-002   0.0000000000000000     
   1.4375000000000000        6.2500000000000000E-002   0.0000000000000000     
   1.4687500000000000        6.2500000000000000E-002   0.0000000000000000     
   1.5000000000000000        6.2500000000000000E-002   0.0000000000000000     
   1.3750000000000000        9.3750000000000000E-002   0.0000000000000000     
   1.4062500000000000        9.3750000000000000E-002   0.0000000000000000     
   1.4375000000000000        9.3750000000000000E-002   0.0000000000000000     
   1.4687500000000000        9.3750000000000000E-002   0.0000000000000000     
   1.5000000000000000        9.3750000000000000E-002   0.0000000000000000     
   1.3750000000000000       0.12500000000000000        0.0000000000000000     
   1.4062500000000000       0.12500000000000000        0.0000000000000000     
   1.4375000000000000       0.12500000000000000        0.0000000000000000     
   1.4687500000000000       0.12500000000000000        0.0000000000000000     
   1.5000000000000000       0.12500000000000000        0.0000000000000000     
  0.50000000000000000       0.12500000000000000        0.0000000000000000     
  0.53125000000000000       0.12500000000000000        0.0000000000000000     
  0.56250000000000000       0.12500000000000000        0.0000000000000000     
  0.59375000000000000       0.12500000000000000        0.0000000000000000     
  0.62500000000000000       0.12500000000000000        0.0000000000000000     
  0.50000000000000000       0.15625000000000000        0.0000000000000000     
  0.53125000000000000       0.15625000000000000        0.0000000000000000     
  0.56250000000000000       0.15625000000000000        0.0000000000000000     
  0.59375000000000000       0.15625000000000000        0.0000000000000000     
  0.62500000000000000       0.15625000000000000        0.0000000000000000     
  0.50000000000000000       0.18750000000000000        0.0000000000000000     
  0.53125000000000000       0.18750000000000000        0.0000000000000000     
  0.56250000000000000       0.18750000000000000        0.0000000000000000     
  0.59375000000000000       0.18750000000000000        0.0000000000000000     
  0.62500000000000000       0.18750000000000000        0.0000000000000000     
  0.50000000000000000       0.21875000000000000        0.0000000000000000     
  0.53125000000000000       0.21875000000000000        0.0000000000000000     
  0.56250000000000000       0.21875000000000000        0.0000000000000000     
  0.59375000000000000       0.21875000000000000        0.0000000000000000     
  0.62500000000000000       0.21875000000000000        0.0000000000000000     
  0.50000000000000000       0.25000000000000000        0.0000000000000000     
  0.53125000000000000       0.25000000000000000        0.0000000000000000     
  0.56250000000000000       0.25000000000000000        0.0000000000000000     
  0.59375000000000000       0.25000000000000000        0.0000000000000000     
  0.62500000000000000       0.25000000000000000        0.0000000000000000     
  0.62500000000000000       0.12500000000000000        0.0000000000000000     
  0.65625000000000000       0.12500000000000000        0.0000000000000000     
  0.68750000000000000       0.12500000000000000        0.0000000000000000     
  0.71875000000000000       0.12500000000000000        0.0000000000000000     
  0.75000000000000000       0.12500000000000000        0.0000000000000000     
  0.62500000000000000       0.15625000000000000        0.0000000000000000     
  0.65625000000000000       0.15625000000000000        0.0000000000000000     
  0.68750000000000000       0.15625000000000000        0.0000000000000000     
  0.71875000000000000       0.15625000000000000        0.0000000000000000     
  0.75000000000000000       0.15625000000000000        0.0000000000000000     
  0.62500000000000000       0.18750000000000000        0.0000000000000000     
  0.65625000000000000       0.18750000000000000        0.0000000000000000     
  0.68750000000000000       0.18750000000000000        0.0000000000000000     
  0.71875000000000000       0.18750000000000000        0.0000000000000000     
  0.75000000000000000       0.18750000000000000        0.0000000000000000     
  0.62500000000000000       0.21875000000000000        0.0000000000000000     
  0.65625000000000000       0.21875000000000000        0.0000000000000000     
  0.68750000000000000       0.21875000000000000        0.0000000000000000     
  0.71875000000000000       0.21875000000000000        0.0000000000000000     
  0.75000000000000000       0.21875000000000000        0.0000000000000000     
  0.62500000000000000       0.25000000000000000        0.0000000000000000     
  0.65625000000000000       0.25000000000000000        0.0000000000000000     
  0.68750000000000000       0.25000000000000000        0.0000000000000000     
  0.71875000000000000       0.25000000000000000        0.0000000000000000     
  0.75000000000000000       0.25000000000000000        0.0000000000000000     
  0.75000000000000000       0.12500000000000000        0.0000000000000000     
  0.78125000000000000       0.12500000000000000        0.0000000000000000     
  0.81250000000000000       0.12500000000000000        0.0000000000000000     
  0.84375000000000000       0.12500000000000000        0.0000000000000000     
  0.87500000000000000       0.12500000000000000        0.0000000000000000     
  0.75000000000000000       0.15625000000000000        0.0000000000000000     
  0.78125000000000000       0.15625000000000000        0.0000000000000000     
  0.81250000000000000       0.15625000000000000        0.0000000000000000     
  0.84375000000000000       0.15625000000000000        0.0000000000000000     
  0.87500000000000000       0.15625000000000000        0.0000000000000000     
  0.75000000000000000       0.18750000000000000        0.0000000000000000     
  0.78125000000000000       0.18750000000000000        0.0000000000000000     
  0.81250000000000000       0.18750000000000000        0.0000000000000000     
  0.84375000000000000       0.18750000000000000        0.0000000000000000     
  0.87500000000000000       0.18750000000000000        0.0000000000000000     
  0.75000000000000000       0.21875000000000000        0.0000000000000000     
  0.78125000000000000       0.21875000000000000        0.0000000000000000     
  0.81250000000000000       0.21875000000000000        0.0000000000000000     
  0.84375000000000000       0.21875000000000000        0.0000000000000000     
  0.87500000000000000       0.21875000000000000        0.0000000000000000     
  0.75000000000000000       0.25000000000000000        0.0000000000000000     
  0.78125000000000000       0.25000000000000000        0.0000000000000000     
  0.81250000000000000       0.25000000000000000        0.0000000000000000     
  0.84375000000000000       0.25000000000000000        0.0000000000000000     
  0.87500000000000000       0.25000000000000000        0.0000000000000000     
  0.87500000000000000       0.12500000000000000        0.0000000000000000     
  0.90625000000000000       0.12500000000000000        0.0000000000000000     
  0.93750000000000000       0.12500000000000000        0.0000000000000000     
  0.96875000000000000       0.12500000000000000        0.0000000000000000     
   1.0000000000000000       0.12500000000000000        0.0000000000000000     
  0.87500000000000000       0.15625000000000000        0.0000000000000000     
  0.90625000000000000       0.15625000000000000        0.0000000000000000     
  0.93750000000000000       0.15625000000000000        0.0000000000000000     
  0.96875000000000000       0.15625000000000000        0.0000000000000000     
   1.0000000000000000       0.15625000000000000        0.0000000000000000     
  0.87500000000000000       0.18750000000000000        0.0000000000000000     
  0.90625000000000000       0.18750000000000000        0.0000000000000000     
  0.93750000000000000       0.18750000000000000        0.0000000000000000     
  0.96875000000000000       0.18750000000000000        0.0000000000000000     
   1.0000000000000000       0.18750000000000000        0.0000000000000000     
  0.87500000000000000       0.21875000000000000        0.0000000000000000     
  0.90625000000000000       0.21875000000000000        0.0000000000000000     
  0.93750000000000000       0.21875000000000000        0.0000000000000000     
  0.96875000000000000       0.21875000000000000        0.0000000000000000     
   1.0000000000000000       0.21875000000000000        0.0000000000000000     
  0.87500000000000000       0.25000000000000000        0.0000000000000000     
  0.90625000000000000       0.25000000000000000        0.0000000000000000     
  0.93750000000000000       0.25000000000000000        0.0000000000000000     
  0.96875000000000000       0.25000000000000000        0.0000000000000000     
   1.0000000000000000       0.25000000000000000        0.0000000000000000     
   1.0000000000000000       0.12500000000000000        0.0000000000000000     
   1.0312500000000000       0.12500000000000000        0.0000000000000000     
   1.0625000000000000       0.12500000000000000        0.0000000000000000     
   1.0937500000000000       0.12500000000000000        0.0000000000000000     
   1.1250000000000000       0.12500000000000000        0.0000000000000000     
   1.0000000000000000       0.15625000000000000        0.0000000000000000     
   1.0312500000000000       0.15625000000000000        0.0000000000000000     
   1.0625000000000000       0.15625000000000000        0.0000000000000000     
   1.0937500000000000       0.15625000000000000        0.0000000000000000     
   1.1250000000000000       0.15625000000000000        0.0000000000000000     
   1.0000000000000000       0.18750000000000000        0.0000000000000000     
   1.0312500000000000       0.18750000000000000        0.0000000000000000     
   1.0625000000000000       0.18750000000000000        0.0000000000000000     
   1.0937500000000000       0.18750000000000000        0.0000000000000000     
   1.1250000000000000       0.18750000000000000        0.0000000000000000     
   1.0000000000000000       0.21875000000000000        0.0000000000000000     
   1.0312500000000000       0.21875000000000000        0.0000000000000000     
   1.0625000000000000       0.21875000000000000        0.0000000000000000     
   1.0937500000000000       0.21875000000000000        0.0000000000000000     
   1.1250000000000000       0.21875000000000000        0.0000000000000000     
   1.0000000000000000       0.25000000000000000        0.0000000000000000     
   1.0312500000000000       0.25000000000000000        0.0000000000000000     
   1.0625000000000000       0.25000000000000000        0.0000000000000000     
   1.0937500000000000       0.25000000000000000        0.0000000000000000     
   1.1250000000000000       0.25000000000000000        0.0000000000000000     
   1.1250000000000000       0.12500000000000000        0.0000000000000000     
   1.1562500000000000       0.12500000000000000        0.0000000000000000     
   1.1875000000000000       0.12500000000000000        0.0000000000000000     
   1.2187500000000000       0.12500000000000000        0.0000000000000000     
   1.2500000000000000       0.12500000000000000        0.0000000000000000     
   1.1250000000000000       0.15625000000000000        0.0000000000000000     
   1.1562500000000000       0.15625000000000000        0.0000000000000000     
   1.1875000000000000       0.15625000000000000        0.0000000000000000     
   1.2187500000000000       0.15625000000000000        0.0000000000000000     
   1.2500000000000000       0.15625000000000000        0.0000000000000000     
   1.1250000000000000       0.18750000000000000        0.0000000000000000     
   1.1562500000000000       0.18750000000000000        0.0000000000000000     
   1.1875000000000000       0.18750000000000000        0.0000000000000000     
   1.2187500000000000       0.18750000000000000        0.0000000000000000     
   1.2500000000000000       0.18750000000000000        0.0000000000000000     
   1.1250000000000000       0.21875000000000000        0.0000000000000000     
   1.1562500000000000       0.21875000000000000        0.0000000000000000     
   1.1875000000000000       0.21875000000000000        0.0000000000000000     
   1.2187500000000000       0.21875000000000000        0.0000000000000000     
   1.2500000000000000       0.21875000000000000        0.0000000000000000     
   1.1250000000000000       0.25000000000000000        0.0000000000000000     
   1.1562500000000000       0.25000000000000000        0.0000000000000000     
   1.1875000000000000       0.25000000000000000        0.0000000000000000     
   1.2187500000000000       0.25000000000000000        0.0000000000000000     
   1.2500000000000000       0.25000000000000000        0.0000000000000000     
   1.2500000000000000       0.12500000000000000        0.0000000000000000     
   1.2812500000000000       0.12500000000000000        0.0000000000000000     
   1.3125000000000000       0.12500000000000000        0.0000000000000000     
   1.3437500000000000       0.12500000000000000        0.0000000000000000     
   1.3750000000000000       0.12500000000000000        0.0000000000000000     
   1.2500000000000000       0.15625000000000000        0.0000000000000000     
   1.2812500000000000       0.15625000000000000        0.0000000000000000     
   1.3125000000000000       0.15625000000000000        0.0000000000000000     
   1.3437500000000000       0.15625000000000000        0.0000000000000000     
   1.3750000000000000       0.15625000000000000        0.0000000000000000     
   1.2500000000000000       0.18750000000000000        0.0000000000000000     
   1.2812500000000000       0.18750000000000000        0.0000000000000000     
   1.3125000000000000       0.18750000000000000        0.0000000000000000     
   1.3437500000000000       0.18750000000000000        0.0000000000000000     
   1.3750000000000000       0.18750000000000000        0.0000000000000000     
   1.2500000000000000       0.21875000000000000        0.0000000000000000     
   1.2812500000000000       0.21875000000000000        0.0000000000000000     
   1.3125000000000000       0.21875000000000000        0.0000000000000000     
   1.3437500000000000       0.21875000000000000        0.0000000000000000     
   1.3750000000000000       0.21875000000000000        0.0000000000000000     
   1.2500000000000000       0.25000000000000000        0.0000000000000000     
   1.2812500000000000       0.25000000000000000        0.0000000000000000     
   1.3125000000000000       0.25000000000000000        0.0000000000000000     
   1.3437500000000000       0.25000000000000000        0.0000000000000000     
   1.3750000000000000       0.25000000000000000        0.0000000000000000     
   1.3750000000000000       0.12500000000000000        0.0000000000000000     
   1.4062500000000000       0.12500000000000000        0.0000000000000000     
   1.4375000000000000       0.12500000000000000        0.0000000000000000     
   1.4687500000000000       0.12500000000000000        0.0000000000000000     
   1.5000000000000000       0.12500000000000000        0.0000000000000000     
   1.3750000000000000       0.15625000000000000        0.0000000000000000     
   1.4062500000000000       0.15625000000000000        0.0000000000000000     
   1.4375000000000000       0.15625000000000000        0.0000000000000000     
   1.4687500000000000       0.15625000000000000        0.0000000000000000     
   1.5000000000000000       0.15625000000000000        0.0000000000000000     
   1.3750000000000000       0.18750000000000000        0.0000000000000000     
   1.4062500000000000       0.18750000000000000        0.0000000000000000     
   1.4375000000000000       0.18750000000000000        0.0000000000000000     
   1.4687500000000000       0.18750000000000000        0.0000000000000000     
   1.5000000000000000       0.18750000000000000        0.0000000000000000     
   1.3750000000000000       0.21875000000000000        0.0000000000000000     
   1.4062500000000000       0.21875000000000000        0.0000000000000000     
   1.4375000000000000       0.21875000000000000        0.0000000000000000     
   1.4687500000000000       0.21875000000000000        0.0000000000000000     
   1.5000000000000000       0.21875000000000000        0.0000000000000000     
   1.3750000000000000       0.25000000000000000        0.0000000000000000     
   1.4062500000000000       0.25000000000000000        0.0000000000000000     
   1.4375000000000000       0.25000000000000000        0.0000000000000000     
   1.4687500000000000       0.25000000000000000        0.0000000000000000     
   1.5000000000000000       0.25000000000000000        0.0000000000000000     
  0.50000000000000000       0.25000000000000000        0.0000000000000000     
  0.53125000000000000       0.25000000000000000        0.0000000000000000     
  0.56250000000000000       0.25000000000000000        0.0000000000000000     
  0.59375000000000000       0.25000000000000000        0.0000000000000000     
  0.62500000000000000       0.25000000000000000        0.0000000000000000     
  0.50000000000000000       0.28125000000000000        0.0000000000000000     
  0.53125000000000000       0.28125000000000000        0.0000000000000000     
  0.56250000000000000       0.28125000000000000        0.0000000000000000     
  0.59375000000000000       0.28125000000000000        0.0000000000000000     
  0.62500000000000000       0.28125000000000000        0.0000000000000000     
  0.50000000000000000       0.31250000000000000        0.0000000000000000     
  0.53125000000000000       0.31250000000000000        0.0000000000000000     
  0.56250000000000000       0.31250000000000000        0.0000000000000000     
  0.59375000000000000       0.31250000000000000        0.0000000000000000     
  0.62500000000000000       0.31250000000000000        0.0000000000000000     
  0.50000000000000000       0.34375000000000000        0.0000000000000000     
  0.53125000000000000       0.34375000000000000        0.0000000000000000     
  0.56250000000000000       0.34375000000000000        0.0000000000000000     
  0.59375000000000000       0.34375000000000000        0.0000000000000000     
  0.62500000000000000       0.34375000000000000        0.0000000000000000     
  0.50000000000000000       0.37500000000000000        0.0000000000000000     
  0.53125000000000000       0.37500000000000000        0.0000000000000000     
  0.56250000000000000       0.37500000000000000        0.0000000000000000     
  0.59375000000000000       0.37500000000000000        0.0000000000000000     
  0.62500000000000000       0.37500000000000000        0.0000000000000000     
  0.62500000000000000       0.25000000000000000        0.0000000000000000     
  0.65625000000000000       0.25000000000000000        0.0000000000000000     
  0.68750000000000000       0.25000000000000000        0.0000000000000000     
  0.71875000000000000       0.25000000000000000        0.0000000000000000     
  0.75000000000000000       0.25000000000000000        0.0000000000000000     
  0.62500000000000000       0.28125000000000000        0.0000000000000000     
  0.65625000000000000       0.28125000000000000        0.0000000000000000     
  0.68750000000000000       0.28125000000000000        0.0000000000000000     
  0.71875000000000000       0.28125000000000000        0.0000000000000000     
  0.75000000000000000       0.28125000000000000        0.0000000000000000     
  0.62500000000000000       0.31250000000000000        0.0000000000000000     
  0.65625000000000000       0.31250000000000000        0.0000000000000000     
  0.68750000000000000       0.31250000000000000        0.0000000000000000     
  0.71875000000000000       0.31250000000000000        0.0000000000000000     
  0.75000000000000000       0.31250000000000000        0.0000000000000000     
  0.62500000000000000       0.34375000000000000        0.0000000000000000     
  0.65625000000000000       0.34375000000000000        0.0000000000000000     
  0.68750000000000000       0.34375000000000000        0.0000000000000000     
  0.71875000000000000       0.34375000000000000        0.0000000000000000     
  0.75000000000000000       0.34375000000000000        0.0000000000000000     
  0.62500000000000000       0.37500000000000000        0.0000000000000000     
  0.65625000000000000       0.37500000000000000        0.0000000000000000     
  0.68750000000000000       0.37500000000000000        0.0000000000000000     
  0.71875000000000000       0.37500000000000000        0.0000000000000000     
  0.75000000000000000       0.37500000000000000        0.0000000000000000     
  0.75000000000000000       0.25000000000000000        0.0000000000000000     
  0.78125000000000000       0.25000000000000000        0.0000000000000000     
  0.81250000000000000       0.25000000000000000        0.0000000000000000     
  0.84375000000000000       0.25000000000000000        0.0000000000000000     
  0.87500000000000000       0.25000000000000000        0.0000000000000000     
  0.75000000000000000       0.28125000000000000        0.0000000000000000     
  0.78125000000000000       0.28125000000000000        0.0000000000000000     
  0.81250000000000000       0.28125000000000000        0.0000000000000000     
  0.84375000000000000       0.28125000000000000        0.0000000000000000     
  0.87500000000000000       0.28125000000000000        0.0000000000000000     
  0.75000000000000000       0.31250000000000000        0.0000000000000000     
  0.78125000000000000       0.31250000000000000        0.0000000000000000     
  0.81250000000000000       0.31250000000000000        0.0000000000000000     
  0.84375000000000000       0.31250000000000000        0.0000000000000000     
  0.87500000000000000       0.31250000000000000        0.0000000000000000     
  0.75000000000000000       0.34375000000000000        0.0000000000000000     
  0.78125000000000000       0.34375000000000000        0.0000000000000000     
  0.81250000000000000       0.34375000000000000        0.0000000000000000     
  0.84375000000000000       0.34375000000000000        0.0000000000000000     
  0.87500000000000000       0.34375000000000000        0.0000000000000000     
  0.75000000000000000       0.37500000000000000        0.0000000000000000     
  0.78125000000000000       0.37500000000000000        0.0000000000000000     
  0.81250000000000000       0.37500000000000000        0.0000000000000000     
  0.84375000000000000       0.37500000000000000        0.0000000000000000     
  0.87500000000000000       0.37500000000000000        0.0000000000000000     
  0.87500000000000000       0.25000000000000000        0.0000000000000000     
  0.90625000000000000       0.25000000000000000        0.0000000000000000     
  0.93750000000000000       0.25000000000000000        0.0000000000000000     
  0.96875000000000000       0.25000000000000000        0.0000000000000000     
   1.0000000000000000       0.25000000000000000        0.0000000000000000     
  0.87500000000000000       0.28125000000000000        0.0000000000000000     
  0.90625000000000000       0.28125000000000000        0.0000000000000000     
  0.93750000000000000       0.28125000000000000        0.0000000000000000     
  0.96875000000000000       0.28125000000000000        0.0000000000000000     
   1.0000000000000000       0.28125000000000000        0.0000000000000000     
  0.87500000000000000       0.31250000000000000        0.0000000000000000     
  0.90625000000000000       0.31250000000000000        0.0000000000000000     
  0.93750000000000000       0.31250000000000000        0.0000000000000000     
  0.96875000000000000       0.31250000000000000        0.0000000000000000     
   1.0000000000000000       0.31250000000000000        0.0000000000000000     
  0.87500000000000000       0.34375000000000000        0.0000000000000000     
  0.90625000000000000       0.34375000000000000        0.0000000000000000     
  0.93750000000000000       0.34375000000000000        0.0000000000000000     
  0.96875000000000000       0.34375000000000000        0.0000000000000000     
   1.0000000000000000       0.34375000000000000        0.0000000000000000     
  0.87500000000000000       0.37500000000000000        0.0000000000000000     
  0.90625000000000000       0.37500000000000000        0.0000000000000000     
  0.93750000000000000       0.37500000000000000        0.0000000000000000     
  0.96875000000000000       0.37500000000000000        0.0000000000000000     
   1.0000000000000000       0.37500000000000000        0.0000000000000000     
   1.0000000000000000       0.25000000000000000        0.0000000000000000     
   1.0312500000000000       0.25000000000000000        0.0000000000000000     
   1.0625000000000000       0.25000000000000000        0.0000000000000000     
   1.0937500000000000       0.25000000000000000        0.0000000000000000     
   1.1250000000000000       0.25000000000000000        0.0000000000000000     
   1.0000000000000000       0.28125000000000000        0.0000000000000000     
   1.0312500000000000       0.28125000000000000        0.0000000000000000     
   1.0625000000000000       0.28125000000000000        0.0000000000000000     
   1.0937500000000000       0.28125000000000000        0.0000000000000000     
   1.1250000000000000       0.28125000000000000        0.0000000000000000     
   1.0000000000000000       0.31250000000000000        0.0000000000000000     
   1.0312500000000000       0.31250000000000000        0.0000000000000000     
   1.0625000000000000       0.31250000000000000        0.0000000000000000     
   1.0937500000000000       0.31250000000000000        0.0000000000000000     
   1.1250000000000000       0.31250000000000000        0.0000000000000000     
   1.0000000000000000       0.34375000000000000        0.0000000000000000     
   1.0312500000000000       0.34375000000000000        0.0000000000000000     
   1.0625000000000000       0.34375000000000000        0.0000000000000000     
   1.0937500000000000       0.34375000000000000        0.0000000000000000     
   1.1250000000000000       0.34375000000000000        0.0000000000000000     
   1.0000000000000000       0.37500000000000000        0.0000000000000000     
   1.0312500000000000       0.37500000000000000        0.0000000000000000     
   1.0625000000000000       0.37500000000000000        0.0000000000000000     
   1.0937500000000000       0.37500000000000000        0.0000000000000000     
   1.1250000000000000       0.37500000000000000        0.0000000000000000     
   1.1250000000000000       0.25000000000000000        0.0000000000000000     
   1.1562500000000000       0.25000000000000000        0.0000000000000000     
   1.1875000000000000       0.25000000000000000        0.0000000000000000     
   1.2187500000000000       0.25000000000000000        0.0000000000000000     
   1.2500000000000000       0.25000000000000000        0.0000000000000000     
   1.1250000000000000       0.28125000000000000        0.0000000000000000     
   1.1562500000000000       0.28125000000000000        0.0000000000000000     
   1.1875000000000000       0.28125000000000000        0.0000000000000000     
   1.2187500000000000       0.28125000000000000        0.0000000000000000     
   1.2500000000000000       0.28125000000000000        0.0000000000000000     
   1.1250000000000000       0.31250000000000000        0.0000000000000000     
   1.1562500000000000       0.31250000000000000        0.0000000000000000     
   1.1875000000000000       0.31250000000000000        0.0000000000000000     
   1.2187500000000000       0.31250000000000000        0.0000000000000000     
   1.2500000000000000       0.31250000000000000        0.0000000000000000     
   1.1250000000000000       0.34375000000000000        0.0000000000000000     
   1.1562500000000000       0.34375000000000000        0.0000000000000000     
   1.1875000000000000       0.34375000000000000        0.0000000000000000     
   1.2187500000000000       0.34375000000000000        0.0000000000000000     
   1.2500000000000000       0.34375000000000000        0.0000000000000000     
   1.1250000000000000       0.37500000000000000        0.0000000000000000     
   1.1562500000000000       0.37500000000000000        0.0000000000000000     
   1.1875000000000000       0.37500000000000000        0.0000000000000000     
   1.2187500000000000       0.37500000000000000        0.0000000000000000     
   1.2500000000000000       0.37500000000000000        0.0000000000000000     
   1.2500000000000000       0.25000000000000000        0.0000000000000000     
   1.2812500000000000       0.25000000000000000        0.0000000000000000     
   1.3125000000000000       0.25000000000000000        0.0000000000000000     
   1.3437500000000000       0.25000000000000000        0.0000000000000000     
   1.3750000000000000       0.25000000000000000        0.0000000000000000     
   1.2500000000000000       0.28125000000000000        0.0000000000000000     
   1.2812500000000000       0.28125000000000000        0.0000000000000000     
   1.3125000000000000       0.28125000000000000        0.0000000000000000     
   1.3437500000000000       0.28125000000000000        0.0000000000000000     
   1.3750000000000000       0.28125000000000000        0.0000000000000000     
   1.2500000000000000       0.31250000000000000        0.0000000000000000     
   1.2812500000000000       0.31250000000000000        0.0000000000000000     
   1.3125000000000000       0.31250000000000000        0.0000000000000000     
   1.3437500000000000       0.31250000000000000        0.0000000000000000     
   1.3750000000000000       0.31250000000000000        0.0000000000000000     
   1.2500000000000000       0.34375000000000000        0.0000000000000000     
   1.2812500000000000       0.34375000000000000        0.0000000000000000     
   1.3125000000000000       0.34375000000000000        0.0000000000000000     
   1.3437500000000000       0.34375000000000000        0.0000000000000000     
   1.3750000000000000       0.34375000000000000        0.0000000000000000     
   1.2500000000000000       0.37500000000000000        0.0000000000000000     
   1.2812500000000000       0.37500000000000000        0.0000000000000000     
   1.3125000000000000       0.37500000000000000        0.0000000000000000     
   1.3437500000000000       0.37500000000000000        0.0000000000000000     
   1.3750000000000000       0.37500000000000000        0.0000000000000000     
   1.3750000000000000       0.25000000000000000        0.0000000000000000     
   1.4062500000000000       0.25000000000000000        0.0000000000000000     
   1.4375000000000000       0.25000000000000000        0.0000000000000000     
   1.4687500000000000       0.25000000000000000        0.0000000000000000     
   1.5000000000000000       0.25000000000000000        0.0000000000000000     
   1.3750000000000000       0.28125000000000000        0.0000000000000000     
   1.4062500000000000       0.28125000000000000        0.0000000000000000     
   1.4375000000000000       0.28125000000000000        0.0000000000000000     
   1.4687500000000000       0.28125000000000000        0.0000000000000000     
   1.5000000000000000       0.28125000000000000        0.0000000000000000     
   1.3750000000000000       0.31250000000000000        0.0000000000000000     
   1.4062500000000000       0.31250000000000000        0.0000000000000000     
   1.4375000000000000       0.31250000000000000        0.0000000000000000     
   1.4687500000000000       0.31250000000000000        0.0000000000000000     
   1.5000000000000000       0.31250000000000000        0.0000000000000000     
   1.3750000000000000       0.34375000000000000        0.0000000000000000     
   1.4062500000000000       0.34375000000000000        0.0000000000000000     
   1.4375000000000000       0.34375000000000000        0.0000000000000000     
   1.4687500000000000       0.34375000000000000        0.0000000000000000     
   1.5000000000000000       0.34375000000000000        0.0000000000000000     
   1.3750000000000000       0.37500000000000000        0.0000000000000000     
   1.4062500000000000       0.37500000000000000        0.0000000000000000     
   1.4375000000000000       0.37500000000000000        0.0000000000000000     
   1.4687500000000000       0.37500000000000000        0.0000000000000000     
   1.5000000000000000       0.37500000000000000        0.0000000000000000     
  0.50000000000000000       0.37500000000000000        0.0000000000000000     
  0.53125000000000000       0.37500000000000000        0.0000000000000000     
  0.56250000000000000       0.37500000000000000        0.0000000000000000     
  0.59375000000000000       0.37500000000000000        0.0000000000000000     
  0.62500000000000000       0.37500000000000000        0.0000000000000000     
  0.50000000000000000       0.40625000000000000        0.0000000000000000     
  0.53125000000000000       0.40625000000000000        0.0000000000000000     
  0.56250000000000000       0.40625000000000000        0.0000000000000000     
  0.59375000000000000       0.40625000000000000        0.0000000000000000     
  0.62500000000000000       0.40625000000000000        0.0000000000000000     
  0.50000000000000000       0.43750000000000000        0.0000000000000000     
  0.53125000000000000       0.43750000000000000        0.0000000000000000     
  0.56250000000000000       0.43750000000000000        0.0000000000000000     
  0.59375000000000000       0.43750000000000000        0.0000000000000000     
  0.62500000000000000       0.43750000000000000        0.0000000000000000     
  0.50000000000000000       0.46875000000000000        0.0000000000000000     
  0.53125000000000000       0.46875000000000000        0.0000000000000000     
  0.56250000000000000       0.46875000000000000        0.0000000000000000     
  0.59375000000000000       0.46875000000000000        0.0000000000000000     
  0.62500000000000000       0.46875000000000000        0.0000000000000000     
  0.50000000000000000       0.50000000000000000        0.0000000000000000     
  0.53125000000000000       0.50000000000000000        0.0000000000000000     
  0.56250000000000000       0.50000000000000000        0.0000000000000000     
  0.59375000000000000       0.50000000000000000        0.0000000000000000     
  0.62500000000000000       0.50000000000000000        0.0000000000000000     
  0.62500000000000000       0.37500000000000000        0.0000000000000000     
  0.65625000000000000       0.37500000000000000        0.0000000000000000     
  0.68750000000000000       0.37500000000000000        0.0000000000000000     
  0.71875000000000000       0.37500000000000000        0.0000000000000000     
  0.75000000000000000       0.37500000000000000        0.0000000000000000     
  0.62500000000000000       0.40625000000000000        0.0000000000000000     
  0.65625000000000000       0.40625000000000000        0.0000000000000000     
  0.68750000000000000       0.40625000000000000        0.0000000000000000     
  0.71875000000000000       0.40625000000000000        0.0000000000000000     
  0.75000000000000000       0.40625000000000000        0.0000000000000000     
  0.62500000000000000       0.43750000000000000        0.0000000000000000     
  0.65625000000000000       0.43750000000000000        0.0000000000000000     
  0.68750000000000000       0.43750000000000000        0.0000000000000000     
  0.71875000000000000       0.43750000000000000        0.0000000000000000     
  0.75000000000000000       0.43750000000000000        0.0000000000000000     
  0.62500000000000000       0.46875000000000000        0.0000000000000000     
  0.65625000000000000       0.46875000000000000        0.0000000000000000     
  0.68750000000000000       0.46875000000000000        0.0000000000000000     
  0.71875000000000000       0.46875000000000000        0.0000000000000000     
  0.75000000000000000       0.46875000000000000        0.0000000000000000     
  0.62500000000000000       0.50000000000000000        0.0000000000000000     
  0.65625000000000000       0.50000000000000000        0.0000000000000000     
  0.68750000000000000       0.50000000000000000        0.0000000000000000     
  0.71875000000000000       0.50000000000000000        0.0000000000000000     
  0.75000000000000000       0.50000000000000000        0.0000000000000000     
  0.75000000000000000       0.37500000000000000        0.0000000000000000     
  0.78125000000000000       0.37500000000000000        0.0000000000000000     
  0.81250000000000000       0.37500000000000000        0.0000000000000000     
  0.84375000000000000       0.37500000000000000        0.0000000000000000     
  0.87500000000000000       0.37500000000000000        0.0000000000000000     
  0.75000000000000000       0.40625000000000000        0.0000000000000000     
  0.78125000000000000       0.40625000000000000        0.0000000000000000     
  0.81250000000000000       0.40625000000000000        0.0000000000000000     
  0.84375000000000000       0.40625000000000000        0.0000000000000000     
  0.87500000000000000       0.40625000000000000        0.0000000000000000     
  0.75000000000000000       0.43750000000000000        0.0000000000000000     
  0.78125000000000000       0.43750000000000000        0.0000000000000000     
  0.81250000000000000       0.43750000000000000        0.0000000000000000     
  0.84375000000000000       0.43750000000000000        0.0000000000000000     
  0.87500000000000000       0.43750000000000000        0.0000000000000000     
  0.75000000000000000       0.46875000000000000        0.0000000000000000     
  0.78125000000000000       0.46875000000000000        0.0000000000000000     
  0.81250000000000000       0.46875000000000000        0.0000000000000000     
  0.84375000000000000       0.46875000000000000        0.0000000000000000     
  0.87500000000000000       0.46875000000000000        0.0000000000000000     
  0.75000000000000000       0.50000000000000000        0.0000000000000000     
  0.78125000000000000       0.50000000000000000        0.0000000000000000     
  0.81250000000000000       0.50000000000000000        0.0000000000000000     
  0.84375000000000000       0.50000000000000000        0.0000000000000000     
  0.87500000000000000       0.50000000000000000        0.0000000000000000     
  0.87500000000000000       0.37500000000000000        0.0000000000000000     
  0.90625000000000000       0.37500000000000000        0.0000000000000000     
  0.93750000000000000       0.37500000000000000        0.0000000000000000     
  0.96875000000000000       0.37500000000000000        0.0000000000000000     
   1.0000000000000000       0.37500000000000000        0.0000000000000000     
  0.87500000000000000       0.40625000000000000        0.0000000000000000     
  0.90625000000000000       0.40625000000000000        0.0000000000000000     
  0.93750000000000000       0.40625000000000000        0.0000000000000000     
  0.96875000000000000       0.40625000000000000        0.0000000000000000     
   1.0000000000000000       0.40625000000000000        0.0000000000000000     
  0.87500000000000000       0.43750000000000000        0.0000000000000000     
  0.90625000000000000       0.43750000000000000        0.0000000000000000     
  0.93750000000000000       0.43750000000000000        0.0000000000000000     
  0.96875000000000000       0.43750000000000000        0.0000000000000000     
   1.0000000000000000       0.43750000000000000        0.0000000000000000     
  0.87500000000000000       0.46875000000000000        0.0000000000000000     
  0.90625000000000000       0.46875000000000000        0.0000000000000000     
  0.93750000000000000       0.46875000000000000        0.0000000000000000     
  0.96875000000000000       0.46875000000000000        0.0000000000000000     
   1.0000000000000000       0.46875000000000000        0.0000000000000000     
  0.87500000000000000       0.50000000000000000        0.0000000000000000     
  0.90625000000000000       0.50000000000000000        0.0000000000000000     
  0.93750000000000000       0.50000000000000000        0.0000000000000000     
  0.96875000000000000       0.50000000000000000        0.0000000000000000     
   1.0000000000000000       0.50000000000000000        0.0000000000000000     
   1.0000000000000000       0.37500000000000000        0.0000000000000000     
   1.0312500000000000       0.37500000000000000        0.0000000000000000     
   1.0625000000000000       0.37500000000000000        0.0000000000000000     
   1.0937500000000000       0.37500000000000000        0.0000000000000000     
   1.1250000000000000       0.37500000000000000        0.0000000000000000     
   1.0000000000000000       0.40625000000000000        0.0000000000000000     
   1.0312500000000000       0.40625000000000000        0.0000000000000000     
   1.0625000000000000       0.40625000000000000        0.0000000000000000     
   1.0937500000000000       0.40625000000000000        0.0000000000000000     
   1.1250000000000000       0.40625000000000000        0.0000000000000000     
   1.0000000000000000       0.43750000000000000        0.0000000000000000     
   1.0312500000000000       0.43750000000000000        0.0000000000000000     
   1.0625000000000000       0.43750000000000000        0.0000000000000000     
   1.0937500000000000       0.43750000000000000        0.0000000000000000     
   1.1250000000000000       0.43750000000000000        0.0000000000000000     
   1.0000000000000000       0.46875000000000000        0.0000000000000000     
   1.0312500000000000       0.46875000000000000        0.0000000000000000     
   1.0625000000000000       0.46875000000000000        0.0000000000000000     
   1.0937500000000000       0.46875000000000000        0.0000000000000000     
   1.1250000000000000       0.46875000000000000        0.0000000000000000     
   1.0000000000000000       0.50000000000000000        0.0000000000000000     
   1.0312500000000000       0.50000000000000000        0.0000000000000000     
   1.0625000000000000       0.50000000000000000        0.0000000000000000     
   1.0937500000000000       0.50000000000000000        0.0000000000000000     
   1.1250000000000000       0.50000000000000000        0.0000000000000000     
   1.1250000000000000       0.37500000000000000        0.0000000000000000     
   1.1562500000000000       0.37500000000000000        0.0000000000000000     
   1.1875000000000000       0.37500000000000000        0.0000000000000000     
   1.2187500000000000       0.37500000000000000        0.0000000000000000     
   1.2500000000000000       0.37500000000000000        0.0000000000000000     
   1.1250000000000000       0.40625000000000000        0.0000000000000000     
   1.1562500000000000       0.40625000000000000        0.0000000000000000     
   1.1875000000000000       0.40625000000000000        0.0000000000000000     
   1.2187500000000000       0.40625000000000000        0.0000000000000000     
   1.2500000000000000       0.40625000000000000        0.0000000000000000     
   1.1250000000000000       0.43750000000000000        0.0000000000000000     
   1.1562500000000000       0.43750000000000000        0.0000000000000000     
   1.1875000000000000       0.43750000000000000        0.0000000000000000     
   1.2187500000000000       0.43750000000000000        0.0000000000000000     
   1.2500000000000000       0.43750000000000000        0.0000000000000000     
   1.1250000000000000       0.46875000000000000        0.0000000000000000     
   1.1562500000000000       0.46875000000000000        0.0000000000000000     
   1.1875000000000000       0.46875000000000000        0.0000000000000000     
   1.2187500000000000       0.46875000000000000        0.0000000000000000     
   1.2500000000000000       0.46875000000000000        0.0000000000000000     
   1.1250000000000000       0.50000000000000000        0.0000000000000000     
   1.1562500000000000       0.50000000000000000        0.0000000000000000     
   1.1875000000000000       0.50000000000000000        0.0000000000000000     
   1.2187500000000000       0.50000000000000000        0.0000000000000000     
   1.2500000000000000       0.50000000000000000        0.0000000000000000     
   1.2500000000000000       0.37500000000000000        0.0000000000000000     
   1.2812500000000000       0.37500000000000000        0.0000000000000000     
   1.3125000000000000       0.37500000000000000        0.0000000000000000     
   1.3437500000000000       0.37500000000000000        0.0000000000000000     
   1.3750000000000000       0.37500000000000000        0.0000000000000000     
   1.2500000000000000       0.40625000000000000        0.0000000000000000     
   1.2812500000000000       0.40625000000000000        0.0000000000000000     
   1.3125000000000000       0.40625000000000000        0.0000000000000000     
   1.3437500000000000       0.40625000000000000        0.0000000000000000     
   1.3750000000000000       0.40625000000000000        0.0000000000000000     
   1.2500000000000000       0.43750000000000000        0.0000000000000000     
   1.2812500000000000       0.43750000000000000        0.0000000000000000     
   1.3125000000000000       0.43750000000000000        0.0000000000000000     
   1.3437500000000000       0.43750000000000000        0.0000000000000000     
   1.3750000000000000       0.43750000000000000        0.0000000000000000     
   1.2500000000000000       0.46875000000000000        0.0000000000000000     
   1.2812500000000000       0.46875000000000000        0.0000000000000000     
   1.3125000000000000       0.46875000000000000        0.0000000000000000     
   1.3437500000000000       0.46875000000000000        0.0000000000000000     
   1.3750000000000000       0.46875000000000000        0.0000000000000000     
   1.2500000000000000       0.50000000000000000        0.0000000000000000     
   1.2812500000000000       0.50000000000000000        0.0000000000000000     
   1.3125000000000000       0.50000000000000000        0.0000000000000000     
   1.3437500000000000       0.50000000000000000        0.0000000000000000     
   1.3750000000000000       0.50000000000000000        0.0000000000000000     
   1.3750000000000000       0.37500000000000000        0.0000000000000000     
   1.4062500000000000       0.37500000000000000        0.0000000000000000     
   1.4375000000000000       0.37500000000000000        0.0000000000000000     
   1.4687500000000000       0.37500000000000000        0.0000000000000000     
   1.5000000000000000       0.37500000000000000        0.0000000000000000     
   1.3750000000000000       0.40625000000000000        0.0000000000000000     
   1.4062500000000000       0.40625000000000000        0.0000000000000000     
   1.4375000000000000       0.40625000000000000        0.0000000000000000     
   1.4687500000000000       0.40625000000000000        0.0000000000000000     
   1.5000000000000000       0.40625000000000000        0.0000000000000000     
   1.3750000000000000       0.43750000000000000        0.0000000000000000     
   1.4062500000000000       0.43750000000000000        0.0000000000000000     
   1.4375000000000000       0.43750000000000000        0.0000000000000000     
   1.4687500000000000       0.43750000000000000        0.0000000000000000     
   1.5000000000000000       0.43750000000000000        0.0000000000000000     
   1.3750000000000000       0.46875000000000000        0.0000000000000000     
   1.4062500000000000       0.46875000000000000        0.0000000000000000     
   1.4375000000000000       0.46875000000000000        0.0000000000000000     
   1.4687500000000000       0.46875000000000000        0.0000000000000000     
   1.5000000000000000       0.46875000000000000        0.0000000000000000     
   1.3750000000000000       0.50000000000000000        0.0000000000000000     
   1.4062500000000000       0.50000000000000000        0.0000000000000000     
   1.4375000000000000       0.50000000000000000        0.0000000000000000     
   1.4687500000000000       0.50000000000000000        0.0000000000000000     
   1.5000000000000000       0.50000000000000000        0.0000000000000000     
  0.50000000000000000       0.50000000000000000        0.0000000000000000     
  0.53125000000000000       0.50000000000000000        0.0000000000000000     
  0.56250000000000000       0.50000000000000000        0.0000000000000000     
  0.59375000000000000       0.50000000000000000        0.0000000000000000     
  0.62500000000000000       0.50000000000000000        0.0000000000000000     
  0.50000000000000000       0.53125000000000000        0.0000000000000000     
  0.53125000000000000       0.53125000000000000        0.0000000000000000     
  0.56250000000000000       0.53125000000000000        0.0000000000000000     
  0.59375000000000000       0.53125000000000000        0.0000000000000000     
  0.62500000000000000       0.53125000000000000        0.0000000000000000     
  0.50000000000000000       0.56250000000000000        0.0000000000000000     
  0.53125000000000000       0.56250000000000000        0.0000000000000000     
  0.56250000000000000       0.56250000000000000        0.0000000000000000     
  0.59375000000000000       0.56250000000000000        0.0000000000000000     
  0.62500000000000000       0.56250000000000000        0.0000000000000000     
  0.50000000000000000       0.59375000000000000        0.0000000000000000     
  0.53125000000000000       0.59375000000000000        0.0000000000000000     
  0.56250000000000000       0.59375000000000000        0.0000000000000000     
  0.59375000000000000       0.59375000000000000        0.0000000000000000     
  0.62500000000000000       0.59375000000000000        0.0000000000000000     
  0.50000000000000000       0.62500000000000000        0.0000000000000000     
  0.53125000000000000       0.62500000000000000        0.0000000000000000     
  0.56250000000000000       0.62500000000000000        0.0000000000000000     
  0.59375000000000000       0.62500000000000000        0.0000000000000000     
  0.62500000000000000       0.62500000000000000        0.0000000000000000     
  0.62500000000000000       0.50000000000000000        0.0000000000000000     
  0.65625000000000000       0.50000000000000000        0.0000000000000000     
  0.68750000000000000       0.50000000000000000        0.0000000000000000     
  0.71875000000000000       0.50000000000000000        0.0000000000000000     
  0.75000000000000000       0.50000000000000000        0.0000000000000000     
  0.62500000000000000       0.53125000000000000        0.0000000000000000     
  0.65625000000000000       0.53125000000000000        0.0000000000000000     
  0.68750000000000000       0.53125000000000000        0.0000000000000000     
  0.71875000000000000       0.53125000000000000        0.0000000000000000     
  0.75000000000000000       0.53125000000000000        0.0000000000000000     
  0.62500000000000000       0.56250000000000000        0.0000000000000000     
  0.65625000000000000       0.56250000000000000        0.0000000000000000     
  0.68750000000000000       0.56250000000000000        0.0000000000000000     
  0.71875000000000000       0.56250000000000000        0.0000000000000000     
  0.75000000000000000       0.56250000000000000        0.0000000000000000     
  0.62500000000000000       0.59375000000000000        0.0000000000000000     
  0.65625000000000000       0.59375000000000000        0.0000000000000000     
  0.68750000000000000       0.59375000000000000        0.0000000000000000     
  0.71875000000000000       0.59375000000000000        0.0000000000000000     
  0.75000000000000000       0.59375000000000000        0.0000000000000000     
  0.62500000000000000       0.62500000000000000        0.0000000000000000     
  0.65625000000000000       0.62500000000000000        0.0000000000000000     
  0.68750000000000000       0.62500000000000000        0.0000000000000000     
  0.71875000000000000       0.62500000000000000        0.0000000000000000     
  0.75000000000000000       0.62500000000000000        0.0000000000000000     
  0.75000000000000000       0.50000000000000000        0.0000000000000000     
  0.78125000000000000       0.50000000000000000        0.0000000000000000     
  0.81250000000000000       0.50000000000000000        0.0000000000000000     
  0.84375000000000000       0.50000000000000000        0.0000000000000000     
  0.87500000000000000       0.50000000000000000        0.0000000000000000     
  0.75000000000000000       0.53125000000000000        0.0000000000000000     
  0.78125000000000000       0.53125000000000000        0.0000000000000000     
  0.81250000000000000       0.53125000000000000        0.0000000000000000     
  0.84375000000000000       0.53125000000000000        0.0000000000000000     
  0.87500000000000000       0.53125000000000000        0.0000000000000000     
  0.75000000000000000       0.56250000000000000        0.0000000000000000     
  0.78125000000000000       0.56250000000000000        0.0000000000000000     
  0.81250000000000000       0.56250000000000000        0.0000000000000000     
  0.84375000000000000       0.56250000000000000        0.0000000000000000     
  0.87500000000000000       0.56250000000000000        0.0000000000000000     
  0.75000000000000000       0.59375000000000000        0.0000000000000000     
  0.78125000000000000       0.59375000000000000        0.0000000000000000     
  0.81250000000000000       0.59375000000000000        0.0000000000000000     
  0.84375000000000000       0.59375000000000000        0.0000000000000000     
  0.87500000000000000       0.59375000000000000        0.0000000000000000     
  0.75000000000000000       0.62500000000000000        0.0000000000000000     
  0.78125000000000000       0.62500000000000000        0.0000000000000000     
  0.81250000000000000       0.62500000000000000        0.0000000000000000     
  0.84375000000000000       0.62500000000000000        0.0000000000000000     
  0.87500000000000000       0.62500000000000000        0.0000000000000000     
  0.87500000000000000       0.50000000000000000        0.0000000000000000     
  0.90625000000000000       0.50000000000000000        0.0000000000000000     
  0.93750000000000000       0.50000000000000000        0.0000000000000000     
  0.96875000000000000       0.50000000000000000        0.0000000000000000     
   1.0000000000000000       0.50000000000000000        0.0000000000000000     
  0.87500000000000000       0.53125000000000000        0.0000000000000000     
  0.90625000000000000       0.53125000000000000        0.0000000000000000     
  0.93750000000000000       0.53125000000000000        0.0000000000000000     
  0.96875000000000000       0.53125000000000000        0.0000000000000000     
   1.0000000000000000       0.53125000000000000        0.0000000000000000     
  0.87500000000000000       0.56250000000000000        0.0000000000000000     
  0.90625000000000000       0.56250000000000000        0.0000000000000000     
  0.93750000000000000       0.56250000000000000        0.0000000000000000     
  0.96875000000000000       0.56250000000000000        0.0000000000000000     
   1.0000000000000000       0.56250000000000000        0.0000000000000000     
  0.87500000000000000       0.59375000000000000        0.0000000000000000     
  0.90625000000000000       0.59375000000000000        0.0000000000000000     
  0.93750000000000000       0.59375000000000000        0.0000000000000000     
  0.96875000000000000       0.59375000000000000        0.0000000000000000     
   1.0000000000000000       0.59375000000000000        0.0000000000000000     
  0.87500000000000000       0.62500000000000000        0.0000000000000000     
  0.90625000000000000       0.62500000000000000        0.0000000000000000     
  0.93750000000000000       0.62500000000000000        0.0000000000000000     
  0.96875000000000000       0.62500000000000000        0.0000000000000000     
   1.0000000000000000       0.62500000000000000        0.0000000000000000     
   1.0000000000000000       0.50000000000000000        0.0000000000000000     
   1.0312500000000000       0.50000000000000000        0.0000000000000000     
   1.0625000000000000       0.50000000000000000        0.0000000000000000     
   1.0937500000000000       0.50000000000000000        0.0000000000000000     
   1.1250000000000000       0.50000000000000000        0.0000000000000000     
   1.0000000000000000       0.53125000000000000        0.0000000000000000     
   1.0312500000000000       0.53125000000000000        0.0000000000000000     
   1.0625000000000000       0.53125000000000000        0.0000000000000000     
   1.0937500000000000       0.53125000000000000        0.0000000000000000     
   1.1250000000000000       0.53125000000000000        0.0000000000000000     
   1.0000000000000000       0.56250000000000000        0.0000000000000000     
   1.0312500000000000       0.56250000000000000        0.0000000000000000     
   1.0625000000000000       0.56250000000000000        0.0000000000000000     
   1.0937500000000000       0.56250000000000000        0.0000000000000000     
   1.1250000000000000       0.56250000000000000        0.0000000000000000     
   1.0000000000000000       0.59375000000000000        0.0000000000000000     
   1.0312500000000000       0.59375000000000000        0.0000000000000000     
   1.0625000000000000       0.59375000000000000        0.0000000000000000     
   1.0937500000000000       0.59375000000000000        0.0000000000000000     
   1.1250000000000000       0.59375000000000000        0.0000000000000000     
   1.0000000000000000       0.62500000000000000        0.0000000000000000     
   1.0312500000000000       0.62500000000000000        0.0000000000000000     
   1.0625000000000000       0.62500000000000000        0.0000000000000000     
   1.0937500000000000       0.62500000000000000        0.0000000000000000     
   1.1250000000000000       0.62500000000000000        0.0000000000000000     
   1.1250000000000000       0.50000000000000000        0.0000000000000000     
   1.1562500000000000       0.50000000000000000        0.0000000000000000     
   1.1875000000000000       0.50000000000000000        0.0000000000000000     
   1.2187500000000000       0.50000000000000000        0.0000000000000000     
   1.2500000000000000       0.50000000000000000        0.0000000000000000     
   1.1250000000000000       0.53125000000000000        0.0000000000000000     
   1.1562500000000000       0.53125000000000000        0.0000000000000000     
   1.1875000000000000       0.53125000000000000        0.0000000000000000     
   1.2187500000000000       0.53125000000000000        0.0000000000000000     
   1.2500000000000000       0.53125000000000000        0.0000000000000000     
   1.1250000000000000       0.56250000000000000        0.0000000000000000     
   1.1562500000000000       0.56250000000000000        0.0000000000000000     
   1.1875000000000000       0.56250000000000000        0.0000000000000000     
   1.2187500000000000       0.56250000000000000        0.0000000000000000     
   1.2500000000000000       0.56250000000000000        0.0000000000000000     
   1.1250000000000000       0.59375000000000000        0.0000000000000000     
   1.1562500000000000       0.59375000000000000        0.0000000000000000     
   1.1875000000000000       0.59375000000000000        0.0000000000000000     
   1.2187500000000000       0.59375000000000000        0.0000000000000000     
   1.2500000000000000       0.59375000000000000        0.0000000000000000     
   1.1250000000000000       0.62500000000000000        0.0000000000000000     
   1.1562500000000000       0.62500000000000000        0.0000000000000000     
   1.1875000000000000       0.62500000000000000        0.0000000000000000     
   1.2187500000000000       0.62500000000000000        0.0000000000000000     
   1.2500000000000000       0.62500000000000000        0.0000000000000000     
   1.2500000000000000       0.50000000000000000        0.0000000000000000     
   1.2812500000000000       0.50000000000000000        0.0000000000000000     
   1.3125000000000000       0.50000000000000000        0.0000000000000000     
   1.3437500000000000       0.50000000000000000        0.0000000000000000     
   1.3750000000000000       0.50000000000000000        0.0000000000000000     
   1.2500000000000000       0.53125000000000000        0.0000000000000000     
   1.2812500000000000       0.53125000000000000        0.0000000000000000     
   1.3125000000000000       0.53125000000000000        0.0000000000000000     
   1.3437500000000000       0.53125000000000000        0.0000000000000000     
   1.3750000000000000       0.53125000000000000        0.0000000000000000     
   1.2500000000000000       0.56250000000000000        0.0000000000000000     
   1.2812500000000000       0.56250000000000000        0.0000000000000000     
   1.3125000000000000       0.56250000000000000        0.0000000000000000     
   1.3437500000000000       0.56250000000000000        0.0000000000000000     
   1.3750000000000000       0.56250000000000000        0.0000000000000000     
   1.2500000000000000       0.59375000000000000        0.0000000000000000     
   1.2812500000000000       0.59375000000000000        0.0000000000000000     
   1.3125000000000000       0.59375000000000000        0.0000000000000000     
   1.3437500000000000       0.59375000000000000        0.0000000000000000     
   1.3750000000000000       0.59375000000000000        0.0000000000000000     
   1.2500000000000000       0.62500000000000000        0.0000000000000000     
   1.2812500000000000       0.62500000000000000        0.0000000000000000     
   1.3125000000000000       0.62500000000000000        0.0000000000000000     
   1.3437500000000000       0.62500000000000000        0.0000000000000000     
   1.3750000000000000       0.62500000000000000        0.0000000000000000     
   1.3750000000000000       0.50000000000000000        0.0000000000000000     
   1.4062500000000000       0.50000000000000000        0.0000000000000000     
   1.4375000000000000       0.50000000000000000        0.0000000000000000     
   1.4687500000000000       0.50000000000000000        0.0000000000000000     
   1.5000000000000000       0.50000000000000000        0.0000000000000000     
   1.3750000000000000       0.53125000000000000        0.0000000000000000     
   1.4062500000000000       0.53125000000000000        0.0000000000000000     
   1.4375000000000000       0.53125000000000000        0.0000000000000000     
   1.4687500000000000       0.53125000000000000        0.0000000000000000     
   1.5000000000000000       0.53125000000000000        0.0000000000000000     
   1.3750000000000000       0.56250000000000000        0.0000000000000000     
   1.4062500000000000       0.56250000000000000        0.0000000000000000     
   1.4375000000000000       0.56250000000000000        0.0000000000000000     
   1.4687500000000000       0.56250000000000000        0.0000000000000000     
   1.5000000000000000       0.56250000000000000        0.0000000000000000     
   1.3750000000000000       0.59375000000000000        0.0000000000000000     
   1.4062500000000000       0.59375000000000000        0.0000000000000000     
   1.4375000000000000       0.59375000000000000        0.0000000000000000     
   1.4687500000000000       0.59375000000000000        0.0000000000000000     
   1.5000000000000000       0.59375000000000000        0.0000000000000000     
   1.3750000000000000       0.62500000000000000        0.0000000000000000     
   1.4062500000000000       0.62500000000000000        0.0000000000000000     
   1.4375000000000000       0.62500000000000000        0.0000000000000000     
   1.4687500000000000       0.62500000000000000        0.0000000000000000     
   1.5000000000000000       0.62500000000000000        0.0000000000000000     
  0.50000000000000000       0.62500000000000000        0.0000000000000000     
  0.53125000000000000       0.62500000000000000        0.0000000000000000     
  0.56250000000000000       0.62500000000000000        0.0000000000000000     
  0.59375000000000000       0.62500000000000000        0.0000000000000000     
  0.62500000000000000       0.62500000000000000        0.0000000000000000     
  0.50000000000000000       0.65625000000000000        0.0000000000000000     
  0.53125000000000000       0.65625000000000000        0.0000000000000000     
  0.56250000000000000       0.65625000000000000        0.0000000000000000     
  0.59375000000000000       0.65625000000000000        0.0000000000000000     
  0.62500000000000000       0.65625000000000000        0.0000000000000000     
  0.50000000000000000       0.68750000000000000        0.0000000000000000     
  0.53125000000000000       0.68750000000000000        0.0000000000000000     
  0.56250000000000000       0.68750000000000000        0.0000000000000000     
  0.59375000000000000       0.68750000000000000        0.0000000000000000     
  0.62500000000000000       0.68750000000000000        0.0000000000000000     
  0.50000000000000000       0.71875000000000000        0.0000000000000000     
  0.53125000000000000       0.71875000000000000        0.0000000000000000     
  0.56250000000000000       0.71875000000000000        0.0000000000000000     
  0.59375000000000000       0.71875000000000000        0.0000000000000000     
  0.62500000000000000       0.71875000000000000        0.0000000000000000     
  0.50000000000000000       0.75000000000000000        0.0000000000000000     
  0.53125000000000000       0.75000000000000000        0.0000000000000000     
  0.56250000000000000       0.75000000000000000        0.0000000000000000     
  0.59375000000000000       0.75000000000000000        0.0000000000000000     
  0.62500000000000000       0.75000000000000000        0.0000000000000000     
  0.62500000000000000       0.62500000000000000        0.0000000000000000     
  0.65625000000000000       0.62500000000000000        0.0000000000000000     
  0.68750000000000000       0.62500000000000000        0.0000000000000000     
  0.71875000000000000       0.62500000000000000        0.0000000000000000     
  0.75000000000000000       0.62500000000000000        0.0000000000000000     
  0.62500000000000000       0.65625000000000000        0.0000000000000000     
  0.65625000000000000       0.65625000000000000        0.0000000000000000     
  0.68750000000000000       0.65625000000000000        0.0000000000000000     
  0.71875000000000000       0.65625000000000000        0.0000000000000000     
  0.75000000000000000       0.65625000000000000        0.0000000000000000     
  0.62500000000000000       0.68750000000000000        0.0000000000000000     
  0.65625000000000000       0.68750000000000000        0.0000000000000000     
  0.68750000000000000       0.68750000000000000        0.0000000000000000     
  0.71875000000000000       0.68750000000000000        0.0000000000000000     
  0.75000000000000000       0.68750000000000000        0.0000000000000000     
  0.62500000000000000       0.71875000000000000        0.0000000000000000     
  0.65625000000000000       0.71875000000000000        0.0000000000000000     
  0.68750000000000000       0.71875000000000000        0.0000000000000000     
  0.71875000000000000       0.71875000000000000        0.0000000000000000     
  0.75000000000000000       0.71875000000000000        0.0000000000000000     
  0.62500000000000000       0.75000000000000000        0.0000000000000000     
  0.65625000000000000       0.75000000000000000        0.0000000000000000     
  0.68750000000000000       0.75000000000000000        0.0000000000000000     
  0.71875000000000000       0.75000000000000000        0.0000000000000000     
  0.75000000000000000       0.75000000000000000        0.0000000000000000     
  0.75000000000000000       0.62500000000000000        0.0000000000000000     
  0.78125000000000000       0.62500000000000000        0.0000000000000000     
  0.81250000000000000       0.62500000000000000        0.0000000000000000     
  0.84375000000000000       0.62500000000000000        0.0000000000000000     
  0.87500000000000000       0.62500000000000000        0.0000000000000000     
  0.75000000000000000       0.65625000000000000        0.0000000000000000     
  0.78125000000000000       0.65625000000000000        0.0000000000000000     
  0.81250000000000000       0.65625000000000000        0.0000000000000000     
  0.84375000000000000       0.65625000000000000        0.0000000000000000     
  0.87500000000000000       0.65625000000000000        0.0000000000000000     
  0.75000000000000000       0.68750000000000000        0.0000000000000000     
  0.78125000000000000       0.68750000000000000        0.0000000000000000     
  0.81250000000000000       0.68750000000000000        0.0000000000000000     
  0.84375000000000000       0.68750000000000000        0.0000000000000000     
  0.87500000000000000       0.68750000000000000        0.0000000000000000     
  0.75000000000000000       0.71875000000000000        0.0000000000000000     
  0.78125000000000000       0.71875000000000000        0.0000000000000000     
  0.81250000000000000       0.71875000000000000        0.0000000000000000     
  0.84375000000000000       0.71875000000000000        0.0000000000000000     
  0.87500000000000000       0.71875000000000000        0.0000000000000000     
  0.75000000000000000       0.75000000000000000        0.0000000000000000     
  0.78125000000000000       0.75000000000000000        0.0000000000000000     
  0.81250000000000000       0.75000000000000000        0.0000000000000000     
  0.84375000000000000       0.75000000000000000        0.0000000000000000     
  0.87500000000000000       0.75000000000000000        0.0000000000000000     
  0.87500000000000000       0.62500000000000000        0.0000000000000000     
  0.90625000000000000       0.62500000000000000        0.0000000000000000     
  0.93750000000000000       0.62500000000000000        0.0000000000000000     
  0.96875000000000000       0.62500000000000000        0.0000000000000000     
   1.0000000000000000       0.62500000000000000        0.0000000000000000     
  0.87500000000000000       0.65625000000000000        0.0000000000000000     
  0.90625000000000000       0.65625000000000000        0.0000000000000000     
  0.93750000000000000       0.65625000000000000        0.0000000000000000     
  0.96875000000000000       0.65625000000000000        0.0000000000000000     
   1.0000000000000000       0.65625000000000000        0.0000000000000000     
  0.87500000000000000       0.68750000000000000        0.0000000000000000     
  0.90625000000000000       0.68750000000000000        0.0000000000000000     
  0.93750000000000000       0.68750000000000000        0.0000000000000000     
  0.96875000000000000       0.68750000000000000        0.0000000000000000     
   1.0000000000000000       0.68750000000000000        0.0000000000000000     
  0.87500000000000000       0.71875000000000000        0.0000000000000000     
  0.90625000000000000       0.71875000000000000        0.0000000000000000     
  0.93750000000000000       0.71875000000000000        0.0000000000000000     
  0.96875000000000000       0.71875000000000000        0.0000000000000000     
   1.0000000000000000       0.71875000000000000        0.0000000000000000     
  0.87500000000000000       0.75000000000000000        0.0000000000000000     
  0.90625000000000000       0.75000000000000000        0.0000000000000000     
  0.93750000000000000       0.75000000000000000        0.0000000000000000     
  0.96875000000000000       0.75000000000000000        0.0000000000000000     
   1.0000000000000000       0.75000000000000000        0.0000000000000000     
   1.0000000000000000       0.62500000000000000        0.0000000000000000     
   1.0312500000000000       0.62500000000000000        0.0000000000000000     
   1.0625000000000000       0.62500000000000000        0.0000000000000000     
   1.0937500000000000       0.62500000000000000        0.0000000000000000     
   1.1250000000000000       0.62500000000000000        0.0000000000000000     
   1.0000000000000000       0.65625000000000000        0.0000000000000000     
   1.0312500000000000       0.65625000000000000        0.0000000000000000     
   1.0625000000000000       0.65625000000000000        0.0000000000000000     
   1.0937500000000000       0.65625000000000000        0.0000000000000000     
   1.1250000000000000       0.65625000000000000        0.0000000000000000     
   1.0000000000000000       0.68750000000000000        0.0000000000000000     
   1.0312500000000000       0.68750000000000000        0.0000000000000000     
   1.0625000000000000       0.68750000000000000        0.0000000000000000     
   1.0937500000000000       0.68750000000000000        0.0000000000000000     
   1.1250000000000000       0.68750000000000000        0.0000000000000000     
   1.0000000000000000       0.71875000000000000        0.0000000000000000     
   1.0312500000000000       0.71875000000000000        0.0000000000000000     
   1.0625000000000000       0.71875000000000000        0.0000000000000000     
   1.0937500000000000       0.71875000000000000        0.0000000000000000     
   1.1250000000000000       0.71875000000000000        0.0000000000000000     
   1.0000000000000000       0.75000000000000000        0.0000000000000000     
   1.0312500000000000       0.75000000000000000        0.0000000000000000     
   1.0625000000000000       0.75000000000000000        0.0000000000000000     
   1.0937500000000000       0.75000000000000000        0.0000000000000000     
   1.1250000000000000       0.75000000000000000        0.0000000000000000     
   1.1250000000000000       0.62500000000000000        0.0000000000000000     
   1.1562500000000000       0.62500000000000000        0.0000000000000000     
   1.1875000000000000       0.62500000000000000        0.0000000000000000     
   1.2187500000000000       0.62500000000000000        0.0000000000000000     
   1.2500000000000000       0.62500000000000000        0.0000000000000000     
   1.1250000000000000       0.65625000000000000        0.0000000000000000     
   1.1562500000000000       0.65625000000000000        0.0000000000000000     
   1.1875000000000000       0.65625000000000000        0.0000000000000000     
   1.2187500000000000       0.65625000000000000        0.0000000000000000     
   1.2500000000000000       0.65625000000000000        0.0000000000000000     
   1.1250000000000000       0.68750000000000000        0.0000000000000000     
   1.1562500000000000       0.68750000000000000        0.0000000000000000     
   1.1875000000000000       0.68750000000000000        0.0000000000000000     
   1.2187500000000000       0.68750000000000000        0.0000000000000000     
   1.2500000000000000       0.68750000000000000        0.0000000000000000     
   1.1250000000000000       0.71875000000000000        0.0000000000000000     
   1.1562500000000000       0.71875000000000000        0.0000000000000000     
   1.1875000000000000       0.71875000000000000        0.0000000000000000     
   1.2187500000000000       0.71875000000000000        0.0000000000000000     
   1.2500000000000000       0.71875000000000000        0.0000000000000000     
   1.1250000000000000       0.75000000000000000        0.0000000000000000     
   1.1562500000000000       0.75000000000000000        0.0000000000000000     
   1.1875000000000000       0.75000000000000000        0.0000000000000000     
   1.2187500000000000       0.75000000000000000        0.0000000000000000     
   1.2500000000000000       0.75000000000000000        0.0000000000000000     
   1.2500000000000000       0.62500000000000000        0.0000000000000000     
   1.2812500000000000       0.62500000000000000        0.0000000000000000     
   1.3125000000000000       0.62500000000000000        0.0000000000000000     
   1.3437500000000000       0.62500000000000000        0.0000000000000000     
   1.3750000000000000       0.62500000000000000        0.0000000000000000     
   1.2500000000000000       0.65625000000000000        0.0000000000000000     
   1.2812500000000000       0.65625000000000000        0.0000000000000000     
   1.3125000000000000       0.65625000000000000        0.0000000000000000     
   1.3437500000000000       0.65625000000000000        0.0000000000000000     
   1.3750000000000000       0.65625000000000000        0.0000000000000000     
   1.2500000000000000       0.68750000000000000        0.0000000000000000     
   1.2812500000000000       0.68750000000000000        0.0000000000000000     
   1.3125000000000000       0.68750000000000000        0.0000000000000000     
   1.3437500000000000       0.68750000000000000        0.0000000000000000     
   1.3750000000000000       0.68750000000000000        0.0000000000000000     
   1.2500000000000000       0.71875000000000000        0.0000000000000000     
   1.2812500000000000       0.71875000000000000        0.0000000000000000     
   1.3125000000000000       0.71875000000000000        0.0000000000000000     
   1.3437500000000000       0.71875000000000000        0.0000000000000000     
   1.3750000000000000       0.71875000000000000        0.0000000000000000     
   1.2500000000000000       0.75000000000000000        0.0000000000000000     
   1.2812500000000000       0.75000000000000000        0.0000000000000000     
   1.3125000000000000       0.75000000000000000        0.0000000000000000     
   1.3437500000000000       0.75000000000000000        0.0000000000000000     
   1.3750000000000000       0.75000000000000000        0.0000000000000000     
   1.3750000000000000       0.62500000000000000        0.0000000000000000     
   1.4062500000000000       0.62500000000000000        0.0000000000000000     
   1.4375000000000000       0.62500000000000000        0.0000000000000000     
   1.4687500000000000       0.62500000000000000        0.0000000000000000     
   1.5000000000000000       0.62500000000000000        0.0000000000000000     
   1.3750000000000000       0.65625000000000000        0.0000000000000000     
   1.4062500000000000       0.65625000000000000        0.0000000000000000     
   1.4375000000000000       0.65625000000000000        0.0000000000000000     
   1.4687500000000000       0.65625000000000000        0.0000000000000000     
   1.5000000000000000       0.65625000000000000        0.0000000000000000     
   1.3750000000000000       0.68750000000000000        0.0000000000000000     
   1.4062500000000000       0.68750000000000000        0.0000000000000000     
   1.4375000000000000       0.68750000000000000        0.0000000000000000     
   1.4687500000000000       0.68750000000000000        0.0000000000000000     
   1.5000000000000000       0.68750000000000000        0.0000000000000000     
   1.3750000000000000       0.71875000000000000        0.0000000000000000     
   1.4062500000000000       0.71875000000000000        0.0000000000000000     
   1.4375000000000000       0.71875000000000000        0.0000000000000000     
   1.4687500000000000       0.71875000000000000        0.0000000000000000     
   1.5000000000000000       0.71875000000000000        0.0000000000000000     
   1.3750000000000000       0.75000000000000000        0.0000000000000000     
   1.4062500000000000       0.75000000000000000        0.0000000000000000     
   1.4375000000000000       0.75000000000000000        0.0000000000000000     
   1.4687500000000000       0.75000000000000000        0.0000000000000000     
   1.5000000000000000       0.75000000000000000        0.0000000000000000     
  0.50000000000000000       0.75000000000000000        0.0000000000000000     
  0.53125000000000000       0.75000000000000000        0.0000000000000000     
  0.56250000000000000       0.75000000000000000        0.0000000000000000     
  0.59375000000000000       0.75000000000000000        0.0000000000000000     
  0.62500000000000000       0.75000000000000000        0.0000000000000000     
  0.50000000000000000       0.78125000000000000        0.0000000000000000     
  0.53125000000000000       0.78125000000000000        0.0000000000000000     
  0.56250000000000000       0.78125000000000000        0.0000000000000000     
  0.59375000000000000       0.78125000000000000        0.0000000000000000     
  0.62500000000000000       0.78125000000000000        0.0000000000000000     
  0.50000000000000000       0.81250000000000000        0.0000000000000000     
  0.53125000000000000       0.81250000000000000        0.0000000000000000     
  0.56250000000000000       0.81250000000000000        0.0000000000000000     
  0.59375000000000000       0.81250000000000000        0.0000000000000000     
  0.62500000000000000       0.81250000000000000        0.0000000000000000     
  0.50000000000000000       0.84375000000000000        0.0000000000000000     
  0.53125000000000000       0.84375000000000000        0.0000000000000000     
  0.56250000000000000       0.84375000000000000        0.0000000000000000     
  0.59375000000000000       0.84375000000000000        0.0000000000000000     
  0.62500000000000000       0.84375000000000000        0.0000000000000000     
  0.50000000000000000       0.87500000000000000        0.0000000000000000     
  0.53125000000000000       0.87500000000000000        0.0000000000000000     
  0.56250000000000000       0.87500000000000000        0.0000000000000000     
  0.59375000000000000       0.87500000000000000        0.0000000000000000     
  0.62500000000000000       0.87500000000000000        0.0000000000000000     
  0.62500000000000000       0.75000000000000000        0.0000000000000000     
  0.65625000000000000       0.75000000000000000        0.0000000000000000     
  0.68750000000000000       0.75000000000000000        0.0000000000000000     
  0.71875000000000000       0.75000000000000000        0.0000000000000000     
  0.75000000000000000       0.75000000000000000        0.0000000000000000     
  0.62500000000000000       0.78125000000000000        0.0000000000000000     
  0.65625000000000000       0.78125000000000000        0.0000000000000000     
  0.68750000000000000       0.78125000000000000        0.0000000000000000     
  0.71875000000000000       0.78125000000000000        0.0000000000000000     
  0.75000000000000000       0.78125000000000000        0.0000000000000000     
  0.62500000000000000       0.81250000000000000        0.0000000000000000     
  0.65625000000000000       0.81250000000000000        0.0000000000000000     
  0.68750000000000000       0.81250000000000000        0.0000000000000000     
  0.71875000000000000       0.81250000000000000        0.0000000000000000     
  0.75000000000000000       0.81250000000000000        0.0000000000000000     
  0.62500000000000000       0.84375000000000000        0.0000000000000000     
  0.65625000000000000       0.84375000000000000        0.0000000000000000     
  0.68750000000000000       0.84375000000000000        0.0000000000000000     
  0.71875000000000000       0.84375000000000000        0.0000000000000000     
  0.75000000000000000       0.84375000000000000        0.0000000000000000     
  0.62500000000000000       0.87500000000000000        0.0000000000000000     
  0.65625000000000000       0.87500000000000000        0.0000000000000000     
  0.68750000000000000       0.87500000000000000        0.0000000000000000     
  0.71875000000000000       0.87500000000000000        0.0000000000000000     
  0.75000000000000000       0.87500000000000000        0.0000000000000000     
  0.75000000000000000       0.75000000000000000        0.0000000000000000     
  0.78125000000000000       0.75000000000000000        0.0000000000000000     
  0.81250000000000000       0.75000000000000000        0.0000000000000000     
  0.84375000000000000       0.75000000000000000        0.0000000000000000     
  0.87500000000000000       0.75000000000000000        0.0000000000000000     
  0.75000000000000000       0.78125000000000000        0.0000000000000000     
  0.78125000000000000       0.78125000000000000        0.0000000000000000     
  0.81250000000000000       0.78125000000000000        0.0000000000000000     
  0.84375000000000000       0.78125000000000000        0.0000000000000000     
  0.87500000000000000       0.78125000000000000        0.0000000000000000     
  0.75000000000000000       0.81250000000000000        0.0000000000000000     
  0.78125000000000000       0.81250000000000000        0.0000000000000000     
  0.81250000000000000       0.81250000000000000        0.0000000000000000     
  0.84375000000000000       0.81250000000000000        0.0000000000000000     
  0.87500000000000000       0.81250000000000000        0.0000000000000000     
  0.75000000000000000       0.84375000000000000        0.0000000000000000     
  0.78125000000000000       0.84375000000000000        0.0000000000000000     
  0.81250000000000000       0.84375000000000000        0.0000000000000000     
  0.84375000000000000       0.84375000000000000        0.0000000000000000     
  0.87500000000000000       0.84375000000000000        0.0000000000000000     
  0.75000000000000000       0.87500000000000000        0.0000000000000000     
  0.78125000000000000       0.87500000000000000        0.0000000000000000     
  0.81250000000000000       0.87500000000000000        0.0000000000000000     
  0.84375000000000000       0.87500000000000000        0.0000000000000000     
  0.87500000000000000       0.87500000000000000        0.0000000000000000     
  0.87500000000000000       0.75000000000000000        0.0000000000000000     
  0.90625000000000000       0.75000000000000000        0.0000000000000000     
  0.93750000000000000       0.75000000000000000        0.0000000000000000     
  0.96875000000000000       0.75000000000000000        0.0000000000000000     
   1.0000000000000000       0.75000000000000000        0.0000000000000000     
  0.87500000000000000       0.78125000000000000        0.0000000000000000     
  0.90625000000000000       0.78125000000000000        0.0000000000000000     
  0.93750000000000000       0.78125000000000000        0.0000000000000000     
  0.96875000000000000       0.78125000000000000        0.0000000000000000     
   1.0000000000000000       0.78125000000000000        0.0000000000000000     
  0.87500000000000000       0.81250000000000000        0.0000000000000000     
  0.90625000000000000       0.81250000000000000        0.0000000000000000     
  0.93750000000000000       0.81250000000000000        0.0000000000000000     
  0.96875000000000000       0.81250000000000000        0.0000000000000000     
   1.0000000000000000       0.81250000000000000        0.0000000000000000     
  0.87500000000000000       0.84375000000000000        0.0000000000000000     
  0.90625000000000000       0.84375000000000000        0.0000000000000000     
  0.93750000000000000       0.84375000000000000        0.0000000000000000     
  0.96875000000000000       0.84375000000000000        0.0000000000000000     
   1.0000000000000000       0.84375000000000000        0.0000000000000000     
  0.87500000000000000       0.87500000000000000        0.0000000000000000     
  0.90625000000000000       0.87500000000000000        0.0000000000000000     
  0.93750000000000000       0.87500000000000000        0.0000000000000000     
  0.96875000000000000       0.87500000000000000        0.0000000000000000     
   1.0000000000000000       0.87500000000000000        0.0000000000000000     
   1.0000000000000000       0.75000000000000000        0.0000000000000000     
   1.0312500000000000       0.75000000000000000        0.0000000000000000     
   1.0625000000000000       0.75000000000000000        0.0000000000000000     
   1.0937500000000000       0.75000000000000000        0.0000000000000000     
   1.1250000000000000       0.75000000000000000        0.0000000000000000     
   1.0000000000000000       0.78125000000000000        0.0000000000000000     
   1.0312500000000000       0.78125000000000000        0.0000000000000000     
   1.0625000000000000       0.78125000000000000        0.0000000000000000     
   1.0937500000000000       0.78125000000000000        0.0000000000000000     
   1.1250000000000000       0.78125000000000000        0.0000000000000000     
   1.0000000000000000       0.81250000000000000        0.0000000000000000     
   1.0312500000000000       0.81250000000000000        0.0000000000000000     
   1.0625000000000000       0.81250000000000000        0.0000000000000000     
   1.0937500000000000       0.81250000000000000        0.0000000000000000     
   1.1250000000000000       0.81250000000000000        0.0000000000000000     
   1.0000000000000000       0.84375000000000000        0.0000000000000000     
   1.0312500000000000       0.84375000000000000        0.0000000000000000     
   1.0625000000000000       0.84375000000000000        0.0000000000000000     
   1.0937500000000000       0.84375000000000000        0.0000000000000000     
   1.1250000000000000       0.84375000000000000        0.0000000000000000     
   1.0000000000000000       0.87500000000000000        0.0000000000000000     
   1.0312500000000000       0.87500000000000000        0.0000000000000000     
   1.0625000000000000       0.87500000000000000        0.0000000000000000     
   1.0937500000000000       0.87500000000000000        0.0000000000000000     
   1.1250000000000000       0.87500000000000000        0.0000000000000000     
   1.1250000000000000       0.75000000000000000        0.0000000000000000     
   1.1562500000000000       0.75000000000000000        0.0000000000000000     
   1.1875000000000000       0.75000000000000000        0.0000000000000000     
   1.2187500000000000       0.75000000000000000        0.0000000000000000     
   1.2500000000000000       0.75000000000000000        0.0000000000000000     
   1.1250000000000000       0.78125000000000000        0.0000000000000000     
   1.1562500000000000       0.78125000000000000        0.0000000000000000     
   1.1875000000000000       0.78125000000000000        0.0000000000000000     
   1.2187500000000000       0.78125000000000000        0.0000000000000000     
   1.2500000000000000       0.78125000000000000        0.0000000000000000     
   1.1250000000000000       0.81250000000000000        0.0000000000000000     
   1.1562500000000000       0.81250000000000000        0.0000000000000000     
   1.1875000000000000       0.81250000000000000        0.0000000000000000     
   1.2187500000000000       0.81250000000000000        0.0000000000000000     
   1.2500000000000000       0.81250000000000000        0.0000000000000000     
   1.1250000000000000       0.84375000000000000        0.0000000000000000     
   1.1562500000000000       0.84375000000000000        0.0000000000000000     
   1.1875000000000000       0.84375000000000000        0.0000000000000000     
   1.2187500000000000       0.84375000000000000        0.0000000000000000     
   1.2500000000000000       0.84375000000000000        0.0000000000000000     
   1.1250000000000000       0.87500000000000000        0.0000000000000000     
   1.1562500000000000       0.87500000000000000        0.0000000000000000     
   1.1875000000000000       0.87500000000000000        0.0000000000000000     
   1.2187500000000000       0.87500000000000000        0.0000000000000000     
   1.2500000000000000       0.87500000000000000        0.0000000000000000     
   1.2500000000000000       0.75000000000000000        0.0000000000000000     
   1.2812500000000000       0.75000000000000000        0.0000000000000000     
   1.3125000000000000       0.75000000000000000        0.0000000000000000     
   1.3437500000000000       0.75000000000000000        0.0000000000000000     
   1.3750000000000000       0.75000000000000000        0.0000000000000000     
   1.2500000000000000       0.78125000000000000        0.0000000000000000     
   1.2812500000000000       0.78125000000000000        0.0000000000000000     
   1.3125000000000000       0.78125000000000000        0.0000000000000000     
   1.3437500000000000       0.78125000000000000        0.0000000000000000     
   1.3750000000000000       0.78125000000000000        0.0000000000000000     
   1.2500000000000000       0.81250000000000000        0.0000000000000000     
   1.2812500000000000       0.81250000000000000        0.0000000000000000     
   1.3125000000000000       0.81250000000000000        0.0000000000000000     
   1.3437500000000000       0.81250000000000000        0.0000000000000000     
   1.3750000000000000       0.81250000000000000        0.0000000000000000     
   1.2500000000000000       0.84375000000000000        0.0000000000000000     
   1.2812500000000000       0.84375000000000000        0.0000000000000000     
   1.3125000000000000       0.84375000000000000        0.0000000000000000     
   1.3437500000000000       0.84375000000000000        0.0000000000000000     
   1.3750000000000000       0.84375000000000000        0.0000000000000000     
   1.2500000000000000       0.87500000000000000        0.0000000000000000     
   1.2812500000000000       0.87500000000000000        0.0000000000000000     
   1.3125000000000000       0.87500000000000000        0.0000000000000000     
   1.3437500000000000       0.87500000000000000        0.0000000000000000     
   1.3750000000000000       0.87500000000000000        0.0000000000000000     
   1.3750000000000000       0.75000000000000000        0.0000000000000000     
   1.4062500000000000       0.75000000000000000        0.0000000000000000     
   1.4375000000000000       0.75000000000000000        0.0000000000000000     
   1.4687500000000000       0.75000000000000000        0.0000000000000000     
   1.5000000000000000       0.75000000000000000        0.0000000000000000     
   1.3750000000000000       0.78125000000000000        0.0000000000000000     
   1.4062500000000000       0.78125000000000000        0.0000000000000000     
   1.4375000000000000       0.78125000000000000        0.0000000000000000     
   1.4687500000000000       0.78125000000000000        0.0000000000000000     
   1.5000000000000000       0.78125000000000000        0.0000000000000000     
   1.3750000000000000       0.81250000000000000        0.0000000000000000     
   1.4062500000000000       0.81250000000000000        0.0000000000000000     
   1.4375000000000000       0.81250000000000000        0.0000000000000000     
   1.4687500000000000       0.81250000000000000        0.0000000000000000     
   1.5000000000000000       0.81250000000000000        0.0000000000000000     
   1.3750000000000000       0.84375000000000000        0.0000000000000000     
   1.4062500000000000       0.84375000000000000        0.0000000000000000     
   1.4375000000000000       0.84375000000000000        0.0000000000000000     
   1.4687500000000000       0.84375000000000000        0.0000000000000000     
   1.5000000000000000       0.84375000000000000        0.0000000000000000     
   1.3750000000000000       0.87500000000000000        0.0000000000000000     
   1.4062500000000000       0.87500000000000000        0.0000000000000000     
   1.4375000000000000       0.87500000000000000        0.0000000000000000     
   1.4687500000000000       0.87500000000000000        0.0000000000000000     
   1.5000000000000000       0.87500000000000000        0.0000000000000000     
  0.50000000000000000       0.87500000000000000        0.0000000000000000     
  0.53125000000000000       0.87500000000000000        0.0000000000000000     
  0.56250000000000000       0.87500000000000000        0.0000000000000000     
  0.59375000000000000       0.87500000000000000        0.0000000000000000     
  0.62500000000000000       0.87500000000000000        0.0000000000000000     
  0.50000000000000000       0.90625000000000000        0.0000000000000000     
  0.53125000000000000       0.90625000000000000        0.0000000000000000     
  0.56250000000000000       0.90625000000000000        0.0000000000000000     
  0.59375000000000000       0.90625000000000000        0.0000000000000000     
  0.62500000000000000       0.90625000000000000        0.0000000000000000     
  0.50000000000000000       0.93750000000000000        0.0000000000000000     
  0.53125000000000000       0.93750000000000000        0.0000000000000000     
  0.56250000000000000       0.93750000000000000        0.0000000000000000     
  0.59375000000000000       0.93750000000000000        0.0000000000000000     
  0.62500000000000000       0.93750000000000000        0.0000000000000000     
  0.50000000000000000       0.96875000000000000        0.0000000000000000     
  0.53125000000000000       0.96875000000000000        0.0000000000000000     
  0.56250000000000000       0.96875000000000000        0.0000000000000000     
  0.59375000000000000       0.96875000000000000        0.0000000000000000     
  0.62500000000000000       0.96875000000000000        0.0000000000000000     
  0.50000000000000000        1.0000000000000000        0.0000000000000000     
  0.53125000000000000        1.0000000000000000        0.0000000000000000     
  0.56250000000000000        1.0000000000000000        0.0000000000000000     
  0.59375000000000000        1.0000000000000000        0.0000000000000000     
  0.62500000000000000        1.0000000000000000        0.0000000000000000     
  0.62500000000000000       0.87500000000000000        0.0000000000000000     
  0.65625000000000000       0.87500000000000000        0.0000000000000000     
  0.68750000000000000       0.87500000000000000        0.0000000000000000     
  0.71875000000000000       0.87500000000000000        0.0000000000000000     
  0.75000000000000000       0.87500000000000000        0.0000000000000000     
  0.62500000000000000       0.90625000000000000        0.0000000000000000     
  0.65625000000000000       0.90625000000000000        0.0000000000000000     
  0.68750000000000000       0.90625000000000000        0.0000000000000000     
  0.71875000000000000       0.90625000000000000        0.0000000000000000     
  0.75000000000000000       0.90625000000000000        0.0000000000000000     
  0.62500000000000000       0.93750000000000000        0.0000000000000000     
  0.65625000000000000       0.93750000000000000        0.0000000000000000     
  0.68750000000000000       0.93750000000000000        0.0000000000000000     
  0.71875000000000000       0.93750000000000000        0.0000000000000000     
  0.75000000000000000       0.93750000000000000        0.0000000000000000     
  0.62500000000000000       0.96875000000000000        0.0000000000000000     
  0.65625000000000000       0.96875000000000000        0.0000000000000000     
  0.68750000000000000       0.96875000000000000        0.0000000000000000     
  0.71875000000000000       0.96875000000000000        0.0000000000000000     
  0.75000000000000000       0.96875000000000000        0.0000000000000000     
  0.62500000000000000        1.0000000000000000        0.0000000000000000     
  0.65625000000000000        1.0000000000000000        0.0000000000000000     
  0.68750000000000000        1.0000000000000000        0.0000000000000000     
  0.71875000000000000        1.0000000000000000        0.0000000000000000     
  0.75000000000000000        1.0000000000000000        0.0000000000000000     
  0.75000000000000000       0.87500000000000000        0.0000000000000000     
  0.78125000000000000       0.87500000000000000        0.0000000000000000     
  0.81250000000000000       0.87500000000000000        0.0000000000000000     
  0.84375000000000000       0.87500000000000000        0.0000000000000000     
  0.87500000000000000       0.87500000000000000        0.0000000000000000     
  0.75000000000000000       0.90625000000000000        0.0000000000000000     
  0.78125000000000000       0.90625000000000000        0.0000000000000000     
  0.81250000000000000       0.90625000000000000        0.0000000000000000     
  0.84375000000000000       0.90625000000000000        0.0000000000000000     
  0.87500000000000000       0.90625000000000000        0.0000000000000000     
  0.75000000000000000       0.93750000000000000        0.0000000000000000     
  0.78125000000000000       0.93750000000000000        0.0000000000000000     
  0.81250000000000000       0.93750000000000000        0.0000000000000000     
  0.84375000000000000       0.93750000000000000        0.0000000000000000     
  0.87500000000000000       0.93750000000000000        0.0000000000000000     
  0.75000000000000000       0.96875000000000000        0.0000000000000000     
  0.78125000000000000       0.96875000000000000        0.0000000000000000     
  0.81250000000000000       0.96875000000000000        0.0000000000000000     
  0.84375000000000000       0.96875000000000000        0.0000000000000000     
  0.87500000000000000       0.96875000000000000        0.0000000000000000     
  0.75000000000000000        1.0000000000000000        0.0000000000000000     
  0.78125000000000000        1.0000000000000000        0.0000000000000000     
  0.81250000000000000        1.0000000000000000        0.0000000000000000     
  0.84375000000000000        1.0000000000000000        0.0000000000000000     
  0.87500000000000000        1.0000000000000000        0.0000000000000000     
  0.87500000000000000       0.87500000000000000        0.0000000000000000     
  0.90625000000000000       0.87500000000000000        0.0000000000000000     
  0.93750000000000000       0.87500000000000000        0.0000000000000000     
  0.96875000000000000       0.87500000000000000        0.0000000000000000     
   1.0000000000000000       0.87500000000000000        0.0000000000000000     
  0.87500000000000000       0.90625000000000000        0.0000000000000000     
  0.90625000000000000       0.90625000000000000        0.0000000000000000     
  0.93750000000000000       0.90625000000000000        0.0000000000000000     
  0.96875000000000000       0.90625000000000000        0.0000000000000000     
   1.0000000000000000       0.90625000000000000        0.0000000000000000     
  0.87500000000000000       0.93750000000000000        0.0000000000000000     
  0.90625000000000000       0.93750000000000000        0.0000000000000000     
  0.93750000000000000       0.93750000000000000        0.0000000000000000     
  0.96875000000000000       0.93750000000000000        0.0000000000000000     
   1.0000000000000000       0.93750000000000000        0.0000000000000000     
  0.87500000000000000       0.96875000000000000        0.0000000000000000     
  0.90625000000000000       0.96875000000000000        0.0000000000000000     
  0.93750000000000000       0.96875000000000000        0.0000000000000000     
  0.96875000000000000       0.96875000000000000        0.0000000000000000     
   1.0000000000000000       0.96875000000000000        0.0000000000000000     
  0.87500000000000000        1.0000000000000000        0.0000000000000000     
  0.90625000000000000        1.0000000000000000        0.0000000000000000     
  0.93750000000000000        1.0000000000000000        0.0000000000000000     
  0.96875000000000000        1.0000000000000000        0.0000000000000000     
   1.0000000000000000        1.0000000000000000        0.0000000000000000     
   1.0000000000000000       0.87500000000000000        0.0000000000000000     
   1.0312500000000000       0.87500000000000000        0.0000000000000000     
   1.0625000000000000       0.87500000000000000        0.0000000000000000     
   1.0937500000000000       0.87500000000000000        0.0000000000000000     
   1.1250000000000000       0.87500000000000000        0.0000000000000000     
   1.0000000000000000       0.90625000000000000        0.0000000000000000     
   1.0312500000000000       0.90625000000000000        0.0000000000000000     
   1.0625000000000000       0.90625000000000000        0.0000000000000000     
   1.0937500000000000       0.90625000000000000        0.0000000000000000     
   1.1250000000000000       0.90625000000000000        0.0000000000000000     
   1.0000000000000000       0.93750000000000000        0.0000000000000000     
   1.0312500000000000       0.93750000000000000        0.0000000000000000     
   1.0625000000000000       0.93750000000000000        0.0000000000000000     
   1.0937500000000000       0.93750000000000000        0.0000000000000000     
   1.1250000000000000       0.93750000000000000        0.0000000000000000     
   1.0000000000000000       0.96875000000000000        0.0000000000000000     
   1.0312500000000000       0.96875000000000000        0.0000000000000000     
   1.0625000000000000       0.96875000000000000        0.0000000000000000     
   1.0937500000000000       0.96875000000000000        0.0000000000000000     
   1.1250000000000000       0.96875000000000000        0.0000000000000000     
   1.0000000000000000        1.0000000000000000        0.0000000000000000     
   1.0312500000000000        1.0000000000000000        0.0000000000000000     
   1.0625000000000000        1.0000000000000000        0.0000000000000000     
   1.0937500000000000        1.0000000000000000        0.0000000000000000     
   1.1250000000000000        1.0000000000000000        0.0000000000000000     
   1.1250000000000000       0.87500000000000000        0.0000000000000000     
   1.1562500000000000       0.87500000000000000        0.0000000000000000     
   1.1875000000000000       0.87500000000000000        0.0000000000000000     
   1.2187500000000000       0.87500000000000000        0.0000000000000000     
   1.2500000000000000       0.87500000000000000        0.0000000000000000     
   1.1250000000000000       0.90625000000000000        0.0000000000000000     
   1.1562500000000000       0.90625000000000000        0.0000000000000000     
   1.1875000000000000       0.90625000000000000        0.0000000000000000     
   1.2187500000000000       0.90625000000000000        0.0000000000000000     
   1.2500000000000000       0.90625000000000000        0.0000000000000000     
   1.1250000000000000       0.93750000000000000        0.0000000000000000     
   1.1562500000000000       0.93750000000000000        0.0000000000000000     
   1.1875000000000000       0.93750000000000000        0.0000000000000000     
   1.2187500000000000       0.93750000000000000        0.0000000000000000     
   1.2500000000000000       0.93750000000000000        0.0000000000000000     
   1.1250000000000000       0.96875000000000000        0.0000000000000000     
   1.1562500000000000       0.96875000000000000        0.0000000000000000     
   1.1875000000000000       0.96875000000000000        0.0000000000000000     
   1.2187500000000000       0.96875000000000000        0.0000000000000000     
   1.2500000000000000       0.96875000000000000        0.0000000000000000     
   1.1250000000000000        1.0000000000000000        0.0000000000000000     
   1.1562500000000000        1.0000000000000000        0.0000000000000000     
   1.1875000000000000        1.0000000000000000        0.0000000000000000     
   1.2187500000000000        1.0000000000000000        0.0000000000000000     
   1.2500000000000000        1.0000000000000000        0.0000000000000000     
   1.2500000000000000       0.87500000000000000        0.0000000000000000     
   1.2812500000000000       0.87500000000000000        0.0000000000000000     
   1.3125000000000000       0.87500000000000000        0.0000000000000000     
   1.3437500000000000       0.87500000000000000        0.0000000000000000     
   1.3750000000000000       0.87500000000000000        0.0000000000000000     
   1.2500000000000000       0.90625000000000000        0.0000000000000000     
   1.2812500000000000       0.90625000000000000        0.0000000000000000     
   1.3125000000000000       0.90625000000000000        0.0000000000000000     
   1.3437500000000000       0.90625000000000000        0.0000000000000000     
   1.3750000000000000       0.90625000000000000        0.0000000000000000     
   1.2500000000000000       0.93750000000000000        0.0000000000000000     
   1.2812500000000000       0.93750000000000000        0.0000000000000000     
   1.3125000000000000       0.93750000000000000        0.0000000000000000     
   1.3437500000000000       0.93750000000000000        0.0000000000000000     
   1.3750000000000000       0.93750000000000000        0.0000000000000000     
   1.2500000000000000       0.96875000000000000        0.0000000000000000     
   1.2812500000000000       0.96875000000000000        0.0000000000000000     
   1.3125000000000000       0.96875000000000000        0.0000000000000000     
   1.3437500000000000       0.96875000000000000        0.0000000000000000     
   1.3750000000000000       0.96875000000000000        0.0000000000000000     
   1.2500000000000000        1.0000000000000000        0.0000000000000000     
   1.2812500000000000        1.0000000000000000        0.0000000000000000     
   1.3125000000000000        1.0000000000000000        0.0000000000000000     
   1.3437500000000000        1.0000000000000000        0.0000000000000000     
   1.3750000000000000        1.0000000000000000        0.0000000000000000     
   1.3750000000000000       0.87500000000000000        0.0000000000000000     
   1.4062500000000000       0.87500000000000000        0.0000000000000000     
   1.4375000000000000       0.87500000000000000        0.0000000000000000     
   1.4687500000000000       0.87500000000000000        0.0000000000000000     
   1.5000000000000000       0.87500000000000000        0.0000000000000000     
   1.3750000000000000       0.90625000000000000        0.0000000000000000     
   1.4062500000000000       0.90625000000000000        0.0000000000000000     
   1.4375000000000000       0.90625000000000000        0.0000000000000000     
   1.4687500000000000       0.90625000000000000        0.0000000000000000     
   1.5000000000000000       0.90625000000000000        0.0000000000000000     
   1.3750000000000000       0.93750000000000000        0.0000000000000000     
   1.4062500000000000       0.93750000000000000        0.0000000000000000     
   1.4375000000000000       0.93750000000000000        0.0000000000000000     
   1.4687500000000000       0.93750000000000000        0.0000000000000000     
   1.5000000000000000       0.93750000000000000        0.0000000000000000     
   1.3750000000000000       0.96875000000000000        0.0000000000000000     
   1.4062500000000000       0.96875000000000000        0.0000000000000000     
   1.4375000000000000       0.96875000000000000        0.0000000000000000     
   1.4687500000000000       0.96875000000000000        0.0000000000000000     
   1.5000000000000000       0.96875000000000000        0.0000000000000000     
   1.3750000000000000        1.0000000000000000        0.0000000000000000     
   1.4062500000000000        1.0000000000000000        0.0000000000000000     
   1.4375000000000000        1.0000000000000000        0.0000000000000000     
   1.4687500000000000        1.0000000000000000        0.0000000000000000     
   1.5000000000000000        1.0000000000000000        0.0000000000000000     
 </DataArray>
 </Points>
 <Cells>
 <DataArray  type="Int32"  Name="connectivity"  format="ascii">
           0           1           6           5
           1           2           7           6
           2           3           8           7
           3           4           9           8
           5           6          11          10
           6           7          12          11
           7           8          13          12
           8           9          14          13
          10          11          16          15
          11          12          17          16
          12          13          18          17
          13          14          19          18
          15          16          21          20
          16          17          22          21
          17          18          23          22
          18          19          24          23
          25          26          31          30
          26          27          32          31
          27          28          33          32
          28          29          34          33
          30          31          36          35
          31          32          37          36
          32          33          38          37
          33          34          39          38
          35          36          41          40
          36          37          42          41
          37          38          43          42
          38          39          44          43
          40          41          46          45
          41          42          47          46
          42          43          48          47
          43          44          49          48
          50          51          56          55
          51          52          57          56
          52          53          58          57
          53          54          59          58
          55          56          61          60
          56          57          62          61
          57          58          63          62
          58          59          64          63
          60          61          66          65
          61          62          67          66
          62          63          68          67
          63          64          69          68
          65          66          71          70
          66          67          72          71
          67          68          73          72
          68          69          74          73
          75          76          81          80
          76          77          82          81
          77          78          83          82
          78          79          84          83
          80          81          86          85
          81          82          87          86
          82          83          88          87
          83          84          89          88
          85          86          91          90
          86          87          92          91
          87          88          93          92
          88          89          94          93
          90          91          96          95
          91          92          97          96
          92          93          98          97
          93          94          99          98
         100         101         106         105
         101         102         107         106
         102         103         108         107
         103         104         109         108
         105         106         111         110
         106         107         112         111
         107         108         113         112
         108         109         114         113
         110         111         116         115
         111         112         117         116
         112         113         118         117
         113         114         119         118
         115         116         121         120
         116         117         122         121
         117         118         123         122
         118         119         124         123
         125         126         131         130
         126         127         132         131
         127         128         133         132
         128         129         134         133
         130         131         136         135
         131         132         137         136
         132         133         138         137
         133         134         139         138
         135         136         141         140
         136         137         142         141
         137         138         143         142
         138         139         144         143
         140         141         146         145
         141         142         147         146
         142         143         148         147
         143         144         149         148
         150         151         156         155
         151         152         157         156
         152         153         158         157
         153         154         159         158
         155         156         161         160
         156         157         162         161
         157         158         163         162
         158         159         164         163
         160         161         166         165
         161         162         167         166
         162         163         168         167
         163         164         169         168
         165         166         171         170
         166         167         172         171
         167         168         173         172
         168         169         174         173
         175         176         181         180
         176         177         182         181
         177         178         183         182
         178         179         184         183
         180         181         186         185
         181         182         187         186
         182         183         188         187
         183         184         189         188
         185         186         191         190
         186         187         192         191
         187         188         193         192
         188         189         194         193
         190         191         196         195
         191         192         197         196
         192         193         198         197
         193         194         199         198
         200         201         206         205
         201         202         207         206
         202         203         208         207
         203         204         209         208
         205         206         211         210
         206         207         212         211
         207         208         213         212
         208         209         214         213
         210         211         216         215
         211         212         217         216
         212         213         218         217
         213         214         219         218
         215         216         221         220
         216         217         222         221
         217         218         223         222
         218         219         224         223
         225         226         231         230
         226         227         232         231
         227         228         233         232
         228         229         234         233
         230         231         236         235
         231         232         237         236
         232         233         238         237
         233         234         239         238
         235         236         241         240
         236         237         242         241
         237         238         243         242
         238         239         244         243
         240         241         246         245
         241         242         247         246
         242         243         248         247
         243         244         249         248
         250         251         256         255
         251         252         257         256
         252         253         258         257
         253         254         259         258
         255         256         261         260
         256         257         262         261
         257         258         263         262
         258         259         264         263
         260         261         266         265
         261         262         267         266
         262         263         268         267
         263         264         269         268
         265         266         271         270
         266         267         272         271
         267         268         273         272
         268         269         274         273
         275         276         281         280
         276         277         282         281
         277         278         283         282
         278         279         284         283
         280         281         286         285
         281         282         287         286
         282         283         288         287
         283         284         289         288
         285         286         291         290
         286         287         292         291
         287         288         293         292
         288         289         294         293
         290         291         296         295
         291         292         297         296
         292         293         298         297
         293         294         299         298
         300         301         306         305
         301         302         307         306
         302         303         308         307
         303         304         309         308
         305         306         311         310
         306         307         312         311
         307         308         313         312
         308         309         314         313
         310         311         316         315
         311         312         317         316
         312         313         318         317
         313         314         319         318
         315         316         321         320
         316         317         322         321
         317         318         323         322
         318         319         324         323
         325         326         331         330
         326         327         332         331
         327         328         333         332
         328         329         334         333
         330         331         336         335
         331         332         337         336
         332         333         338         337
         333         334         339         338
         335         336         341         340
         336         337         342         341
         337         338         343         342
         338         339         344         343
         340         341         346         345
         341         342         347         346
         342         343         348         347
         343         344         349         348
         350         351         356         355
         351         352         357         356
         352         353         358         357
         353         354         359         358
         355         356         361         360
         356         357         362         361
         357         358         363         362
         358         359         364         363
         360         361         366         365
         361         362         367         366
         362         363         368         367
         363         364         369         368
         365         366         371         370
         366         367         372         371
         367         368         373         372
         368         369         374         373
         375         376         381         380
         376         377         382         381
         377         378         383         382
         378         379         384         383
         380         381         386         385
         381         382         387         386
         382         383         388         387
         383         384         389         388
         385         386         391         390
         386         387         392         391
         387         388         393         392
         388         389         394         393
         390         391         396         395
         391         392         397         396
         392         393         398         397
         393         394         399         398
         400         401         406         405
         401         402         407         406
         402         403         408         407
         403         404         409         408
         405         406         411         410
         406         407         412         411
         407         408         413         412
         408         409         414         413
         410         411         416         415
         411         412         417         416
         412         413         418         417
         413         414         419         418
         415         416         421         420
         416         417         422         421
         417         418         423         422
         418         419         424         423
         425         426         431         430
         426         427         432         431
         427         428         433         432
         428         429         434         433
         430         431         436         435
         431         432         437         436
         432         433         438         437
         433         434         439         438
         435         436         441         440
         436         437         442         441
         437         438         443         442
         438         439         444         443
         440         441         446         445
         441         442         447         446
         442         443         448         447
         443         444         449         448
         450         451         456         455
         451         452         457         456
         452         453         458         457
         453         454         459         458
         455         456         461         460
         456         457         462         461
         457         458         463         462
         458         459         464         463
         460         461         466         465
         461         462         467         466
         462         463         468         467
         463         464         469         468
         465         466         471         470
         466         467         472         471
         467         468         473         472
         468         469         474         473
         475         476         481         480
         476         477         482         481
         477         478         483         482
         478         479         484         483
         480         481         486         485
         481         482         487         486
         482         483         488         487
         483         484         489         488
         485         486         491         490
         486         487         492         491
         487         488         493         492
         488         489         494         493
         490         491         496         495
         491         492         497         496
         492         493         498         497
         493         494         499         498
         500         501         506         505
         501         502         507         506
         502         503         508         507
         503         504         509         508
         505         506         511         510
         506         507         512         511
         507         508         513         512
         508         509         514         513
         510         511         516         515
         511         512         517         516
         512         513         518         517
         513         514         519         518
         515         516         521         520
         516         517         522         521
         517         518         523         522
         518         519         524         523
         525         526         531         530
         526         527         532         531
         527         528         533         532
         528         529         534         533
         530         531         536         535
         531         532         537         536
         532         533         538         537
         533         534         539         538
         535         536         541         540
         536         537         542         541
         537         538         543         542
         538         539         544         543
         540         541         546         545
         541         542         547         546
         542         543         548         547
         543         544         549         548
         550         551         556         555
         551         552         557         556
         552         553         558         557
         553         554         559         558
         555         556         561         560
         556         557         562         561
         557         558         563         562
         558         559         564         563
         560         561         566         565
         561         562         567         566
         562         563         568         567
         563         564         569         568
         565         566         571         570
         566         567         572         571
         567         568         573         572
         568         569         574         573
         575         576         581         580
         576         577         582         581
         577         578         583         582
         578         579         584         583
         580         581         586         585
         581         582         587         586
         582         583         588         587
         583         584         589         588
         585         586         591         590
         586         587         592         591
         587         588         593         592
         588         589         594         593
         590         591         596         595
         591         592         597         596
         592         593         598         597
         593         594         599         598
         600         601         606         605
         601         602         607         606
         602         603         608         607
         603         604         609         608
         605         606         611         610
         606         607         612         611
         607         608         613         612
         608         609         614         613
         610         611         616         615
         611         612         617         616
         612         613         618         617
         613         614         619         618
         615         616         621         620
         616         617         622         621
         617         618         623         622
         618         619         624         623
         625         626         631         630
         626         627         632         631
         627         628         633         632
         628         629         634         633
         630         631         636         635
         631         632         637         636
         632         633         638         637
         633         634         639         638
         635         636         641         640
         636         637         642         641
         637         638         643         642
         638         639         644         643
         640         641         646         645
         641         642         647         646
         642         643         648         647
         643         644         649         648
         650         651         656         655
         651         652         657         656
         652         653         658         657
         653         654         659         658
         655         656         661         660
         656         657         662         661
         657         658         663         662
         658         659         664         663
         660         661         666         665
         661         662         667         666
         662         663         668         667
         663         664         669         668
         665         666         671         670
         666         667         672         671
         667         668         673         672
         668         669         674         673
         675         676         681         680
         676         677         682         681
         677         678         683         682
         678         679         684         683
         680         681         686         685
         681         682         687         686
         682         683         688         687
         683         684         689         688
         685         686         691         690
         686         687         692         691
         687         688         693         692
         688         689         694         693
         690         691         696         695
         691         692         697         696
         692         693         698         697
         693         694         699         698
         700         701         706         705
         701         702         707         706
         702         703         708         707
         703         704         709         708
         705         706         711         710
         706         707         712         711
         707         708         713         712
         708         709         714         713
         710         711         716         715
         711         712         717         716
         712         713         718         717
         713         714         719         718
         715         716         721         720
         716         717         722         721
         717         718         723         722
         718         719         724         723
         725         726         731         730
         726         727         732         731
         727         728         733         732
         728         729         734         733
         730         731         736         735
         731         732         737         736
         732         733         738         737
         733         734         739         738
         735         736         741         740
         736         737         742         741
         737         738         743         742
         738         739         744         743
         740         741         746         745
         741         742         747         746
         742         743         748         747
         743         744         749         748
         750         751         756         755
         751         752         757         756
         752         753         758         757
         753         754         759         758
         755         756         761         760
         756         757         762         761
         757         758         763         762
         758         759         764         763
         760         761         766         765
         761         762         767         766
         762         763         768         767
         763         764         769         768
         765         766         771         770
         766         767         772         771
         767         768         773         772
         768         769         774         773
         775         776         781         780
         776         777         782         781
         777         778         783         782
         778         779         784         783
         780         781         786         785
         781         782         787         786
         782         783         788         787
         783         784         789         788
         785         786         791         790
         786         787         792         791
         787         788         793         792
         788         789         794         793
         790         791         796         795
         791         792         797         796
         792         793         798         797
         793         794         799         798
         800         801         806         805
         801         802         807         806
         802         803         808         807
         803         804         809         808
         805         806         811         810
         806         807         812         811
         807         808         813         812
         808         809         814         813
         810         811         816         815
         811         812         817         816
         812         813         818         817
         813         814         819         818
         815         816         821         820
         816         817         822         821
         817         818         823         822
         818         819         824         823
         825         826         831         830
         826         827         832         831
         827         828         833         832
         828         829         834         833
         830         831         836         835
         831         832         837         836
         832         833         838         837
         833         834         839         838
         835         836         841         840
         836         837         842         841
         837         838         843         842
         838         839         844         843
         840         841         846         845
         841         842         847         846
         842         843         848         847
         843         844         849         848
         850         851         856         855
         851         852         857         856
         852         853         858         857
         853         854         859         858
         855         856         861         860
         856         857         862         861
         857         858         863         862
         858         859         864         863
         860         861         866         865
         861         862         867         866
         862         863         868         867
         863         864         869         868
         865         866         871         870
         866         867         872         871
         867         868         873         872
         868         869         874         873
         875         876         881         880
         876         877         882         881
         877         878         883         882
         878         879         884         883
         880         881         886         885
         881         882         887         886
         882         883         888         887
         883         884         889         888
         885         886         891         890
         886         887         892         891
         887         888         893         892
         888         889         894         893
         890         891         896         895
         891         892         897         896
         892         893         898         897
         893         894         899         898
         900         901         906         905
         901         902         907         906
         902         903         908         907
         903         904         909         908
         905         906         911         910
         906         907         912         911
         907         908         913         912
         908         909         914         913
         910         911         916         915
         911         912         917         916
         912         913         918         917
         913         914         919         918
         915         916         921         920
         916         917         922         921
         917         918         923         922
         918         919         924         923
         925         926         931         930
         926         927         932         931
         927         928         933         932
         928         929         934         933
         930         931         936         935
         931         932         937         936
         932         933         938         937
         933         934         939         938
         935         936         941         940
         936         937         942         941
         937         938         943         942
         938         939         944         943
         940         941         946         945
         941         942         947         946
         942         943         948         947
         943         944         949         948
         950         951         956         955
         951         952         957         956
         952         953         958         957
         953         954         959         958
         955         956         961         960
         956         957         962         961
         957         958         963         962
         958         959         964         963
         960         961         966         965
         961         962         967         966
         962         963         968         967
         963         964         969         968
         965         966         971         970
         966         967         972         971
         967         968         973         972
         968         969         974         973
         975         976         981         980
         976         977         982         981
         977         978         983         982
         978         979         984         983
         980         981         986         985
         981         982         987         986
         982         983         988         987
         983         984         989         988
         985         986         991         990
         986         987         992         991
         987         988         993         992
         988         989         994         993
         990         991         996         995
         991         992         997         996
         992         993         998         997
         993         994         999         998
        1000        1001        1006        1005
        1001        1002        1007        1006
        1002        1003        1008        1007
        1003        1004        1009        1008
        1005        1006        1011        1010
        1006        1007        1012        1011
        1007        1008        1013        1012
        1008        1009        1014        1013
        1010        1011        1016        1015
        1011        1012        1017        1016
        1012        1013        1018        1017
        1013        1014        1019        1018
        1015        1016        1021        1020
        1016        1017        1022        1021
        1017        1018        1023        1022
        1018        1019        1024        1023
        1025        1026        1031        1030
        1026        1027        1032        1031
        1027        1028        1033        1032
        1028        1029        1034        1033
        1030        1031        1036        1035
        1031        1032        1037        1036
        1032        1033        1038        1037
        1033        1034        1039        1038
        1035        1036        1041        1040
        1036        1037        1042        1041
        1037        1038        1043        1042
        1038        1039        1044        1043
        1040        1041        1046        1045
        1041        1042        1047        1046
        1042        1043        1048        1047
        1043        1044        1049        1048
        1050        1051        1056        1055
        1051        1052        1057        1056
        1052        1053        1058        1057
        1053        1054        1059        1058
        1055        1056        1061        1060
        1056        1057        1062        1061
        1057        1058        1063        1062
        1058        1059        1064        1063
        1060        1061        1066        1065
        1061        1062        1067        1066
        1062        1063        1068        1067
        1063        1064        1069        1068
        1065        1066        1071        1070
        1066        1067        1072        1071
        1067        1068        1073        1072
        1068        1069        1074        1073
        1075        1076        1081        1080
        1076        1077        1082        1081
        1077        1078        1083        1082
        1078        1079        1084        1083
        1080        1081        1086        1085
        1081        1082        1087        1086
        1082        1083        1088        1087
        1083        1084        1089        1088
        1085        1086        1091        1090
        1086        1087        1092        1091
        1087        1088        1093        1092
        1088        1089        1094        1093
        1090        1091        1096        1095
        1091        1092        1097        1096
        1092        1093        1098        1097
        1093        1094        1099        1098
        1100        1101        1106        1105
        1101        1102        1107        1106
        1102        1103        1108        1107
        1103        1104        1109        1108
        1105        1106        1111        1110
        1106        1107        1112        1111
        1107        1108        1113        1112
        1108        1109        1114        1113
        1110        1111        1116        1115
        1111        1112        1117        1116
        1112        1113        1118        1117
        1113        1114        1119        1118
        1115        1116        1121        1120
        1116        1117        1122        1121
        1117        1118        1123        1122
        1118        1119        1124        1123
        1125        1126        1131        1130
        1126        1127        1132        1131
        1127        1128        1133        1132
        1128        1129        1134        1133
        1130        1131        1136        1135
        1131        1132        1137        1136
        1132        1133        1138        1137
        1133        1134        1139        1138
        1135        1136        1141        1140
        1136        1137        1142        1141
        1137        1138        1143        1142
        1138        1139        1144        1143
        1140        1141        1146        1145
        1141        1142        1147        1146
        1142        1143        1148        1147
        1143        1144        1149        1148
        1150        1151        1156        1155
        1151        1152        1157        1156
        1152        1153        1158        1157
        1153        1154        1159        1158
        1155        1156        1161        1160
        1156        1157        1162        1161
        1157        1158        1163        1162
        1158        1159        1164        1163
        1160        1161        1166        1165
        1161        1162        1167        1166
        1162        1163        1168        1167
        1163        1164        1169        1168
        1165        1166        1171        1170
        1166        1167        1172        1171
        1167        1168        1173        1172
        1168        1169        1174        1173
        1175        1176        1181        1180
        1176        1177        1182        1181
        1177        1178        1183        1182
        1178        1179        1184        1183
        1180        1181        1186        1185
        1181        1182        1187        1186
        1182        1183        1188        1187
        1183        1184        1189        1188
        1185        1186        1191        1190
        1186        1187        1192        1191
        1187        1188        1193        1192
        1188        1189        1194        1193
        1190        1191        1196        1195
        1191        1192        1197        1196
        1192        1193        1198        1197
        1193        1194        1199        1198
        1200        1201        1206        1205
        1201        1202        1207        1206
        1202        1203        1208        1207
        1203        1204        1209        1208
        1205        1206        1211        1210
        1206        1207        1212        1211
        1207        1208        1213        1212
        1208        1209        1214        1213
        1210        1211        1216        1215
        1211        1212        1217        1216
        1212        1213        1218        1217
        1213        1214        1219        1218
        1215        1216        1221        1220
        1216        1217        1222        1221
        1217        1218        1223        1222
        1218        1219        1224        1223
        1225        1226        1231        1230
        1226        1227        1232        1231
        1227        1228        1233        1232
        1228        1229        1234        1233
        1230        1231        1236        1235
        1231        1232        1237        1236
        1232        1233        1238        1237
        1233        1234        1239        1238
        1235        1236        1241        1240
        1236        1237        1242        1241
        1237        1238        1243        1242
        1238        1239        1244        1243
        1240        1241        1246        1245
        1241        1242        1247        1246
        1242        1243        1248        1247
        1243        1244        1249        1248
        1250        1251        1256        1255
        1251        1252        1257        1256
        1252        1253        1258        1257
        1253        1254        1259        1258
        1255        1256        1261        1260
        1256        1257        1262        1261
        1257        1258        1263        1262
        1258        1259        1264        1263
        1260        1261        1266        1265
        1261        1262        1267        1266
        1262        1263        1268        1267
        1263        1264        1269        1268
        1265        1266        1271        1270
        1266        1267        1272        1271
        1267        1268        1273        1272
        1268        1269        1274        1273
        1275        1276        1281        1280
        1276        1277        1282        1281
        1277        1278        1283        1282
        1278        1279        1284        1283
        1280        1281        1286        1285
        1281        1282        1287        1286
        1282        1283        1288        1287
        1283        1284        1289        1288
        1285        1286        1291        1290
        1286        1287        1292        1291
        1287        1288        1293        1292
        1288        1289        1294        1293
        1290        1291        1296        1295
        1291        1292        1297        1296
        1292        1293        1298        1297
        1293        1294        1299        1298
        1300        1301        1306        1305
        1301        1302        1307        1306
        1302        1303        1308        1307
        1303        1304        1309        1308
        1305        1306        1311        1310
        1306        1307        1312        1311
        1307        1308        1313        1312
        1308        1309        1314        1313
        1310        1311        1316        1315
        1311        1312        1317        1316
        1312        1313        1318        1317
        1313        1314        1319        1318
        1315        1316        1321        1320
        1316        1317        1322        1321
        1317        1318        1323        1322
        1318        1319        1324        1323
        1325        1326        1331        1330
        1326        1327        1332        1331
        1327        1328        1333        1332
        1328        1329        1334        1333
        1330        1331        1336        1335
        1331        1332        1337        1336
        1332        1333        1338        1337
        1333        1334        1339        1338
        1335        1336        1341        1340
        1336        1337        1342        1341
        1337        1338        1343        1342
        1338        1339        1344        1343
        1340        1341        1346        1345
        1341        1342        1347        1346
        1342        1343        1348        1347
        1343        1344        1349        1348
        1350        1351        1356        1355
        1351        1352        1357        1356
        1352        1353        1358        1357
        1353        1354        1359        1358
        1355        1356        1361        1360
        1356        1357        1362        1361
        1357        1358        1363        1362
        1358        1359        1364        1363
        1360        1361        1366        1365
        1361        1362        1367        1366
        1362        1363        1368        1367
        1363        1364        1369        1368
        1365        1366        1371        1370
        1366        1367        1372        1371
        1367        1368        1373        1372
        1368        1369        1374        1373
        1375        1376        1381        1380
        1376        1377        1382        1381
        1377        1378        1383        1382
        1378        1379        1384        1383
        1380        1381        1386        1385
        1381        1382        1387        1386
        1382        1383        1388        1387
        1383        1384        1389        1388
        1385        1386        1391        1390
        1386        1387        1392        1391
        1387        1388        1393        1392
        1388        1389        1394        1393
        1390        1391        1396        1395
        1391        1392        1397        1396
        1392        1393        1398        1397
        1393        1394        1399        1398
        1400        1401        1406        1405
        1401        1402        1407        1406
        1402        1403        1408        1407
        1403        1404        1409        1408
        1405        1406        1411        1410
        1406        1407        1412        1411
        1407        1408        1413        1412
        1408        1409        1414        1413
        1410        1411        1416        1415
        1411        1412        1417        1416
        1412        1413        1418        1417
        1413        1414        1419        1418
        1415        1416        1421        1420
        1416        1417        1422        1421
        1417        1418        1423        1422
        1418        1419        1424        1423
        1425        1426        1431        1430
        1426        1427        1432        1431
        1427        1428        1433        1432
        1428        1429        1434        1433
        1430        1431        1436        1435
        1431        1432        1437        1436
        1432        1433        1438        1437
        1433        1434        1439        1438
        1435        1436        1441        1440
        1436        1437        1442        1441
        1437        1438        1443        1442
        1438        1439        1444        1443
        1440        1441        1446        1445
        1441        1442        1447        1446
        1442        1443        1448        1447
        1443        1444        1449        1448
        1450        1451        1456        1455
        1451        1452        1457        1456
        1452        1453        1458        1457
        1453        1454        1459        1458
        1455        1456        1461        1460
        1456        1457        1462        1461
        1457        1458        1463        1462
        1458        1459        1464        1463
        1460        1461        1466        1465
        1461        1462        1467        1466
        1462        1463        1468        1467
        1463        1464        1469        1468
        1465        1466        1471        1470
        1466        1467        1472        1471
        1467        1468        1473        1472
        1468        1469        1474        1473
        1475        1476        1481        1480
        1476        1477        1482        1481
        1477        1478        1483        1482
        1478        1479        1484        1483
        1480        1481        1486        1485
        1481        1482        1487        1486
        1482        1483        1488        1487
        1483        1484        1489        1488
        1485        1486        1491        1490
        1486        1487        1492        1491
        1487        1488        1493        1492
        1488        1489        1494        1493
        1490        1491        1496        1495
        1491        1492        1497        1496
        1492        1493        1498        1497
        1493        1494        1499        1498
        1500        1501        1506        1505
        1501        1502        1507        1506
        1502        1503        1508        1507
        1503        1504        1509        1508
        1505        1506        1511        1510
        1506        1507        1512        1511
        1507        1508        1513        1512
        1508        1509        1514        1513
        1510        1511        1516        1515
        1511        1512        1517        1516
        1512        1513        1518        1517
        1513        1514        1519        1518
        1515        1516        1521        1520
        1516        1517        1522        1521
        1517        1518        1523        1522
        1518        1519        1524        1523
        1525        1526        1531        1530
        1526        1527        1532        1531
        1527        1528        1533        1532
        1528        1529        1534        1533
        1530        1531        1536        1535
        1531        1532        1537        1536
        1532        1533        1538        1537
        1533        1534        1539        1538
        1535        1536        1541        1540
        1536        1537        1542        1541
        1537        1538        1543        1542
        1538        1539        1544        1543
        1540        1541        1546        1545
        1541        1542        1547        1546
        1542        1543        1548        1547
        1543        1544        1549        1548
        1550        1551        1556        1555
        1551        1552        1557        1556
        1552        1553        1558        1557
        1553        1554        1559        1558
        1555        1556        1561        1560
        1556        1557        1562        1561
        1557        1558        1563        1562
        1558        1559        1564        1563
        1560        1561        1566        1565
        1561        1562        1567        1566
        1562        1563        1568        1567
        1563        1564        1569        1568
        1565        1566        1571        1570
        1566        1567        1572        1571
        1567        1568        1573        1572
        1568        1569        1574        1573
        1575        1576        1581        1580
        1576        1577        1582        1581
        1577        1578        1583        1582
        1578        1579        1584        1583
        1580        1581        1586        1585
        1581        1582        1587        1586
        1582        1583        1588        1587
        1583        1584        1589        1588
        1585        1586        1591        1590
        1586        1587        1592        1591
        1587        1588        1593        1592
        1588        1589        1594        1593
        1590        1591        1596        1595
        1591        1592        1597        1596
        1592        1593        1598        1597
        1593        1594        1599        1598
 </DataArray>
 <DataArray  type="Int32"  Name="offsets"  format="ascii"> 
           4
           8
          12
          16
          20
          24
          28
          32
          36
          40
          44
          48
          52
          56
          60
          64
          68
          72
          76
          80
          84
          88
          92
          96
         100
         104
         108
         112
         116
         120
         124
         128
         132
         136
         140
         144
         148
         152
         156
         160
         164
         168
         172
         176
         180
         184
         188
         192
         196
         200
         204
         208
         212
         216
         220
         224
         228
         232
         236
         240
         244
         248
         252
         256
         260
         264
         268
         272
         276
         280
         284
         288
         292
         296
         300
         304
         308
         312
         316
         320
         324
         328
         332
         336
         340
         344
         348
         352
         356
         360
         364
         368
         372
         376
         380
         384
         388
         392
         396
         400
         404
         408
         412
         416
         420
         424
         428
         432
         436
         440
         444
         448
         452
         456
         460
         464
         468
         472
         476
         480
         484
         488
         492
         496
         500
         504
         508
         512
         516
         520
         524
         528
         532
         536
         540
         544
         548
         552
         556
         560
         564
         568
         572
         576
         580
         584
         588
         592
         596
         600
         604
         608
         612
         616
         620
         624
         628
         632
         636
         640
         644
         648
         652
         656
         660
         664
         668
         672
         676
         680
         684
         688
         692
         696
         700
         704
         708
         712
         716
         720
         724
         728
         732
         736
         740
         744
         748
         752
         756
         760
         764
         768
         772
         776
         780
         784
         788
         792
         796
         800
         804
         808
         812
         816
         820
         824
         828
         832
         836
         840
         844
         848
         852
         856
         860
         864
         868
         872
         876
         880
         884
         888
         892
         896
         900
         904
         908
         912
         916
         920
         924
         928
         932
         936
         940
         944
         948
         952
         956
         960
         964
         968
         972
         976
         980
         984
         988
         992
         996
        1000
        1004
        1008
        1012
        1016
        1020
        1024
        1028
        1032
        1036
        1040
        1044
        1048
        1052
        1056
        1060
        1064
        1068
        1072
        1076
        1080
        1084
        1088
        1092
        1096
        1100
        1104
        1108
        1112
        1116
        1120
        1124
        1128
        1132
        1136
        1140
        1144
        1148
        1152
        1156
        1160
        1164
        1168
        1172
        1176
        1180
        1184
        1188
        1192
        1196
        1200
        1204
        1208
        1212
        1216
        1220
        1224
        1228
        1232
        1236
        1240
        1244
        1248
        1252
        1256
        1260
        1264
        1268
        1272
        1276
        1280
        1284
        1288
        1292
        1296
        1300
        1304
        1308
        1312
        1316
        1320
        1324
        1328
        1332
        1336
        1340
        1344
        1348
        1352
        1356
        1360
        1364
        1368
        1372
        1376
        1380
        1384
        1388
        1392
        1396
        1400
        1404
        1408
        1412
        1416
        1420
        1424
        1428
        1432
        1436
        1440
        1444
        1448
        1452
        1456
        1460
        1464
        1468
        1472
        1476
        1480
        1484
        1488
        1492
        1496
        1500
        1504
        1508
        1512
        1516
        1520
        1524
        1528
        1532
        1536
        1540
        1544
        1548
        1552
        1556
        1560
        1564
        1568
        1572
        1576
        1580
        1584
        1588
        1592
        1596
        1600
        1604
        1608
        1612
        1616
        1620
        1624
        1628
        1632
        1636
        1640
        1644
        1648
        1652
        1656
        1660
        1664
        1668
        1672
        1676
        1680
        1684
        1688
        1692
        1696
        1700
        1704
        1708
        1712
        1716
        1720
        1724
        1728
        1732
        1736
        1740
        1744
        1748
        1752
        1756
        1760
        1764
        1768
        1772
        1776
        1780
        1784
        1788
        1792
        1796
        1800
        1804
        1808
        1812
        1816
        1820
        1824
        1828
        1832
        1836
        1840
        1844
        1848
        1852
        1856
        1860
        1864
        1868
        1872
        1876
        1880
        1884
        1888
        1892
        1896
        1900
        1904
        1908
        1912
        1916
        1920
        1924
        1928
        1932
        1936
        1940
        1944
        1948
        1952
        1956
        1960
        1964
        1968
        1972
        1976
        1980
        1984
        1988
        1992
        1996
        2000
        2004
        2008
        2012
        2016
        2020
        2024
        2028
        2032
        2036
        2040
        2044
        2048
        2052
        2056
        2060
        2064
        2068
        2072
        2076
        2080
        2084
        2088
        2092
        2096
        2100
        2104
        2108
        2112
        2116
        2120
        2124
        2128
        2132
        2136
        2140
        2144
        2148
        2152
        2156
        2160
        2164
        2168
        2172
        2176
        2180
        2184
        2188
        2192
        2196
        2200
        2204
        2208
        2212
        2216
        2220
        2224
        2228
        2232
        2236
        2240
        2244
        2248
        2252
        2256
        2260
        2264
        2268
        2272
        2276
        2280
        2284
        2288
        2292
        2296
        2300
        2304
        2308
        2312
        2316
        2320
        2324
        2328
        2332
        2336
        2340
        2344
        2348
        2352
        2356
        2360
        2364
        2368
        2372
        2376
        2380
        2384
        2388
        2392
        2396
        2400
        2404
        2408
        2412
        2416
        2420
        2424
        2428
        2432
        2436
        2440
        2444
        2448
        2452
        2456
        2460
        2464
        2468
        2472
        2476
        2480
        2484
        2488
        2492
        2496
        2500
        2504
        2508
        2512
        2516
        2520
        2524
        2528
        2532
        2536
        2540
        2544
        2548
        2552
        2556
        2560
        2564
        2568
        2572
        2576
        2580
        2584
        2588
        2592
        2596
        2600
        2604
        2608
        2612
        2616
        2620
        2624
        2628
        2632
        2636
        2640
        2644
        2648
        2652
        2656
        2660
        2664
        2668
        2672
        2676
        2680
        2684
        2688
        2692
        2696
        2700
        2704
        2708
        2712
        2716
        2720
        2724
        2728
        2732
        2736
        2740
        2744
        2748
        2752
        2756
        2760
        2764
        2768
        2772
        2776
        2780
        2784
        2788
        2792
        2796
        2800
        2804
        2808
        2812
        2816
        2820
        2824
        2828
        2832
        2836
        2840
        2844
        2848
        2852
        2856
        2860
        2864
        2868
        2872
        2876
        2880
        2884
        2888
        2892
        2896
        2900
        2904
        2908
        2912
        2916
        2920
        2924
        2928
        2932
        2936
        2940
        2944
        2948
        2952
        2956
        2960
        2964
        2968
        2972
        2976
        2980
        2984
        2988
        2992
        2996
        3000
        3004
        3008
        3012
        3016
        3020
        3024
        3028
        3032
        3036
        3040
        3044
        3048
        3052
        3056
        3060
        3064
        3068
        3072
        3076
        3080
        3084
        3088
        3092
        3096
        3100
        3104
        3108
        3112
        3116
        3120
        3124
        3128
        3132
        3136
        3140
        3144
        3148
        3152
        3156
        3160
        3164
        3168
        3172
        3176
        3180
        3184
        3188
        3192
        3196
        3200
        3204
        3208
        3212
        3216
        3220
        3224
        3228
        3232
        3236
        3240
        3244
        3248
        3252
        3256
        3260
        3264
        3268
        3272
        3276
        3280
        3284
        3288
        3292
        3296
        3300
        3304
        3308
        3312
        3316
        3320
        3324
        3328
        3332
        3336
        3340
        3344
        3348
        3352
        3356
        3360
        3364
        3368
        3372
        3376
        3380
        3384
        3388
        3392
        3396
        3400
        3404
        3408
        3412
        3416
        3420
        3424
        3428
        3432
        3436
        3440
        3444
        3448
        3452
        3456
        3460
        3464
        3468
        3472
        3476
        3480
        3484
        3488
        3492
        3496
        3500
        3504
        3508
        3512
        3516
        3520
        3524
        3528
        3532
        3536
        3540
        3544
        3548
        3552
        3556
        3560
        3564
        3568
        3572
        3576
        3580
        3584
        3588
        3592
        3596
        3600
        3604
        3608
        3612
        3616
        3620
        3624
        3628
        3632
        3636
        3640
        3644
        3648
        3652
        3656
        3660
        3664
        3668
        3672
        3676
        3680
        3684
        3688
        3692
        3696
        3700
        3704
        3708
        3712
        3716
        3720
        3724
        3728
        3732
        3736
        3740
        3744
        3748
        3752
        3756
        3760
        3764
        3768
        3772
        3776
        3780
        3784
        3788
        3792
        3796
        3800
        3804
        3808
        3812
        3816
        3820
        3824
        3828
        3832
        3836
        3840
        3844
        3848
        3852
        3856
        3860
        3864
        3868
        3872
        3876
        3880
        3884
        3888
        3892
        3896
        3900
        3904
        3908
        3912
        3916
        3920
        3924
        3928
        3932
        3936
        3940
        3944
        3948
        3952
        3956
        3960
        3964
        3968
        3972
        3976
        3980
        3984
        3988
        3992
        3996
        4000
        4004
        4008
        4012
        4016
        4020
        4024
        4028
        4032
        4036
        4040
        4044
        4048
        4052
        4056
        4060
        4064
        4068
        4072
        4076
        4080
        4084
        4088
        4092
        4096
 </DataArray>
 <DataArray  type="UInt8"  Name="types"  format="ascii">
 9
 9
 9
 9
 9
 9
 9
 9
 9
 9
 9
 9
 9
 9
 9
 9
 9
 9
 9
 9
 9
 9
 9
 9
 9
 9
 9
 9
 9
 9
 9
 9
 9
 9
 9
 9
 9
 9
 9
 9
 9
 9
 9
 9
 9
 9
 9
 9
 9
 9
 9
 9
 9
 9
 9
 9
 9
 9
 9
 9
 9
 9
 9
 9
 9
 9
 9
 9
 9
 9
 9
 9
 9
 9
 9
 9
 9
 9
 9
 9
 9
 9
 9
 9
 9
 9
 9
 9
 9
 9
 9
 9
 9
 9
 9
 9
 9
 9
 9
 9
 9
 9
 9
 9
 9
 9
 9
 9
 9
 9
 9
 9
 9
 9
 9
 9
 9
 9
 9
 9
 9
 9
 9
 9
 9
 9
 9
 9
 9
 9
 9
 9
 9
 9
 9
 9
 9
 9
 9
 9
 9
 9
 9
 9
 9
 9
 9
 9
 9
 9
 9
 9
 9
 9
 9
 9
 9
 9
 9
 9
 9
 9
 9
 9
 9
 9
 9
 9
 9
 9
 9
 9
 9
 9
 9
 9
 9
 9
 9
 9
 9
 9
 9
 9
 9
 9
 9
 9
 9
 9
 9
 9
 9
 9
 9
 9
 9
 9
 9
 9
 9
 9
 9
 9
 9
 9
 9
 9
 9
 9
 9
 9
 9
 9
 9
 9
 9
 9
 9
 9
 9
 9
 9
 9
 9
 9
 9
 9
 9
 9
 9
 9
 9
 9
 9
 9
 9
 9
 9
 9
 9
 9
 9
 9
 9
 9
 9
 9
 9
 9
 9
 9
 9
 9
 9
 9
 9
 9
 9
 9
 9
 9
 9
 9
 9
 9
 9
 9
 9
 9
 9
 9
 9
 9
 9
 9
 9
 9
 9
 9
 9
 9
 9
 9
 9
 9
 9
 9
 9
 9
 9
 9
 9
 9
 9
 9
 9
 9
 9
 9
 9
 9
 9
 9
 9
 9
 9
 9
 9
 9
 9
 9
 9
 9
 9
 9
 9
 9
 9
 9
 9
 9
 9
 9
 9
 9
 9
 9
 9
 9
 9
 9
 9
 9
 9
 9
 9
 9
 9
 9
 9
 9
 9
 9
 9
 9
 9
 9
 9
 9
 9
 9
 9
 9
 9
 9
 9
 9
 9
 9
 9
 9
 9
 9
 9
 9
 9
 9
 9
 9
 9
 9
 9
 9
 9
 9
 9
 9
 9
 9
 9
 9
 9
 9
 9
 9
 9
 9
 9
 9
 9
 9
 9
 9
 9
 9
 9
 9
 9
 9
 9
 9
 9
 9
 9
 9
 9
 9
 9
 9
 9
 9
 9
 9
 9
 9
 9
 9
 9
 9
 9
 9
 9
 9
 9
 9
 9
 9
 9
 9
 9
 9
 9
 9
 9
 9
 9
 9
 9
 9
 9
 9
 9
 9
 9
 9
 9
 9
 9
 9
 9
 9
 9
 9
 9
 9
 9
 9
 9
 9
 9
 9
 9
 9
 9
 9
 9
 9
 9
 9
 9
 9
 9
 9
 9
 9
 9
 9
 9
 9
 9
 9
 9
 9
 9
 9
 9
 9
 9
 9
 9
 9
 9
 9
 9
 9
 9
 9
 9
 9
 9
 9
 9
 9
 9
 9
 9
 9
 9
 9
 9
 9
 9
 9
 9
 9
 9
 9
 9
 9
 9
 9
 9
 9
 9
 9
 9
 9
 9
 9
 9
 9
 9
 9
 9
 9
 9
 9
 9
 9
 9
 9
 9
 9
 9
 9
 9
 9
 9
 9
 9
 9
 9
 9
 9
 9
 9
 9
 9
 9
 9
 9
 9
 9
 9
 9
 9
 9
 9
 9
 9
 9
 9
 9
 9
 9
 9
 9
 9
 9
 9
 9
 9
 9
 9
 9
 9
 9
 9
 9
 9
 9
 9
 9
 9
 9
 9
 9
 9
 9
 9
 9
 9
 9
 9
 9
 9
 9
 9
 9
 9
 9
 9
 9
 9
 9
 9
 9
 9
 9
 9
 9
 9
 9
 9
 9
 9
 9
 9
 9
 9
 9
 9
 9
 9
 9
 9
 9
 9
 9
 9
 9
 9
 9
 9
 9
 9
 9
 9
 9
 9
 9
 9
 9
 9
 9
 9
 9
 9
 9
 9
 9
 9
 9
 9
 9
 9
 9
 9
 9
 9
 9
 9
 9
 9
 9
 9
 9
 9
 9
 9
 9
 9
 9
 9
 9
 9
 9
 9
 9
 9
 9
 9
 9
 9
 9
 9
 9
 9
 9
 9
 9
 9
 9
 9
 9
 9
 9
 9
 9
 9
 9
 9
 9
 9
 9
 9
 9
 9
 9
 9
 9
 9
 9
 9
 9
 9
 9
 9
 9
 9
 9
 9
 9
 9
 9
 9
 9
 9
 9
 9
 9
 9
 9
 9
 9
 9
 9
 9
 9
 9
 9
 9
 9
 9
 9
 9
 9
 9
 9
 9
 9
 9
 9
 9
 9
 9
 9
 9
 9
 9
 9
 9
 9
 9
 9
 9
 9
 9
 9
 9
 9
 9
 9
 9
 9
 9
 9
 9
 9
 9
 9
 9
 9
 9
 9
 9
 9
 9
 9
 9
 9
 9
 9
 9
 9
 9
 9
 9
 9
 9
 9
 9
 9
 9
 9
 9
 9
 9
 9
 9
 9
 9
 9
 9
 9
 9
 9
 9
 9
 9
 9
 9
 9
 9
 9
 9
 9
 9
 9
 9
 9
 9
 9
 9
 9
 9
 9
 9
 9
 9
 9
 9
 9
 9
 9
 9
 9
 9
 9
 9
 9
 9
 9
 9
 9
 9
 9
 9
 9
 9
 9
 9
 9
 9
 9
 9
 9
 9
 9
 9
 9
 9
 9
 9
 9
 9
 9
 9
 9
 9
 9
 9
 9
 9
 9
 9
 9
 9
 9
 9
 9
 9
 9
 9
 9
 9
 9
 9
 9
 9
 9
 9
 9
 9
 9
 9
 9
 9
 9
 9
 9
 9
 9
 9
 9
 9
 9
 9
 9
 9
 9
 9
 9
 9
 9
 9
 9
 9
 9
 9
 9
 9
 9
 9
 9
 9
 9
 9
 9
 9
 9
 9
 9
 9
 9
 9
 9
 9
 9
 9
 9
 9
 9
 9
 9
 9
 9
 9
 9
 9
 9
 9
 9
 9
 9
 9
 9
 9
 9
 9
 9
 9
 9
 9
 9
 9
 9
 9
 9
 9
 9
 9
 9
 9
 9
 9
 9
 9
 9
 9
 9
 9
 9
 9
 9
 9
 9
 9
 9
 9
 9
 9
 9
 9
 9
 9
 9
 9
 9
 9
 9
 9
 9
 </DataArray>
 </Cells> 
 <PointData>
 <DataArray  type="Float64" Name="disp" NumberOfComponents="3" format="ascii">
   6.5441874472090655E-002   6.2354661589097998E-002   0.0000000000000000     
   6.8527011500230162E-002   6.7902424599776690E-002   0.0000000000000000     
   7.1491515808619066E-002   7.3585870373194029E-002   0.0000000000000000     
   7.4335387397257327E-002   7.9404998909349975E-002   0.0000000000000000     
   7.7058626266144986E-002   8.5359810208244569E-002   0.0000000000000000     
   6.0110480659669972E-002   6.1755937148605673E-002   0.0000000000000000     
   6.3055806689610139E-002   6.7217987007321955E-002   0.0000000000000000     
   6.5874955422309034E-002   7.2846907162935071E-002   0.0000000000000000     
   6.8567926857766665E-002   7.8642697615445012E-002   0.0000000000000000     
   7.1134720995983058E-002   8.4605358364851779E-002   0.0000000000000000     
   5.5035326003224305E-002   6.1103934352661711E-002   0.0000000000000000     
   5.7821113439945990E-002   6.6519811943247978E-002   0.0000000000000000     
   6.0479952871892784E-002   7.2122437648566823E-002   0.0000000000000000     
   6.3011844299064687E-002   7.7911811468618239E-002   0.0000000000000000     
   6.5416787721461728E-002   8.3887933403402240E-002   0.0000000000000000     
   5.0216410502753633E-002   6.0398653201266111E-002   0.0000000000000000     
   5.2822931751237708E-002   6.5807899407554757E-002   0.0000000000000000     
   5.5306508157370295E-002   7.1412461830089272E-002   0.0000000000000000     
   5.7667139721151388E-002   7.7212340468869642E-002   0.0000000000000000     
   5.9904826442580980E-002   8.3207535323895923E-002   0.0000000000000000     
   4.5653734158257978E-002   5.9640093694418882E-002   0.0000000000000000     
   4.8061261623485327E-002   6.5082249400242292E-002   0.0000000000000000     
   5.0354621278741581E-002   7.0716979707502403E-002   0.0000000000000000     
   5.2533813124026753E-002   7.6544284616199249E-002   0.0000000000000000     
   5.4598837159340829E-002   8.2564164126332815E-002   0.0000000000000000     
   7.7058626266144986E-002   8.5359810208244569E-002   0.0000000000000000     
   7.9684935038568633E-002   9.1461546421249429E-002   0.0000000000000000     
   8.2238016337814829E-002   9.7721449699736174E-002   0.0000000000000000     
   8.4717870163883616E-002  0.10413952004370487        0.0000000000000000     
   8.7124496516774966E-002  0.11071575745315548        0.0000000000000000     
   7.1134720995983058E-002   8.4605358364851779E-002   0.0000000000000000     
   7.3603551197136935E-002   9.0730498422775890E-002   0.0000000000000000     
   7.6002630821407069E-002   9.7013726800837821E-002   0.0000000000000000     
   7.8331959868793474E-002  0.10345504349903761        0.0000000000000000     
   8.0591538339296123E-002  0.11005444851737520        0.0000000000000000     
   6.5416787721461728E-002   8.3887933403402240E-002   0.0000000000000000     
   6.7725367029701514E-002   9.0036442367636943E-002   0.0000000000000000     
   6.9968166114401736E-002   9.6342977276040548E-002   0.0000000000000000     
   7.2145184975562368E-002  0.10280753812861300        0.0000000000000000     
   7.4256423613183437E-002  0.10943012492535428        0.0000000000000000     
   5.9904826442580980E-002   8.3207535323895923E-002   0.0000000000000000     
   6.2050382536262355E-002   8.9379378255832614E-002   0.0000000000000000     
   6.4134622216798789E-002   9.5709201125344312E-002   0.0000000000000000     
   6.6157545484190339E-002  0.10219700393243103        0.0000000000000000     
   6.8119152338436920E-002  0.10884278667709277        0.0000000000000000     
   5.4598837159340829E-002   8.2564164126332815E-002   0.0000000000000000     
   5.6578597716819466E-002   8.8759306087362863E-002   0.0000000000000000     
   5.8501999128598305E-002   9.5112398348749183E-002   0.0000000000000000     
   6.0369041394677324E-002  0.10162344091049175        0.0000000000000000     
   6.2179724515056559E-002  0.10829243377259057        0.0000000000000000     
   8.7124496516774966E-002  0.11071575745315548        0.0000000000000000     
   8.9441010416451167E-002  0.11743647621977357        0.0000000000000000     
   9.1650526882874478E-002  0.12428799063524471        0.0000000000000000     
   9.3753045916044914E-002  0.13127030069956891        0.0000000000000000     
   9.5748567515962446E-002  0.13838340641274618        0.0000000000000000     
   8.0591538339296123E-002  0.11005444851737520        0.0000000000000000     
   8.2765755026159765E-002  0.11679905776968405        0.0000000000000000     
   8.4838998722629164E-002  0.12367598716979754        0.0000000000000000     
   8.6811269428704263E-002  0.13068523671771570        0.0000000000000000     
   8.8682567144385133E-002  0.13782680641343845        0.0000000000000000     
   7.4256423613183437E-002  0.10943012492535428        0.0000000000000000     
   7.6287317800614943E-002  0.11619840362869829        0.0000000000000000     
   7.8223303311206874E-002  0.12310004020107879        0.0000000000000000     
   8.0064380144959243E-002  0.13013503464249576        0.0000000000000000     
   8.1810548301872066E-002  0.13730338695294927        0.0000000000000000     
   6.8119152338436920E-002  0.10884278667709277        0.0000000000000000     
   7.0005698739816657E-002  0.11563451379681629        0.0000000000000000     
   7.1803440648607636E-002  0.12256014972908844        0.0000000000000000     
   7.3512378064809841E-002  0.12961969447390925        0.0000000000000000     
   7.5132510988423259E-002  0.13681314803127864        0.0000000000000000     
   6.2179724515056559E-002  0.10829243377259057        0.0000000000000000     
   6.3920897843764951E-002  0.11510738827403802        0.0000000000000000     
   6.5579410734831436E-002  0.12205631575382651        0.0000000000000000     
   6.7155263188256042E-002  0.12913921621195604        0.0000000000000000     
   6.8648455204038727E-002  0.13635608964842658        0.0000000000000000     
   9.5748567515962446E-002  0.13838340641274618        0.0000000000000000     
   9.7646960311923409E-002  0.14561815907206735        0.0000000000000000     
   9.9458092933224121E-002  0.15296540997482327        0.0000000000000000     
  0.10118196537986456       0.16042515912101396        0.0000000000000000     
  0.10281857765184473       0.16799740651063941        0.0000000000000000     
   8.8682567144385133E-002  0.13782680641343845        0.0000000000000000     
   9.0462502208523407E-002  0.14508963342303888        0.0000000000000000     
   9.2160684959970859E-002  0.15246265491258995        0.0000000000000000     
   9.3777115398727448E-002  0.15994587088209167        0.0000000000000000     
   9.5311793524793187E-002  0.16753928133154403        0.0000000000000000     
   8.1810548301872066E-002  0.13730338695294927        0.0000000000000000     
   8.3470894959878056E-002  0.14459280570324284        0.0000000000000000     
   8.5054507296910012E-002  0.15199099946417996        0.0000000000000000     
   8.6561385312967865E-002  0.15949796823576068        0.0000000000000000     
   8.7991529008051669E-002  0.16711371201798500        0.0000000000000000     
   7.5132510988423259E-002  0.13681314803127864        0.0000000000000000     
   7.6672138565987369E-002  0.14412767591267917        0.0000000000000000     
   7.8139559944041537E-002  0.15155044362959325        0.0000000000000000     
   7.9534775122585818E-002  0.15908145118202099        0.0000000000000000     
   8.0857784101620145E-002  0.16672069856996227        0.0000000000000000     
   6.8648455204038727E-002  0.13635608964842658        0.0000000000000000     
   7.0066233026851277E-002  0.14369424405134795        0.0000000000000000     
   7.1415842901365462E-002  0.15114098740882992        0.0000000000000000     
   7.2697284827581241E-002  0.15869631972087256        0.0000000000000000     
   7.3910558805498655E-002  0.16636024098747584        0.0000000000000000     
  0.10281857765184473       0.16799740651063941        0.0000000000000000     
  0.10436802549130761       0.17566935964225558        0.0000000000000000     
  0.10583040464039617       0.18342822601441844        0.0000000000000000     
  0.10720571509911041       0.19127400562712799        0.0000000000000000     
  0.10849395686745034       0.19920669848038425        0.0000000000000000     
   9.5311793524793187E-002  0.16753928133154403        0.0000000000000000     
   9.6762992397281963E-002  0.17523238576001582        0.0000000000000000     
   9.8128985075307637E-002  0.18301468366657569        0.0000000000000000     
   9.9409771558870250E-002  0.19088617505122368        0.0000000000000000     
  0.10060535184796975       0.19884685991395984        0.0000000000000000     
   8.7991529008051669E-002  0.16711371201798500        0.0000000000000000     
   8.9341949888838326E-002  0.17482909180767137        0.0000000000000000     
   9.0609659462004721E-002  0.18263496860163830        0.0000000000000000     
   9.1794657727550910E-002  0.19053134239988581        0.0000000000000000     
   9.2896944685476907E-002  0.19851821320241392        0.0000000000000000     
   8.0857784101620145E-002  0.16672069856996227        0.0000000000000000     
   8.2104897965976670E-002  0.17445947778522233        0.0000000000000000     
   8.3272427800487464E-002  0.18228908081960637        0.0000000000000000     
   8.4360373605152486E-002  0.19020950767311440        0.0000000000000000     
   8.5368735379971750E-002  0.19822075834574640        0.0000000000000000     
   7.3910558805498655E-002  0.16636024098747584        0.0000000000000000     
   7.5051836628697063E-002  0.17412354369266864        0.0000000000000000     
   7.6117290090755796E-002  0.18197702032047983        0.0000000000000000     
   7.7106919191674908E-002  0.18992067087090936        0.0000000000000000     
   7.8020723931454344E-002  0.19795449534395729        0.0000000000000000     
  0.10849395686745034       0.19920669848038425        0.0000000000000000     
  0.10970116163991107       0.20722411893920720        0.0000000000000000     
  0.11083336111098772       0.21532408136861700        0.0000000000000000     
  0.11189055528068029       0.22350658576861354        0.0000000000000000     
  0.11287274414898876       0.23177163213919683        0.0000000000000000     
  0.10060535184796975       0.19884685991395984        0.0000000000000000     
  0.10172186002953099       0.20689105946398062        0.0000000000000000     
  0.10276543019047875       0.21501309491048246        0.0000000000000000     
  0.10373606233081301       0.22321296625346548        0.0000000000000000     
  0.10463375645053379       0.23149067349292951        0.0000000000000000     
   9.2896944685476907E-002  0.19851821320241392        0.0000000000000000     
   9.3921916836580757E-002  0.20658785154984455        0.0000000000000000     
   9.4874970681660648E-002  0.21473252798279968        0.0000000000000000     
   9.5756106220716536E-002  0.22295224250127940        0.0000000000000000     
   9.6565323453748436E-002  0.23124699510528368        0.0000000000000000     
   8.5368735379971750E-002  0.19822075834574640        0.0000000000000000     
   8.6301332061060373E-002  0.20631449519679890        0.0000000000000000     
   8.7161982584533393E-002  0.21448238058556859        0.0000000000000000     
   8.7950686950390877E-002  0.22272441451205538        0.0000000000000000     
   8.8667445158632771E-002  0.23104059697625925        0.0000000000000000     
   7.8020723931454344E-002  0.19795449534395729        0.0000000000000000     
   7.8860105702969821E-002  0.20607099040484383        0.0000000000000000     
   7.9626465899097040E-002  0.21426265271878919        0.0000000000000000     
   8.0319804519836030E-002  0.22252948228579336        0.0000000000000000     
   8.0940121565186735E-002  0.23087147910585637        0.0000000000000000     
  0.11287274414898876       0.23177163213919683        0.0000000000000000     
  0.11380784943773341       0.24013523360982378        0.0000000000000000     
  0.11472379286873444       0.24861340330995119        0.0000000000000000     
  0.11562057444199186       0.25720614123957897        0.0000000000000000     
  0.11649819415750567       0.26591344739870726        0.0000000000000000     
  0.10463375645053379       0.23149067349292951        0.0000000000000000     
  0.10546338172284681       0.23986950604826221        0.0000000000000000     
  0.10622980732095781       0.24837275333885109        0.0000000000000000     
  0.10693303324486683       0.25700041536469614        0.0000000000000000     
  0.10757305949457380       0.26575249212579732        0.0000000000000000     
   9.6565323453748436E-002  0.23124699510528368        0.0000000000000000     
   9.7293362727541480E-002  0.23964328574372964        0.0000000000000000     
   9.7930964388880659E-002  0.24816761436553450        0.0000000000000000     
   9.8478128437766044E-002  0.25681998097069819        0.0000000000000000     
   9.8934854874197606E-002  0.26560038555922078        0.0000000000000000     
   8.8667445158632771E-002  0.23104059697625925        0.0000000000000000     
   8.9297792451817376E-002  0.23945657269622603        0.0000000000000000     
   8.9827264072502966E-002  0.24799798639000137        0.0000000000000000     
   9.0255860020689541E-002  0.25666483805758522        0.0000000000000000     
   9.0583580296377114E-002  0.26545712769897767        0.0000000000000000     
   8.0940121565186735E-002  0.23087147910585637        0.0000000000000000     
   8.1476670895674522E-002  0.23930936690575144        0.0000000000000000     
   8.1918706371824718E-002  0.24786386941225169        0.0000000000000000     
   8.2266227993637323E-002  0.25653498662535723        0.0000000000000000     
   8.2519235761112336E-002  0.26532271854506800        0.0000000000000000     
  0.11649819415750567       0.26591344739870726        0.0000000000000000     
  0.11729709199897095       0.27490015175122651        0.0000000000000000     
  0.11795770795008274       0.28433108426102732        0.0000000000000000     
  0.11848004201084107       0.29420624492810959        0.0000000000000000     
  0.11886409418124595       0.30452563375247343        0.0000000000000000     
  0.10757305949457380       0.26575249212579732        0.0000000000000000     
  0.10813094309758040       0.27476118408669475        0.0000000000000000     
  0.10858774108138827       0.28415869171192859        0.0000000000000000     
  0.10894345344599743       0.29394501500149867        0.0000000000000000     
  0.10919808019140788       0.30412015395540504        0.0000000000000000     
   9.8934854874197606E-002  0.26560038555922078        0.0000000000000000     
   9.9312167302417903E-002  0.27460706898830095        0.0000000000000000     
   9.9621089326669479E-002  0.28393827211513734        0.0000000000000000     
   9.9861620946952362E-002  0.29359399493972993        0.0000000000000000     
  0.10003376216326652       0.30357423746207890        0.0000000000000000     
   9.0583580296377114E-002  0.26545712769897767        0.0000000000000000     
   9.0840764613483449E-002  0.27443780645604504        0.0000000000000000     
   9.1057752685926391E-002  0.28366982547065361        0.0000000000000000     
   9.1234544513705856E-002  0.29315318474280361        0.0000000000000000     
   9.1371140096821901E-002  0.30288788427249480        0.0000000000000000     
   8.2519235761112336E-002  0.26532271854506800        0.0000000000000000     
   8.2716735030777089E-002  0.27425339648992708        0.0000000000000000     
   8.2897731159158952E-002  0.28335335177847765        0.0000000000000000     
   8.3062224146257926E-002  0.29262258441071953        0.0000000000000000     
   8.3210213992073984E-002  0.30206109438665285        0.0000000000000000     
   4.5653734158257978E-002   5.9640093694418882E-002   0.0000000000000000     
   4.8061261623485327E-002   6.5082249400242292E-002   0.0000000000000000     
   5.0354621278741581E-002   7.0716979707502403E-002   0.0000000000000000     
   5.2533813124026753E-002   7.6544284616199249E-002   0.0000000000000000     
   5.4598837159340829E-002   8.2564164126332815E-002   0.0000000000000000     
   4.1278052958705652E-002   5.8895913426968434E-002   0.0000000000000000     
   4.3479371915502017E-002   6.4385146936948634E-002   0.0000000000000000     
   4.5577199115989162E-002   7.0059899654278668E-002   0.0000000000000000     
   4.7571534560167092E-002   7.5920171578958501E-002   0.0000000000000000     
   4.9462378248035795E-002   8.1965962710988188E-002   0.0000000000000000     
   3.7020122893064993E-002   5.8233769993763181E-002   0.0000000000000000     
   3.9020531486100997E-002   6.3758877033311859E-002   0.0000000000000000     
   4.0927148549095564E-002   6.9465130043890419E-002   0.0000000000000000     
   4.2739974082048694E-002   7.5352529025498924E-002   0.0000000000000000     
   4.4459008084960394E-002   8.1421073978137290E-002   0.0000000000000000     
   3.2879943961335992E-002   5.7653663394803135E-002   0.0000000000000000     
   3.4684740335282259E-002   6.3203439689331953E-002   0.0000000000000000     
   3.6404469578060789E-002   6.8932670876337726E-002   0.0000000000000000     
   3.8039131689671574E-002   7.4841356955820421E-002   0.0000000000000000     
   3.9588726670114607E-002   8.0929497927780106E-002   0.0000000000000000     
   2.8857516163518664E-002   5.7155593630088292E-002   0.0000000000000000     
   3.0471998463045817E-002   6.2718834905008930E-002   0.0000000000000000     
   3.2009162202884835E-002   6.8462522151620533E-002   0.0000000000000000     
   3.3469007383035716E-002   7.4386655369923088E-002   0.0000000000000000     
   3.4851534003498469E-002   8.0491234559916622E-002   0.0000000000000000     
   5.4598837159340829E-002   8.2564164126332815E-002   0.0000000000000000     
   5.6578597716819466E-002   8.8759306087362863E-002   0.0000000000000000     
   5.8501999128598305E-002   9.5112398348749183E-002   0.0000000000000000     
   6.0369041394677324E-002  0.10162344091049175        0.0000000000000000     
   6.2179724515056559E-002  0.10829243377259057        0.0000000000000000     
   4.9462378248035795E-002   8.1965962710988188E-002   0.0000000000000000     
   5.1275804599402799E-002   8.8183469313153781E-002   0.0000000000000000     
   5.3037888034075650E-002   9.4558887648241371E-002   0.0000000000000000     
   5.4748628552054326E-002  0.10109221771625100        0.0000000000000000     
   5.6408026153338828E-002  0.10778345951718261        0.0000000000000000     
   4.4459008084960394E-002   8.1421073978137290E-002   0.0000000000000000     
   4.6107795212042349E-002   8.7659111384131433E-002   0.0000000000000000     
   4.7709880117506299E-002   9.4054987725807226E-002   0.0000000000000000     
   4.9265262801352232E-002  0.10060870300316464        0.0000000000000000     
   5.0773943263580146E-002  0.10732025721620374        0.0000000000000000     
   3.9588726670114607E-002   8.0929497927780106E-002   0.0000000000000000     
   4.1074569554738122E-002   8.7186232300295818E-002   0.0000000000000000     
   4.2517975378890273E-002   9.3600698581446692E-002   0.0000000000000000     
   4.3918944142571074E-002  0.10017289677123274        0.0000000000000000     
   4.5277475845780533E-002  0.10690282686965397        0.0000000000000000     
   3.4851534003498469E-002   8.0491234559916622E-002   0.0000000000000000     
   3.6176127627490083E-002   8.6764832061646924E-002   0.0000000000000000     
   3.7462173818227536E-002   9.3196020215159811E-002   0.0000000000000000     
   3.8709672575710841E-002   9.9784799020455256E-002   0.0000000000000000     
   3.9918623899939984E-002  0.10653116847753326        0.0000000000000000     
   6.2179724515056559E-002  0.10829243377259057        0.0000000000000000     
   6.3920897843764951E-002  0.11510738827403802        0.0000000000000000     
   6.5579410734831436E-002  0.12205631575382651        0.0000000000000000     
   6.7155263188256042E-002  0.12913921621195604        0.0000000000000000     
   6.8648455204038727E-002  0.13635608964842658        0.0000000000000000     
   5.6408026153338828E-002  0.10778345951718261        0.0000000000000000     
   5.8003512700790918E-002  0.11462060726902529        0.0000000000000000     
   5.9522520057272363E-002  0.12159165518976812        0.0000000000000000     
   6.0965048222783147E-002  0.12869660327941107        0.0000000000000000     
   6.2331097197323292E-002  0.13593545153795422        0.0000000000000000     
   5.0773943263580146E-002  0.10732025721620374        0.0000000000000000     
   5.2224140899225682E-002  0.11417775099043984        0.0000000000000000     
   5.3604075103324468E-002  0.12116928495138840        0.0000000000000000     
   5.4913745875876496E-002  0.12829485909904936        0.0000000000000000     
   5.6153153216881774E-002  0.13555447343342275        0.0000000000000000     
   4.5277475845780533E-002  0.10690282686965397        0.0000000000000000     
   4.6582782439069229E-002  0.11377881943828169        0.0000000000000000     
   4.7824075872987745E-002  0.12078920503868730        0.0000000000000000     
   4.9001356147536063E-002  0.12793398367087083        0.0000000000000000     
   5.0114623262714195E-002  0.13521315533483222        0.0000000000000000     
   3.9918623899939984E-002  0.10653116847753326        0.0000000000000000     
   4.1079437320321571E-002  0.11342381261255081        0.0000000000000000     
   4.2182522366262194E-002  0.12045141545166491        0.0000000000000000     
   4.3227879037761846E-002  0.12761397699487551        0.0000000000000000     
   4.4215507334820534E-002  0.13491149724218263        0.0000000000000000     
   6.8648455204038727E-002  0.13635608964842658        0.0000000000000000     
   7.0066233026851277E-002  0.14369424405134795        0.0000000000000000     
   7.1415842901365462E-002  0.15114098740882992        0.0000000000000000     
   7.2697284827581241E-002  0.15869631972087256        0.0000000000000000     
   7.3910558805498655E-002  0.16636024098747584        0.0000000000000000     
   6.2331097197323292E-002  0.13593545153795422        0.0000000000000000     
   6.3626825020468347E-002  0.14329589128199741        0.0000000000000000     
   6.4858389731793878E-002  0.15076561382814063        0.0000000000000000     
   6.6025791331299932E-002  0.15834461917638387        0.0000000000000000     
   6.7129029818986441E-002  0.16603290732672704        0.0000000000000000     
   5.6153153216881774E-002  0.13555447343342275        0.0000000000000000     
   5.7327561224837016E-002  0.14293599876737589        0.0000000000000000     
   5.8442233998238925E-002  0.15042730591377601        0.0000000000000000     
   5.9497171537087480E-002  0.15802839487262307        0.0000000000000000     
   6.0492373841382702E-002  0.16573926564391719        0.0000000000000000     
   5.0114623262714195E-002  0.13521315533483222        0.0000000000000000     
   5.1168441639957304E-002  0.14261456650748336        0.0000000000000000     
   5.2167375700700562E-002  0.15012606366573605        0.0000000000000000     
   5.3111425444943967E-002  0.15774764680959036        0.0000000000000000     
   5.4000590872687500E-002  0.16547931593904619        0.0000000000000000     
   4.4215507334820534E-002  0.13491149724218263        0.0000000000000000     
   4.5149466265829198E-002  0.14233159450231986        0.0000000000000000     
   4.6033814839178802E-002  0.14986188708402085        0.0000000000000000     
   4.6868553054869318E-002  0.15750237498728561        0.0000000000000000     
   4.7653680912900780E-002  0.16525305821211414        0.0000000000000000     
   7.3910558805498655E-002  0.16636024098747584        0.0000000000000000     
   7.5051836628697063E-002  0.17412354369266864        0.0000000000000000     
   7.6117290090755796E-002  0.18197702032047983        0.0000000000000000     
   7.7106919191674908E-002  0.18992067087090936        0.0000000000000000     
   7.8020723931454344E-002  0.19795449534395729        0.0000000000000000     
   6.7129029818986441E-002  0.16603290732672704        0.0000000000000000     
   6.8164390060878211E-002  0.17382045174265293        0.0000000000000000     
   6.9128156923000034E-002  0.18169722588764406        0.0000000000000000     
   7.0020330405351883E-002  0.18966322976170050        0.0000000000000000     
   7.0840910507933785E-002  0.19771846336482218        0.0000000000000000     
   6.0492373841382702E-002  0.16573926564391719        0.0000000000000000     
   6.1424182446398912E-002  0.17354936414781780        0.0000000000000000     
   6.2288938887410397E-002  0.18144813630448456        0.0000000000000000     
   6.3086643164417172E-002  0.18943558211391745        0.0000000000000000     
   6.3817295277419236E-002  0.19751170157611644        0.0000000000000000     
   5.4000590872687500E-002  0.16547931593904619        0.0000000000000000     
   5.4831213785259153E-002  0.17331028090816331        0.0000000000000000     
   5.5599635983986900E-002  0.18122975157100132        0.0000000000000000     
   5.6305857468870749E-002  0.18923772792756036        0.0000000000000000     
   5.6949878239910684E-002  0.19733420997784021        0.0000000000000000     
   4.7653680912900780E-002  0.16525305821211414        0.0000000000000000     
   4.8385484077458928E-002  0.17310320202368937        0.0000000000000000     
   4.9060248212729543E-002  0.18104207168719433        0.0000000000000000     
   4.9677973318712619E-002  0.18906966720262899        0.0000000000000000     
   5.0238659395408142E-002  0.19718598856999342        0.0000000000000000     
   7.8020723931454344E-002  0.19795449534395729        0.0000000000000000     
   7.8860105702969821E-002  0.20607099040484383        0.0000000000000000     
   7.9626465899097040E-002  0.21426265271878919        0.0000000000000000     
   8.0319804519836030E-002  0.22252948228579336        0.0000000000000000     
   8.0940121565186735E-002  0.23087147910585637        0.0000000000000000     
   7.0840910507933785E-002  0.19771846336482218        0.0000000000000000     
   7.1588977416667518E-002  0.20585652323289125        0.0000000000000000     
   7.2263611317474913E-002  0.21407100590178996        0.0000000000000000     
   7.2864812210355970E-002  0.22236191137151817        0.0000000000000000     
   7.3392580095310675E-002  0.23072923964207603        0.0000000000000000     
   6.3817295277419236E-002  0.19751170157611644        0.0000000000000000     
   6.4478686856511869E-002  0.20567027973985316        0.0000000000000000     
   6.5068609531790361E-002  0.21390510165389923        0.0000000000000000     
   6.5587063303254700E-002  0.22221616731825458        0.0000000000000000     
   6.6034048170904927E-002  0.23060347673291925        0.0000000000000000     
   5.6949878239910684E-002  0.19733420997784021        0.0000000000000000     
   5.7529234022502852E-002  0.20551225992572961        0.0000000000000000     
   5.8041460542043372E-002  0.21376493997511706        0.0000000000000000     
   5.8486557798532249E-002  0.22209225012600256        0.0000000000000000     
   5.8864525791969484E-002  0.23049419037838614        0.0000000000000000     
   5.0238659395408142E-002  0.19718598856999342        0.0000000000000000     
   5.0740618914640476E-002  0.20538246379052055        0.0000000000000000     
   5.1182164348233958E-002  0.21365052086544348        0.0000000000000000     
   5.1563295696188567E-002  0.22199015979476214        0.0000000000000000     
   5.1884012958504346E-002  0.23040138057847664        0.0000000000000000     
   8.0940121565186735E-002  0.23087147910585637        0.0000000000000000     
   8.1476670895674522E-002  0.23930936690575144        0.0000000000000000     
   8.1918706371824718E-002  0.24786386941225169        0.0000000000000000     
   8.2266227993637323E-002  0.25653498662535723        0.0000000000000000     
   8.2519235761112336E-002  0.26532271854506800        0.0000000000000000     
   7.3392580095310675E-002  0.23072923964207603        0.0000000000000000     
   7.3843473291004907E-002  0.23918668283833616        0.0000000000000000     
   7.4214050116104546E-002  0.24774793308517118        0.0000000000000000     
   7.4504310570609592E-002  0.25641299038258125        0.0000000000000000     
   7.4714254654520001E-002  0.26518185473056616        0.0000000000000000     
   6.6034048170904927E-002  0.23060347673291925        0.0000000000000000     
   6.6411674869700538E-002  0.23907353496001052        0.0000000000000000     
   6.6722054134601069E-002  0.24763284706164548        0.0000000000000000     
   6.6965185965606550E-002  0.25628141303782420        0.0000000000000000     
   6.7141070362716937E-002  0.26501923288854667        0.0000000000000000     
   5.8864525791969484E-002  0.23049419037838614        0.0000000000000000     
   5.9181275631761392E-002  0.23896992327077454        0.0000000000000000     
   5.9442718427314301E-002  0.24751861134167455        0.0000000000000000     
   5.9648854178628211E-002  0.25614025459108614        0.0000000000000000     
   5.9799682885703115E-002  0.26483485301900939        0.0000000000000000     
   5.1884012958504346E-002  0.23040138057847664        0.0000000000000000     
   5.2152275577187490E-002  0.23887584777062826        0.0000000000000000     
   5.2376042994244233E-002  0.24740522592525840        0.0000000000000000     
   5.2555315209674588E-002  0.25598951504236717        0.0000000000000000     
   5.2690092223478535E-002  0.26462871512195446        0.0000000000000000     
   8.2519235761112336E-002  0.26532271854506800        0.0000000000000000     
   8.2716735030777089E-002  0.27425339648992708        0.0000000000000000     
   8.2897731159158952E-002  0.28335335177847765        0.0000000000000000     
   8.3062224146257926E-002  0.29262258441071953        0.0000000000000000     
   8.3210213992073984E-002  0.30206109438665285        0.0000000000000000     
   7.4714254654520001E-002  0.26518185473056616        0.0000000000000000     
   7.4884884950889463E-002  0.27404817111766555        0.0000000000000000     
   7.5057204042771553E-002  0.28300558453241859        0.0000000000000000     
   7.5231211930166297E-002  0.29205409497482543        0.0000000000000000     
   7.5406908613073670E-002  0.30119370244488602        0.0000000000000000     
   6.7141070362716937E-002  0.26501923288854667        0.0000000000000000     
   6.7290020770411269E-002  0.27381646236697871        0.0000000000000000     
   6.7452350633168526E-002  0.28264325722628614        0.0000000000000000     
   6.7628059950988695E-002  0.29149961746646896        0.0000000000000000     
   6.7817148723871790E-002  0.30038554308752724        0.0000000000000000     
   5.9799682885703115E-002  0.26483485301900939        0.0000000000000000     
   5.9932142489342498E-002  0.27355827023786661        0.0000000000000000     
   6.0083170930349830E-002  0.28226636986008014        0.0000000000000000     
   6.0252768208725119E-002  0.29095915188565014        0.0000000000000000     
   6.0440934324468371E-002  0.29963661631457650        0.0000000000000000     
   5.2690092223478535E-002  0.26462871512195446        0.0000000000000000     
   5.2811250107683158E-002  0.27327359473032936        0.0000000000000000     
   5.2949664934315507E-002  0.28187492243380086        0.0000000000000000     
   5.3105336703375583E-002  0.29043269823236900        0.0000000000000000     
   5.3278265414863392E-002  0.29894692212603380        0.0000000000000000     
   2.8857516163518664E-002   5.7155593630088292E-002   0.0000000000000000     
   3.0471998463045817E-002   6.2718834905008930E-002   0.0000000000000000     
   3.2009162202884835E-002   6.8462522151620533E-002   0.0000000000000000     
   3.3469007383035716E-002   7.4386655369923088E-002   0.0000000000000000     
   3.4851534003498469E-002   8.0491234559916622E-002   0.0000000000000000     
   2.4961370563251858E-002   5.6726993073337680E-002   0.0000000000000000     
   2.6383022826530537E-002   6.2297812624495547E-002   0.0000000000000000     
   2.7735555828493900E-002   6.8051184595089159E-002   0.0000000000000000     
   2.9018969569141937E-002   7.3987108985118524E-002   0.0000000000000000     
   3.0233264048474651E-002   8.0105585794583600E-002   0.0000000000000000     
   2.1200038224174437E-002   5.6355294098270343E-002   0.0000000000000000     
   2.2418530382875338E-002   6.1933122791944600E-002   0.0000000000000000     
   2.3577979859814208E-002   6.7695158932093907E-002   0.0000000000000000     
   2.4678386654991037E-002   7.3641402518718313E-002   0.0000000000000000     
   2.5719750768405842E-002   7.9771853551817790E-002   0.0000000000000000     
   1.7573519146286399E-002   5.6040496704886270E-002   0.0000000000000000     
   1.8578521132080198E-002   6.1624765407356064E-002   0.0000000000000000     
   1.9536434296845741E-002   6.7394445162634792E-002   0.0000000000000000     
   2.0447258640583020E-002   7.3349535970722510E-002   0.0000000000000000     
   2.1310994163292046E-002   7.9490037831619148E-002   0.0000000000000000     
   1.4081813329587748E-002   5.5782600893185472E-002   0.0000000000000000     
   1.4862995074145130E-002   6.1372740470729950E-002   0.0000000000000000     
   1.5610919139588505E-002   6.7149043286711813E-002   0.0000000000000000     
   1.6325585525917882E-002   7.3111509341131073E-002   0.0000000000000000     
   1.7006994233133257E-002   7.9260138633987703E-002   0.0000000000000000     
   3.4851534003498469E-002   8.0491234559916622E-002   0.0000000000000000     
   3.6176127627490083E-002   8.6764832061646924E-002   0.0000000000000000     
   3.7462173818227536E-002   9.3196020215159811E-002   0.0000000000000000     
   3.8709672575710841E-002   9.9784799020455256E-002   0.0000000000000000     
   3.9918623899939984E-002  0.10653116847753326        0.0000000000000000     
   3.0233264048474651E-002   8.0105585794583600E-002   0.0000000000000000     
   3.1395733105482215E-002   8.6394083937036931E-002   0.0000000000000000     
   3.2523670579154819E-002   9.2840072326030906E-002   0.0000000000000000     
   3.3617076469492461E-002   9.9443550961565541E-002   0.0000000000000000     
   3.4675950776495129E-002  0.10620451984364090        0.0000000000000000     
   2.5719750768405842E-002   7.9771853551817790E-002   0.0000000000000000     
   2.6716649663898480E-002   8.6073161195317952E-002   0.0000000000000000     
   2.7683660805308825E-002   9.2531974613144385E-002   0.0000000000000000     
   2.8620784192636868E-002   9.9148293805297119E-002   0.0000000000000000     
   2.9528019825882622E-002  0.10592211877177611        0.0000000000000000     
   2.1310994163292046E-002   7.9490037831619148E-002   0.0000000000000000     
   2.2138877302738863E-002   8.5802063836489972E-002   0.0000000000000000     
   2.2942144496689534E-002   9.2271727076500221E-002   0.0000000000000000     
   2.3720795745144057E-002   9.8899027551649851E-002   0.0000000000000000     
   2.4474831048102441E-002  0.10568396526193889        0.0000000000000000     
   1.7006994233133257E-002   7.9260138633987703E-002   0.0000000000000000     
   1.7662416022003368E-002   8.5580791860553063E-002   0.0000000000000000     
   1.8299121653296963E-002   9.2059329716098426E-002   0.0000000000000000     
   1.8917111127014035E-002   9.8695752200623821E-002   0.0000000000000000     
   1.9516384443154594E-002  0.10549005931412925        0.0000000000000000     
   3.9918623899939984E-002  0.10653116847753326        0.0000000000000000     
   4.1079437320321571E-002  0.11342381261255081        0.0000000000000000     
   4.2182522366262194E-002  0.12045141545166491        0.0000000000000000     
   4.3227879037761846E-002  0.12761397699487551        0.0000000000000000     
   4.4215507334820534E-002  0.13491149724218263        0.0000000000000000     
   3.4675950776495129E-002  0.10620451984364090        0.0000000000000000     
   3.5691946123833779E-002  0.11311201661349941        0.0000000000000000     
   3.6656715135179284E-002  0.12015507891238356        0.0000000000000000     
   3.7570257810531679E-002  0.12733370674029335        0.0000000000000000     
   3.8432574149890958E-002  0.13464790009722877        0.0000000000000000     
   2.9528019825882622E-002  0.10592211877177611        0.0000000000000000     
   3.0398149430456885E-002  0.11284271754137958        0.0000000000000000     
   3.1223954731770472E-002  0.11989935814290564        0.0000000000000000     
   3.2005435729823388E-002  0.12709204057635434        0.0000000000000000     
   3.2742592424615621E-002  0.13442076484172566        0.0000000000000000     
   2.4474831048102441E-002  0.10568396526193889        0.0000000000000000     
   2.5198047240190927E-002  0.11261591539619134        0.0000000000000000     
   2.5884241156035763E-002  0.11968425314323121        0.0000000000000000     
   2.6533412795636962E-002  0.12688897850305850        0.0000000000000000     
   2.7145562158994514E-002  0.13423009147567319        0.0000000000000000     
   1.9516384443154594E-002  0.10549005931412925        0.0000000000000000     
   2.0091639553035882E-002  0.11243161017793474        0.0000000000000000     
   2.0637574407975156E-002  0.11950976391336024        0.0000000000000000     
   2.1154189007972408E-002  0.12672452052040584        0.0000000000000000     
   2.1641483353027645E-002  0.13407587999907145        0.0000000000000000     
   4.4215507334820534E-002  0.13491149724218263        0.0000000000000000     
   4.5149466265829198E-002  0.14233159450231986        0.0000000000000000     
   4.6033814839178802E-002  0.14986188708402085        0.0000000000000000     
   4.6868553054869318E-002  0.15750237498728561        0.0000000000000000     
   4.7653680912900780E-002  0.16525305821211414        0.0000000000000000     
   3.8432574149890958E-002  0.13464790009722877        0.0000000000000000     
   3.9247263758615175E-002  0.14208499954958667        0.0000000000000000     
   4.0017926242062393E-002  0.14963234566376379        0.0000000000000000     
   4.0744561600232619E-002  0.15728993843976019        0.0000000000000000     
   4.1427169833125839E-002  0.16505777787757583        0.0000000000000000     
   3.2742592424615621E-002  0.13442076484172566        0.0000000000000000     
   3.3438462774477679E-002  0.14187269844698511        0.0000000000000000     
   3.4096084737740090E-002  0.14943500890009842        0.0000000000000000     
   3.4715458314402842E-002  0.15710769620106543        0.0000000000000000     
   3.5296583504465941E-002  0.16489076034988623        0.0000000000000000     
   2.7145562158994514E-002  0.13423009147567319        0.0000000000000000     
   2.7723063313416722E-002  0.14169469119451528        0.0000000000000000     
   2.8268290326211885E-002  0.14926987679302464        0.0000000000000000     
   2.8781243197380003E-002  0.15695564827120131        0.0000000000000000     
   2.9261921926921074E-002  0.16475200562904535        0.0000000000000000     
   2.1641483353027645E-002  0.13407587999907145        0.0000000000000000     
   2.2101065375432299E-002  0.14155097779217704        0.0000000000000000     
   2.2534543007477776E-002  0.14913694934254251        0.0000000000000000     
   2.2941916249164095E-002  0.15683379465016789        0.0000000000000000     
   2.3323185100491250E-002  0.16464151371505312        0.0000000000000000     
   4.7653680912900780E-002  0.16525305821211414        0.0000000000000000     
   4.8385484077458928E-002  0.17310320202368937        0.0000000000000000     
   4.9060248212729543E-002  0.18104207168719433        0.0000000000000000     
   4.9677973318712619E-002  0.18906966720262899        0.0000000000000000     
   5.0238659395408142E-002  0.19718598856999342        0.0000000000000000     
   4.1427169833125839E-002  0.16505777787757583        0.0000000000000000     
   4.2062065197259454E-002  0.17292524794425757        0.0000000000000000     
   4.2645561949150861E-002  0.18088173260685217        0.0000000000000000     
   4.3177660088800057E-002  0.18892723186535962        0.0000000000000000     
   4.3658359616207038E-002  0.19706174571978000        0.0000000000000000     
   3.5296583504465941E-002  0.16489076034988623        0.0000000000000000     
   3.5836029018921939E-002  0.17277353911972940        0.0000000000000000     
   3.6330363568763423E-002  0.18074537028376336        0.0000000000000000     
   3.6779587153990378E-002  0.18880625384198824        0.0000000000000000     
   3.7183699774602799E-002  0.19695618979440388        0.0000000000000000     
   2.9261921926921074E-002  0.16475200562904535        0.0000000000000000     
   2.9707375542446384E-002  0.17264807555010481        0.0000000000000000     
   3.0114653071567212E-002  0.18063298471792794        0.0000000000000000     
   3.0483754514283565E-002  0.18870673313251468        0.0000000000000000     
   3.0814679870595441E-002  0.19686932079386507        0.0000000000000000     
   2.3323185100491250E-002  0.16464151371505312        0.0000000000000000     
   2.3676104767832783E-002  0.17254885723538393        0.0000000000000000     
   2.3998430457562246E-002  0.18054457590934594        0.0000000000000000     
   2.4290162169679635E-002  0.18862866973693915        0.0000000000000000     
   2.4551299904184955E-002  0.19680113871816357        0.0000000000000000     
   5.0238659395408142E-002  0.19718598856999342        0.0000000000000000     
   5.0740618914640476E-002  0.20538246379052055        0.0000000000000000     
   5.1182164348233958E-002  0.21365052086544348        0.0000000000000000     
   5.1563295696188567E-002  0.22199015979476214        0.0000000000000000     
   5.1884012958504346E-002  0.23040138057847664        0.0000000000000000     
   4.3658359616207038E-002  0.19706174571978000        0.0000000000000000     
   4.4087098632204821E-002  0.20527469683560581        0.0000000000000000     
   4.4463315237626436E-002  0.21355550787832961        0.0000000000000000     
   4.4787009432471866E-002  0.22190417884795144        0.0000000000000000     
   4.5058181216741135E-002  0.23032070974447133        0.0000000000000000     
   3.7183699774602799E-002  0.19695618979440388        0.0000000000000000     
   3.7542930274475972E-002  0.20518276456236514        0.0000000000000000     
   3.7857507497485128E-002  0.21347356456722674        0.0000000000000000     
   3.8127431443630296E-002  0.22182858980898870        0.0000000000000000     
   3.8352702112911474E-002  0.23024784028765094        0.0000000000000000     
   3.0814679870595441E-002  0.19686932079386507        0.0000000000000000     
   3.1108113841453910E-002  0.20510666697079863        0.0000000000000000     
   3.1364741127810056E-002  0.21340469093213488        0.0000000000000000     
   3.1584561729663868E-002  0.22176339267787382        0.0000000000000000     
   3.1767575647015364E-002  0.23018277220801545        0.0000000000000000     
   2.4551299904184955E-002  0.19680113871816357        0.0000000000000000     
   2.4782649333138652E-002  0.20504640406090618        0.0000000000000000     
   2.4985016128601198E-002  0.21334888697305393        0.0000000000000000     
   2.5158400290572584E-002  0.22170858745460684        0.0000000000000000     
   2.5302801819052811E-002  0.23012550550556488        0.0000000000000000     
   5.1884012958504346E-002  0.23040138057847664        0.0000000000000000     
   5.2152275577187490E-002  0.23887584777062826        0.0000000000000000     
   5.2376042994244233E-002  0.24740522592525840        0.0000000000000000     
   5.2555315209674588E-002  0.25598951504236717        0.0000000000000000     
   5.2690092223478535E-002  0.26462871512195446        0.0000000000000000     
   4.5058181216741135E-002  0.23032070974447133        0.0000000000000000     
   4.5285559418620162E-002  0.23878989447703039        0.0000000000000000     
   4.5477872866294899E-002  0.24729652695476978        0.0000000000000000     
   4.5635121559765339E-002  0.25584060717768947        0.0000000000000000     
   4.5757305499031495E-002  0.26442213514578966        0.0000000000000000     
   3.8352702112911474E-002  0.23024784028765094        0.0000000000000000     
   3.8542011868700779E-002  0.23871064940743977        0.0000000000000000     
   3.8704053074370352E-002  0.24719635057258132        0.0000000000000000     
   3.8838825729920201E-002  0.25570494378307562        0.0000000000000000     
   3.8946329835350305E-002  0.26423642903892275        0.0000000000000000     
   3.1767575647015364E-002  0.23018277220801545        0.0000000000000000     
   3.1921632927429340E-002  0.23863811256185635        0.0000000000000000     
   3.2054583618470599E-002  0.24710469677869301        0.0000000000000000     
   3.2166427720139140E-002  0.25558252485852551        0.0000000000000000     
   3.2257165232434958E-002  0.26407159680135373        0.0000000000000000     
   2.5302801819052811E-002  0.23012550550556488        0.0000000000000000     
   2.5424422594805839E-002  0.23857228394028016        0.0000000000000000     
   2.5529464498595621E-002  0.24702156557310492        0.0000000000000000     
   2.5617927530422163E-002  0.25547335040403912        0.0000000000000000     
   2.5689811690285457E-002  0.26392763843308270        0.0000000000000000     
   5.2690092223478535E-002  0.26462871512195446        0.0000000000000000     
   5.2811250107683158E-002  0.27327359473032936        0.0000000000000000     
   5.2949664934315507E-002  0.28187492243380086        0.0000000000000000     
   5.3105336703375583E-002  0.29043269823236900        0.0000000000000000     
   5.3278265414863392E-002  0.29894692212603380        0.0000000000000000     
   4.5757305499031495E-002  0.26442213514578966        0.0000000000000000     
   4.5868579665853532E-002  0.27299113482355358        0.0000000000000000     
   4.5993099041991621E-002  0.28149763017546497        0.0000000000000000     
   4.6130863627445763E-002  0.28994162120152372        0.0000000000000000     
   4.6281873422215958E-002  0.29832310790172983        0.0000000000000000     
   3.8946329835350305E-002  0.26423642903892275        0.0000000000000000     
   3.9045367204273915E-002  0.27273958949672616        0.0000000000000000     
   3.9154739650304277E-002  0.28116320831308939        0.0000000000000000     
   3.9274447173441349E-002  0.28950728548801252        0.0000000000000000     
   3.9404489773685165E-002  0.29777182102149552        0.0000000000000000     
   3.2257165232434958E-002  0.26407159680135373        0.0000000000000000     
   3.2341612722944314E-002  0.27251895874984694        0.0000000000000000     
   3.2434586759253439E-002  0.28087165684667414        0.0000000000000000     
   3.2536087341362339E-002  0.28912969109183539        0.0000000000000000     
   3.2646114469271008E-002  0.29729306148533069        0.0000000000000000     
   2.5689811690285457E-002  0.26392763843308270        0.0000000000000000     
   2.5757316221864716E-002  0.27232924258291602        0.0000000000000000     
   2.5832640368839140E-002  0.28062297577621920        0.0000000000000000     
   2.5915784131208725E-002  0.28880883801299240        0.0000000000000000     
   2.6006747508973489E-002  0.29688682929323551        0.0000000000000000     
   1.4081813329587748E-002   5.5782600893185472E-002   0.0000000000000000     
   1.4862995074145130E-002   6.1372740470729950E-002   0.0000000000000000     
   1.5610919139588505E-002   6.7149043286711813E-002   0.0000000000000000     
   1.6325585525917882E-002   7.3111509341131073E-002   0.0000000000000000     
   1.7006994233133257E-002   7.9260138633987703E-002   0.0000000000000000     
   1.0633475608493204E-002   5.5581836501912354E-002   0.0000000000000000     
   1.1194094536880523E-002   6.1176864098590002E-002   0.0000000000000000     
   1.1734611728126924E-002   6.6958515599675777E-002   0.0000000000000000     
   1.2255027182232408E-002   7.2926791005169689E-002   0.0000000000000000     
   1.2755340899196976E-002   7.9081690315071757E-002   0.0000000000000000     
   7.1370608174174885E-003   5.5438433369811350E-002   0.0000000000000000     
   7.4939618480967755E-003   6.1036952407459918E-002   0.0000000000000000     
   7.8406894025454064E-003   6.6822424396877481E-002   0.0000000000000000     
   8.1772434807633795E-003   7.2794849338064030E-002   0.0000000000000000     
   8.5036240827506965E-003   7.8954227231019553E-002   0.0000000000000000     
   3.5925689563606035E-003   5.5352391496882453E-002   0.0000000000000000     
   3.7625970077938891E-003   6.0953005397339728E-002   0.0000000000000000     
   3.9291521628439536E-003   6.6740769678316922E-002   0.0000000000000000     
   4.0922344215107952E-003   7.2715684339814068E-002   0.0000000000000000     
   4.2518437837944156E-003   7.8877749381831119E-002   0.0000000000000000     
   2.5322548745376761E-011   5.5323710883125654E-002   0.0000000000000000     
   1.5971862287605942E-011   6.0925023068229403E-002   0.0000000000000000     
   9.0225651385930639E-012   6.6713551443994129E-002   0.0000000000000000     
   4.4746558617702464E-012   7.2689296010419818E-002   0.0000000000000000     
   2.3281342131920013E-012   7.8852256767506471E-002   0.0000000000000000     
   1.7006994233133257E-002   7.9260138633987703E-002   0.0000000000000000     
   1.7662416022003368E-002   8.5580791860553063E-002   0.0000000000000000     
   1.8299121653296963E-002   9.2059329716098426E-002   0.0000000000000000     
   1.8917111127014035E-002   9.8695752200623821E-002   0.0000000000000000     
   1.9516384443154594E-002  0.10549005931412925        0.0000000000000000     
   1.2755340899196976E-002   7.9081690315071757E-002   0.0000000000000000     
   1.3239160715329627E-002   8.5408977486845311E-002   0.0000000000000000     
   1.3710094466939353E-002   9.1894416477953683E-002   0.0000000000000000     
   1.4168142154026155E-002   9.8538007288396970E-002   0.0000000000000000     
   1.4613303776590035E-002  0.10533974991817505        0.0000000000000000     
   8.5036240827506965E-003   7.8954227231019553E-002   0.0000000000000000     
   8.8210062763552522E-003   8.5286252934704862E-002   0.0000000000000000     
   9.1305651294249397E-003   9.1776621308080744E-002   0.0000000000000000     
   9.4323006419597608E-003   9.8425332351147157E-002   0.0000000000000000     
   9.7262128139597153E-003  0.10523238606390417        0.0000000000000000     
   4.2518437837944156E-003   7.8877749381831119E-002   0.0000000000000000     
   4.4079527050802482E-003   8.5212618204131743E-002   0.0000000000000000     
   4.5605336407537299E-003   9.1705944206479539E-002   0.0000000000000000     
   4.7095865908148588E-003   9.8357727388874494E-002   0.0000000000000000     
   4.8551115552636350E-003  0.10516796775131662        0.0000000000000000     
   2.3281342131920013E-012   7.8852256767506471E-002   0.0000000000000000     
   1.5046176110589116E-012   8.5188073295125941E-002   0.0000000000000000     
   9.2572087148634630E-013   9.1682385173150083E-002   0.0000000000000000     
   5.9144778918190921E-013   9.8335192401578911E-002   0.0000000000000000     
   5.0179435259756211E-013  0.10514649498041238        0.0000000000000000     
   1.9516384443154594E-002  0.10549005931412925        0.0000000000000000     
   2.0091639553035882E-002  0.11243161017793474        0.0000000000000000     
   2.0637574407975156E-002  0.11950976391336024        0.0000000000000000     
   2.1154189007972408E-002  0.12672452052040584        0.0000000000000000     
   2.1641483353027645E-002  0.13407587999907145        0.0000000000000000     
   1.4613303776590035E-002  0.10533974991817505        0.0000000000000000     
   1.5041241754301497E-002  0.11228893551748131        0.0000000000000000     
   1.5447618506831044E-002  0.11937485523650909        0.0000000000000000     
   1.5832434034178673E-002  0.12659750907525832        0.0000000000000000     
   1.6195688336344390E-002  0.13395689703372907        0.0000000000000000     
   9.7262128139597153E-003  0.10523238606390417        0.0000000000000000     
   1.0009169229297505E-002  0.11218702504570281        0.0000000000000000     
   1.0278037471845834E-002  0.11927849189589408        0.0000000000000000     
   1.0532817541604704E-002  0.12650678661447809        0.0000000000000000     
   1.0773509438574108E-002  0.13387190920145473        0.0000000000000000     
   4.8551115552636350E-003  0.10516796775131662        0.0000000000000000     
   4.9954219780239091E-003  0.11212587876259912        0.0000000000000000     
   5.1288313030195300E-003  0.11922067389151529        0.0000000000000000     
   5.2553395302504975E-003  0.12645235313806508        0.0000000000000000     
   5.3749466597168118E-003  0.13382091650224848        0.0000000000000000     
   5.0179435259756211E-013  0.10514649498041238        0.0000000000000000     
   4.8070596982141556E-013  0.11210549666817037        0.0000000000000000     
   3.5212718157984213E-013  0.11920140122337268        0.0000000000000000     
   1.1605668683023485E-013  0.12643420864601934        0.0000000000000000     
  -2.2750464706566831E-013  0.13380391893611027        0.0000000000000000     
   2.1641483353027645E-002  0.13407587999907145        0.0000000000000000     
   2.2101065375432299E-002  0.14155097779217704        0.0000000000000000     
   2.2534543007477776E-002  0.14913694934254251        0.0000000000000000     
   2.2941916249164095E-002  0.15683379465016789        0.0000000000000000     
   2.3323185100491250E-002  0.16464151371505312        0.0000000000000000     
   1.6195688336344390E-002  0.13395689703372907        0.0000000000000000     
   1.6538275907095390E-002  0.14144023212464382        0.0000000000000000     
   1.6861091240198883E-002  0.14903472736072521        0.0000000000000000     
   1.7164134335654863E-002  0.15674038274197313        0.0000000000000000     
   1.7447405193463335E-002  0.16455719826838766        0.0000000000000000     
   1.0773509438574108E-002  0.13387190920145473        0.0000000000000000     
   1.1000501854976998E-002  0.14136112807658902        0.0000000000000000     
   1.1214183483036310E-002  0.14896171165964583        0.0000000000000000     
   1.1414554322752042E-002  0.15667365995062510        0.0000000000000000     
   1.1601614374124202E-002  0.16449697294952700        0.0000000000000000     
   5.3749466597168118E-003  0.13382091650224848        0.0000000000000000     
   5.4877432190771173E-003  0.14131366564801254        0.0000000000000000     
   5.5938197359900587E-003  0.14891790223930440        0.0000000000000000     
   5.6931762104556376E-003  0.15663362627612390        0.0000000000000000     
   5.7858126424738497E-003  0.16446083775847117        0.0000000000000000     
  -2.2750464706566831E-013  0.13380391893611027        0.0000000000000000     
  -6.0424950633353181E-013  0.14129784483891450        0.0000000000000000     
  -9.3986591512967843E-013  0.14890329909970085        0.0000000000000000     
  -1.2343562858039420E-012  0.15662028171846942        0.0000000000000000     
  -1.4877201033602905E-012  0.16444879269522011        0.0000000000000000     
   2.3323185100491250E-002  0.16464151371505312        0.0000000000000000     
   2.3676104767832783E-002  0.17254885723538393        0.0000000000000000     
   2.3998430457562246E-002  0.18054457590934594        0.0000000000000000     
   2.4290162169679635E-002  0.18862866973693915        0.0000000000000000     
   2.4551299904184955E-002  0.19680113871816357        0.0000000000000000     
   1.7447405193463335E-002  0.16455719826838766        0.0000000000000000     
   1.7709413651976647E-002  0.17247352350908407        0.0000000000000000     
   1.7948669549547144E-002  0.18047770803317767        0.0000000000000000     
   1.8165172886174832E-002  0.18856975184066849        0.0000000000000000     
   1.8358923661859705E-002  0.19674965493155647        0.0000000000000000     
   1.1601614374124202E-002  0.16449697294952700        0.0000000000000000     
   1.1774499151773470E-002  0.17241971370472270        0.0000000000000000     
   1.1932344170320536E-002  0.18042994526458361        0.0000000000000000     
   1.2075149429765401E-002  0.18852766762910966        0.0000000000000000     
   1.2202914930108064E-002  0.19671288079830090        0.0000000000000000     
   5.7858126424738497E-003  0.16446083775847117        0.0000000000000000     
   5.8713612672232594E-003  0.17238742782229982        0.0000000000000000     
   5.9494543198824260E-003  0.18040128760356366        0.0000000000000000     
   6.0200918004513484E-003  0.18850241710226265        0.0000000000000000     
   6.0832737089300294E-003  0.19669081631839683        0.0000000000000000     
  -1.4877201033602905E-012  0.16444879269522011        0.0000000000000000     
  -1.6739871207954726E-012  0.17237666586181546        0.0000000000000000     
  -1.7671898016116683E-012  0.18039173505011794        0.0000000000000000     
  -1.7673263297702385E-012  0.18849400026012753        0.0000000000000000     
  -1.6744006355040586E-012  0.19668346149184424        0.0000000000000000     
   2.4551299904184955E-002  0.19680113871816357        0.0000000000000000     
   2.4782649333138652E-002  0.20504640406090618        0.0000000000000000     
   2.4985016128601198E-002  0.21334888697305393        0.0000000000000000     
   2.5158400290572584E-002  0.22170858745460684        0.0000000000000000     
   2.5302801819052811E-002  0.23012550550556488        0.0000000000000000     
   1.8358923661859705E-002  0.19674965493155647        0.0000000000000000     
   1.8530642340249689E-002  0.20500060168798875        0.0000000000000000     
   1.8681049384992703E-002  0.21330577649211244        0.0000000000000000     
   1.8810144796088751E-002  0.22166517934392743        0.0000000000000000     
   1.8917928573537832E-002  0.23007881024343388        0.0000000000000000     
   1.2202914930108064E-002  0.19671288079830090        0.0000000000000000     
   1.2316198453506509E-002  0.20496788570734725        0.0000000000000000     
   1.2415557782118723E-002  0.21327498329143876        0.0000000000000000     
   1.2500992915944701E-002  0.22163417355057544        0.0000000000000000     
   1.2572503854984450E-002  0.23004545648475719        0.0000000000000000     
   6.0832737089300294E-003  0.19669081631839683        0.0000000000000000     
   6.1393176729091130E-003  0.20494825611898171        0.0000000000000000     
   6.1885413199792468E-003  0.21325650737103302        0.0000000000000000     
   6.2309446501404332E-003  0.22161557007455071        0.0000000000000000     
   6.2665276633926681E-003  0.23002544422953486        0.0000000000000000     
  -1.6744006355040586E-012  0.19668346149184424        0.0000000000000000     
  -1.5425005023272931E-012  0.20494171292289212        0.0000000000000000     
  -1.4257206526480104E-012  0.21325034873089516        0.0000000000000000     
  -1.3240597854236036E-012  0.22160936891585342        0.0000000000000000     
  -1.2375174669732036E-012  0.23001877347776681        0.0000000000000000     
   2.5302801819052811E-002  0.23012550550556488        0.0000000000000000     
   2.5424422594805839E-002  0.23857228394028016        0.0000000000000000     
   2.5529464498595621E-002  0.24702156557310492        0.0000000000000000     
   2.5617927530422163E-002  0.25547335040403912        0.0000000000000000     
   2.5689811690285457E-002  0.26392763843308270        0.0000000000000000     
   1.8917928573537832E-002  0.23007881024343388        0.0000000000000000     
   1.9008676661333046E-002  0.23851761874439936        0.0000000000000000     
   1.9086665003467489E-002  0.24695255440059175        0.0000000000000000     
   1.9151893599941176E-002  0.25538361721201097        0.0000000000000000     
   1.9204362450754093E-002  0.26381080717865701        0.0000000000000000     
   1.2572503854984450E-002  0.23004545648475719        0.0000000000000000     
   1.2632690917513718E-002  0.23847857217590213        0.0000000000000000     
   1.2684154421808258E-002  0.24690326070592822        0.0000000000000000     
   1.2726894367868072E-002  0.25531952207483555        0.0000000000000000     
   1.2760910755693154E-002  0.26372735628262400        0.0000000000000000     
   6.2665276633926681E-003  0.23002544422953486        0.0000000000000000     
   6.2964653633478624E-003  0.23845514423478836        0.0000000000000000     
   6.3219327536179247E-003  0.24687368448911437        0.0000000000000000     
   6.3429298342028533E-003  0.25528106499251280        0.0000000000000000     
   6.3594566051026515E-003  0.26367728574498372        0.0000000000000000     
  -1.2375174669732036E-012  0.23001877347776681        0.0000000000000000     
  -1.1645250735936585E-012  0.23844733492105816        0.0000000000000000     
  -1.1035127889594265E-012  0.24686382575015017        0.0000000000000000     
  -1.0544791222925204E-012  0.25526824596504288        0.0000000000000000     
  -1.0174235585969083E-012  0.26366059556573623        0.0000000000000000     
   2.5689811690285457E-002  0.26392763843308270        0.0000000000000000     
   2.5757316221864716E-002  0.27232924258291602        0.0000000000000000     
   2.5832640368839140E-002  0.28062297577621920        0.0000000000000000     
   2.5915784131208725E-002  0.28880883801299240        0.0000000000000000     
   2.6006747508973489E-002  0.29688682929323551        0.0000000000000000     
   1.9204362450754093E-002  0.26381080717865701        0.0000000000000000     
   1.9254058324720574E-002  0.27217676606557095        0.0000000000000000     
   1.9310967990654945E-002  0.28042413563779406        0.0000000000000000     
   1.9375091448557209E-002  0.28855291589532622        0.0000000000000000     
   1.9446428698427373E-002  0.29656310683816745        0.0000000000000000     
   1.2760910755693154E-002  0.26372735628262400        0.0000000000000000     
   1.2793419655197338E-002  0.27206785426744956        0.0000000000000000     
   1.2831637136294443E-002  0.28028210696746814        0.0000000000000000     
   1.2875563198984467E-002  0.28837011438267973        0.0000000000000000     
   1.2925197843267415E-002  0.29633187651308424        0.0000000000000000     
   6.3594566051026515E-003  0.26367728574498372        0.0000000000000000     
   6.3754002132950099E-003  0.27200250718855173        0.0000000000000000     
   6.3946478057576263E-003  0.28019688976524149        0.0000000000000000     
   6.4171993824904986E-003  0.28826043347505265        0.0000000000000000     
   6.4430549434936289E-003  0.29619313831798572        0.0000000000000000     
  -1.0174235585969083E-012  0.26366059556573623        0.0000000000000000     
  -9.8641103965513288E-013  0.27198072482887747        0.0000000000000000     
  -9.5550173676017813E-013  0.28016848403111388        0.0000000000000000     
  -9.2469619201313025E-013  0.28822387317244541        0.0000000000000000     
  -8.9399581487681345E-013  0.29614689225287205        0.0000000000000000     
   2.5322548745376761E-011   5.5323710883125654E-002   0.0000000000000000     
   1.5971862287605942E-011   6.0925023068229403E-002   0.0000000000000000     
   9.0225651385930639E-012   6.6713551443994129E-002   0.0000000000000000     
   4.4746558617702464E-012   7.2689296010419818E-002   0.0000000000000000     
   2.3281342131920013E-012   7.8852256767506471E-002   0.0000000000000000     
  -3.5925689074107797E-003   5.5352391528437503E-002   0.0000000000000000     
  -3.7625969768849046E-003   6.0953005419654822E-002   0.0000000000000000     
  -3.9291521453426676E-003   6.6740769693233407E-002   0.0000000000000000     
  -4.0922344127840718E-003   7.2715684349173262E-002   0.0000000000000000     
  -4.2518437792091121E-003   7.8877749387474397E-002   0.0000000000000000     
  -7.1370607735534840E-003   5.5438433432714540E-002   0.0000000000000000     
  -7.4939618202920126E-003   6.1036952451141803E-002   0.0000000000000000     
  -7.8406893866756564E-003   6.6822424425359073E-002   0.0000000000000000     
  -8.1772434727044180E-003   7.2794849355366384E-002   0.0000000000000000     
  -8.5036240783782930E-003   7.8954227241163716E-002   0.0000000000000000     
  -1.0633475573105563E-002   5.5581836595956738E-002   0.0000000000000000     
  -1.1194094514249459E-002   6.1176864162690359E-002   0.0000000000000000     
  -1.1734611714976403E-002   6.6958515640371169E-002   0.0000000000000000     
  -1.2255027175286381E-002   7.2926791028999183E-002   0.0000000000000000     
  -1.2755340895179403E-002   7.9081690328574414E-002   0.0000000000000000     
  -1.4081813306067019E-002   5.5782601018164124E-002   0.0000000000000000     
  -1.4862995058757253E-002   6.1372740554300476E-002   0.0000000000000000     
  -1.5610919130244903E-002   6.7149043338269668E-002   0.0000000000000000     
  -1.6325585520529970E-002   7.3111509370071673E-002   0.0000000000000000     
  -1.7006994229612448E-002   7.9260138649706491E-002   0.0000000000000000     
   2.3281342131920013E-012   7.8852256767506471E-002   0.0000000000000000     
   1.5046176110589116E-012   8.5188073295125941E-002   0.0000000000000000     
   9.2572087148634630E-013   9.1682385173150083E-002   0.0000000000000000     
   5.9144778918190921E-013   9.8335192401578911E-002   0.0000000000000000     
   5.0179435259756211E-013  0.10514649498041238        0.0000000000000000     
  -4.2518437792091121E-003   7.8877749387474397E-002   0.0000000000000000     
  -4.4079527020862838E-003   8.5212618207311686E-002   0.0000000000000000     
  -4.5605336388840727E-003   9.1705944207860046E-002   0.0000000000000000     
  -4.7095865896024788E-003   9.8357727389119437E-002   0.0000000000000000     
  -4.8551115542415047E-003  0.10516796775108987        0.0000000000000000     
  -8.5036240783782930E-003   7.8954227241163716E-002   0.0000000000000000     
  -8.8210062734070949E-003   8.5286252940313209E-002   0.0000000000000000     
  -9.1305651275006405E-003   9.1776621310377005E-002   0.0000000000000000     
  -9.4323006406589298E-003   9.8425332351355102E-002   0.0000000000000000     
  -9.7262128128819576E-003  0.10523238606324749        0.0000000000000000     
  -1.2755340895179403E-002   7.9081690328574414E-002   0.0000000000000000     
  -1.3239160712457818E-002   8.5408977494130470E-002   0.0000000000000000     
  -1.3710094464923987E-002   9.1894416480700958E-002   0.0000000000000000     
  -1.4168142152577903E-002   9.8538007288285878E-002   0.0000000000000000     
  -1.4613303775419568E-002  0.10533974991688523        0.0000000000000000     
  -1.7006994229612448E-002   7.9260138649706491E-002   0.0000000000000000     
  -1.7662416019238455E-002   8.5580791868763467E-002   0.0000000000000000     
  -1.8299121651154104E-002   9.2059329718831906E-002   0.0000000000000000     
  -1.8917111125359397E-002   9.8695752199911779E-002   0.0000000000000000     
  -1.9516384441854332E-002  0.10549005931200311        0.0000000000000000     
   5.0179435259756211E-013  0.10514649498041238        0.0000000000000000     
   4.8070596982141556E-013  0.11210549666817037        0.0000000000000000     
   3.5212718157984213E-013  0.11920140122337268        0.0000000000000000     
   1.1605668683023485E-013  0.12643420864601934        0.0000000000000000     
  -2.2750464706566831E-013  0.13380391893611027        0.0000000000000000     
  -4.8551115542415047E-003  0.10516796775108987        0.0000000000000000     
  -4.9954219770618783E-003  0.11212587876232549        0.0000000000000000     
  -5.1288313023243317E-003  0.11922067389138039        0.0000000000000000     
  -5.2553395300288684E-003  0.12645235313825456        0.0000000000000000     
  -5.3749466601754857E-003  0.13382091650294808        0.0000000000000000     
  -9.7262128128819576E-003  0.10523238606324749        0.0000000000000000     
  -1.0009169228333623E-002  0.11218702504497355        0.0000000000000000     
  -1.0278037471177811E-002  0.11927849189545263        0.0000000000000000     
  -1.0532817541414529E-002  0.12650678661468473        0.0000000000000000     
  -1.0773509439043778E-002  0.13387190920266978        0.0000000000000000     
  -1.4613303775419568E-002  0.10533974991688523        0.0000000000000000     
  -1.5041241753334520E-002  0.11228893551611455        0.0000000000000000     
  -1.5447618506208309E-002  0.11937485523558937        0.0000000000000000     
  -1.5832434034040929E-002  0.12659750907530964        0.0000000000000000     
  -1.6195688336832374E-002  0.13395689703527547        0.0000000000000000     
  -1.9516384441854332E-002  0.10549005931200311        0.0000000000000000     
  -2.0091639552064583E-002  0.11243161017574851        0.0000000000000000     
  -2.0637574407415826E-002  0.11950976391179062        0.0000000000000000     
  -2.1154189007908053E-002  0.12672452052012945        0.0000000000000000     
  -2.1641483353541283E-002  0.13407588000076501        0.0000000000000000     
  -2.2750464706566831E-013  0.13380391893611027        0.0000000000000000     
  -6.0424950633353181E-013  0.14129784483891450        0.0000000000000000     
  -9.3986591512967843E-013  0.14890329909970085        0.0000000000000000     
  -1.2343562858039420E-012  0.15662028171846942        0.0000000000000000     
  -1.4877201033602905E-012  0.16444879269522011        0.0000000000000000     
  -5.3749466601754857E-003  0.13382091650294808        0.0000000000000000     
  -5.4877432202773396E-003  0.14131366564919723        0.0000000000000000     
  -5.5938197378475824E-003  0.14891790224073842        0.0000000000000000     
  -5.6931762128862159E-003  0.15663362627757177        0.0000000000000000     
  -5.7858126453932393E-003  0.16446083775969705        0.0000000000000000     
  -1.0773509439043778E-002  0.13387190920266978        0.0000000000000000     
  -1.1000501856152388E-002  0.14136112807876317        0.0000000000000000     
  -1.1214183484827202E-002  0.14896171166232025        0.0000000000000000     
  -1.1414554325068219E-002  0.15667365995334090        0.0000000000000000     
  -1.1601614376875442E-002  0.16449697295182522        0.0000000000000000     
  -1.6195688336832374E-002  0.13395689703527547        0.0000000000000000     
  -1.6538275908229396E-002  0.14144023212761239        0.0000000000000000     
  -1.6861091241878727E-002  0.14903472736444623        0.0000000000000000     
  -1.7164134337780374E-002  0.15674038274577692        0.0000000000000000     
  -1.7447405195934323E-002  0.16455719827160453        0.0000000000000000     
  -2.1641483353541283E-002  0.13407588000076501        0.0000000000000000     
  -2.2101065376508362E-002  0.14155097779574483        0.0000000000000000     
  -2.2534543009002154E-002  0.14913694934711638        0.0000000000000000     
  -2.2941916251022664E-002  0.15683379465487984        0.0000000000000000     
  -2.3323185102569897E-002  0.16464151371903504        0.0000000000000000     
  -1.4877201033602905E-012  0.16444879269522011        0.0000000000000000     
  -1.6739871207954726E-012  0.17237666586181546        0.0000000000000000     
  -1.7671898016116683E-012  0.18039173505011794        0.0000000000000000     
  -1.7673263297702385E-012  0.18849400026012753        0.0000000000000000     
  -1.6744006355040586E-012  0.19668346149184424        0.0000000000000000     
  -5.7858126453932393E-003  0.16446083775969705        0.0000000000000000     
  -5.8713612704997011E-003  0.17238742782320868        0.0000000000000000     
  -5.9494543233366490E-003  0.18040128760420074        0.0000000000000000     
  -6.0200918039040822E-003  0.18850241710267324        0.0000000000000000     
  -6.0832737122019989E-003  0.19669081631862625        0.0000000000000000     
  -1.1601614376875442E-002  0.16449697295182522        0.0000000000000000     
  -1.1774499154835315E-002  0.17241971370641859        0.0000000000000000     
  -1.1932344173534292E-002  0.18042994526576650        0.0000000000000000     
  -1.2075149432972368E-002  0.18852766762986894        0.0000000000000000     
  -1.2202914933149546E-002  0.19671288079872590        0.0000000000000000     
  -1.7447405195934323E-002  0.16455719827160453        0.0000000000000000     
  -1.7709413654680827E-002  0.17247352351144521        0.0000000000000000     
  -1.7948669552360120E-002  0.18047770803481525        0.0000000000000000     
  -1.8165172888972188E-002  0.18856975184171451        0.0000000000000000     
  -1.8358923664517038E-002  0.19674965493214316        0.0000000000000000     
  -2.3323185102569897E-002  0.16464151371903504        0.0000000000000000     
  -2.3676104770036246E-002  0.17254885723828856        0.0000000000000000     
  -2.3998430459814125E-002  0.18054457591134690        0.0000000000000000     
  -2.4290162171903544E-002  0.18862866973821008        0.0000000000000000     
  -2.4551299906304482E-002  0.19680113871887805        0.0000000000000000     
  -1.6744006355040586E-012  0.19668346149184424        0.0000000000000000     
  -1.5425005023272931E-012  0.20494171292289212        0.0000000000000000     
  -1.4257206526480104E-012  0.21325034873089516        0.0000000000000000     
  -1.3240597854236036E-012  0.22160936891585342        0.0000000000000000     
  -1.2375174669732036E-012  0.23001877347776681        0.0000000000000000     
  -6.0832737122019989E-003  0.19669081631862625        0.0000000000000000     
  -6.1393176759255083E-003  0.20494825611907330        0.0000000000000000     
  -6.1885413227697125E-003  0.21325650737102805        0.0000000000000000     
  -6.2309446527346133E-003  0.22161557007449045        0.0000000000000000     
  -6.2665276658202115E-003  0.23002544422946053        0.0000000000000000     
  -1.2202914933149546E-002  0.19671288079872590        0.0000000000000000     
  -1.2316198456317092E-002  0.20496788570752014        0.0000000000000000     
  -1.2415557784726267E-002  0.21327498329143443        0.0000000000000000     
  -1.2500992918377076E-002  0.22163417355046888        0.0000000000000000     
  -1.2572503857269516E-002  0.23004545648462335        0.0000000000000000     
  -1.8358923664517038E-002  0.19674965493214316        0.0000000000000000     
  -1.8530642342717247E-002  0.20500060168823264        0.0000000000000000     
  -1.8681049387295385E-002  0.21330577649211446        0.0000000000000000     
  -1.8810144798251448E-002  0.22166517934378868        0.0000000000000000     
  -1.8917928575585437E-002  0.23007881024325530        0.0000000000000000     
  -2.4551299906304482E-002  0.19680113871887805        0.0000000000000000     
  -2.4782649335125979E-002  0.20504640406121075        0.0000000000000000     
  -2.4985016130477062E-002  0.21334888697306803        0.0000000000000000     
  -2.5158400292357726E-002  0.22170858745444991        0.0000000000000000     
  -2.5302801820767971E-002  0.23012550550535638        0.0000000000000000     
  -1.2375174669732036E-012  0.23001877347776681        0.0000000000000000     
  -1.1645250735936585E-012  0.23844733492105816        0.0000000000000000     
  -1.1035127889594265E-012  0.24686382575015017        0.0000000000000000     
  -1.0544791222925204E-012  0.25526824596504288        0.0000000000000000     
  -1.0174235585969083E-012  0.26366059556573623        0.0000000000000000     
  -6.2665276658202115E-003  0.23002544422946053        0.0000000000000000     
  -6.2964653656349999E-003  0.23845514423471756        0.0000000000000000     
  -6.3219327557874792E-003  0.24687368448904073        0.0000000000000000     
  -6.3429298362776467E-003  0.25528106499243008        0.0000000000000000     
  -6.3594566071055077E-003  0.26367728574488564        0.0000000000000000     
  -1.2572503857269516E-002  0.23004545648462335        0.0000000000000000     
  -1.2632690919675116E-002  0.23847857217577256        0.0000000000000000     
  -1.2684154423865404E-002  0.24690326070579108        0.0000000000000000     
  -1.2726894369840374E-002  0.25531952207467895        0.0000000000000000     
  -1.2760910757600033E-002  0.26372735628243610        0.0000000000000000     
  -1.8917928575585437E-002  0.23007881024325530        0.0000000000000000     
  -1.9008676663284881E-002  0.23851761874422314        0.0000000000000000     
  -1.9086665005337289E-002  0.24695255440040123        0.0000000000000000     
  -1.9151893601742666E-002  0.25538361721178943        0.0000000000000000     
  -1.9204362452501011E-002  0.26381080717838773        0.0000000000000000     
  -2.5302801820767971E-002  0.23012550550535638        0.0000000000000000     
  -2.5424422596464279E-002  0.23857228394006946        0.0000000000000000     
  -2.5529464500203124E-002  0.24702156557287114        0.0000000000000000     
  -2.5617927531984511E-002  0.25547335040376146        0.0000000000000000     
  -2.5689811691808433E-002  0.26392763843274036        0.0000000000000000     
  -1.0174235585969083E-012  0.26366059556573623        0.0000000000000000     
  -9.8641103965513288E-013  0.27198072482887747        0.0000000000000000     
  -9.5550173676017813E-013  0.28016848403111388        0.0000000000000000     
  -9.2469619201313025E-013  0.28822387317244541        0.0000000000000000     
  -8.9399581487681345E-013  0.29614689225287205        0.0000000000000000     
  -6.3594566071055077E-003  0.26367728574488564        0.0000000000000000     
  -6.3754002152373581E-003  0.27200250718843122        0.0000000000000000     
  -6.3946478076395063E-003  0.28019688976509072        0.0000000000000000     
  -6.4171993843119479E-003  0.28826043347486413        0.0000000000000000     
  -6.4430549452546898E-003  0.29619313831775146        0.0000000000000000     
  -1.2760910757600033E-002  0.26372735628243610        0.0000000000000000     
  -1.2793419657048267E-002  0.27206785426721730        0.0000000000000000     
  -1.2831637138088948E-002  0.28028210696717709        0.0000000000000000     
  -1.2875563200722088E-002  0.28837011438231547        0.0000000000000000     
  -1.2925197844947686E-002  0.29633187651263243        0.0000000000000000     
  -1.9204362452501011E-002  0.26381080717838773        0.0000000000000000     
  -1.9254058326419129E-002  0.27217676606523572        0.0000000000000000     
  -1.9310967992303838E-002  0.28042413563737290        0.0000000000000000     
  -1.9375091450155119E-002  0.28855291589479926        0.0000000000000000     
  -1.9446428699972988E-002  0.29656310683751480        0.0000000000000000     
  -2.5689811691808433E-002  0.26392763843274036        0.0000000000000000     
  -2.5757316223349959E-002  0.27232924258248647        0.0000000000000000     
  -2.5832640370284161E-002  0.28062297577567819        0.0000000000000000     
  -2.5915784132611037E-002  0.28880883801231566        0.0000000000000000     
  -2.6006747510330587E-002  0.29688682929239879        0.0000000000000000     
  -1.4081813306067019E-002   5.5782601018164124E-002   0.0000000000000000     
  -1.4862995058757253E-002   6.1372740554300476E-002   0.0000000000000000     
  -1.5610919130244903E-002   6.7149043338269668E-002   0.0000000000000000     
  -1.6325585520529970E-002   7.3111509370071673E-002   0.0000000000000000     
  -1.7006994229612448E-002   7.9260138649706491E-002   0.0000000000000000     
  -1.7573519133673922E-002   5.6040496853017818E-002   0.0000000000000000     
  -1.8578521122985563E-002   6.1624765504987113E-002   0.0000000000000000     
  -1.9536434290407387E-002   6.7394445221492807E-002   0.0000000000000000     
  -2.0447258635939377E-002   7.3349536002534840E-002   0.0000000000000000     
  -2.1310994159581546E-002   7.9490037848113260E-002   0.0000000000000000     
  -2.1200038217162341E-002   5.6355294254198940E-002   0.0000000000000000     
  -2.2418530376104587E-002   6.1933122893765236E-002   0.0000000000000000     
  -2.3577979853390083E-002   6.7695158992478840E-002   0.0000000000000000     
  -2.4678386649018835E-002   7.3641402550339727E-002   0.0000000000000000     
  -2.5719750762990837E-002   7.9771853567347950E-002   0.0000000000000000     
  -2.4961370556532272E-002   5.6726993221707496E-002   0.0000000000000000     
  -2.6383022818114308E-002   6.2297812720634775E-002   0.0000000000000000     
  -2.7735555819192997E-002   6.8051184651227739E-002   0.0000000000000000     
  -2.9018969559768331E-002   7.3987109013486305E-002   0.0000000000000000     
  -3.0233264039840318E-002   8.0105585807410548E-002   0.0000000000000000     
  -2.8857516151783717E-002   5.7155593755543486E-002   0.0000000000000000     
  -3.0471998449014725E-002   6.2718834985595814E-002   0.0000000000000000     
  -3.2009162187816111E-002   6.8462522197739517E-002   0.0000000000000000     
  -3.3469007368187864E-002   7.4386655391974602E-002   0.0000000000000000     
  -3.4851533990129989E-002   8.0491234568301095E-002   0.0000000000000000     
  -1.7006994229612448E-002   7.9260138649706491E-002   0.0000000000000000     
  -1.7662416019238455E-002   8.5580791868763467E-002   0.0000000000000000     
  -1.8299121651154104E-002   9.2059329718831906E-002   0.0000000000000000     
  -1.8917111125359397E-002   9.8695752199911779E-002   0.0000000000000000     
  -1.9516384441854332E-002  0.10549005931200311        0.0000000000000000     
  -2.1310994159581546E-002   7.9490037848113260E-002   0.0000000000000000     
  -2.2138877299531394E-002   8.5802063844662102E-002   0.0000000000000000     
  -2.2942144493986429E-002   9.2271727078615459E-002   0.0000000000000000     
  -2.3720795742946651E-002   9.8899027549973317E-002   0.0000000000000000     
  -2.4474831046412057E-002  0.10568396525873569        0.0000000000000000     
  -2.5719750762990837E-002   7.9771853567347950E-002   0.0000000000000000     
  -2.6716649659119046E-002   8.6073161202276205E-002   0.0000000000000000     
  -2.7683660801216401E-002   9.2531974613897242E-002   0.0000000000000000     
  -2.8620784189282898E-002   9.9148293802211018E-002   0.0000000000000000     
  -2.9528019823318548E-002  0.10592211876721759        0.0000000000000000     
  -3.0233264039840318E-002   8.0105585807410548E-002   0.0000000000000000     
  -3.1395733098001394E-002   8.6394083941605748E-002   0.0000000000000000     
  -3.2523670572844006E-002   9.2840072324677184E-002   0.0000000000000000     
  -3.3617076464368137E-002   9.9443550956624854E-002   0.0000000000000000     
  -3.4675950772573814E-002  0.10620451983744880        0.0000000000000000     
  -3.4851533990129989E-002   8.0491234568301095E-002   0.0000000000000000     
  -3.6176127616178465E-002   8.6764832062650746E-002   0.0000000000000000     
  -3.7462173808869251E-002   9.3196020210955327E-002   0.0000000000000000     
  -3.8709672568202375E-002   9.9784799013214867E-002   0.0000000000000000     
  -3.9918623894177829E-002  0.10653116846942932        0.0000000000000000     
  -1.9516384441854332E-002  0.10549005931200311        0.0000000000000000     
  -2.0091639552064583E-002  0.11243161017574851        0.0000000000000000     
  -2.0637574407415826E-002  0.11950976391179062        0.0000000000000000     
  -2.1154189007908053E-002  0.12672452052012945        0.0000000000000000     
  -2.1641483353541283E-002  0.13407588000076501        0.0000000000000000     
  -2.4474831046412057E-002  0.10568396525873569        0.0000000000000000     
  -2.5198047239013456E-002  0.11261591539298912        0.0000000000000000     
  -2.5884241155381651E-002  0.11968425314082029        0.0000000000000000     
  -2.6533412795516641E-002  0.12688897850222916        0.0000000000000000     
  -2.7145562159418435E-002  0.13423009147721571        0.0000000000000000     
  -2.9528019823318548E-002  0.10592211876721759        0.0000000000000000     
  -3.0398149428670793E-002  0.11284271753695026        0.0000000000000000     
  -3.1223954730687072E-002  0.11989935813944234        0.0000000000000000     
  -3.2005435729367392E-002  0.12709204057469384        0.0000000000000000     
  -3.2742592424711760E-002  0.13442076484270479        0.0000000000000000     
  -3.4675950772573814E-002  0.10620451983744880        0.0000000000000000     
  -3.5691946121036593E-002  0.11311201660763182        0.0000000000000000     
  -3.6656715133332088E-002  0.12015507890765673        0.0000000000000000     
  -3.7570257809460321E-002  0.12733370673752351        0.0000000000000000     
  -3.8432574149421250E-002  0.13464790009723224        0.0000000000000000     
  -3.9918623894177829E-002  0.10653116846942932        0.0000000000000000     
  -4.1079437316110863E-002  0.11342381260503384        0.0000000000000000     
  -4.2182522363316717E-002  0.12045141544546345        0.0000000000000000     
  -4.3227879035795405E-002  0.12761397699071819        0.0000000000000000     
  -4.4215507333546913E-002  0.13491149724079804        0.0000000000000000     
  -2.1641483353541283E-002  0.13407588000076501        0.0000000000000000     
  -2.2101065376508362E-002  0.14155097779574483        0.0000000000000000     
  -2.2534543009002154E-002  0.14913694934711638        0.0000000000000000     
  -2.2941916251022664E-002  0.15683379465487984        0.0000000000000000     
  -2.3323185102569897E-002  0.16464151371903504        0.0000000000000000     
  -2.7145562159418435E-002  0.13423009147721571        0.0000000000000000     
  -2.7723063314325131E-002  0.14169469119831515        0.0000000000000000     
  -2.8268290327474858E-002  0.14926987679806267        0.0000000000000000     
  -2.8781243198867615E-002  0.15695564827645822        0.0000000000000000     
  -2.9261921928503389E-002  0.16475200563350179        0.0000000000000000     
  -3.2742592424711760E-002  0.13442076484270479        0.0000000000000000     
  -3.3438462775015554E-002  0.14187269845047812        0.0000000000000000     
  -3.4096084738574207E-002  0.14943500890501671        0.0000000000000000     
  -3.4715458315387707E-002  0.15710769620632065        0.0000000000000000     
  -3.5296583505456051E-002  0.16489076035438990        0.0000000000000000     
  -3.8432574149421250E-002  0.13464790009723224        0.0000000000000000     
  -3.9247263758579627E-002  0.14208499955223367        0.0000000000000000     
  -4.0017926242300196E-002  0.14963234566797867        0.0000000000000000     
  -4.0744561600582957E-002  0.15728993844446723        0.0000000000000000     
  -4.1427169833427896E-002  0.16505777788169937        0.0000000000000000     
  -4.4215507333546913E-002  0.13491149724079804        0.0000000000000000     
  -4.5149466265017354E-002  0.14233159450358182        0.0000000000000000     
  -4.6033814838652834E-002  0.14986188708694848        0.0000000000000000     
  -4.6868553054453352E-002  0.15750237499089789        0.0000000000000000     
  -4.7653680912418908E-002  0.16525305821543013        0.0000000000000000     
  -2.3323185102569897E-002  0.16464151371903504        0.0000000000000000     
  -2.3676104770036246E-002  0.17254885723828856        0.0000000000000000     
  -2.3998430459814125E-002  0.18054457591134690        0.0000000000000000     
  -2.4290162171903544E-002  0.18862866973821008        0.0000000000000000     
  -2.4551299906304482E-002  0.19680113871887805        0.0000000000000000     
  -2.9261921928503389E-002  0.16475200563350179        0.0000000000000000     
  -2.9707375544045827E-002  0.17264807555335085        0.0000000000000000     
  -3.0114653073158554E-002  0.18063298472016276        0.0000000000000000     
  -3.0483754515841559E-002  0.18870673313393749        0.0000000000000000     
  -3.0814679872094856E-002  0.19686932079467503        0.0000000000000000     
  -3.5296583505456051E-002  0.16489076035438990        0.0000000000000000     
  -3.5836029019853832E-002  0.17277353912303439        0.0000000000000000     
  -3.6330363569655605E-002  0.18074537028606399        0.0000000000000000     
  -3.6779587154861369E-002  0.18880625384347871        0.0000000000000000     
  -3.7183699775471153E-002  0.19695618979527851        0.0000000000000000     
  -4.1427169833427896E-002  0.16505777788169937        0.0000000000000000     
  -4.2062065197460259E-002  0.17292524794733910        0.0000000000000000     
  -4.2645561949305300E-002  0.18088173260905058        0.0000000000000000     
  -4.3177660088962989E-002  0.18892723186683369        0.0000000000000000     
  -4.3658359616433363E-002  0.19706174572068857        0.0000000000000000     
  -4.7653680912418908E-002  0.16525305821543013        0.0000000000000000     
  -4.8385484076865118E-002  0.17310320202626506        0.0000000000000000     
  -4.9060248212107624E-002  0.18104207168912251        0.0000000000000000     
  -4.9677973318146405E-002  0.18906966720400253        0.0000000000000000     
  -5.0238659394981490E-002  0.19718598857090511        0.0000000000000000     
  -2.4551299906304482E-002  0.19680113871887805        0.0000000000000000     
  -2.4782649335125979E-002  0.20504640406121075        0.0000000000000000     
  -2.4985016130477062E-002  0.21334888697306803        0.0000000000000000     
  -2.5158400292357726E-002  0.22170858745444991        0.0000000000000000     
  -2.5302801820767971E-002  0.23012550550535638        0.0000000000000000     
  -3.0814679872094856E-002  0.19686932079467503        0.0000000000000000     
  -3.1108113842889477E-002  0.20510666697115953        0.0000000000000000     
  -3.1364741129196454E-002  0.21340469093217510        0.0000000000000000     
  -3.1584561731015780E-002  0.22176339267772183        0.0000000000000000     
  -3.1767575648347472E-002  0.23018277220779959        0.0000000000000000     
  -3.7183699775471153E-002  0.19695618979527851        0.0000000000000000     
  -3.7542930275353922E-002  0.20518276456278403        0.0000000000000000     
  -3.7857507498378712E-002  0.21347356456731581        0.0000000000000000     
  -3.8127431444545494E-002  0.22182858980887374        0.0000000000000000     
  -3.8352702113854290E-002  0.23024784028745787        0.0000000000000000     
  -4.3658359616433363E-002  0.19706174572068857        0.0000000000000000     
  -4.4087098632519320E-002  0.20527469683608424        0.0000000000000000     
  -4.4463315238023826E-002  0.21355550787848993        0.0000000000000000     
  -4.4787009432946868E-002  0.22190417884790561        0.0000000000000000     
  -4.5058181217288433E-002  0.23032070974433133        0.0000000000000000     
  -5.0238659394981490E-002  0.19718598857090511        0.0000000000000000     
  -5.0740618914385680E-002  0.20538246379106015        0.0000000000000000     
  -5.1182164348131817E-002  0.21365052086569761        0.0000000000000000     
  -5.1563295696219882E-002  0.22199015979481751        0.0000000000000000     
  -5.1884012958649889E-002  0.23040138057841986        0.0000000000000000     
  -2.5302801820767971E-002  0.23012550550535638        0.0000000000000000     
  -2.5424422596464279E-002  0.23857228394006946        0.0000000000000000     
  -2.5529464500203124E-002  0.24702156557287114        0.0000000000000000     
  -2.5617927531984511E-002  0.25547335040376146        0.0000000000000000     
  -2.5689811691808433E-002  0.26392763843274036        0.0000000000000000     
  -3.1767575648347472E-002  0.23018277220779959        0.0000000000000000     
  -3.1921632928747543E-002  0.23863811256162898        0.0000000000000000     
  -3.2054583619772016E-002  0.24710469677843055        0.0000000000000000     
  -3.2166427721420893E-002  0.25558252485820443        0.0000000000000000     
  -3.2257165233694172E-002  0.26407159680095038        0.0000000000000000     
  -3.8352702113854290E-002  0.23024784028745787        0.0000000000000000     
  -3.8542011869668880E-002  0.23871064940721934        0.0000000000000000     
  -3.8704053075353038E-002  0.24719635057230915        0.0000000000000000     
  -3.8838825730906787E-002  0.25570494378272735        0.0000000000000000     
  -3.8946329836330104E-002  0.26423642903847389        0.0000000000000000     
  -4.5058181217288433E-002  0.23032070974433133        0.0000000000000000     
  -4.5285559419228301E-002  0.23878989447684054        0.0000000000000000     
  -4.5477872866946212E-002  0.24729652695450693        0.0000000000000000     
  -4.5635121560442186E-002  0.25584060717733043        0.0000000000000000     
  -4.5757305499716232E-002  0.26442213514531099        0.0000000000000000     
  -5.1884012958649889E-002  0.23040138057841986        0.0000000000000000     
  -5.2152275577425779E-002  0.23887584777049259        0.0000000000000000     
  -5.2376042994551515E-002  0.24740522592502384        0.0000000000000000     
  -5.2555315210027119E-002  0.25598951504201350        0.0000000000000000     
  -5.2690092223852542E-002  0.26462871512146158        0.0000000000000000     
  -2.5689811691808433E-002  0.26392763843274036        0.0000000000000000     
  -2.5757316223349959E-002  0.27232924258248647        0.0000000000000000     
  -2.5832640370284161E-002  0.28062297577567819        0.0000000000000000     
  -2.5915784132611037E-002  0.28880883801231566        0.0000000000000000     
  -2.6006747510330587E-002  0.29688682929239879        0.0000000000000000     
  -3.2257165233694172E-002  0.26407159680095038        0.0000000000000000     
  -3.2341612724177640E-002  0.27251895874933596        0.0000000000000000     
  -3.2434586760457074E-002  0.28087165684602833        0.0000000000000000     
  -3.2536087342532501E-002  0.28912969109102760        0.0000000000000000     
  -3.2646114470403879E-002  0.29729306148433376        0.0000000000000000     
  -3.8946329836330104E-002  0.26423642903847389        0.0000000000000000     
  -3.9045367205239059E-002  0.27273958949615046        0.0000000000000000     
  -3.9154739651249749E-002  0.28116320831235853        0.0000000000000000     
  -3.9274447174362126E-002  0.28950728548709809        0.0000000000000000     
  -3.9404489774576230E-002  0.29777182102036936        0.0000000000000000     
  -4.5757305499716232E-002  0.26442213514531099        0.0000000000000000     
  -4.5868579666534251E-002  0.27299113482293003        0.0000000000000000     
  -4.5993099042662147E-002  0.28149763017466872        0.0000000000000000     
  -4.6130863628099962E-002  0.28994162120052730        0.0000000000000000     
  -4.6281873422847668E-002  0.29832310790050554        0.0000000000000000     
  -5.2690092223852542E-002  0.26462871512146158        0.0000000000000000     
  -5.2811250108063160E-002  0.27327359472967461        0.0000000000000000     
  -5.2949664934694309E-002  0.28187492243295903        0.0000000000000000     
  -5.3105336703745967E-002  0.29043269823131496        0.0000000000000000     
  -5.3278265415218157E-002  0.29894692212474228        0.0000000000000000     
  -2.8857516151783717E-002   5.7155593755543486E-002   0.0000000000000000     
  -3.0471998449014725E-002   6.2718834985595814E-002   0.0000000000000000     
  -3.2009162187816111E-002   6.8462522197739517E-002   0.0000000000000000     
  -3.3469007368187864E-002   7.4386655391974602E-002   0.0000000000000000     
  -3.4851533990129989E-002   8.0491234568301095E-002   0.0000000000000000     
  -3.2879943943001921E-002   5.7653663488350590E-002   0.0000000000000000     
  -3.4684740314784503E-002   6.3203439748665546E-002   0.0000000000000000     
  -3.6404469556901575E-002   6.8932670909190544E-002   0.0000000000000000     
  -3.8039131669353139E-002   7.4841356969925624E-002   0.0000000000000000     
  -3.9588726652139236E-002   8.0929497930870772E-002   0.0000000000000000     
  -3.7020122870272128E-002   5.8233770052772478E-002   0.0000000000000000     
  -3.9020531461402233E-002   6.3758877069861233E-002   0.0000000000000000     
  -4.0927148524091482E-002   6.9465130062757202E-002   0.0000000000000000     
  -4.2739974058339909E-002   7.5352529031460364E-002   0.0000000000000000     
  -4.4459008064147473E-002   8.1421073975970759E-002   0.0000000000000000     
  -4.1278052933594322E-002   5.8895913448809172E-002   0.0000000000000000     
  -4.3479371888867940E-002   6.4385146949182903E-002   0.0000000000000000     
  -4.5577199089385872E-002   7.0059899658439478E-002   0.0000000000000000     
  -4.7571534535148119E-002   7.5920171576578876E-002   0.0000000000000000     
  -4.9462378226154687E-002   8.1965962703601097E-002   0.0000000000000000     
  -4.5653734132968526E-002   5.9640093676460650E-002   0.0000000000000000     
  -4.8061261597181631E-002   6.5082249386630542E-002   0.0000000000000000     
  -5.0354621252784719E-002   7.0716979696237359E-002   0.0000000000000000     
  -5.2533813099777803E-002   7.6544284605281093E-002   0.0000000000000000     
  -5.4598837138160869E-002   8.2564164113761745E-002   0.0000000000000000     
  -3.4851533990129989E-002   8.0491234568301095E-002   0.0000000000000000     
  -3.6176127616178465E-002   8.6764832062650746E-002   0.0000000000000000     
  -3.7462173808869251E-002   9.3196020210955327E-002   0.0000000000000000     
  -3.8709672568202375E-002   9.9784799013214867E-002   0.0000000000000000     
  -3.9918623894177829E-002  0.10653116846942932        0.0000000000000000     
  -3.9588726652139236E-002   8.0929497930870772E-002   0.0000000000000000     
  -4.1074569539735525E-002   8.7186232297201446E-002   0.0000000000000000     
  -4.2517975366617722E-002   9.3600698574093200E-002   0.0000000000000000     
  -4.3918944132785798E-002  0.10017289676154596        0.0000000000000000     
  -4.5277475838239788E-002  0.10690282685955976        0.0000000000000000     
  -4.4459008064147473E-002   8.1421073975970759E-002   0.0000000000000000     
  -4.6107795194757911E-002   8.7659111377048127E-002   0.0000000000000000     
  -4.7709880103414953E-002   9.4054987715452232E-002   0.0000000000000000     
  -4.9265262790118607E-002  0.10060870299118309        0.0000000000000000     
  -5.0773943254868857E-002  0.10732025720424065        0.0000000000000000     
  -4.9462378226154687E-002   8.1965962703601097E-002   0.0000000000000000     
  -5.1275804581245622E-002   8.8183469302190745E-002   0.0000000000000000     
  -5.3037888019260987E-002   9.4558887635032465E-002   0.0000000000000000     
  -5.4748628540200787E-002  0.10109221770212620        0.0000000000000000     
  -5.6408026144065010E-002  0.10778345950347203        0.0000000000000000     
  -5.4598837138160869E-002   8.2564164113761745E-002   0.0000000000000000     
  -5.6578597699198638E-002   8.8759306072629343E-002   0.0000000000000000     
  -5.8501999114155788E-002   9.5112398332833872E-002   0.0000000000000000     
  -6.0369041383032333E-002  0.10162344089437540        0.0000000000000000     
  -6.2179724505828274E-002  0.10829243375725384        0.0000000000000000     
  -3.9918623894177829E-002  0.10653116846942932        0.0000000000000000     
  -4.1079437316110863E-002  0.11342381260503384        0.0000000000000000     
  -4.2182522363316717E-002  0.12045141544546345        0.0000000000000000     
  -4.3227879035795405E-002  0.12761397699071819        0.0000000000000000     
  -4.4215507333546913E-002  0.13491149724079804        0.0000000000000000     
  -4.5277475838239788E-002  0.10690282685955976        0.0000000000000000     
  -4.6582782433460874E-002  0.11377881942905098        0.0000000000000000     
  -4.7824075868930255E-002  0.12078920503093594        0.0000000000000000     
  -4.9001356144647949E-002  0.12793398366521469        0.0000000000000000     
  -5.0114623260613937E-002  0.13521315533188719        0.0000000000000000     
  -5.0773943254868857E-002  0.10732025720424065        0.0000000000000000     
  -5.2224140892653925E-002  0.11417775097957789        0.0000000000000000     
  -5.3604075098462052E-002  0.12116928494214765        0.0000000000000000     
  -5.4913745872293244E-002  0.12829485909194993        0.0000000000000000     
  -5.6153153214147489E-002  0.13555447342898477        0.0000000000000000     
  -5.6408026144065010E-002  0.10778345950347203        0.0000000000000000     
  -5.8003512693690008E-002  0.11462060725661455        0.0000000000000000     
  -5.9522520051912095E-002  0.12159165517909852        0.0000000000000000     
  -6.0965048218731298E-002  0.12869660327092391        0.0000000000000000     
  -6.2331097194147575E-002  0.13593545153209077        0.0000000000000000     
  -6.2179724505828274E-002  0.10829243375725384        0.0000000000000000     
  -6.3920897836569124E-002  0.11510738826016098        0.0000000000000000     
  -6.5579410729280391E-002  0.12205631574178859        0.0000000000000000     
  -6.7155263183962088E-002  0.12913921620213664        0.0000000000000000     
  -6.8648455200614189E-002  0.13635608964120510        0.0000000000000000     
  -4.4215507333546913E-002  0.13491149724079804        0.0000000000000000     
  -4.5149466265017354E-002  0.14233159450358182        0.0000000000000000     
  -4.6033814838652834E-002  0.14986188708694848        0.0000000000000000     
  -4.6868553054453352E-002  0.15750237499089789        0.0000000000000000     
  -4.7653680912418908E-002  0.16525305821543013        0.0000000000000000     
  -5.0114623260613937E-002  0.13521315533188719        0.0000000000000000     
  -5.1168441638360852E-002  0.14261456650713214        0.0000000000000000     
  -5.2167375699421349E-002  0.15012606366712813        0.0000000000000000     
  -5.3111425443795400E-002  0.15774764681187514        0.0000000000000000     
  -5.4000590871483026E-002  0.16547931594137325        0.0000000000000000     
  -5.6153153214147489E-002  0.13555447342898477        0.0000000000000000     
  -5.7327561222642237E-002  0.14293599876549404        0.0000000000000000     
  -5.8442233996394935E-002  0.15042730591371964        0.0000000000000000     
  -5.9497171535405589E-002  0.15802839487366152        0.0000000000000000     
  -6.0492373839674193E-002  0.16573926564531974        0.0000000000000000     
  -6.2331097194147575E-002  0.13593545153209077        0.0000000000000000     
  -6.3626825017861488E-002  0.14329589127866760        0.0000000000000000     
  -6.4858389729573612E-002  0.15076561382672302        0.0000000000000000     
  -6.6025791329283906E-002  0.15834461917625695        0.0000000000000000     
  -6.7129029816992397E-002  0.16603290732726952        0.0000000000000000     
  -6.8648455200614189E-002  0.13635608964120510        0.0000000000000000     
  -7.0066233024018640E-002  0.14369424404665274        0.0000000000000000     
  -7.1415842898957388E-002  0.15114098740613824        0.0000000000000000     
  -7.2697284825430392E-002  0.15869631971966153        0.0000000000000000     
  -7.3910558803437665E-002  0.16636024098722266        0.0000000000000000     
  -4.7653680912418908E-002  0.16525305821543013        0.0000000000000000     
  -4.8385484076865118E-002  0.17310320202626506        0.0000000000000000     
  -4.9060248212107624E-002  0.18104207168912251        0.0000000000000000     
  -4.9677973318146405E-002  0.18906966720400253        0.0000000000000000     
  -5.0238659394981490E-002  0.19718598857090511        0.0000000000000000     
  -5.4000590871483026E-002  0.16547931594137325        0.0000000000000000     
  -5.4831213783955966E-002  0.17331028091011416        0.0000000000000000     
  -5.5599635982685976E-002  0.18122975157258966        0.0000000000000000     
  -5.6305857467673075E-002  0.18923772792879970        0.0000000000000000     
  -5.6949878238917229E-002  0.19733420997874437        0.0000000000000000     
  -6.0492373839674193E-002  0.16573926564531974        0.0000000000000000     
  -6.1424182444620376E-002  0.17354936414918842        0.0000000000000000     
  -6.2288938885663787E-002  0.18144813630576179        0.0000000000000000     
  -6.3086643162804421E-002  0.18943558211503980        0.0000000000000000     
  -6.3817295276042255E-002  0.19751170157702255        0.0000000000000000     
  -6.7129029816992397E-002  0.16603290732726952        0.0000000000000000     
  -6.8164390058858354E-002  0.17382045174348776        0.0000000000000000     
  -6.9128156921041031E-002  0.18169722588863887        0.0000000000000000     
  -7.0020330403540429E-002  0.18966322976272282        0.0000000000000000     
  -7.0840910506356575E-002  0.19771846336573959        0.0000000000000000     
  -7.3910558803437665E-002  0.16636024098722266        0.0000000000000000     
  -7.5051836626669893E-002  0.17412354369301225        0.0000000000000000     
  -7.6117290088817721E-002  0.18197702032122098        0.0000000000000000     
  -7.7106919189881162E-002  0.18992067087184875        0.0000000000000000     
  -7.8020723929860217E-002  0.19795449534489565        0.0000000000000000     
  -5.0238659394981490E-002  0.19718598857090511        0.0000000000000000     
  -5.0740618914385680E-002  0.20538246379106015        0.0000000000000000     
  -5.1182164348131817E-002  0.21365052086569761        0.0000000000000000     
  -5.1563295696219882E-002  0.22199015979481751        0.0000000000000000     
  -5.1884012958649889E-002  0.23040138057841986        0.0000000000000000     
  -5.6949878238917229E-002  0.19733420997874437        0.0000000000000000     
  -5.7529234021748352E-002  0.20551225992633346        0.0000000000000000     
  -5.8041460541496316E-002  0.21376493997547696        0.0000000000000000     
  -5.8486557798161136E-002  0.22209225012617484        0.0000000000000000     
  -5.8864525791742804E-002  0.23049419037842711        0.0000000000000000     
  -6.3817295276042255E-002  0.19751170157702255        0.0000000000000000     
  -6.4478686855402673E-002  0.20567027974052596        0.0000000000000000     
  -6.5068609530910981E-002  0.21390510165436616        0.0000000000000000     
  -6.5587063302567208E-002  0.22221616731854310        0.0000000000000000     
  -6.6034048170371326E-002  0.23060347673305684        0.0000000000000000     
  -7.0840910506356575E-002  0.19771846336573959        0.0000000000000000     
  -7.1588977415348642E-002  0.20585652323363759        0.0000000000000000     
  -7.2263611316375820E-002  0.21407100590236514        0.0000000000000000     
  -7.2864812209438079E-002  0.22236191137192224        0.0000000000000000     
  -7.3392580094535476E-002  0.23072923964230890        0.0000000000000000     
  -7.8020723929860217E-002  0.19795449534489565        0.0000000000000000     
  -7.8860105701586289E-002  0.20607099040566845        0.0000000000000000     
  -7.9626465897890811E-002  0.21426265271947395        0.0000000000000000     
  -8.0319804518773796E-002  0.22252948228631231        0.0000000000000000     
  -8.0940121564235232E-002  0.23087147910618339        0.0000000000000000     
  -5.1884012958649889E-002  0.23040138057841986        0.0000000000000000     
  -5.2152275577425779E-002  0.23887584777049259        0.0000000000000000     
  -5.2376042994551515E-002  0.24740522592502384        0.0000000000000000     
  -5.2555315210027119E-002  0.25598951504201350        0.0000000000000000     
  -5.2690092223852542E-002  0.26462871512146158        0.0000000000000000     
  -5.8864525791742804E-002  0.23049419037842711        0.0000000000000000     
  -5.9181275631649523E-002  0.23896992327070454        0.0000000000000000     
  -5.9442718427289480E-002  0.24751861134147787        0.0000000000000000     
  -5.9648854178662662E-002  0.25614025459074713        0.0000000000000000     
  -5.9799682885769083E-002  0.26483485301851217        0.0000000000000000     
  -6.6034048170371326E-002  0.23060347673305684        0.0000000000000000     
  -6.6411674869287687E-002  0.23907353496000544        0.0000000000000000     
  -6.6722054134280562E-002  0.24763284706148705        0.0000000000000000     
  -6.6965185965349963E-002  0.25628141303750174        0.0000000000000000     
  -6.7141070362495892E-002  0.26501923288804941        0.0000000000000000     
  -7.3392580094535476E-002  0.23072923964230890        0.0000000000000000     
  -7.3843473290340272E-002  0.23918668283839523        0.0000000000000000     
  -7.4214050115524788E-002  0.24774793308505139        0.0000000000000000     
  -7.4504310570089036E-002  0.25641299038227738        0.0000000000000000     
  -7.4714254654032974E-002  0.26518185473007311        0.0000000000000000     
  -8.0940121564235232E-002  0.23087147910618339        0.0000000000000000     
  -8.1476670894807299E-002  0.23930936690587395        0.0000000000000000     
  -8.1918706371022151E-002  0.24786386941217081        0.0000000000000000     
  -8.2266227992879845E-002  0.25653498662507401        0.0000000000000000     
  -8.2519235760380324E-002  0.26532271854458339        0.0000000000000000     
  -5.2690092223852542E-002  0.26462871512146158        0.0000000000000000     
  -5.2811250108063160E-002  0.27327359472967461        0.0000000000000000     
  -5.2949664934694309E-002  0.28187492243295903        0.0000000000000000     
  -5.3105336703745967E-002  0.29043269823131496        0.0000000000000000     
  -5.3278265415218157E-002  0.29894692212474228        0.0000000000000000     
  -5.9799682885769083E-002  0.26483485301851217        0.0000000000000000     
  -5.9932142489422212E-002  0.27355827023719254        0.0000000000000000     
  -6.0083170930435519E-002  0.28226636985920733        0.0000000000000000     
  -6.0252768208809010E-002  0.29095915188455662        0.0000000000000000     
  -6.0440934324542679E-002  0.29963661631324051        0.0000000000000000     
  -6.7141070362495892E-002  0.26501923288804941        0.0000000000000000     
  -6.7290020770207820E-002  0.27381646236629198        0.0000000000000000     
  -6.7452350632975153E-002  0.28264325722539158        0.0000000000000000     
  -6.7628059950797945E-002  0.29149961746534786        0.0000000000000000     
  -6.7817148723676154E-002  0.30038554308616111        0.0000000000000000     
  -7.4714254654032974E-002  0.26518185473007311        0.0000000000000000     
  -7.4884884950419936E-002  0.27404817111697305        0.0000000000000000     
  -7.5057204042313197E-002  0.28300558453151153        0.0000000000000000     
  -7.5231211929712744E-002  0.29205409497368862        0.0000000000000000     
  -7.5406908612618589E-002  0.30119370244350413        0.0000000000000000     
  -8.2519235760380324E-002  0.26532271854458339        0.0000000000000000     
  -8.2716735030058608E-002  0.27425339648923569        0.0000000000000000     
  -8.2897731158449631E-002  0.28335335177756749        0.0000000000000000     
  -8.3062224145553420E-002  0.29262258440957878        0.0000000000000000     
  -8.3210213991369991E-002  0.30206109438526946        0.0000000000000000     
  -4.5653734132968526E-002   5.9640093676460650E-002   0.0000000000000000     
  -4.8061261597181631E-002   6.5082249386630542E-002   0.0000000000000000     
  -5.0354621252784719E-002   7.0716979696237359E-002   0.0000000000000000     
  -5.2533813099777803E-002   7.6544284605281093E-002   0.0000000000000000     
  -5.4598837138160869E-002   8.2564164113761745E-002   0.0000000000000000     
  -5.0216410480118184E-002   6.0398653147687428E-002   0.0000000000000000     
  -5.2822931727859880E-002   6.5807899370788653E-002   0.0000000000000000     
  -5.5306508134351666E-002   7.1412461804997954E-002   0.0000000000000000     
  -5.7667139699593521E-002   7.7212340450315331E-002   0.0000000000000000     
  -5.9904826423585425E-002   8.3207535306740771E-002   0.0000000000000000     
  -5.5035325986766741E-002   6.1103934274450010E-002   0.0000000000000000     
  -5.7821113422419336E-002   6.6519811890241726E-002   0.0000000000000000     
  -6.0479952854150372E-002   7.2122437613568333E-002   0.0000000000000000     
  -6.3011844281959842E-002   7.7911811444429838E-002   0.0000000000000000     
  -6.5416787705847759E-002   8.3887933382826213E-002   0.0000000000000000     
  -6.0110480652914224E-002   6.1755937056748395E-002   0.0000000000000000     
  -6.3055806680859972E-002   6.7217986944989760E-002   0.0000000000000000     
  -6.5874955412180830E-002   7.2846907121948509E-002   0.0000000000000000     
  -6.8567926846876792E-002   7.8642697587624613E-002   0.0000000000000000     
  -7.1134720984947858E-002   8.4605358342018086E-002   0.0000000000000000     
  -6.5441874478560619E-002   6.2354661494582589E-002   0.0000000000000000     
  -6.8527011503181801E-002   6.7902424535032771E-002   0.0000000000000000     
  -7.1491515808443040E-002   7.3585870330138456E-002   0.0000000000000000     
  -7.4335387394344352E-002   7.9404998879899658E-002   0.0000000000000000     
  -7.7058626260885721E-002   8.5359810184316376E-002   0.0000000000000000     
  -5.4598837138160869E-002   8.2564164113761745E-002   0.0000000000000000     
  -5.6578597699198638E-002   8.8759306072629343E-002   0.0000000000000000     
  -5.8501999114155788E-002   9.5112398332833872E-002   0.0000000000000000     
  -6.0369041383032333E-002  0.10162344089437540        0.0000000000000000     
  -6.2179724505828274E-002  0.10829243375725384        0.0000000000000000     
  -5.9904826423585425E-002   8.3207535306740771E-002   0.0000000000000000     
  -6.2050382520245966E-002   8.9379378237830681E-002   0.0000000000000000     
  -6.4134622203493655E-002   9.5709201107141387E-002   0.0000000000000000     
  -6.6157545473328500E-002  0.10219700391467293        0.0000000000000000     
  -6.8119152329750507E-002  0.10884278666042528        0.0000000000000000     
  -6.5416787705847759E-002   8.3887933382826213E-002   0.0000000000000000     
  -6.7725367016016613E-002   9.0036442347261561E-002   0.0000000000000000     
  -6.9968166102668844E-002   9.6342977256239887E-002   0.0000000000000000     
  -7.2145184965804493E-002  0.10280753810976118        0.0000000000000000     
  -7.4256423605423547E-002  0.10943012490782547        0.0000000000000000     
  -7.1134720984947858E-002   8.4605358342018086E-002   0.0000000000000000     
  -7.3603551186510546E-002   9.0730498400921983E-002   0.0000000000000000     
  -7.6002630811681363E-002   9.7013726780129345E-002   0.0000000000000000     
  -7.8331959860460335E-002  0.10345504347964016        0.0000000000000000     
  -8.0591538332847393E-002  0.11005444849945442        0.0000000000000000     
  -7.7058626260885721E-002   8.5359810184316376E-002   0.0000000000000000     
  -7.9684935031727799E-002   9.1461546398811960E-002   0.0000000000000000     
  -8.2238016330531211E-002   9.7721449678809788E-002   0.0000000000000000     
  -8.4717870157295982E-002  0.10413952002430985        0.0000000000000000     
  -8.7124496512022073E-002  0.11071575743531215        0.0000000000000000     
  -6.2179724505828274E-002  0.10829243375725384        0.0000000000000000     
  -6.3920897836569124E-002  0.11510738826016098        0.0000000000000000     
  -6.5579410729280391E-002  0.12205631574178859        0.0000000000000000     
  -6.7155263183962088E-002  0.12913921620213664        0.0000000000000000     
  -6.8648455200614189E-002  0.13635608964120510        0.0000000000000000     
  -6.8119152329750507E-002  0.10884278666042528        0.0000000000000000     
  -7.0005698733000277E-002  0.11563451378172823        0.0000000000000000     
  -7.1803440643318478E-002  0.12256014971591156        0.0000000000000000     
  -7.3512378060705069E-002  0.12961969446297528        0.0000000000000000     
  -7.5132510985160064E-002  0.13681314802291938        0.0000000000000000     
  -7.4256423605423547E-002  0.10943012490782547        0.0000000000000000     
  -7.6287317794692514E-002  0.11619840361282728        0.0000000000000000     
  -7.8223303306777875E-002  0.12310004018716116        0.0000000000000000     
  -8.0064380141679714E-002  0.13013503463082710        0.0000000000000000     
  -8.1810548299397948E-002  0.13730338694382513        0.0000000000000000     
  -8.0591538332847393E-002  0.11005444849945442        0.0000000000000000     
  -8.2765755021645793E-002  0.11679905775345817        0.0000000000000000     
  -8.4838998719658651E-002  0.12367598715553740        0.0000000000000000     
  -8.6811269426885981E-002  0.13068523670569207        0.0000000000000000     
  -8.8682567143327784E-002  0.13782680640392228        0.0000000000000000     
  -8.7124496512022073E-002  0.11071575743531215        0.0000000000000000     
  -8.9441010413860128E-002  0.11743647620362088        0.0000000000000000     
  -9.1650526881960737E-002  0.12428799062104025        0.0000000000000000     
  -9.3753045916323899E-002  0.13127030068757023        0.0000000000000000     
  -9.5748567516949629E-002  0.13838340640321084        0.0000000000000000     
  -6.8648455200614189E-002  0.13635608964120510        0.0000000000000000     
  -7.0066233024018640E-002  0.14369424404665274        0.0000000000000000     
  -7.1415842898957388E-002  0.15114098740613824        0.0000000000000000     
  -7.2697284825430392E-002  0.15869631971966153        0.0000000000000000     
  -7.3910558803437665E-002  0.16636024098722266        0.0000000000000000     
  -7.5132510985160064E-002  0.13681314802291938        0.0000000000000000     
  -7.6672138563315423E-002  0.14412767590684017        0.0000000000000000     
  -7.8139559941803105E-002  0.15155044362583386        0.0000000000000000     
  -7.9534775120623069E-002  0.15908145117990052        0.0000000000000000     
  -8.0857784099775357E-002  0.16672069856904009        0.0000000000000000     
  -8.1810548299397948E-002  0.13730338694382513        0.0000000000000000     
  -8.3470894957953581E-002  0.14459280569662053        0.0000000000000000     
  -8.5054507295367593E-002  0.15199099945967856        0.0000000000000000     
  -8.6561385311640024E-002  0.15949796823299930        0.0000000000000000     
  -8.7991529006770791E-002  0.16711371201658268        0.0000000000000000     
  -8.8682567143327784E-002  0.13782680640392228        0.0000000000000000     
  -9.0462502207933088E-002  0.14508963341599371        0.0000000000000000     
  -9.2160684959650893E-002  0.15246265490767225        0.0000000000000000     
  -9.3777115398481201E-002  0.15994587087895781        0.0000000000000000     
  -9.5311793524424038E-002  0.16753928132985046        0.0000000000000000     
  -9.5748567516949629E-002  0.13838340640321084        0.0000000000000000     
  -9.7646960313253983E-002  0.14561815906495984        0.0000000000000000     
  -9.9458092934653006E-002  0.15296540996981492        0.0000000000000000     
 -0.10118196538114668       0.16042515911777613        0.0000000000000000     
 -0.10281857765273504       0.16799740650884348        0.0000000000000000     
  -7.3910558803437665E-002  0.16636024098722266        0.0000000000000000     
  -7.5051836626669893E-002  0.17412354369301225        0.0000000000000000     
  -7.6117290088817721E-002  0.18197702032122098        0.0000000000000000     
  -7.7106919189881162E-002  0.18992067087184875        0.0000000000000000     
  -7.8020723929860217E-002  0.19795449534489565        0.0000000000000000     
  -8.0857784099775357E-002  0.16672069856904009        0.0000000000000000     
  -8.2104897964183368E-002  0.17445947778515072        0.0000000000000000     
  -8.3272427798770532E-002  0.18228908082013076        0.0000000000000000     
  -8.4360373603536876E-002  0.19020950767398007        0.0000000000000000     
  -8.5368735378482399E-002  0.19822075834669872        0.0000000000000000     
  -8.7991529006770791E-002  0.16711371201658268        0.0000000000000000     
  -8.9341949887527139E-002  0.17482909180729211        0.0000000000000000     
  -9.0609659460676187E-002  0.18263496860199099        0.0000000000000000     
  -9.1794657726217935E-002  0.19053134240067923        0.0000000000000000     
  -9.2896944684152369E-002  0.19851821320335694        0.0000000000000000     
  -9.5311793524424038E-002  0.16753928132985046        0.0000000000000000     
  -9.6762992396701206E-002  0.17523238575943639        0.0000000000000000     
  -9.8128985074534630E-002  0.18301468366680165        0.0000000000000000     
  -9.9409771557924298E-002  0.19088617505194636        0.0000000000000000     
 -0.10060535184687018       0.19884685991487042        0.0000000000000000     
 -0.10281857765273504       0.16799740650884348        0.0000000000000000     
 -0.10436802549170560       0.17566935964158348        0.0000000000000000     
 -0.10583040464034593       0.18342822601456277        0.0000000000000000     
 -0.10720571509865599       0.19127400562778130        0.0000000000000000     
 -0.10849395686663581       0.19920669848123909        0.0000000000000000     
  -7.8020723929860217E-002  0.19795449534489565        0.0000000000000000     
  -7.8860105701586289E-002  0.20607099040566845        0.0000000000000000     
  -7.9626465897890811E-002  0.21426265271947395        0.0000000000000000     
  -8.0319804518773796E-002  0.22252948228631231        0.0000000000000000     
  -8.0940121564235232E-002  0.23087147910618339        0.0000000000000000     
  -8.5368735378482399E-002  0.19822075834669872        0.0000000000000000     
  -8.6301332059699462E-002  0.20631449519768652        0.0000000000000000     
  -8.7161982583280548E-002  0.21448238058634347        0.0000000000000000     
  -8.7950686949225601E-002  0.22272441451266953        0.0000000000000000     
  -8.8667445157534663E-002  0.23104059697666465        0.0000000000000000     
  -9.2896944684152369E-002  0.19851821320335694        0.0000000000000000     
  -9.3921916835272082E-002  0.20658785155076004        0.0000000000000000     
  -9.4874970680369555E-002  0.21473252798362441        0.0000000000000000     
  -9.5756106219444803E-002  0.22295224250195012        0.0000000000000000     
  -9.6565323452497839E-002  0.23124699510573710        0.0000000000000000     
 -0.10060535184687018       0.19884685991487042        0.0000000000000000     
 -0.10172186002830411       0.20689105946488892        0.0000000000000000     
 -0.10276543018915783       0.21501309491131679        0.0000000000000000     
 -0.10373606232943139       0.22321296625415407        0.0000000000000000     
 -0.10463375644912476       0.23149067349340072        0.0000000000000000     
 -0.10849395686663581       0.19920669848123909        0.0000000000000000     
 -0.10970116163879556       0.20722411894007317        0.0000000000000000     
 -0.11083336110964542       0.21532408136942063        0.0000000000000000     
 -0.11189055527918537       0.22350658576928140        0.0000000000000000     
 -0.11287274414741547       0.23177163213965557        0.0000000000000000     
  -8.0940121564235232E-002  0.23087147910618339        0.0000000000000000     
  -8.1476670894807299E-002  0.23930936690587395        0.0000000000000000     
  -8.1918706371022151E-002  0.24786386941217081        0.0000000000000000     
  -8.2266227992879845E-002  0.25653498662507401        0.0000000000000000     
  -8.2519235760380324E-002  0.26532271854458339        0.0000000000000000     
  -8.8667445157534663E-002  0.23104059697666465        0.0000000000000000     
  -8.9297792450770297E-002  0.23945657269640172        0.0000000000000000     
  -8.9827264071495105E-002  0.24799798638995366        0.0000000000000000     
  -9.0255860019709103E-002  0.25666483805732049        0.0000000000000000     
  -9.0583580295412247E-002  0.26545712769850216        0.0000000000000000     
  -9.6565323452497839E-002  0.23124699510573710        0.0000000000000000     
  -9.7293362726310881E-002  0.23964328574393870        0.0000000000000000     
  -9.7930964387666075E-002  0.24816761436550830        0.0000000000000000     
  -9.8478128436563464E-002  0.25681998097044578        0.0000000000000000     
  -9.8934854873003061E-002  0.26560038555875121        0.0000000000000000     
 -0.10463375644912476       0.23149067349340072        0.0000000000000000     
 -0.10546338172142899       0.23986950604848487        0.0000000000000000     
 -0.10622980731953507       0.24837275333883460        0.0000000000000000     
 -0.10693303324344298       0.25700041536444979        0.0000000000000000     
 -0.10757305949315277       0.26575249212533059        0.0000000000000000     
 -0.11287274414741547       0.23177163213965557        0.0000000000000000     
 -0.11380784943612468       0.24013523361004024        0.0000000000000000     
 -0.11472379286710206       0.24861340330993259        0.0000000000000000     
 -0.11562057444034764       0.25720614123933266        0.0000000000000000     
 -0.11649819415586138       0.26591344739824035        0.0000000000000000     
  -8.2519235760380324E-002  0.26532271854458339        0.0000000000000000     
  -8.2716735030058608E-002  0.27425339648923569        0.0000000000000000     
  -8.2897731158449631E-002  0.28335335177756749        0.0000000000000000     
  -8.3062224145553420E-002  0.29262258440957878        0.0000000000000000     
  -8.3210213991369991E-002  0.30206109438526946        0.0000000000000000     
  -9.0583580295412247E-002  0.26545712769850216        0.0000000000000000     
  -9.0840764612527061E-002  0.27443780645535737        0.0000000000000000     
  -9.1057752684975998E-002  0.28366982546974473        0.0000000000000000     
  -9.1234544512759044E-002  0.29315318474166446        0.0000000000000000     
  -9.1371140095876255E-002  0.30288788427111646        0.0000000000000000     
  -9.8934854873003061E-002  0.26560038555875121        0.0000000000000000     
  -9.9312167301228590E-002  0.27460706898761528        0.0000000000000000     
  -9.9621089325483775E-002  0.28393827211422884        0.0000000000000000     
  -9.9861620945768670E-002  0.29359399493859178        0.0000000000000000     
 -0.10003376216208322       0.30357423746070428        0.0000000000000000     
 -0.10757305949315277       0.26575249212533059        0.0000000000000000     
 -0.10813094309616320       0.27476118408600964        0.0000000000000000     
 -0.10858774107997300       0.28415869171101976        0.0000000000000000     
 -0.10894345344458226       0.29394501500036091        0.0000000000000000     
 -0.10919808018999090       0.30412015395403297        0.0000000000000000     
 -0.11649819415586138       0.26591344739824035        0.0000000000000000     
 -0.11729709199733088       0.27490015175054039        0.0000000000000000     
 -0.11795770794844369       0.28433108426011744        0.0000000000000000     
 -0.11848004200919984       0.29420624492697151        0.0000000000000000     
 -0.11886409417959931       0.30452563375110253        0.0000000000000000     
 </DataArray>
 <DataArray  type="Float64" Name="stress" NumberOfComponents="3" format="ascii">
   6274449883.1153278        783931260.42290616        15070699.496273657     
   5953160463.3403091        485015934.24345040        19306191.470807716     
   5655191063.3191185        263834007.24346685        17684566.545033824     
   5380541683.0517712        120385479.42292547        10205824.718971202     
   5129212322.5382624        54670350.781849623       -3130034.0073891189     
   5951589822.7945814        584778799.85953879        129482197.53946640     
   5643630029.7288265        365780858.65108156        142180413.80131018     
   5351831578.8325825        200654058.00765848        152546832.51573199     
   5076194470.1058416        89398397.929268599        160581453.68273306     
   4816718703.5486307        32013878.415960550        166284277.30231604     
   5582070534.3469553        371628570.85811067        277269012.74717391     
   5297512708.9986687        235569716.92308664        290078162.78129935     
   5021957548.2355680        129519744.93868995        304080834.62086445     
   4755405052.0576687        53478654.904951096        319277028.26589608     
   4497855220.4649563        7446446.8218481541        335666743.71636677     
   5165892017.7724562        144480573.41861773        458431145.11940706     
   4914808501.1498461        94382509.059489012        462999438.41076005     
   4665568971.5281067        50431068.036595821        472286572.86044604     
   4418173428.9072342        12626250.349942684        486292548.46844590     
   4172621873.2872429       -19031944.000470638        505017365.23477477     
   4703054273.0710812       -96665192.458935261        672968594.65615749     
   4495517406.1823549       -57780764.939702272        660944240.68970585     
   4282665848.7101808       -36611972.698637009        657164047.23445106     
   4064499600.6545558       -33158815.735738516        661628014.29039073     
   3841018662.0154810       -47421294.051003695        674336141.85753310     
   5129212322.5382624        54670350.781849623       -3130034.0073891189     
   4989535320.8812389        57736173.593976736       -1597981.0589581935     
   4849803295.3800259        60618583.592129946        2319426.5492422804     
   4710016246.0346041        63317580.776267290        8622188.8172078189     
   4570174172.8449850        65833165.146396399        17310305.744962122     
   4816718703.5486307        32013878.415960550        166284277.30231604     
   4684355456.0073252        37206745.334234476        165710926.93622148     
   4551947545.8966169        42250737.021164417        167887330.28256616     
   4419494973.2165031        47145853.476737738        172813487.34134459     
   4286997737.9669781        51892094.700960875        180489398.11256677     
   4497855220.4649563        7446446.8218481541        335666743.71636677     
   4373846867.1898346        15078699.891402006        333000078.18968546     
   4249804212.6201034        22596615.312273264        333447565.42809671     
   4125727256.7557621        30000193.084429502        337009205.43161464     
   4001615999.5968103        37289433.207887173        343684998.20022768     
   4172621873.2872429       -19031944.000470638        505017365.23477477     
   4058009554.4287667       -8647962.7344949245        500269472.70142734     
   3943373295.5504832        1656218.4654369354        499000131.98584080     
   3828713096.6523829        11880599.599323034        501209343.08801794     
   3714028957.7344675        22025180.667155981        506897106.00796282     
   3841018662.0154810       -47421294.051003695        674336141.85753310     
   3736843517.7241278       -33973242.543466806        667519110.47144580     
   3632654794.6877570       -20570453.519321203        664545029.95578754     
   3528452492.9063668       -7212926.9785764217        665413900.31056154     
   3424236612.3799543        6099337.0787668228        670125721.53575814     
   4570174172.8449850        65833165.146396399        17310305.744962122     
   4359613190.3099918        48746796.181534529        9195410.4959537722     
   4150171222.4776273        35390476.225456476        5514613.1009192318     
   3941848269.3479042        25764205.278164625        6267913.5598367248     
   3734644330.9207916        19867983.339588404        11455311.872743402     
   4286997737.9669781        51892094.700960875        180489398.11256677     
   4089007760.1868463        38152640.623793125        172743151.97025090     
   3891828682.8603678        27116188.058816671        169460446.65747866     
   3695460505.9875517        18782737.006047487        170641282.17423335     
   3499903229.5684028        13152287.465500116        176285658.52054831     
   4001615999.5968103        37289433.207887173        343684998.20022768     
   3816281149.3588715        26922130.854599476        335947934.54082048     
   3631449085.3256249        18230782.516952515        332703854.68651289     
   3447119807.4970708        11215388.194938421        333952758.63731265     
   3263293315.8731985        5875947.8885507584        339694646.39321846     
   3714028957.7344675        22025180.667155981        506897106.00796282     
   3541433357.8260798        15055266.873969078        498809758.20764762     
   3369032429.8733954        8734259.5998384953        495244837.18800616     
   3196826173.8764362        3062158.8447734118        496202342.94904053     
   3024814589.8351946       -1961035.3912438154        501682275.49075586     
   3424236612.3799543        6099337.0787668228        670125721.53575814     
   3264464385.5884395        2552048.6818675995        661328622.97074115     
   3104578716.5036812       -1373380.6925274134        657083394.16196942     
   2944579605.1256614       -5676951.0444502831        657390035.10943902     
   2784467051.4543934       -10358662.373870850        662248545.81315565     
   3734644330.9207916        19867983.339588404        11455311.872743402     
   3568774311.1119471        25433035.135797739        7471938.6544506671     
   3401166220.4351416        25204517.372158051        7736784.8299194975     
   3231820058.8903852        19182430.048666239        12249850.399165263     
   3060735826.4776611        7366773.1652928591        21011135.362175155     
   3499903229.5684028        13152287.465500116        176285658.52054831     
   3344715750.2646627        19075491.007850409        169766085.08534586     
   3188349929.1544962        21070888.528757215        167132980.70350662     
   3030805766.2378888        19138480.028213501        168386345.37504336     
   2872083261.5148535        13278265.506224751        173526179.09993309     
   3263293315.8731985        5875947.8885507584        339694646.39321846     
   3117754804.6734366        11847231.456717253        331291889.97954410     
   2971597680.7287507        15756472.541812062        326413852.27883559     
   2824821944.0391588        17603671.143877387        325060533.29108983     
   2677427594.6046476        17388827.262883544        327231933.01630956     
   3024814589.8351946       -1961035.3912438154        501682275.49075586     
   2887891474.3382535        3748256.4823986292        492049353.33705539     
   2750909475.1579146        9261269.4113670588        485579399.55591124     
   2613868592.2941813        14578003.395686865        482272414.14733142     
   2476768825.7470474        19698458.435350776        482128397.11131674     
   2784467051.4543934       -10358662.373870850        662248545.81315565     
   2655125759.2591267       -5221433.9151163101        652038475.15786016     
   2526285312.4419780        1585279.1373698711        644629622.53472757     
   2397945711.0029588        10061476.783614397        640021987.94375038     
   2270106954.9420614        20207159.023595691        638215571.38494372     
   3060735826.4776611        7366773.1652928591        21011135.362175155     
   2890062783.5487952       -4303751.5353044271        13573931.130726425     
   2721142168.8533177       -10132848.791263700        7278610.3051212756     
   2553973982.3912158       -10120518.602641821        2125172.8853853247     
   2388558224.1625104       -4266760.9693659544       -1886381.1285121720     
   2872083261.5148535        13278265.506224751        173526179.09993309     
   2706051375.9710073        5158291.5904511213        165905255.09995008     
   2541153692.5758977        818991.50382637978        159893210.88608834     
   2377390211.3295436        260365.24635601044        155490046.45833889     
   2214760932.2319360        3482412.8180642128        152695761.81673375     
   2677427594.6046476        17388827.262883544        327231933.01630956     
   2517371141.8180513        13219686.743682861        318706025.48236710     
   2357830665.0955524        10770466.438132048        312255994.11480689     
   2198806164.4371367        10041166.346199870        307881838.91365552     
   2040297639.8428166        11031786.467910767        305583559.87890249     
   2476768825.7470474        19698458.435350776        482128397.11131674     
   2324022081.0899134        19880433.924360037        471976242.27797580     
   2171173086.4122086        19721576.011471391        464366959.99130809     
   2018221841.7139668        19221884.696788549        459300550.25131750     
   1865168346.9951484        18381359.980202556        456777013.05800688     
   2270106954.9420614        20207159.023595691        638215571.38494372     
   2126004193.7865846        25140533.132453322        625715905.48678875     
   1981180956.5259161        27672320.223972917        616226108.51558805     
   1835637243.1600323        27802520.298135877        609746180.47133648     
   1689373053.6889467        25531133.354947686        606276121.35402381     
   2388558224.1625104       -4266760.9693659544       -1886381.1285121720     
   2247679743.3750501        6172231.9305691719       -7598307.6765202722     
   2103218538.9921844        4668812.8457998037       -11396833.219400583     
   1955174611.0139084       -8777018.2236679792       -13281957.757109549     
   1803547959.4402239       -34165261.277818084       -13253681.289665103     
   2214760932.2319360        3482412.8180642128        152695761.81673375     
   2077395824.9144785        12402053.686173797        142888686.71716174     
   1937655861.6652331        13405508.114985347        134221425.28901872     
   1795541042.4842000        6492776.1045191288        126693977.53228733     
   1651051367.3713849       -8336142.3452432156        120306343.44697593     
   2040297639.8428166        11031786.467910767        305583559.87890249     
   1904235656.4704061        17769000.446704507        293090515.16867876     
   1767006684.8298280        20616253.531605005        280963696.79614544     
   1628610724.9210999        19573545.722661257        269203104.76128876     
   1489047776.7442021        14640877.019835055        257808739.06414488     
   1865168346.9951484        18381359.980202556        456777013.05800688     
   1728199238.0428498        22273072.212201834        443007177.67800677     
   1591271008.4860058        26301049.095727682        428829981.30197805     
   1454383658.3246257        30465290.630804777        414245423.92990869     
   1317537187.5587158        34765796.817438900        399253505.56179535     
   1689373053.6889467        25531133.354947686        606276121.35402381     
   1549286569.6318038        25914268.982652247        592638674.24516916     
   1410448832.6337414        30459894.807302713        577820278.80654180     
   1272859842.6947825        39168010.828953922        561820935.03814125     
   1136519599.8148937        52038617.047515333        544640642.93996668     
   1803547959.4402239       -34165261.277818084       -13253681.289665103     
   1772054511.5077250       -16507531.493717074       -7980176.7138911225     
   1748763135.5745296        28490438.288061976       -41429937.783684559     
   1733673831.6406314        100828648.06751019       -113602964.49906206     
   1726786599.7060423        200507097.84463316       -224499256.85998905     
   1651051367.3713849       -8336142.3452432156        120306343.44697593     
   1528052582.6065588       -13854176.668387055        135726696.26940379     
   1409316752.9090059       -5162360.7673103213        124829847.35266434     
   1294843878.2787330        17739305.358043969        87615796.696770385     
   1184633958.7157507        54850821.707700849        24084544.301721927     
   1489047776.7442021        14640877.019835055        257808739.06414488     
   1309989552.0225329       -3419152.3479650617        278780303.71250796     
   1131255165.4361186       -20399721.264903545        285840730.52813905     
   952844616.98497188       -36300829.730953872        278990019.51103050     
   774757906.66909361       -51122477.746114433        258228170.66118485     
   1317537187.5587158        34765796.817438900        399253505.56179535     
   1117865419.7556720        14797541.467618227        421180645.61543167     
   914578373.15587401       -17221643.204698145        441602711.74273759     
   707676047.75932682       -61291757.199530452        460519703.94373888     
   497158443.56602633       -117412800.51685271        477931622.21840799     
   1136519599.8148937        52038617.047515333        544640642.93996668     
   951680185.80597281        40795904.778363287        562927721.97816467     
   759286376.06827998        4371873.4133208096        592115790.99646604     
   559338170.60180581       -57233477.047665268        632204849.99487293     
   351835569.40657032       -144020146.60452765        683194898.97337925     
   1726786599.7060423        200507097.84463316       -224499256.85998905     
   1456538820.9406261        184685266.88877773       -96751032.623690128     
   1154028233.9009643        61320741.685425401        60127135.576039702     
   819254838.58701277       -169586477.76555336        246135247.73917478     
   452218634.99879193       -508036391.46409595        461273303.86573052     
   1184633958.7157507        54850821.707700849        24084544.301721927     
   977677458.92235482        11943785.268172562        155547651.53655922     
   732835204.90556526       -157249098.58266789        312816846.05193144     
   450107196.66537309       -452727829.84483403        495892127.84780532     
   129493434.20180619       -874492408.51823843        704773496.92422438     
   774757906.66909361       -51122477.746114433        258228170.66118485     
   621595952.46800816       -123963739.68332839        386846057.28724724     
   424925298.09444225       -341834002.19549173        537946174.51093841     
   184745943.54834267       -704733265.28273189        711528522.33229291     
  -98942111.170237243       -1212661528.9449513        907593100.75127876     
   497158443.56602633       -117412800.51685271        477931622.21840799     
   388294301.57761741       -223037307.96559265        597144184.62837946     
   230298513.46757716       -492433969.15305817        735515120.95312977     
   23171079.235934198       -925602784.07922983        893044431.19261873     
  -233088001.11732250       -1522543752.7441237        1069732115.3468822     
   351835569.40657032       -144020146.60452765        683194898.97337925     
   277772506.25116038       -285276919.57867014        786442033.55997014     
   148954851.02500457       -609048999.45531523        905523685.37843776     
  -34617396.271872103       -1115336386.2343349        1040439854.4287953     
  -272944235.63948405       -1804139079.9158456        1191190540.7110076     
   4703054273.0710812       -96665192.458935261        672968594.65615749     
   4495517406.1823549       -57780764.939702272        660944240.68970585     
   4282665848.7101808       -36611972.698637009        657164047.23445106     
   4064499600.6545558       -33158815.735738516        661628014.29039073     
   3841018662.0154810       -47421294.051003695        674336141.85753310     
   4308640942.1066303       -57478469.997480631        797293494.43111205     
   4116537438.8090215       -35476240.610501528        783971479.35725486     
   3920816962.3716698       -25530588.355993986        778173013.79588580     
   3721479512.7945776       -27641513.233956814        779898097.74700391     
   3518525090.0777440       -41809015.244386911        789146731.21061254     
   3926435558.4673700       -14629363.338472366        912354133.18072391     
   3747706530.1931281       -10126998.654073715        899715127.35045803     
   3567058246.2228589       -12022152.956442833        893879060.03397202     
   3384490706.5565543       -20314826.245586872        894845931.23126066     
   3200003911.1942186       -35005018.521506906        902615740.94233072     
   3556438122.1532907        31882127.518093109        1018150510.9049948     
   3389024680.3346786        18266960.929589272        1008175184.6693215     
   3221389700.2637401        3913333.5000154972        1004282185.9487025     
   3053533181.9404807       -11178754.770639539        1006471514.7431608     
   2885455125.3649006       -27009303.882361174        1014743171.0526830     
   3198648633.1643987        82056002.572212934        1114682627.6039326     
   3040491889.2336659        49705638.140483975        1109351651.3138287     
   2883811324.4943237        22275871.013385057        1109382391.5400901     
   2728606938.9463677       -233298.80909299850        1114774848.2827046     
   2574878732.5897937       -17821871.326959014        1125529021.5416760     
   3841018662.0154810       -47421294.051003695        674336141.85753310     
   3736843517.7241278       -33973242.543466806        667519110.47144580     
   3632654794.6877570       -20570453.519321203        664545029.95578754     
   3528452492.9063668       -7212926.9785764217        665413900.31056154     
   3424236612.3799543        6099337.0787668228        670125721.53575814     
   3518525090.0777440       -41809015.244386911        789146731.21061254     
   3423772879.1951671       -29055051.343631268        783552898.14501536     
   3328985423.2287607       -16418571.055651188        781524698.58653855     
   3234162722.1785192       -3899574.3804475069        783062132.53518188     
   3139304776.0444422        8501938.6819685698        788165199.99094570     
   3200003911.1942186       -35005018.521506906        902615740.94233072     
   3113882298.3966823       -23182842.824647903        898219828.80193818     
   3027703774.1764994       -11550371.869950414        897112232.80535805     
   2941468338.5336661       -107605.65742027760        899292952.95258999     
   2855175991.4681821        11145455.812949300        904761989.24363172     
   2885455125.3649006       -27009303.882361174        1014743171.0526830     
   2807171775.3286672       -16356616.986524343        1011519902.4422123     
   2728809847.5309701       -5965855.9622418880        1011307632.6122450     
   2650369341.9718122        4162979.1905100346        1014106361.5627817     
   2571850258.6511889        14029888.471708417        1019916089.2938173     
   2574878732.5897937       -17821871.326959014        1125529021.5416760     
   2503641309.9911232       -8576373.8292661905        1123453119.0658429     
   2432303643.2921777        334976.66750097275        1124110898.0071993     
   2360865732.4929514        8912180.1633349657        1127502358.3657570     
   2289327577.5934448        17155236.658238769        1133627500.1415033     
   3424236612.3799543        6099337.0787668228        670125721.53575814     
   3264464385.5884395        2552048.6818675995        661328622.97074115     
   3104578716.5036812       -1373380.6925274134        657083394.16196942     
   2944579605.1256614       -5676951.0444502831        657390035.10943902     
   2784467051.4543934       -10358662.373870850        662248545.81315565     
   3139304776.0444422        8501938.6819685698        788165199.99094570     
   2991405066.0438652        4969727.5588999987        779608145.74015141     
   2843526626.3850121        1508417.5748986006        775628447.58603084     
   2695669457.0678749       -1881991.2700420618        776226105.52857196     
   2547833558.0924621       -5201498.9759070873        781401119.56778812     
   2855175991.4681821        11145455.812949300        904761989.24363172     
   2719221616.3740473        7650167.3983575106        896602144.04786253     
   2583423224.2566018        4674822.2394055128        893045141.28919160     
   2447780815.1158533        2219420.3361058235        894090980.96761417     
   2312294388.9517946        283961.68843924999        899739663.08313048     
   2571850258.6511889        14029888.471708417        1019916089.2938173     
   2447914036.5789866        10593368.200239778        1012310617.8938819     
   2324268510.1184511        8125833.3009853363        1009333475.2714632     
   2200913679.2695837        6627283.7739658356        1010984661.4265651     
   2077849544.0323820        6097719.6191601753        1017264176.3591870     
   2289327577.5934448        17155236.658238769        1133627500.1415033     
   2177482326.6586828        13799329.964552283        1126733567.2781951     
   2066062483.9705567        11861450.759648919        1124493449.5328348     
   1955068049.5290771        11341599.043568134        1126907146.9054170     
   1844499023.3342297        12239774.816262722        1133974659.3959467     
   2784467051.4543934       -10358662.373870850        662248545.81315565     
   2655125759.2591267       -5221433.9151163101        652038475.15786016     
   2526285312.4419780        1585279.1373698711        644629622.53472757     
   2397945711.0029588        10061476.783614397        640021987.94375038     
   2270106954.9420614        20207159.023595691        638215571.38494372     
   2547833558.0924621       -5201498.9759070873        781401119.56778812     
   2426182627.8107929       -60684.269926905632        772242641.78663611     
   2304909217.3876576        6338529.9644987583        766197781.38826227     
   2184013326.8230696        13996143.727418780        763266538.37268293     
   2063494956.1170151        22912157.018774271        763448912.73988354     
   2312294388.9517946        283961.68843924999        899739663.08313048     
   2199226390.1569352        5696133.5136018991        891488898.40326667     
   2086412585.7010336        11955619.801950455        886664150.45681620     
   1973852975.5840871        19062420.553488851        885265419.24377573     
   1861547559.8060937        27016535.768200397        887292704.76414847     
   2077849544.0323820        6097719.6191601753        1017264176.3591870     
   1974257046.2975507        12049019.435471058        1009777245.0077618     
   1870795417.3820956        18436548.649704456        1006028729.7403834     
   1767464657.2860026        25260307.261814952        1006018630.5570352     
   1664264766.0092931        32520295.271851122        1009746947.4577219     
   1844499023.3342297        12239774.816262722        1133974659.3959467     
   1751274596.2326393        18997973.495682240        1127107681.6001232     
   1658057712.4308443        25781316.507753491        1124291519.2389634     
   1564848371.9288330        32589803.852437735        1125526172.3124604     
   1471646574.7266123        39423435.529751003        1130811640.8206282     
   2270106954.9420614        20207159.023595691        638215571.38494372     
   2126004193.7865846        25140533.132453322        625715905.48678875     
   1981180956.5259161        27672320.223972917        616226108.51558805     
   1835637243.1600323        27802520.298135877        609746180.47133648     
   1689373053.6889467        25531133.354947686        606276121.35402381     
   2063494956.1170151        22912157.018774271        763448912.73988354     
   1927250891.1384807        26962904.284755230        751999155.18234408     
   1790532015.4814339        29430949.289018035        743788362.72079110     
   1653338329.1458609        30316292.031534255        738816535.35520804     
   1515669832.1317694        29618932.512327909        737083673.08560634     
   1861547559.8060937        27016535.768200397        887292704.76414847     
   1733816751.4874392        30381024.336182714        877179465.21169150     
   1605856797.9169459        32981695.398047924        870534286.92424917     
   1477667699.0946264        34818548.953820467        867357169.90181243     
   1349249455.0204735        35891585.003479004        867648114.14437234     
   1664264766.0092931        32520295.271851122        1009746947.4577219     
   1545701774.8334515        35394893.286722958        1001256835.5748229     
   1427155303.8324630        38324558.551099360        996463881.12596118     
   1308625353.0063300        41309291.064998031        995368084.11113012     
   1190111922.3550453        44349090.828390658        997969444.53032839     
   1471646574.7266123        39423435.529751003        1130811640.8206282     
   1362905961.1765227        42004511.136377573        1124231266.2717485     
   1254427533.2279696        45459538.748122752        1121577145.3259254     
   1146211290.8809676        49788518.365036249        1122849277.9831700     
   1038257234.1355007        54991449.987067163        1128047664.2434759     
   1689373053.6889467        25531133.354947686        606276121.35402381     
   1549286569.6318038        25914268.982652247        592638674.24516916     
   1410448832.6337414        30459894.807302713        577820278.80654180     
   1272859842.6947825        39168010.828953922        561820935.03814125     
   1136519599.8148937        52038617.047515333        544640642.93996668     
   1515669832.1317694        29618932.512327909        737083673.08560634     
   1374052863.3430529        27533620.611873865        727799516.49593139     
   1232776588.1896644        26583954.162513614        719088654.02593446     
   1091841006.6715999        26769933.164236367        710951085.67561114     
   951246118.78886199        28091557.617041469        703386811.44496834     
   1349249455.0204735        35891585.003479004        867648114.14437234     
   1211114122.7843165        32841461.960119843        861657852.41283035     
   1072411430.7597262        27900139.621973634        857995127.25041163     
   933141378.94669080        21067617.989014268        856659938.65710676     
   793303967.34522176        12343897.061278373        857652286.63292933     
   1190111922.3550453        44349090.828390658        997969444.53032839     
   1060470347.9555846        41837793.027367055        994213681.99586201     
   929353360.34392214        34408451.185666800        994539698.47996116     
   796760959.52005279        22061065.303273559        998947493.98262846     
   662693145.48398924        4795635.3802442253        1007437068.5038527     
   1038257234.1355007        54991449.987067163        1128047664.2434759     
   922121538.85686004        54522613.813599885        1125467005.2450254     
   803602376.94225478        46108888.853592694        1128722367.7145882     
   682699748.39167988        29750275.107018530        1137813751.6521585     
   559413653.20514977        5446772.5739213526        1152741157.0577385     
   1136519599.8148937        52038617.047515333        544640642.93996668     
   951680185.80597281        40795904.778363287        562927721.97816467     
   759286376.06827998        4371873.4133208096        592115790.99646604     
   559338170.60180581       -57233477.047665268        632204849.99487293     
   351835569.40657032       -144020146.60452765        683194898.97337925     
   951246118.78886199        28091557.617041469        703386811.44496834     
   791968812.73487282        11191975.909193456        721365200.16782236     
   624032254.33613014       -34571780.281160712        749411190.28483474     
   447436443.59267300       -109199710.95391610        787524781.79602075     
   262181380.50446337       -212691816.10915732        835705974.70135748     
   793303967.34522176        12343897.061278373        857652286.63292933     
   657207659.00061870       -10926887.158942580        874032985.65514719     
   511347241.69531447       -66744701.248174548        899647897.48557997     
   355722715.42929828       -155109545.20643932        934497022.12423563     
   190334080.20257461       -276021419.03372478        978580359.57111228     
   662693145.48398924        4795635.3802442253        1007437068.5038527     
   547396724.60322952       -25560684.426002502        1020931078.4401326     
   421231338.14579862       -92146889.487818837        1042825912.5986935     
   284196986.11169016       -194962979.80523258        1073121570.9795313     
   136293668.50090942       -334008955.37821025        1111818053.5826526     
   559413653.20514977        5446772.5739213526        1152741157.0577385     
   462536009.54268622       -32709415.892025292        1162059478.5227921     
   353684543.68758392       -110778345.00009608        1178945235.6241727     
   232859255.63984358       -228760014.75029328        1203398428.3619044     
   100060145.39945424       -386654425.14265937        1235419056.7359731     
   351835569.40657032       -144020146.60452765        683194898.97337925     
   277772506.25116038       -285276919.57867014        786442033.55997014     
   148954851.02500457       -609048999.45531523        905523685.37843776     
  -34617396.271872103       -1115336386.2343349        1040439854.4287953     
  -272944235.63948405       -1804139079.9158456        1191190540.7110076     
   262181380.50446337       -212691816.10915732        835705974.70135748     
   223510313.53003967       -352403663.97147006        885051892.24120259     
   140622713.26880243       -639503956.12317812        945431383.81642437     
   13518579.720728040       -1073992692.5643041        1016844449.4270328     
  -157802087.11414438       -1655869873.2948294        1099291089.0730205     
   190334080.20257461       -276021419.03372478        978580359.57111228     
   173338028.84773573       -418303435.95258176        986319461.97877491     
   122663502.98997703       -672847034.54784214        1000291195.2253214     
   38310502.629303932       -1039652214.8194577        1020495559.3107618     
  -79720972.234272063       -1518718976.7674534        1046932554.2350711     
   136293668.50090942       -334008955.37821025        1111818053.5826526     
   127255652.20422849       -482976235.52206278        1090244742.7726932     
   95077220.188537389       -709078234.72927666        1070103119.6051180     
   39758372.453850389       -1012314952.9998178        1051393184.0799327     
  -38700890.999835610       -1392686390.3337016        1034114936.1971403     
   100060145.39945424       -386654425.14265937        1235419056.7359731     
   85263183.599516034       -546422062.67991865        1196827734.6229517     
   57863864.864480257       -748197556.66750312        1154867156.9558232     
   17862189.194344878       -991980907.10540867        1109537323.7346017     
  -34741843.410870969       -1277772113.9936047        1060838234.9592451     
   3198648633.1643987        82056002.572212934        1114682627.6039326     
   3040491889.2336659        49705638.140483975        1109351651.3138287     
   2883811324.4943237        22275871.013385057        1109382391.5400901     
   2728606938.9463677       -233298.80909299850        1114774848.2827046     
   2574878732.5897937       -17821871.326959014        1125529021.5416760     
   2819165462.8507872        77462088.310006022        1219055536.0747416     
   2677948094.5822363        49100799.832909465        1207651732.2760599     
   2537921171.0805221        24707660.578608871        1202995944.9423995     
   2399084692.3456488        4282670.5471022129        1205088174.0737615     
   2261438658.3776155       -12174170.261600852        1213928419.6701474     
   2415906555.0365658        65735452.797616124        1323174839.5967884     
   2295589419.4263811        42551497.374007344        1305364851.4608867     
   2176176994.1584835        22383243.091364384        1295689179.7386670     
   2057669279.2328784        5230689.9496916533        1294147824.4301353     
   1940066274.6495636       -8906162.0510118008        1300740785.5352883     
   1988871909.7217369        46876096.035043240        1427040538.1700692     
   1893415863.7661009        30057730.763779283        1402491008.8683050     
   1798578793.7282052        15302618.551653266        1387462095.9288907     
   1704360699.6080496        2610759.3986638784        1381953799.3518248     
   1610761581.4056380       -8017846.6951797009        1385966119.1371105     
   1538061526.9063008        20884018.022289991        1530652631.7945852     
   1471427427.6013942        11619500.002220094        1499030204.4983177     
   1405126569.7896814        3465786.9594576359        1478314693.5130687     
   1339158953.4711640       -3577121.1059871912        1468506098.8388283     
   1273524578.6458397       -9509224.1941160560        1469604420.4756074     
   2574878732.5897937       -17821871.326959014        1125529021.5416760     
   2503641309.9911232       -8576373.8292661905        1123453119.0658429     
   2432303643.2921777        334976.66750097275        1124110898.0071993     
   2360865732.4929514        8912180.1633349657        1127502358.3657570     
   2289327577.5934448        17155236.658238769        1133627500.1415033     
   2261438658.3776155       -12174170.261600852        1213928419.6701474     
   2197350615.3299088       -4798847.0768531561        1209233932.7467182     
   2133235709.9663622        2486935.0550968647        1207736865.8252060     
   2069093942.2869854        9683176.1342785358        1209437218.9056101     
   2004925312.2917721        16789876.160669923        1214334991.9879355     
   1940066274.6495636       -8906162.0510118008        1300740785.5352883     
   1884452578.5377398       -3003522.9637397528        1293513326.2461176     
   1828885401.8945239        3054181.0188956261        1289947025.5435855     
   1773364744.7199159        9266949.8968908787        1290041883.4276931     
   1717890607.0139196        15634783.670248866        1293797899.8984449     
   1610761581.4056380       -8017846.6951797009        1385966119.1371105     
   1564947199.6146209       -3190401.4899028540        1376291299.5640471     
   1519252719.0766554        2036714.5588821173        1370741377.1623437     
   1473678139.7917430        7663501.4511773586        1369316351.9320085     
   1428223461.7598794        13689959.186970711        1372016223.8730330     
   1273524578.6458397       -9509224.1941160560        1469604420.4756074     
   1238834478.5605507       -5359482.6553580761        1457567852.7005002     
   1204337661.5127602       -565464.32494026423        1450119920.6814804     
   1170034127.5024629        4872830.7971206307        1447260624.4185481     
   1135923876.5296619        10955402.710839570        1448989963.9117014     
   2289327577.5934448        17155236.658238769        1133627500.1415033     
   2177482326.6586828        13799329.964552283        1126733567.2781951     
   2066062483.9705567        11861450.759648919        1124493449.5328348     
   1955068049.5290771        11341599.043568134        1126907146.9054170     
   1844499023.3342297        12239774.816262722        1133974659.3959467     
   2004925312.2917721        16789876.160669923        1214334991.9879355     
   1905690553.6697404        13855897.776525736        1207115512.2010961     
   1806798587.1509142        12064559.736398578        1204845227.9269743     
   1708249412.7352886        11415862.040277839        1207524139.1655741     
   1610043030.4228702        11909804.688179493        1215152245.9168997     
   1717890607.0139196        15634783.670248866        1293797899.8984449     
   1632110284.6896956        13375916.791183472        1286156487.6873944     
   1546590138.3252370        11984303.111331284        1283759651.3838460     
   1461330167.9205501        11459942.630722344        1286607390.9877934     
   1376330373.4756317        11802835.349331021        1294699706.4992394     
   1428223461.7598794        13689959.186970711        1372016223.8730330     
   1356741519.7185421        12359387.008497775        1363856493.7370994     
   1285437137.4935329        11620680.884459138        1361236719.9034436     
   1214310315.0848577        11473840.814864159        1364156902.3720615     
   1143361052.4925191        11918866.799721241        1372617041.1429551     
   1135923876.5296619        10955402.710839570        1448989963.9117014     
   1079584258.7562823        10806308.428485155        1440215530.3502109     
   1023339584.6557990        10973693.055778086        1437276433.4857736     
   967189854.22821510        11457556.592739224        1440172673.3183875     
   911135067.47352505        12257899.039346874        1448904249.8480546     
   1844499023.3342297        12239774.816262722        1133974659.3959467     
   1751274596.2326393        18997973.495682240        1127107681.6001232     
   1658057712.4308443        25781316.507753491        1124291519.2389634     
   1564848371.9288330        32589803.852437735        1125526172.3124604     
   1471646574.7266123        39423435.529751003        1130811640.8206282     
   1610043030.4228702        11909804.688179493        1215152245.9168997     
   1527226312.6903088        17627680.685761750        1208655535.4523730     
   1444467045.0363488        23537056.945350528        1206354014.3020904     
   1361765227.4609873        29637933.466938376        1208247682.4660470     
   1279120859.9642231        35930310.250511706        1214336539.9442565     
   1376330373.4756317        11802835.349331021        1294699706.4992394     
   1304333861.9109082        16604137.704716802        1288631487.9412842     
   1232444707.2035971        21763296.251477659        1286902832.5771551     
   1160662909.3536918        27280310.989594221        1289513740.4068565     
   1088988468.3611994        33155181.919082165        1296464211.4303818     
   1143361052.4925191        11918866.799721241        1372617041.1429551     
   1082597243.8944430        15927344.552557528        1367035539.0668507     
   1021990698.9325875        20460034.426127255        1365937974.0641544     
   961541417.60695052        25516936.420427918        1369324346.1348753     
   901249399.91753316        31098050.535459816        1377194655.2790072     
   911135067.47352505        12257899.039346874        1448904249.8480546     
   862016458.64090824        15597301.229277313        1443867688.8290787     
   813105020.22331440        19627271.469284564        1443459438.7631001     
   764400752.22075891        24347809.759418190        1447679499.6501129     
   715903654.63323104        29758916.099646688        1456527871.4901268     
   1471646574.7266123        39423435.529751003        1130811640.8206282     
   1362905961.1765227        42004511.136377573        1124231266.2717485     
   1254427533.2279696        45459538.748122752        1121577145.3259254     
   1146211290.8809676        49788518.365036249        1122849277.9831700     
   1038257234.1355007        54991449.987067163        1128047664.2434759     
   1279120859.9642231        35930310.250511706        1214336539.9442565     
   1181003862.6852131        37824771.003968656        1209046032.2729805     
   1082990210.6492891        40063715.901054800        1208159733.0963540     
   985079903.85644662        42647144.941740751        1211677642.4143765     
   887272942.30669284        45575058.126055807        1219599760.2270529     
   1088988468.3611994        33155181.919082165        1296464211.4303818     
   1002860672.7578049        34772703.440731883        1292278256.8851793     
   916677382.03903580        36205241.244474143        1292974465.7262144     
   830438596.20490289        37452795.330334842        1298552837.9534883     
   744144315.25540161        38515365.698296130        1309013373.5670111     
   901249399.91753316        31098050.535459816        1377194655.2790072     
   828476391.39428926        32848308.446645439        1373927940.1083467     
   755489047.39722741        33884114.778444141        1376021343.2155173     
   682287367.92634416        34205469.530836284        1383474864.6005130     
   608871352.98163569        33812372.703809023        1396288504.2633390     
   715903654.63323104        29758916.099646688        1456527871.4901268     
   657851018.59468520        32051586.021759123        1453995081.9424820     
   599425206.72386122        33100336.502946794        1457300365.5642505     
   540626219.02075815        32905167.543204486        1466443722.3554461     
   481454055.48538208        31466079.142549008        1481425152.3160524     
   1038257234.1355007        54991449.987067163        1128047664.2434759     
   922121538.85686004        54522613.813599885        1125467005.2450254     
   803602376.94225478        46108888.853592694        1128722367.7145882     
   682699748.39167988        29750275.107018530        1137813751.6521585     
   559413653.20514977        5446772.5739213526        1152741157.0577385     
   887272942.30669284        45575058.126055807        1219599760.2270529     
   785982438.30095541        44083472.461110771        1217011760.6345108     
   682363686.12083340        34831059.548222780        1220243136.5896022     
   576416685.76632559        17817819.387377620        1229293888.0923393     
   468141437.23743945       -6956248.0213977695        1244164015.1427224     
   744144315.25540161        38515365.698296130        1309013373.5670111     
   657651442.75007737        35986762.610134602        1306482454.9188826     
   568885540.53194690        25881393.812614083        1309754265.8980308     
   477846608.60101128        8199259.3057489395        1318828806.5044401     
   384534646.95727432       -17059640.910460025        1333706076.7381184     
   608871352.98163569        33812372.703809023        1396288504.2633390     
   537128552.20422566        30232484.260657191        1393879088.0981500     
   463167940.17558980        19259891.646750584        1397255755.6398551     
   386989516.89573920        894594.86213278770        1406418506.8884516     
   308593282.36466247       -24863406.093246311        1421367341.8439417     
   481454055.48538208        31466079.142549008        1481425152.3160524     
   424413766.66340607        26820637.412706092        1479201660.1723015     
   365210885.05177164        14966553.050665379        1482747605.8150713     
   303845410.65050775       -4096173.9434736520        1492062989.2443624     
   240317343.45959166       -30367543.569783568        1507147810.4601777     
   559413653.20514977        5446772.5739213526        1152741157.0577385     
   462536009.54268622       -32709415.892025292        1162059478.5227921     
   353684543.68758392       -110778345.00009608        1178945235.6241727     
   232859255.63984358       -228760014.75029328        1203398428.3619044     
   100060145.39945424       -386654425.14265937        1235419056.7359731     
   468141437.23743945       -6956248.0213977695        1244164015.1427224     
   390469071.39927137       -41449707.241153792        1242665908.3612509     
   302663246.07513642       -109721364.74746844        1247528411.3668723     
   204723961.26503146       -211771220.54034609        1258751524.1595621     
   96651216.968964979       -347599274.61976743        1276335246.7393198     
   384534646.95727432       -17059640.910460025        1333706076.7381184     
   322619485.08835495       -48924793.040571064        1323538631.5346000     
   252411226.44014978       -108433601.10163756        1318524970.2688928     
   173909871.01265216       -195586065.09367609        1318665092.9409952     
   87115418.805864096       -310382185.01668561        1323958999.5509217     
   308593282.36466247       -24863406.093246311        1421367341.8439417     
   258987250.60995960       -55134673.290202886        1404677648.0428185     
   202928484.78264198       -106915054.06254555        1391934912.3302441     
   140416984.88270873       -180204548.41027179        1383139134.7062228     
   71452750.910159424       -275003156.33338499        1378290315.1707432     
   240317343.45959166       -30367543.569783568        1507147810.4601777     
   199572367.96406704       -60079347.990107179        1486082957.8859112     
   154215021.10260090       -105165723.63023013        1467758237.5509274     
   104245302.87519687       -165626670.49014887        1452173649.4552312     
   49663213.281858146       -241462188.56984994        1439329193.5988202     
   100060145.39945424       -386654425.14265937        1235419056.7359731     
   85263183.599516034       -546422062.67991865        1196827734.6229517     
   57863864.864480257       -748197556.66750312        1154867156.9558232     
   17862189.194344878       -991980907.10540867        1109537323.7346017     
  -34741843.410870969       -1277772113.9936047        1060838234.9592451     
   96651216.968964979       -347599274.61976743        1276335246.7393198     
   79745377.982402563       -488721410.86438447        1222010631.2367067     
   51449380.619378746       -667810741.69720328        1165130250.0771160     
   11763224.879877746       -884867267.11828506        1105694103.2605326     
  -39313089.236092329       -1139890987.1275885        1043702190.7869855     
   87115418.805864096       -310382185.01668561        1323958999.5509217     
   70424959.481623709       -432161542.91392320        1255315322.3104413     
   43556540.339531362       -587867433.53733385        1184929369.3101008     
   6510161.3795884252       -777499856.88691461        1112801140.5499084     
  -40714177.398198009       -1001058812.9626377        1038930636.0298522     
   71452750.910159424       -275003156.33338499        1378290315.1707432     
   57301928.097168729       -376742458.82857150        1296741807.8441274     
   34185344.024938673       -508367632.18787795        1214264514.6547761     
   2102998.6934866309       -669878676.41127133        1130858435.6026924     
  -38945107.897197276       -861275591.49875498        1046523570.6878743     
   49663213.281858146       -241462188.56984994        1439329193.5988202     
   40376283.829039484       -322464158.60831541        1346290087.8377759     
   23335791.675601423       -429311337.64884543        1253135686.1111312     
  -1458263.1784481704       -562003725.69141126        1159865988.4188797     
  -34005880.733084589       -720541322.73593867        1066480994.7610098     
   1538061526.9063008        20884018.022289991        1530652631.7945852     
   1471427427.6013942        11619500.002220094        1499030204.4983177     
   1405126569.7896814        3465786.9594576359        1478314693.5130687     
   1339158953.4711640       -3577121.1059871912        1468506098.8388283     
   1273524578.6458397       -9509224.1941160560        1469604420.4756074     
   1095127212.5573468       -1862658.6719523072        1498589086.8099294     
   1055366717.1720912       -5746525.5876013637        1479746168.0178683     
   1015856153.0390325       -8797288.3292639852        1469426647.2135115     
   976595520.15817523       -11014946.896918297        1467630524.3968501     
   937584818.52951729       -12399501.290576339        1474357799.5678816     
   691138851.24950421       -12925549.453859508        1465542820.2075884     
   671441907.43156207       -13471780.970793933        1459382214.6385837     
   651911584.62482619       -13462609.117045641        1459361488.7339566     
   632547882.82929432       -12898033.892615288        1465480642.4937088     
   613350802.04496682       -11778055.297503382        1477739675.9178441     
   326096442.98277050       -12304654.323433176        1431513831.9875748     
   319652998.37981176       -11556266.147346258        1437938344.3604555     
   313292864.54706061       -10530175.403897002        1448119218.0743988     
   307016041.48452008       -9226382.0930795372        1462056453.1294079     
   300822529.19218862       -7644886.2148995697        1479750049.5254757     
  -12.242851970307402        26.719323182560522        1396502122.1498773     
  -9.9831667657865069        18.882724642141447        1415414557.1834855     
  -7.1942656959960845        12.810177598175335        1435699835.2348413     
  -3.8761497674570151        8.5016811242054633        1457357956.3039434     
  -2.8819437678786253E-002   5.9572319604767356        1480388920.3907883     
   1273524578.6458397       -9509224.1941160560        1469604420.4756074     
   1238834478.5605507       -5359482.6553580761        1457567852.7005002     
   1204337661.5127602       -565464.32494026423        1450119920.6814804     
   1170034127.5024629        4872830.7971206307        1447260624.4185481     
   1135923876.5296619        10955402.710839570        1448989963.9117014     
   937584818.52951729       -12399501.290576339        1474357799.5678816     
   913995839.98725188       -8558616.8180903792        1466332215.5940313     
   890551823.77974904       -4234524.5630630255        1462328594.8355558     
   867252769.90701151        572775.47451561689        1462346937.2924564     
   844098678.36903739        5863283.2946375608        1466387242.9647415     
   613350802.04496682       -11778055.297503382        1477739675.9178441     
   599243880.64370334       -8731747.2118992507        1473668701.5920520     
   585233600.87447131       -5363300.3528587222        1473053017.9409311     
   571319962.73727071       -1672714.7203794122        1475892624.9644811     
   557502966.23210049        2340009.6855352819        1482187522.6627069     
   300822529.19218862       -7644886.2148995697        1479750049.5254757     
   294578600.52990776       -5878873.8367797285        1479577310.6945608     
   288382992.79692364       -3951791.6943389028        1482293189.9976087     
   282235705.99324036       -1863639.7875630707        1487897687.4346228     
   276136740.11885369        385581.88353842497        1496390803.0056047     
  -2.8819437678786253E-002   5.9572319604767356        1480388920.3907883     
 -0.35413750686520284        3.3072615616831915        1484058042.9015610     
 -0.45289417820400013        1.4124965162711021        1490049111.0055902     
 -0.32507851721841097       0.27297257860696778        1498362124.7028763     
   2.9299548135671497E-002 -0.11134403838491286        1508997083.9934227     
   1135923876.5296619        10955402.710839570        1448989963.9117014     
   1079584258.7562823        10806308.428485155        1440215530.3502109     
   1023339584.6557990        10973693.055778086        1437276433.4857736     
   967189854.22821510        11457556.592739224        1440172673.3183875     
   911135067.47352505        12257899.039346874        1448904249.8480546     
   844098678.36903739        5863283.2946375608        1466387242.9647415     
   802749036.20722592        6022983.9195277393        1459434459.5430088     
   761470601.81521130        6420043.7770732641        1458105829.5314548     
   720263375.19299531        7054462.8672800064        1462401352.9300716     
   679127356.34057248        7926241.1901334524        1472321029.7388613     
   557502966.23210049        2340009.6855352819        1482187522.6627069     
   530539918.86220604        2627490.9717721641        1477028697.4937863     
   503624343.35901064        3073211.8136712313        1477282842.4481614     
   476756239.72251391        3677172.2112323344        1482949957.5258362     
   449935607.95271486        4439372.1644551754        1494030042.7268054     
   276136740.11885369        385581.88353842497        1496390803.0056047     
   262956906.72122854        619829.58523222804        1492998244.2025390     
   249800809.28720155        933197.16558831930        1494807472.2358975     
   236668447.81677568        1325684.6246159226        1501818487.1056745     
   223559822.30994654        1797291.9622970074        1514031288.8118699     
   2.9299548135671497E-002 -0.11134403838491286        1508997083.9934227     
 -0.21570703099174179      -0.24008848938243538        1507343099.6692727     
 -0.40021392793205751      -0.16716733308963261        1510679718.8946626     
 -0.52422093680600590       0.10742011675772775        1519006941.6695955     
 -0.58772812624001025       0.58367363140490158        1532324767.9940729     
   911135067.47352505        12257899.039346874        1448904249.8480546     
   862016458.64090824        15597301.229277313        1443867688.8290787     
   813105020.22331440        19627271.469284564        1443459438.7631001     
   764400752.22075891        24347809.759418190        1447679499.6501129     
   715903654.63323104        29758916.099646688        1456527871.4901268     
   679127356.34057248        7926241.1901334524        1472321029.7388613     
   641879197.37468171        10308032.247893631        1468529282.4150772     
   604786416.20092058        13207749.279419899        1469461326.6047370     
   567849012.81930208        16625392.284754932        1475117162.3078449     
   531066987.22981352        20560961.263861954        1485496789.5243979     
   449935607.95271486        4439372.1644551754        1494030042.7268054     
   424830700.45484179        5945392.5704359561        1491422684.3714955     
   399829378.12620342        7796696.8738649786        1493634598.0900829     
   374931640.96680897        9993285.0747741759        1500665783.8825729     
   350137488.97665393        12535157.173148006        1512516241.7489598     
   223559822.30994654        1797291.9622970074        1514031288.8118699     
   210870967.88138148        2509382.1968804970        1512547894.6983271     
   198233905.99915868        3394114.2526017651        1515979253.2191358     
   185648636.66328472        4451488.1294873729        1524325364.3742983     
   173115159.87375295        5681503.8275149241        1537586228.1638091     
 -0.58772812624001025       0.58367363140490158        1532324767.9940729     
 -0.34569023467943266        1.1272549285953617        1531904913.3955836     
 -0.18020845804611491        1.4156484821388986        1536495291.9918971     
  -9.1272708255842883E-002   1.4488889598169779        1546095903.7830160     
  -7.8887812033716809E-002   1.2269599256012371        1560706748.7689414     
   715903654.63323104        29758916.099646688        1456527871.4901268     
   657851018.59468520        32051586.021759123        1453995081.9424820     
   599425206.72386122        33100336.502946794        1457300365.5642505     
   540626219.02075815        32905167.543204486        1466443722.3554461     
   481454055.48538208        31466079.142549008        1481425152.3160524     
   531066987.22981352        20560961.263861954        1485496789.5243979     
   487934554.95607466        22402577.052059740        1483903070.3005693     
   444522240.81176472        23311253.271689683        1488052447.1419246     
   400830044.79688656        23286989.922760665        1497944920.0484583     
   356857966.91143817        22329787.005258277        1513580489.0201786     
   350137488.97665393        12535157.173148006        1512516241.7489598     
   321653897.31277210        13844309.880969390        1511970435.8042634     
   292983717.74002630        14531502.892573312        1517072748.8205163     
   264126950.25841087        14596736.207948923        1527823180.7977178     
   235083594.86792833        14040009.827097759        1544221731.7358696     
   173115159.87375295        5681503.8275149241        1537586228.1638091     
   159009045.66477323        6376784.5084685162        1538197178.4535697     
   144809637.50862795        6761085.3655389994        1544361270.6000423     
   130516935.40532340        6834406.3987469897        1556078504.6032276     
   116130939.35485795        6596747.6080824137        1573348880.4631288     
  -7.8887812033716809E-002   1.2269599256012371        1560706748.7689414     
   1.2076237445932281E-002  0.93455820005826895        1562583298.2484765     
  0.11758030446720534       0.69062319965404684        1569918012.4804945     
  0.23762724846440320       0.49516410889154566        1582710891.4649892     
  0.37221068718016609       0.34816069441365144        1600961935.2019601     
   481454055.48538208        31466079.142549008        1481425152.3160524     
   424413766.66340607        26820637.412706092        1479201660.1723015     
   365210885.05177164        14966553.050665379        1482747605.8150713     
   303845410.65050775       -4096173.9434736520        1492062989.2443624     
   240317343.45959166       -30367543.569783568        1507147810.4601777     
   356857966.91143817        22329787.005258277        1513580489.0201786     
   314975174.04694515        19114932.797549009        1510032251.4180186     
   271470436.59378070        10493596.627600297        1512044052.7222917     
   226343754.55195642       -3534221.5045493990        1519615892.9330118     
   179595127.92146215       -22968521.598928131        1532747772.0501492     
   235083594.86792833        14040009.827097759        1544221731.7358696     
   207760015.44638008        12076258.387159035        1539979504.9097795     
   179355139.63714588        6508185.6549337208        1541087918.1100399     
   149868967.44023010       -2664208.3695647642        1547546971.3366451     
   119301498.85562150       -15440923.686372705        1559356664.5895903     
   116130939.35485795        6596747.6080824137        1573348880.4631288     
   102768290.86171837        5704614.1815608777        1569043420.6475868     
   88864994.181869313        3010320.1326754615        1569879201.9783041     
   74421049.315318584       -1486134.5385487936        1575856224.4552770     
   59436456.262057856       -7784749.8321408406        1586974488.0785050     
  0.37221068718016609       0.34816069441365144        1600961935.2019601     
  0.29294497230922101       0.18070590811260179        1597223998.6314371     
  0.22795332471442681        6.0832039954778483E-002   1598417904.3270862     
  0.17722915625915373       -1.1482870515250619E-002   1604543652.2888994     
  0.14077777405346453       -3.6223908488171197E-002   1615601242.5168824     
   240317343.45959166       -30367543.569783568        1507147810.4601777     
   199572367.96406704       -60079347.990107179        1486082957.8859112     
   154215021.10260090       -105165723.63023013        1467758237.5509274     
   104245302.87519687       -165626670.49014887        1452173649.4552312     
   49663213.281858146       -241462188.56984994        1439329193.5988202     
   179595127.92146215       -22968521.598928131        1532747772.0501492     
   148349433.61713165       -45458463.717805378        1507204607.9504297     
   113644460.78781448       -79479334.253299177        1484561867.3812413     
   75480209.433518335       -125031133.20538893        1464819550.3425808     
   33856679.554240771       -182113860.57409033        1447977656.8344502     
   119301498.85562150       -15440923.686372705        1559356664.5895903     
   98013060.860313877       -30571610.968473293        1530680463.9455435     
   74418437.180984512       -53389583.863979638        1505064978.1232598     
   48517627.817627251       -83894842.372912318        1482510207.1227505     
   20310632.770252921       -122087386.49523520        1463016150.9440179     
   59436456.262057856       -7784749.8321408406        1586974488.0785050     
   48563249.693612218       -15418789.742113870        1556510525.8712437     
   36536950.282109588       -26896472.462274410        1529267569.7769861     
   23357558.027533360       -42217797.992680103        1505245619.7957518     
   9025072.9298954159       -61382766.333294295        1484444675.9275277     
  0.14077777405346453       -3.6223908488171197E-002   1615601242.5168824     
  0.11703486165540941       -3.8700498849531466E-002   1584694793.7275240     
   9.1189784661112092E-002  -4.8184304531698967E-002   1557169642.3424218     
   6.3227239378193342E-002  -6.4725297008519034E-002   1533025788.3615761     
   3.3167882360044011E-002  -8.8257743604278890E-002   1512263231.7849979     
   49663213.281858146       -241462188.56984994        1439329193.5988202     
   40376283.829039484       -322464158.60831541        1346290087.8377759     
   23335791.675601423       -429311337.64884543        1253135686.1111312     
  -1458263.1784481704       -562003725.69141126        1159865988.4188797     
  -34005880.733084589       -720541322.73593867        1066480994.7610098     
   33856679.554240771       -182113860.57409033        1447977656.8344502     
   29737893.901637763       -242011414.67727673        1347482544.9118919     
   19803936.222921267       -321292875.53417480        1246207974.3546560     
   4054806.5180929899       -419958243.14478225        1144153945.1627648     
  -17509495.212851226       -538007517.50910544        1041320457.3361641     
   20310632.770252921       -122087386.49523520        1463016150.9440179     
   19462383.291967377       -161449806.95088878        1357326488.6468523     
   14737352.462063730       -213734831.91193736        1250193205.0459511     
   6135540.2805364728       -278942461.37839592        1141616300.1412981     
  -6343053.2526062131       -357072695.35024202        1031595773.9329140     
   9025072.9298954159       -61382766.333294295        1484444675.9275277     
   9549752.0000207275       -80779335.429185316        1375821919.0426700     
   8136040.3930147514       -106637206.78218064        1265091378.1849983     
   4783938.1088844761       -138956380.39225817        1152253053.3545201     
  -506554.85236050934       -177736856.25938508        1037306944.5512270     
   3.3167882360044011E-002  -8.8257743604278890E-002   1512263231.7849979     
   2.5793561425929395E-002 -0.11217267956988583        1402968836.0993412     
   1.5793090278771849E-002 -0.14484075568957885        1290902493.7718124     
   3.1541161623907729E-003 -0.18630522948546435        1176064204.8024178     
  -1.2117230296072326E-002 -0.23654219608678556        1058453969.1911345     
  -12.242851970307402        26.719323182560522        1396502122.1498773     
  -9.9831667657865069        18.882724642141447        1415414557.1834855     
  -7.1942656959960845        12.810177598175335        1435699835.2348413     
  -3.8761497674570151        8.5016811242054633        1457357956.3039434     
  -2.8819437678786253E-002   5.9572319604767356        1480388920.3907883     
  -326096466.02684230        12304707.797271147        1431513821.9805477     
  -319653017.73169637        11556302.276386678        1437938336.6887441     
  -313292878.93416929        10530198.430102572        1448119212.4874673     
  -307016049.63425839        9226396.2584298849        1462056449.3767092     
  -300822529.83196920        7644895.7613546401        1479750047.3564744     
  -691138869.70672929        12925603.906446785        1465542799.5211282     
  -671441923.73961604        13471816.192230850        1459382198.8726122     
  -651911597.29695749        13462630.063170105        1459361477.3873918     
  -632547890.37875056        12898045.519266784        1465480635.0654702     
  -613350802.98499858        11778062.560515106        1477739671.9068453     
  -1095127223.2825081        1862715.0468556881        1498589054.7716274     
  -1055366728.0069274        5746560.6302571297        1479746143.7350857     
  -1015856162.2826318        8797307.7093728185        1469426629.9346185     
  -976595526.10962522        11014956.284187317        1467630513.3702250     
  -937584819.48790646        12399506.354714513        1474357794.0419080     
  -1538061526.7541792       -20883958.781501353        1530652587.7320380     
  -1471427430.5336261       -11619464.409531176        1499030171.2761645     
  -1405126573.8911958       -3465768.6313030720        1478314670.1291451     
  -1339158956.8268845        3577128.5531921387        1468506084.2909734     
  -1273524579.3406971        9509227.1439424157        1469604413.7616549     
  -2.8819437678786253E-002   5.9572319604767356        1480388920.3907883     
 -0.35413750686520284        3.3072615616831915        1484058042.9015610     
 -0.45289417820400013        1.4124965162711021        1490049111.0055902     
 -0.32507851721841097       0.27297257860696778        1498362124.7028763     
   2.9299548135671497E-002 -0.11134403838491286        1508997083.9934227     
  -300822529.83196920        7644895.7613546401        1479750047.3564744     
  -294578601.61981934        5878878.8938078135        1479577309.0980668     
  -288382993.94967389        3951793.5529136360        1482293188.9408169     
  -282235706.82152909        1863639.7386825532        1487897686.8847232     
  -276136740.23539472       -385582.54891477525        1496390802.9297898     
  -613350802.98499858        11778062.560515106        1477739671.9068453     
  -599243881.92709041        8731750.7678856552        1473668698.6492593     
  -585233602.17975783        5363301.2733394802        1473053016.0007305     
  -571319963.74300015        1672714.0768764019        1475892623.9612629     
  -557502966.61681640       -2340010.8215021193        1482187522.5308511     
  -937584819.48790646        12399506.354714513        1474357794.0419080     
  -913995841.27595484        8558618.9294846654        1466332211.5551419     
  -890551825.14314568        4234524.5737774372        1462328592.1853359     
  -867252771.08948672       -572776.71242946386        1462346935.9324870     
  -844098679.11497009       -5863284.9291097522        1466387242.7966013     
  -1273524579.3406971        9509227.1439424157        1469604413.7616549     
  -1238834479.6664131        5359483.3786004782        1457567847.8157108     
  -1204337662.8398409        565463.45421487093        1450119917.4946282     
  -1170034128.8609917       -4872832.6292428374        1447260622.7984073     
  -1135923877.7298520       -10955404.871735990        1448989963.7270453     
   2.9299548135671497E-002 -0.11134403838491286        1508997083.9934227     
 -0.21570703099174179      -0.24008848938243538        1507343099.6692727     
 -0.40021392793205751      -0.16716733308963261        1510679718.8946626     
 -0.52422093680600590       0.10742011675772775        1519006941.6695955     
 -0.58772812624001025       0.58367363140490158        1532324767.9940729     
  -276136740.23539472       -385582.54891477525        1496390802.9297898     
  -262956907.29691756       -619830.45800603926        1492998244.2373624     
  -249800810.20800427       -933197.86564262211        1494807472.3935342     
  -236668448.96865213       -1325684.7718177289        1501818487.3983099     
  -223559823.57885993       -1797291.1765240878        1514031289.2516878     
  -557502966.61681640       -2340010.8215021193        1482187522.5308511     
  -530539919.64040476       -2627492.2546181977        1477028697.5750716     
  -503624344.42361236       -3073212.8864661753        1477282842.7669563     
  -476756240.96644628       -3677172.7170677185        1482949958.1064999     
  -449935609.26890123       -4439371.7464080453        1494030043.5937057     
  -844098679.11497009       -5863284.9291097522        1466387242.7966013     
  -802749037.24616385       -6022985.6299061477        1459434459.6824021     
  -761470603.04703629       -6420045.2296296358        1458105830.0149236     
  -720263376.51760054       -7054463.7283240557        1462401353.7941651     
  -679127357.65784204       -7926241.1259451210        1472321031.0201273     
  -1135923877.7298520       -10955404.871735990        1448989963.7270453     
  -1079584260.1141956       -10806310.583872557        1440215530.5593514     
  -1023339586.0782799       -10973694.895144045        1437276434.1374400     
  -967189855.62211502       -11457557.805588067        1440172674.4613092     
  -911135068.74569440       -12257899.315175653        1448904251.5309596     
 -0.58772812624001025       0.58367363140490158        1532324767.9940729     
 -0.34569023467943266        1.1272549285953617        1531904913.3955836     
 -0.18020845804611491        1.4156484821388986        1536495291.9918971     
  -9.1272708255842883E-002   1.4488889598169779        1546095903.7830160     
  -7.8887812033716809E-002   1.2269599256012371        1560706748.7689414     
  -223559823.57885993       -1797291.1765240878        1514031289.2516878     
  -210870968.66899669       -2509380.3459479883        1512547894.9817529     
  -198233906.45071074       -3394111.8206311166        1515979253.3491051     
  -185648636.92399672       -4451485.6005531400        1524325364.3537571     
  -173115160.08886862       -5681501.6857644841        1537586227.9956999     
  -449935609.26890123       -4439371.7464080453        1494030043.5937057     
  -424830701.28409028       -5945391.1066703796        1491422684.9347892     
  -399829378.60589206       -7796694.8223077655        1493634598.3556573     
  -374931641.23429620       -9993282.8932878822        1500665783.8563037     
  -350137489.16930848       -12535155.319626600        1512516241.4367390     
  -679127357.65784204       -7926241.1259451210        1472321031.0201273     
  -641879198.19098115       -10308031.154943645        1468529283.2546985     
  -604786416.64575589       -13207747.589395791        1469461327.0115440     
  -567849013.02215898       -16625390.429274917        1475117162.2906611     
  -531066987.32020223       -20560959.674621552        1485496789.0920463     
  -911135068.74569440       -12257899.315175653        1448904251.5309596     
  -862016459.38965929       -15597300.490739733        1443867689.9414864     
  -813105020.57029808       -19627270.121879071        1443459439.3167727     
  -764400752.28759325       -24347808.208543032        1447679499.6568210     
  -715903654.54155540       -29758914.750760972        1456527870.9616292     
  -7.8887812033716809E-002   1.2269599256012371        1560706748.7689414     
   1.2076237445932281E-002  0.93455820005826895        1562583298.2484765     
  0.11758030446720534       0.69062319965404684        1569918012.4804945     
  0.23762724846440320       0.49516410889154566        1582710891.4649892     
  0.37221068718016609       0.34816069441365144        1600961935.2019601     
  -173115160.08886862       -5681501.6857644841        1537586227.9956999     
  -159009045.69227809       -6376782.8886839375        1538197178.3417866     
  -144809637.32023829       -6761084.1734438017        1544361270.5344579     
  -130516934.97276381       -6834405.5400871634        1556078504.5737109     
  -116130938.64984789       -6596746.9885924272        1573348880.4595582     
  -350137489.16930848       -12535155.319626600        1512516241.4367390     
  -321653897.34106392       -13844308.495228887        1511970435.6037533     
  -292983717.57648152       -14531501.883038208        1517072748.7114575     
  -264126949.87555802       -14596735.483042702        1527823180.7598522     
  -235083594.23829758       -14040009.295259543        1544221731.7489386     
  -531066987.32020223       -20560959.674621552        1485496789.0920463     
  -487934554.93429732       -22402575.885128081        1483903070.0343733     
  -444522240.65114731       -23311252.438149378        1488052447.0114970     
  -400830044.47076392       -23286989.333726794        1497944920.0234129     
  -356857966.39314890       -22329786.571865469        1513580489.0701296     
  -715903654.54155540       -29758914.750760972        1456527870.9616292     
  -657851018.47196567       -32051585.058334440        1453995081.6336522     
  -599425206.54424632       -33100335.838815480        1457300365.4345708     
  -540626218.75837946       -32905167.092135012        1466443722.3643923     
  -481454055.11438382       -31466078.818359837        1481425152.4231181     
  0.37221068718016609       0.34816069441365144        1600961935.2019601     
  0.29294497230922101       0.18070590811260179        1597223998.6314371     
  0.22795332471442681        6.0832039954778483E-002   1598417904.3270862     
  0.17722915625915373       -1.1482870515250619E-002   1604543652.2888994     
  0.14077777405346453       -3.6223908488171197E-002   1615601242.5168824     
  -116130938.64984789       -6596746.9885924272        1573348880.4595582     
  -102768290.29905370       -5704613.8468267135        1569043420.6623502     
  -88864993.737833589       -3010320.0036405735        1569879202.0122802     
  -74421048.966179684        1486134.5409908406        1575856224.5093446     
  -59436455.984103695        7784749.7870298773        1586974488.1535428     
  -235083594.23829758       -14040009.295259543        1544221731.7489386     
  -207760014.94040927       -12076258.089188047        1539979504.9539084     
  -179355139.23592976       -6508185.5278126225        1541087918.1869771     
  -149868967.12486061        2664208.3888629377        1547546971.4481456     
  -119301498.60720581        15440923.660824135        1559356664.7374139     
  -356857966.39314890       -22329786.571865469        1513580489.0701296     
  -314975173.63111842       -19114932.546361297        1510032251.5061221     
  -271470436.26633507       -10493596.511680752        1512044052.8511832     
  -226343754.29880586        3534221.5321524143        1519615893.1053066     
  -179595127.72852874        22968521.585145481        1532747772.2684917     
  -481454055.11438382       -31466078.818359837        1481425152.4231181     
  -424413766.37116754       -26820637.218306556        1479201660.3189919     
  -365210884.82904345       -14966552.955228150        1482747606.0048900     
  -303845410.48801172        4096173.9708766192        1492062989.4808226     
  -240317343.34807193        30367543.560007423        1507147810.7467818     
  0.14077777405346453       -3.6223908488171197E-002   1615601242.5168824     
  0.11703486165540941       -3.8700498849531466E-002   1584694793.7275240     
   9.1189784661112092E-002  -4.8184304531698967E-002   1557169642.3424218     
   6.3227239378193342E-002  -6.4725297008519034E-002   1533025788.3615761     
   3.3167882360044011E-002  -8.8257743604278890E-002   1512263231.7849979     
  -59436455.984103695        7784749.7870298773        1586974488.1535428     
  -48563249.462460577        15418789.687054709        1556510525.9333954     
  -36536950.101500787        26896472.384803191        1529267569.8279324     
  -23357557.901227150        42217797.880262405        1505245619.8371665     
  -9025072.8616523854        61382766.173394829        1484444675.9610984     
  -119301498.60720581        15440923.660824135        1559356664.7374139     
  -98013060.653212160        30571610.929461382        1530680464.0681250     
  -74418437.018493980        53389583.800514065        1505064978.2239647     
  -48517627.703041494        83894842.274015695        1482510207.2049320     
  -20310632.706861988        122087386.34994060        1463016151.0110264     
  -179595127.72852874        22968521.585145481        1532747772.2684917     
  -148349433.45523012        45458463.688477322        1507204608.1317213     
  -113644460.65979020        79479334.198946923        1484561867.5305157     
  -75480209.342201471        125031133.11657852        1464819550.4648671     
  -33856679.502467386        182113860.44136262        1447977656.9347868     
  -240317343.34807193        30367543.560007423        1507147810.7467818     
  -199572367.86851597        60079347.964102894        1486082958.1241822     
  -154215021.02540249        105165723.58005831        1467758237.7475817     
  -104245302.81871328        165626670.40793243        1452173649.6169775     
  -49663213.248465806        241462188.44766676        1439329193.7323697     
   3.3167882360044011E-002  -8.8257743604278890E-002   1512263231.7849979     
   2.5793561425929395E-002 -0.11217267956988583        1402968836.0993412     
   1.5793090278771849E-002 -0.14484075568957885        1290902493.7718124     
   3.1541161623907729E-003 -0.18630522948546435        1176064204.8024178     
  -1.2117230296072326E-002 -0.23654219608678556        1058453969.1911345     
  -9025072.8616523854        61382766.173394829        1484444675.9610984     
  -9549751.9459106028        80779335.222428396        1375821919.0682745     
  -8136040.3575945497        106637206.51337688        1265091378.2028868     
  -4783938.0967084169        138956380.04622322        1152253053.3649240     
   506554.83675596118        177736855.82100397        1037306944.5544187     
  -20310632.706861988        122087386.34994060        1463016151.0110264     
  -19462383.241387613        161449806.75990096        1357326488.6987646     
  -14737352.428139642        213734831.66243979        1250193205.0832567     
  -6135540.2671037167        278942461.05760831        1141616300.1645072     
   6343053.2417101711        357072694.94536114        1031595773.9425089     
  -33856679.502467386        182113860.44136262        1447977656.9347868     
  -29737893.860644802        242011414.50022444        1347482544.9908221     
  -19803936.195835769        321292875.30237442        1246207974.4129324     
  -4054806.5080406964        419958242.84780926        1144153945.2011125     
   17509495.202745944        538007517.13655603        1041320457.3553616     
  -49663213.248465806        241462188.44766676        1439329193.7323697     
  -40376283.803667098        322464158.44344509        1346290087.9444520     
  -23335791.660692573        429311337.43314421        1253135686.1919179     
   1458263.1804977357        562003725.41688871        1159865988.4747798     
   34005880.719862759        720541322.39456201        1066480994.7930150     
  -1538061526.7541792       -20883958.781501353        1530652587.7320380     
  -1471427430.5336261       -11619464.409531176        1499030171.2761645     
  -1405126573.8911958       -3465768.6313030720        1478314670.1291451     
  -1339158956.8268845        3577128.5531921387        1468506084.2909734     
  -1273524579.3406971        9509227.1439424157        1469604413.7616549     
  -1988871908.2577617       -46876065.883908629        1427040490.4517910     
  -1893415864.5036020       -30057713.464922786        1402490972.7240577     
  -1798578795.6301343       -15302610.648247838        1387462070.5486302     
  -1704360701.6373580       -2610757.4338742495        1381953783.9255111     
  -1610761582.5252705        8017846.1782014370        1385966112.8546941     
  -2415906555.3592992       -65735452.665697455        1323174792.7853231     
  -2295589420.5187998       -42551499.133882284        1305364815.9327326     
  -2176176995.8615608       -22383246.212938190        1295689154.8759000     
  -2057669281.3875842       -5230693.9028629065        1294147809.6148319     
  -1940066277.0968676        8906157.7963433266        1300740780.1495273     
  -2819165468.0587826       -77462119.126873374        1219055494.7326362     
  -2677948098.5792150       -49100821.416409731        1207651700.9021854     
  -2537921174.5854754       -24707675.325380206        1202995923.1109550     
  -2399084696.0775695       -4282680.8537863493        1205088161.3589413     
  -2261438663.0554910        12174161.998378992        1213928415.6461446     
  -3198648646.3562183       -82056065.267433286        1114682596.2937269     
  -3040491898.6848459       -49705680.312495232        1109351627.6324232     
  -2883811331.8018761       -22275897.985560656        1109382375.2537920     
  -2728606945.7073059        233281.71337532997        1114774839.1578357     
  -2574878740.4011350        17821858.784311771        1125529019.3445554     
  -1273524579.3406971        9509227.1439424157        1469604413.7616549     
  -1238834479.6664131        5359483.3786004782        1457567847.8157108     
  -1204337662.8398409        565463.45421487093        1450119917.4946282     
  -1170034128.8609917       -4872832.6292428374        1447260622.7984073     
  -1135923877.7298520       -10955404.871735990        1448989963.7270453     
  -1610761582.5252705        8017846.1782014370        1385966112.8546941     
  -1564947201.0736523        3190399.8501150012        1376291294.9987481     
  -1519252720.7690465       -2036716.9680047035        1370741374.2457542     
  -1473678141.6114497       -7663504.2761604190        1369316350.5957112     
  -1428223463.6008639       -13689962.074349165        1372016224.0486178     
  -1940066277.0968676        8906157.7963433266        1300740780.1495273     
  -1884452581.0733712        3003518.7438797951        1293513322.3677328     
  -1828885404.4961829       -3054185.1296069622        1289947023.1669827     
  -1773364747.3652968       -9266953.8241045475        1290041882.5472741     
  -1717890609.6807179       -15634787.339621544        1293797900.5086105     
  -2261438663.0554910        12174161.998378992        1213928415.6461446     
  -2197350619.6655688        4798840.0599005222        1209233929.9226637     
  -2133235714.0212507       -2486941.0305851698        1207736864.2583139     
  -2069093946.1225269       -9683181.2730569839        1209437218.6530991     
  -2004925315.9694057       -16789880.667539239        1214334993.1070182     
  -2574878740.4011350        17821858.784311771        1125529019.3445554     
  -2503641316.8502407        8576363.7981840372        1123453117.6635377     
  -2432303649.3442492       -334984.67094612122        1124110897.5197463     
  -2360865737.8831449       -8912186.6230307817        1127502358.9131804     
  -2289327582.4669352       -17155242.058109283        1133627501.8438389     
  -1135923877.7298520       -10955404.871735990        1448989963.7270453     
  -1079584260.1141956       -10806310.583872557        1440215530.5593514     
  -1023339586.0782799       -10973694.895144045        1437276434.1374400     
  -967189855.62211502       -11457557.805588067        1440172674.4613092     
  -911135068.74569440       -12257899.315175653        1448904251.5309596     
  -1428223463.6008639       -13689962.074349165        1372016224.0486178     
  -1356741521.5216568       -12359389.702823818        1363856494.3304908     
  -1285437139.2080948       -11620683.216785133        1361236720.9730840     
  -1214310316.6601837       -11473842.616242766        1364156903.9763992     
  -1143361053.8779128       -11918867.901173234        1372617043.3404336     
  -1717890609.6807179       -15634787.339621544        1293797900.5086105     
  -1632110287.0952711       -13375920.071622610        1286156488.6898277     
  -1546590140.4613738       -11984305.975453019        1283759652.8467042     
  -1461330169.7790282       -11459945.051123857        1286607392.9792399     
  -1376330375.0482283       -11802837.298613191        1294699709.0874405     
  -2004925315.9694057       -16789880.667539239        1214334993.1070182     
  -1905690556.8350389       -13855901.690270066        1207115513.6373606     
  -1806798589.8381200       -12064563.171160698        1204845229.7583041     
  -1708249414.9786577       -11415865.110236764        1207524141.4698470     
  -1610043032.2566452       -11909807.507483542        1215152248.7719927     
  -2289327582.4669352       -17155242.058109283        1133627501.8438389     
  -2177482330.7409592       -13799334.558756590        1126733569.1730883     
  -2066062487.3383362       -11861454.803920031        1124493451.7078784     
  -1955068052.2590675       -11341602.793595076        1126907149.4482088     
  -1844499025.5031505       -12239778.527773738        1133974662.3940806     
  -911135068.74569440       -12257899.315175653        1448904251.5309596     
  -862016459.38965929       -15597300.490739733        1443867689.9414864     
  -813105020.57029808       -19627270.121879071        1443459439.3167727     
  -764400752.28759325       -24347808.208543032        1447679499.6568210     
  -715903654.54155540       -29758914.750760972        1456527870.9616292     
  -1143361053.8779128       -11918867.901173234        1372617043.3404336     
  -1082597244.8032765       -15927344.897023380        1367035540.5562088     
  -1021990699.4346066       -20460034.246083558        1365937974.8569825     
  -961541417.77190113       -25516935.948363483        1369324346.2427557     
  -901249399.81516516       -31098050.003876746        1377194654.7135236     
  -1376330375.0482283       -11802837.298613191        1294699709.0874405     
  -1304333863.0543115       -16604139.154519081        1288631489.7442830     
  -1232444707.9356596       -21763297.261312246        1286902833.6063571     
  -1160662909.6922801       -27280311.619012117        1289513740.6736696     
  -1088988468.3241706       -33155182.227611125        1296464210.9462094     
  -1610043032.2566452       -11909807.507483542        1215152248.7719927     
  -1527226314.1427658       -17627683.263237178        1208655537.5057104     
  -1444467046.0734620       -23537059.167568624        1206354015.5648966     
  -1361765228.0487275       -29637935.220467865        1208247682.9495544     
  -1279120860.0685697       -35930311.421957076        1214336539.6596801     
  -1844499025.5031505       -12239778.527773738        1133974662.3940806     
  -1751274598.0686440       -18997977.223195910        1127107683.8404875     
  -1658057713.8480091       -25781319.964850128        1124291520.7326014     
  -1564848372.8412523       -32589806.752768934        1125526173.0704229     
  -1471646575.0483711       -39423437.586936891        1130811640.8539476     
  -715903654.54155540       -29758914.750760972        1456527870.9616292     
  -657851018.47196567       -32051585.058334440        1453995081.6336522     
  -599425206.54424632       -33100335.838815480        1457300365.4345708     
  -540626218.75837946       -32905167.092135012        1466443722.3643923     
  -481454055.11438382       -31466078.818359837        1481425152.4231181     
  -901249399.81516516       -31098050.003876746        1377194654.7135236     
  -828476391.27710032       -32848308.027157038        1373927939.7575521     
  -755489047.25867176       -33884114.449227154        1376021343.0443592     
  -682287367.75988090       -34205469.270088315        1383474864.5739472     
  -608871352.78073132       -33812372.489759088        1396288504.3463182     
  -1088988468.3241706       -33155182.227611125        1296464210.9462094     
  -1002860672.7065377       -34772703.583242118        1292278256.5881727     
  -916677381.98632741       -36205241.263608754        1292974465.5867946     
  -830438596.16352534       -37452795.268674701        1298552837.9420767     
  -744144315.23814261       -38515365.598460823        1309013373.6540184     
  -1279120860.0685697       -35930311.421957076        1214336539.6596801     
  -1181003862.7602949       -37824771.726640642        1209046032.1255095     
  -1082990210.7272122       -40063716.281961918        1208159733.0618813     
  -985079903.96931672       -42647145.087906778        1211677642.4687850     
  -887272942.48661268       -45575058.144495189        1219599760.3462353     
  -1471646575.0483711       -39423437.586936891        1130811640.8539476     
  -1362905961.4383628       -42004512.457319081        1124231266.3695703     
  -1254427533.4813278       -45459539.504284382        1121577145.4696105     
  -1146211291.1772528       -49788518.727783978        1122849278.1540704     
  -1038257234.5261437       -54991450.127827823        1128047664.4229479     
  -481454055.11438382       -31466078.818359837        1481425152.4231181     
  -424413766.37116754       -26820637.218306556        1479201660.3189919     
  -365210884.82904345       -14966552.955228150        1482747606.0048900     
  -303845410.48801172        4096173.9708766192        1492062989.4808226     
  -240317343.34807193        30367543.560007423        1507147810.7467818     
  -608871352.78073132       -33812372.489759088        1396288504.3463182     
  -537128552.04881036       -30232484.104266226        1393879088.2235677     
  -463167940.06363249       -19259891.541256323        1397255755.8131518     
  -386989516.82518327       -894594.80067709088        1406418507.1150727     
  -308593282.33348459        24863406.117404491        1421367342.1293354     
  -744144315.23814261       -38515365.598460823        1309013373.6540184     
  -657651442.73949552       -35986762.494136989        1306482455.0427244     
  -568885540.53323877       -25881393.697768867        1309754266.0660765     
  -477846608.61936945       -8199259.2093616426        1318828806.7240736     
  -384534646.99788225        17059640.971099406        1333706077.0167096     
  -887272942.48661268       -45575058.144495189        1219599760.3462353     
  -785982438.44322503       -44083472.387925178        1217011760.7764702     
  -682363686.23786998       -34831059.424789339        1220243136.7636690     
  -576416685.87055290       -17817819.255125493        1229293888.3078101     
  -468141437.34127337        6956248.1210962832        1244164015.4088981     
  -1038257234.5261437       -54991450.127827823        1128047664.4229479     
  -922121539.15999937       -54522613.785620153        1125467005.4248047     
  -803602377.17752910       -46108888.722331464        1128722367.9059210     
  -682699748.57874799       -29750274.938004464        1137813751.8662879     
  -559413653.36364233       -5446772.4325935841        1152741157.3059144     
  -240317343.34807193        30367543.560007423        1507147810.7467818     
  -199572367.86851597        60079347.964102894        1486082958.1241822     
  -154215021.02540249        105165723.58005831        1467758237.7475817     
  -104245302.81871328        165626670.40793243        1452173649.6169775     
  -49663213.248465806        241462188.44766676        1439329193.7323697     
  -308593282.33348459        24863406.117404491        1421367342.1293354     
  -258987250.58066219        55134673.289662063        1404677648.2805190     
  -202928484.75634062        106915054.03358291        1391934912.5263305     
  -140416984.86054635        180204548.34907666        1383139134.8667817     
  -71452750.893260136        275003156.23621655        1378290315.3018589     
  -384534646.99788225        17059640.971099406        1333706077.0167096     
  -322619485.11853588        48924793.067551300        1323538631.7675803     
  -252411226.45978597        108433601.09534205        1318524970.4617181     
  -173909871.02163351        195586065.05447796        1318665093.0991228     
  -87115418.804081514        310382184.94494486        1323958999.6797905     
  -468141437.34127337        6956248.1210962832        1244164015.4088981     
  -390469071.48216617        41449707.297686055        1242665908.5853641     
  -302663246.13573980        109721364.76534194        1247528411.5537279     
  -204723961.30198553        211771220.52408984        1258751524.3139982     
  -96651216.980917856        347599274.57388210        1276335246.8661635     
  -559413653.36364233       -5446772.4325935841        1152741157.3059144     
  -462536009.67153281        32709415.980119914        1162059478.7338824     
  -353684543.78418970        110778345.04361469        1178945235.8023777     
  -232859255.70160919        228760014.75790226        1203398428.5114150     
  -100060145.42378277        386654425.12300402        1235419056.8609834     
  -49663213.248465806        241462188.44766676        1439329193.7323697     
  -40376283.803667098        322464158.44344509        1346290087.9444520     
  -23335791.660692573        429311337.43314421        1253135686.1919179     
   1458263.1804977357        562003725.41688871        1159865988.4747798     
   34005880.719862759        720541322.39456201        1066480994.7930150     
  -71452750.893260136        275003156.23621655        1378290315.3018589     
  -57301928.084798604        376742458.69198143        1296741807.9466472     
  -34185344.018394023        508367632.00755548        1214264514.7296371     
  -2102998.6940273941        669878676.18300116        1130858435.6508427     
   38945107.888266593        861275591.21820474        1046523570.7102295     
  -87115418.804081514        310382184.94494486        1323958999.6797905     
  -70424959.481053472        432161542.80600071        1255315322.4103377     
  -43556540.340329826        587867433.39271152        1184929369.3819048     
  -6510161.3819058836        777499856.70509481        1112801140.5944784     
   40714177.394218564        1001058812.7431384        1038930636.0480684     
  -96651216.980917856        347599274.57388210        1276335246.8661635     
  -79745377.992449939        488721410.78546095        1222010631.3355172     
  -51449380.626515001        667810741.58858502        1165130250.1486964     
  -11763224.883135200        884867266.98318946        1105694103.3056991     
   39313089.237692416        1139890986.9693089        1043702190.8065161     
  -100060145.42378277        386654425.12300402        1235419056.8609834     
  -85263183.618972301        546422062.63039672        1196827734.7221799     
  -57863864.876942635        748197556.59518111        1154867157.0300188     
  -17862189.197714925        991980907.01729786        1109537323.7844944     
   34741843.418717444        1277772113.8967581        1060838234.9856035     
  -3198648646.3562183       -82056065.267433286        1114682596.2937269     
  -3040491898.6848459       -49705680.312495232        1109351627.6324232     
  -2883811331.8018761       -22275897.985560656        1109382375.2537920     
  -2728606945.7073059        233281.71337532997        1114774839.1578357     
  -2574878740.4011350        17821858.784311771        1125529019.3445554     
  -3556438137.0323763       -31882195.769877672        1018150486.8669896     
  -3389024691.2914462       -18267006.492615223        1008175166.1978338     
  -3221389709.0778208       -3913362.3063642979        1004282172.9174337     
  -3053533190.3914948        11178736.788888335        1006471507.0257893     
  -2885455135.2324681        27009290.793139935        1014743168.5229031     
  -3926435575.4515905        14629289.404760838        912354117.33337986     
  -3747706542.7665768        10126949.666704416        899715114.79431725     
  -3567058256.3477755        12022122.374633312        893879050.75009418     
  -3384490716.1951699        20314807.528561592        894845925.20071316     
  -3200003922.3087664        35005005.128483653        902615738.14616811     
  -4308640961.6138582        57478390.256483078        797293487.69289184     
  -4116537453.1102514        35476188.165461540        783971473.42187512     
  -3920816973.6117439        25530556.057423830        778173008.75177813     
  -3721479523.1183386        27641493.932383776        779898093.68260479     
  -3518525101.6300411        41809001.790330410        789146728.21435475     
  -4703054295.5191813        96665106.785290003        672968597.94553137     
  -4495517422.3224468        57780709.003665686        660944242.08050740     
  -4282665860.8697233        36611938.742013693        657164046.92248511     
  -4064499611.1610007        33158796.000360012        661628012.47147012     
  -3841018673.1962795        47421280.778691292        674336138.72745872     
  -2574878740.4011350        17821858.784311771        1125529019.3445554     
  -2503641316.8502407        8576363.7981840372        1123453117.6635377     
  -2432303649.3442492       -334984.67094612122        1124110897.5197463     
  -2360865737.8831449       -8912186.6230307817        1127502358.9131804     
  -2289327582.4669352       -17155242.058109283        1133627501.8438389     
  -2885455135.2324681        27009290.793139935        1014743168.5229031     
  -2807171783.9042783        16356606.650200605        1011519900.7912481     
  -2728809854.9814959        5965847.8225615025        1011307631.9257090     
  -2650369348.4641209       -4162985.6897585392        1014106361.9262818     
  -2571850264.3521538       -14029893.886782408        1019916090.7929716     
  -3200003922.3087664        35005005.128483653        902615738.14616811     
  -3113882307.9778786        23182832.396362185        898219826.94327521     
  -3027703782.4129138        11550363.777827621        897112231.93538785     
  -2941468345.6138697        107599.27288866043        899292953.12250447     
  -2855175997.5807528       -11145461.118464947        904761990.50462270     
  -3518525101.6300411        41809001.790330410        789146728.21435475     
  -3423772889.0710540        29055041.036651373        783552896.11962545     
  -3328985431.6385088        16418563.194835663        781524697.54878592     
  -3234162729.3323984        3899568.2649034262        783062132.50183952     
  -3139304782.1527276       -8501943.7531659603        788165200.97878587     
  -3841018673.1962795        47421280.778691292        674336138.72745872     
  -3736843527.1838017        33973232.571056366        667519108.32028961     
  -3632654802.6582751        20570446.073593855        664545028.76589894     
  -3528452499.6197057        7212921.2862734795        665413900.06429350     
  -3424236618.0680838       -6099341.7908780575        670125722.21546829     
  -2289327582.4669352       -17155242.058109283        1133627501.8438389     
  -2177482330.7409592       -13799334.558756590        1126733569.1730883     
  -2066062487.3383362       -11861454.803920031        1124493451.7078784     
  -1955068052.2590675       -11341602.793595076        1126907149.4482088     
  -1844499025.5031505       -12239778.527773738        1133974662.3940806     
  -2571850264.3521538       -14029893.886782408        1019916090.7929716     
  -2447914041.3122745       -10593372.831398129        1012310619.6306911     
  -2324268513.9500489       -8125837.3681992292        1009333477.2990941     
  -2200913682.2654696       -6627287.4971498251        1010984663.7981848     
  -2077849546.2585430       -6097723.2182787657        1017264179.1279566     
  -2855175997.5807528       -11145461.118464947        904761990.50462270     
  -2719221621.4408474       -7650171.9712239504        896602145.60413039     
  -2583423228.3328881       -4674826.2638058662        893045143.15946984     
  -2447780818.2568774       -2219423.9962060452        894090983.17063785     
  -2312294391.2128129       -283965.16844356060        899739665.63763142     
  -3139304782.1527276       -8501943.7531659603        788165200.97878587     
  -2991405071.1266689       -4969731.9782156944        779608147.09340513     
  -2843526630.4868565       -1508421.4907599688        775628449.28899765     
  -2695669460.2332854        1881987.7092341185        776226107.56556296     
  -2547833560.3659620        5201495.6217262745        781401121.92309678     
  -3424236618.0680838       -6099341.7908780575        670125722.21546829     
  -3264464390.3697505       -2552052.8523988724        661328624.09851849     
  -3104578720.4119525        1373376.9509562254        657083395.68768430     
  -2944579608.1946964        5676947.6191736460        657390036.98296630     
  -2784467053.7179875        10358659.152236342        662248547.98436379     
  -1844499025.5031505       -12239778.527773738        1133974662.3940806     
  -1751274598.0686440       -18997977.223195910        1127107683.8404875     
  -1658057713.8480091       -25781319.964850128        1124291520.7326014     
  -1564848372.8412523       -32589806.752768934        1125526173.0704229     
  -1471646575.0483711       -39423437.586936891        1130811640.8539476     
  -2077849546.2585430       -6097723.2182787657        1017264179.1279566     
  -1974257048.1586759       -12049023.011884451        1009777247.1197654     
  -1870795418.7989707       -18436551.939367533        1006028731.2003409     
  -1767464658.1794391       -25260310.000759721        1006018631.3696896     
  -1664264766.3000662       -32520297.196018577        1009746947.6278064     
  -2312294391.2128129       -283965.16844356060        899739665.63763142     
  -2199226392.0388355       -5696136.9376213551        891488900.39416313     
  -2086412587.1313074       -11955622.928303361        886664151.88253343     
  -1973852976.4902437       -19062423.140535951        885265420.10273254     
  -1861547560.1156323       -27016537.574274898        887292705.05476665     
  -2547833560.3659620        5201495.6217262745        781401121.92309678     
  -2426182629.7091122        60680.999614834785        772242643.66368818     
  -2304909218.8450160       -6338532.9316612482        766197782.77917600     
  -2184013327.7736664       -13996146.172097683        763266539.26955831     
  -2063494956.4950669       -22912158.721691608        763448913.13483715     
  -2784467053.7179875        10358659.152236342        662248547.98436379     
  -2655125761.1695251        5221430.7997970581        652038476.92833745     
  -2526285313.9400969       -1585281.9494198561        644629623.89026833     
  -2397945712.0297093       -10061479.095445752        640021988.87016284     
  -2270106955.4383612       -20207160.638259649        638215571.86801374     
  -1471646575.0483711       -39423437.586936891        1130811640.8539476     
  -1362905961.4383628       -42004512.457319081        1124231266.3695703     
  -1254427533.4813278       -45459539.504284382        1121577145.4696105     
  -1146211291.1772528       -49788518.727783978        1122849278.1540704     
  -1038257234.5261437       -54991450.127827823        1128047664.4229479     
  -1664264766.3000662       -32520297.196018577        1009746947.6278064     
  -1545701775.1130922       -35394894.527509809        1001256835.7394980     
  -1427155304.1497972       -38324559.271256387        996463881.27854156     
  -1308625353.4101791       -41309291.427265763        995368084.24493122     
  -1190111922.8942356       -44349090.995530069        997969444.63867140     
  -1861547560.1156323       -27016537.574274898        887292705.05476665     
  -1733816751.8004520       -30381025.501466155        877179465.43003094     
  -1605856798.2796683       -32981696.076648891        870534287.07557452     
  -1477667699.5532732       -34818549.299797833        867357169.99139941     
  -1349249455.6212742       -35891585.170919597        867648114.17750287     
  -2063494956.4950669       -22912158.721691608        763448913.13483715     
  -1927250891.5004506       -26962905.379232764        751999155.44117129     
  -1790532015.8709450       -29430949.920459628        743788362.86071980     
  -1653338329.6065469       -30316292.345380425        738816535.39347827     
  -1515669832.7072585       -29618932.654000998        737083673.03944457     
  -2270106955.4383612       -20207160.638259649        638215571.86801374     
  -2126004194.2130811       -25140534.160768747        625715905.77292013     
  -1981180956.9236302       -27672320.802706361        616226108.63396764     
  -1835637243.5699928       -27802520.564026356        609746180.45115387     
  -1689373054.1521757       -25531133.444735765        606276121.22449160     
  -1038257234.5261437       -54991450.127827823        1128047664.4229479     
  -922121539.15999937       -54522613.785620153        1125467005.4248047     
  -803602377.17752910       -46108888.722331464        1128722367.9059210     
  -682699748.57874799       -29750274.938004464        1137813751.8662879     
  -559413653.36364233       -5446772.4325935841        1152741157.3059144     
  -1190111922.8942356       -44349090.995530069        997969444.63867140     
  -1060470348.3843694       -41837793.028134823        994213682.11038458     
  -929353360.68103433       -34408451.082522571        994539698.60759079     
  -796760959.78424001       -22061065.158700079        998947494.13028312     
  -662693145.69399047       -4795635.2567071319        1007437068.6784568     
  -1349249455.6212742       -35891585.170919597        867648114.17750287     
  -1211114123.2641604       -32841461.967269123        861657852.45907152     
  -1072411431.1364388       -27900139.528270364        857995127.31236303     
  -933141379.23812187       -21067617.853939354        856659938.73737383     
  -793303967.56920040       -12343896.944265991        857652286.73410225     
  -1515669832.7072585       -29618932.654000998        737083673.03944457     
  -1374052863.7993701       -27533620.603025615        727799516.47086608     
  -1232776588.5437458       -26583954.059592009        719088654.02023804     
  -1091841006.9403739       -26769933.023666322        710951085.68756616     
  -951246118.98926568       -28091557.495291471        703386811.47284234     
  -1689373054.1521757       -25531133.444735765        606276121.22449160     
  -1549286569.9900112       -25914268.935424864        592638674.14575887     
  -1410448832.9029555       -30459894.676486254        577820278.73121870     
  -1272859842.8910155       -39168010.667925537        561820934.98085821     
  -1136519599.9541953       -52038616.909769416        544640642.89468503     
  -559413653.36364233       -5446772.4325935841        1152741157.3059144     
  -462536009.67153281        32709415.980119914        1162059478.7338824     
  -353684543.78418970        110778345.04361469        1178945235.8023777     
  -232859255.70160919        228760014.75790226        1203398428.5114150     
  -100060145.42378277        386654425.12300402        1235419056.8609834     
  -662693145.69399047       -4795635.2567071319        1007437068.6784568     
  -547396724.77483559        25560684.499863714        1020931078.5927986     
  -421231338.27604795        92146889.521883428        1042825912.7311392     
  -284196986.19760060        194962979.80943996        1073121571.0934707     
  -136293668.53951347        334008955.36244738        1111818053.6797907     
  -793303967.56920040       -12343896.944265991        857652286.73410225     
  -657207659.18455148        10926887.227683604        874032985.74996245     
  -511347241.83585036        66744701.279801428        899647897.57328165     
  -355722715.52309042        155109545.21211457        934497022.20404911     
  -190334080.24628431        276021419.02458870        978580359.64227450     
  -951246118.98926568       -28091557.495291471        703386811.47284234     
  -791968812.90066493       -11191975.836422384        721365200.20537019     
  -624032254.46359909        34571780.317329258        749411190.32880533     
  -447436443.67808336        109199710.96593171        787524781.84315348     
  -262181380.54409373        212691816.10941350        835705974.74841774     
  -1136519599.9541953       -52038616.909769416        544640642.89468503     
  -951680185.92318642       -40795904.692434192        562927721.95901334     
  -759286376.15931070       -4371873.3655484021        592115790.99771118     
  -559338170.66256213        57233477.070927233        632204850.01078510     
  -351835569.43295068        144020146.61692399        683194898.99822354     
  -100060145.42378277        386654425.12300402        1235419056.8609834     
  -85263183.618972301        546422062.63039672        1196827734.7221799     
  -57863864.876942635        748197556.59518111        1154867157.0300188     
  -17862189.197714925        991980907.01729786        1109537323.7844944     
   34741843.418717444        1277772113.8967581        1060838234.9856035     
  -136293668.53951347        334008955.36244738        1111818053.6797907     
  -127255652.23512870        482976235.48217881        1090244742.8494153     
  -95077220.209647387        709078234.67225301        1070103119.6615251     
  -39758372.463044465        1012314952.9327034        1051393184.1161273     
   38700891.004647195        1392686390.2634759        1034114936.2132391     
  -190334080.24628431        276021419.02458870        978580359.64227450     
  -173338028.88274002        418303435.92449784        986319462.03485572     
  -122663503.01418489        672847034.50778770        1000291195.2657942     
  -38310502.640625238        1039652214.7744299        1020495559.3350934     
   79720972.237944424        1518718976.7244303        1046932554.2427393     
  -262181380.54409373        212691816.10941350        835705974.74841774     
  -223510313.56178349        352403663.95741391        885051892.27852249     
  -140622713.29057121        639503956.10174811        945431383.84284103     
  -13518579.730435193        1073992692.5424893        1016844449.4413804     
   157802087.11860180        1655869873.2795732        1099291089.0741324     
  -351835569.43295068        144020146.61692399        683194898.99822354     
  -277772506.27226657        285276919.58089137        786442033.58039749     
  -148954851.03879037        609048999.45418203        905523685.39264297     
   34617396.267507076        1115336386.2368770        1040439854.4349743     
   272944235.64662272        1804139079.9289384        1191190540.7073696     
  -4703054295.5191813        96665106.785290003        672968597.94553137     
  -4495517422.3224468        57780709.003665686        660944242.08050740     
  -4282665860.8697233        36611938.742013693        657164046.92248511     
  -4064499611.1610007        33158796.000360012        661628012.47147012     
  -3841018673.1962795        47421280.778691292        674336138.72745872     
  -5165892034.1132812       -144480636.16419482        458431156.17088664     
  -4914808513.2133350       -94382550.497265339        462999445.68841910     
  -4665568980.9593039       -50431093.650067091        472286576.55176187     
  -4418173437.3511829       -12626265.622566223        486292548.76090264     
  -4172621882.3889818        19031933.585206032        505017362.31584793     
  -5582070543.3056326       -371628610.29316068        277269028.15476227     
  -5297512715.7344723       -235569743.48727679        290078173.33596230     
  -5021957553.7111349       -129519761.84081316        304080840.50176102     
  -4755405057.2356291       -53478665.353780270        319277029.65216708     
  -4497855226.3079491       -7446454.0261654854        335666740.78717107     
  -5951589823.0962105       -584778815.60158658        129482213.89716341     
  -5643630029.8858490       -365780869.96635389        142180425.02312830     
  -5351831579.1252174       -200654065.83024859        152546838.77249691     
  -5076194470.8143320       -89398403.193277359        160581455.14526439     
  -4816718704.9531765       -32013882.055406809        166284274.14142990     
  -6274449873.4850492       -783931252.08949757        15070713.398084130     
  -5953160455.6674862       -485015929.93451548        19306200.749919809     
  -5655191057.2015533       -263834005.61834741        17684571.363956649     
  -5380541678.0872898       -120385479.14103150        10205825.240188407     
  -5129212318.3246651       -54670350.502536058       -3130037.6213764334     
  -3841018673.1962795        47421280.778691292        674336138.72745872     
  -3736843527.1838017        33973232.571056366        667519108.32028961     
  -3632654802.6582751        20570446.073593855        664545028.76589894     
  -3528452499.6197057        7212921.2862734795        665413900.06429350     
  -3424236618.0680838       -6099341.7908780575        670125722.21546829     
  -4172621882.3889818        19031933.585206032        505017362.31584793     
  -4058009562.2173705        8647954.9817211628        500269470.86128455     
  -3943373302.2179170       -1656224.1956183910        499000131.07539433     
  -3828713102.3906188       -11880603.946818590        501209342.95817417     
  -3714028962.7354794       -22025184.271874428        506897106.50962949     
  -4497855226.3079491       -7446454.0261654854        335666740.78717107     
  -4373846872.5032301       -15078705.183311939        333000076.48581046     
  -4249804217.5558691       -22596619.198327303        333447564.66900969     
  -4125727261.4658742       -30000196.071220398        337009205.33677673     
  -4001616004.2332382       -37289435.801984787        343684998.48910624     
  -4816718704.9531765       -32013882.055406809        166284274.14142990     
  -4684355458.0413780       -37206747.924041271        165710925.19386590     
  -4551947548.6721411       -42250738.934550285        167887329.54675642     
  -4419494976.8454647       -47145855.086922646        172813487.20010072     
  -4286997742.5613585       -51892096.381197929        180489398.15389901     
  -5129212318.3246651       -54670350.502536058       -3130037.6213764334     
  -4989535318.8318062       -57736173.240431547       -1597983.0145438868     
  -4849803295.5667114       -60618583.404219151        2319425.7086265623     
  -4710016248.5293941       -63317580.993927240        8622188.5481407586     
  -4570174177.7198429       -65833166.009520054        17310305.504003588     
  -3424236618.0680838       -6099341.7908780575        670125722.21546829     
  -3264464390.3697505       -2552052.8523988724        661328624.09851849     
  -3104578720.4119525        1373376.9509562254        657083395.68768430     
  -2944579608.1946964        5676947.6191736460        657390036.98296630     
  -2784467053.7179875        10358659.152236342        662248547.98436379     
  -3714028962.7354794       -22025184.271874428        506897106.50962949     
  -3541433362.0410562       -15055270.052677393        498809759.02630448     
  -3369032433.3288922       -8734262.4409940243        495244838.30753070     
  -3196826176.5989852       -3062161.4368447065        496202344.35331225     
  -3024814591.8513346        1961032.9597911835        501682277.16364449     
  -4001616004.2332382       -37289435.801984787        343684998.48910624     
  -3816281153.2329102       -26922133.109122276        335947935.02407044     
  -3631449088.4565592       -18230784.496166468        332703855.38202548     
  -3447119809.9041834       -11215389.963129282        333952759.56297046     
  -3263293317.5757756       -5875949.5099902153        339694647.56690234     
  -4286997742.5613585       -51892096.381197929        180489398.15389901     
  -4089007763.9453144       -38152642.021734715        172743152.09181583     
  -3891828685.7949553       -27116189.214552402        169460446.91116762     
  -3695460508.1102862       -18782737.959669113        170641282.61193493     
  -3499903230.8913069       -13152288.257091522        176285659.19413376     
  -4570174177.7198429       -65833166.009520054        17310305.504003588     
  -4359613194.1782589       -48746796.790509224        9195410.2295438014     
  -4150171225.3440809       -35390476.596170425        5514612.8949609045     
  -3941848271.2173085       -25764205.426519394        6267913.5002222322     
  -3734644331.7979288       -19867983.281519890        11455312.045354044     
  -2784467053.7179875        10358659.152236342        662248547.98436379     
  -2655125761.1695251        5221430.7997970581        652038476.92833745     
  -2526285313.9400969       -1585281.9494198561        644629623.89026833     
  -2397945712.0297093       -10061479.095445752        640021988.87016284     
  -2270106955.4383612       -20207160.638259649        638215571.86801374     
  -3024814591.8513346        1961032.9597911835        501682277.16364449     
  -2887891476.0292239       -3748258.8397397995        492049354.70014292     
  -2750909476.4788132       -9261271.5449362993        485579400.60927385     
  -2613868593.2001028       -14578005.155788660        482272414.89104390     
  -2476768826.1930866       -19698459.672313452        482128397.54544961     
  -3263293317.5757756       -5875949.5099902153        339694647.56690234     
  -3117754806.0380878       -11847233.024033070        331291890.91782051     
  -2971597681.7247572       -15756473.952608347        326413852.99605274     
  -2824821944.6357918       -17603672.295720100        325060533.80159390     
  -2677427594.7711825       -17388828.053361773        327231933.33444804     
  -3499903230.8913069       -13152288.257091522        176285659.19413376     
  -3344715751.1961088       -19075491.753073215        169766085.58137318     
  -3188349929.6779385       -21070889.172477841        167132981.05059937     
  -3030805766.3367796       -19138480.515247703        168386345.60181016     
  -2872083261.1726394       -13278265.781426430        173526179.23501286     
  -3734644331.7979288       -19867983.281519890        11455312.045354044     
  -3568774311.5032878       -25433035.026840687        7471938.6908049202     
  -3401166220.3383379       -25204517.204477787        7736784.7729138145     
  -3231820058.3030639       -19182429.814355612        12249850.291691938     
  -3060735825.3974628       -7366772.8564879894        21011135.247138970     
  -2270106955.4383612       -20207160.638259649        638215571.86801374     
  -2126004194.2130811       -25140534.160768747        625715905.77292013     
  -1981180956.9236302       -27672320.802706361        616226108.63396764     
  -1835637243.5699928       -27802520.564026356        609746180.45115387     
  -1689373054.1521757       -25531133.444735765        606276121.22449160     
  -2476768826.1930866       -19698459.672313452        482128397.54544961     
  -2324022081.4536123       -19880434.727424502        471976242.54773277     
  -2171173086.7226501       -19721576.477573872        464366960.11231339     
  -2018221842.0002029       -19221884.922772646        459300550.23920399     
  -1865168347.2862580       -18381360.062982440        456777012.92839390     
  -2677427594.7711825       -17388828.053361773        327231933.33444804     
  -2517371141.9284744       -13219687.264363050        318706025.68262994     
  -2357830665.1669631       -10770466.746022701        312255994.19927937     
  -2198806164.4866586       -10041166.498375893        307881838.88439244     
  -2040297639.8875618       -11031786.521412253        305583559.73797488     
  -2872083261.1726394       -13278265.781426430        173526179.23501286     
  -2706051375.6376586       -5158291.7715899944        165905255.17761952     
  -2541153692.2565742       -818991.60807085037        159893210.89485490     
  -2377390211.0293832       -260365.29086828232        155490046.38672501     
  -2214760931.9560990       -3482412.8200169802        152695761.65321425     
  -3060735825.3974628       -7366772.8564879894        21011135.247138970     
  -2890062782.5811882        4303751.7508462667        13573931.032697149     
  -2721142167.9914746        10132848.936310649        7278610.1990522761     
  -2553973981.6283684        10120518.699755430        2125172.7461973047     
  -2388558223.4918423        4266761.0412564278       -1886381.3258696869     
  -1689373054.1521757       -25531133.444735765        606276121.22449160     
  -1549286569.9900112       -25914268.935424864        592638674.14575887     
  -1410448832.9029555       -30459894.676486254        577820278.73121870     
  -1272859842.8910155       -39168010.667925537        561820934.98085821     
  -1136519599.9541953       -52038616.909769416        544640642.89468503     
  -1865168347.2862580       -18381360.062982440        456777012.92839390     
  -1728199238.2635715       -22273072.191146612        443007177.58485788     
  -1591271008.6481104       -26301049.010051548        428829981.23233342     
  -1454383658.4398601       -30465290.519686222        414245423.87082762     
  -1317537187.6388588       -34765796.720095575        399253505.50033844     
  -2040297639.8875618       -11031786.521412253        305583559.73797488     
  -1904235656.4991212       -17769000.435478210        293090515.07549435     
  -1767006684.8500021       -20616253.480603695        280963696.73086530     
  -1628610724.9402356       -19573545.656906068        269203104.70408374     
  -1489047776.7697902       -14640876.964288712        257808738.99514943     
  -2214760931.9560990       -3482412.8200169802        152695761.65321425     
  -2077395824.6966538       -12402053.668358207        142888686.61767003     
  -1937655861.5086799       -13405508.088255405        134221425.22680461     
  -1795541042.3921270       -6492776.0795674324        126693977.48062973     
  -1651051367.3470247        8336142.3576272726        120306343.37912282     
  -2388558223.4918423        4266761.0412564278       -1886381.3258696869     
  -2247679742.8561921       -6172231.8898932934       -7598307.7886088155     
  -2103218538.6240864       -4668812.8328456879       -11396833.279826606     
  -1955174610.7955515        8777018.2122813463       -13281957.799540991     
  -1803547959.3705492        34165261.245656133       -13253681.347736601     
  -1136519599.9541953       -52038616.909769416        544640642.89468503     
  -951680185.92318642       -40795904.692434192        562927721.95901334     
  -759286376.15931070       -4371873.3655484021        592115790.99771118     
  -559338170.66256213        57233477.070927233        632204850.01078510     
  -351835569.43295068        144020146.61692399        683194898.99822354     
  -1317537187.6388588       -34765796.720095575        399253505.50033844     
  -1117865419.8234959       -14797541.404876769        421180645.58233124     
  -914578373.20885408        17221643.241297960        441602711.73224294     
  -707676047.79491735        61291757.218455255        460519703.95007831     
  -497158443.58169031        117412800.52655539        477931622.23583192     
  -1489047776.7697902       -14640876.964288712        257808738.99514943     
  -1309989552.0456684        3419152.3861266375        278780303.67230421     
  -1131255165.4558384        20399721.288897097        285840730.51092464     
  -952844617.00028944        36300829.744077742        278990019.51102120     
  -774757906.67902017        51122477.751636297        258228170.67258215     
  -1651051367.3470247        8336142.3576272726        120306343.37912282     
  -1528052582.5897059        13854176.680568099        135726696.22893584     
  -1409316752.9002683        5162360.7772499323        124829847.33375943     
  -1294843878.2786624       -17739305.352193117        87615796.693613619     
  -1184633958.7249420       -54850821.707893670        24084544.308480944     
  -1803547959.3705492        34165261.245656133       -13253681.347736601     
  -1772054511.4556172        16507531.478427529       -7980176.7477781186     
  -1748763135.5421152       -28490438.293578863       -41429937.799247108     
  -1733673831.6300542       -100828648.07037210       -113602964.50215590     
  -1726786599.7194269       -200507097.85196584       -224499256.85648674     
  -351835569.43295068        144020146.61692399        683194898.99822354     
  -277772506.27226657        285276919.58089137        786442033.58039749     
  -148954851.03879037        609048999.45418203        905523685.39264297     
   34617396.267507076        1115336386.2368770        1040439854.4349743     
   272944235.64662272        1804139079.9289384        1191190540.7073696     
  -497158443.58169031        117412800.52655539        477931622.23583192     
  -388294301.59106410        223037307.96708757        597144184.64221036     
  -230298513.47719511        492433969.15174818        735515120.96233654     
  -23171079.240077436        925602784.08055735        893044431.19621754     
   233088001.12027746        1522543752.7535102        1069732115.3438705     
  -774757906.67902017        51122477.751636297        258228170.67258215     
  -621595952.47649479        123963739.68331704        386846057.29532927     
  -424925298.10030645        341834002.19388402        537946174.51551235     
  -184745943.55042914        704733265.28339458        711528522.33313048     
   98942111.173110485        1212661528.9518085        907593100.74818635     
  -1184633958.7249420       -54850821.707893670        24084544.308480944     
  -977677458.92857492       -11943785.270473242        155547651.53976563     
  -732835204.90811229        157249098.58062735        312816846.05216908     
  -450107196.66353607        452727829.84543157        495892127.84569061     
  -129493434.19486558        874492408.52387106        704773496.92030632     
  -1726786599.7194269       -200507097.85196584       -224499256.85648674     
  -1456538820.9472904       -184685266.89422750       -96751032.624485642     
  -1154028233.9006271       -61320741.688065410        60127135.572297178     
  -819254838.57941377        169586477.76660818        246135247.73388624     
  -452218634.98366845        508036391.46969879        461273303.86025798     
 </DataArray>
 <DataArray  type="Float64" Name="VM" NumberOfComponents="1" format="ascii">
   5921588767.3337440     
   5726176775.3019466     
   5528082927.9001684     
   5321399708.0861006     
   5102099710.0570154     
   5686239621.0647058     
   5475460667.4722281     
   5261017789.6914635     
   5039771614.7144165     
   4809423405.4843836     
   5427135217.2470694     
   5208035756.9669285     
   4986359973.1487446     
   4761117302.9330730     
   4531586971.7609987     
   5156687044.8845930     
   4933911647.2644472     
   4712106887.0717878     
   4491555658.6092482     
   4272666174.1494784     
   4892989422.5838013     
   4667259545.8702726     
   4449152482.0258112     
   4239019390.3755221     
   4037574384.8446188     
   5102099710.0570154     
   4960919992.0229950     
   4819781587.3032923     
   4678702634.9458714     
   4537714830.7004471     
   4809423405.4843836     
   4674682993.9082985     
   4540291500.9595442     
   4406289957.7262020     
   4272740381.8530984     
   4531586971.7609987     
   4404256919.9308128     
   4277718679.1971097     
   4152045087.4289775     
   4027339227.2667122     
   4272666174.1494784     
   4153723447.9980044     
   4036169966.5174828     
   3920118637.8269825     
   3805723068.8680158     
   4037574384.8446188     
   3927957692.8569565     
   3820495995.0310926     
   3715347422.1626978     
   3612721059.5520997     
   4537714830.7004471     
   4335474588.8272734     
   4132600677.3678479     
   3929044520.6269941     
   3724802925.8478994     
   4272740381.8530984     
   4081048178.2172527     
   3889432446.3700900     
   3697935318.6973419     
   3506664193.4796472     
   4027339227.2667122     
   3847150534.5862632     
   3667918514.2281084     
   3489795595.7877932     
   3313022820.4891372     
   3805723068.8680158     
   3638006760.4823132     
   3472294938.9806633     
   3308862050.4183998     
   3148093746.0036077     
   3612721059.5520997     
   3458391216.7909327     
   3307257235.5745311     
   3159712405.8596711     
   3016276980.9640164     
   3724802925.8478994     
   3556149553.9535875     
   3388660760.1167440     
   3222341520.2246470     
   3057275703.2537704     
   3506664193.4796472     
   3348155731.1665363     
   3191024629.6215739     
   3035326463.8879256     
   2881186612.1105971     
   3313022820.4891372     
   3164310598.7339306     
   3017193589.1083064     
   2871792945.0311184     
   2728297231.5474210     
   3148093746.0036077     
   3009226538.0661058     
   2872189732.1848750     
   2737184063.0642858     
   2604482039.0228400     
   3016276980.9640164     
   2887740664.2218308     
   2761296285.5001535     
   2637233858.8542614     
   2515925048.6824265     
   3057275703.2537704     
   2892312618.3197999     
   2726251865.5430222     
   2559051898.2441258     
   2390696692.9681263     
   2881186612.1105971     
   2718704786.5334797     
   2555793241.5235500     
   2392466668.2255754     
   2228769478.7283263     
   2728297231.5474210     
   2570753578.2139449     
   2413834693.9566717     
   2257685645.8609877     
   2102515628.4251256     
   2604482039.0228400     
   2454293384.5506663     
   2306181384.2926707     
   2160478151.2600713     
   2017632827.1497080     
   2515925048.6824265     
   2375213292.0367718     
   2238352902.5615458     
   2105866315.9603157     
   1978437199.0419493     
   2390696692.9681263     
   2244638573.8872137     
   2100980759.1369631     
   1959712894.7882121     
   1821015698.5989199     
   2228769478.7283263     
   2085956562.3797119     
   1944932095.8675404     
   1805687081.7614889     
   1668299840.2585132     
   2102515628.4251256     
   1962217867.3035328     
   1822945526.6377420     
   1684722311.0562999     
   1547602245.1341701     
   2017632827.1497080     
   1880808992.9906106     
   1744324662.8145726     
   1608306423.6755376     
   1472928292.9513383     
   1978437199.0419493     
   1847829426.6287010     
   1717253742.2864037     
   1587066228.3774636     
   1457786747.1039934     
   1821015698.5989199     
   1780419328.6047392     
   1736176978.4379880     
   1696969146.0899370     
   1681357141.2696452     
   1668299840.2585132     
   1552923614.3804274     
   1428363831.0608664     
   1294988534.5496869     
   1158934113.1180928     
   1547602245.1341701     
   1397754894.1347682     
   1244325704.0238883     
   1085046523.2043815     
   917886828.47536325     
   1472928292.9513383     
   1328713593.1938286     
   1198974392.1869044     
   1088196659.4919055     
   1002287860.5684338     
   1457786747.1039934     
   1348776366.9998665     
   1274762228.8417263     
   1243863595.9811997     
   1263118082.6684394     
   1681357141.2696452     
   1383725048.8355172     
   1129434083.1011074     
   1010257534.9861994     
   1153544700.0213108     
   1158934113.1180928     
   1008416537.8235922     
   985177917.66600299     
   1161491299.2072315     
   1544300357.1586201     
   917886828.47536325     
   963199622.00828624     
   1144912297.6508868     
   1476412938.5694642     
   1957429422.2094324     
   1002287860.5684338     
   1164845806.4529042     
   1425441303.5303104     
   1808676227.6625199     
   2334644129.4462376     
   1263118082.6684394     
   1446808828.9232090     
   1715741375.8216128     
   2110475976.8771679     
   2663417302.2888494     
   4892989422.5838013     
   4667259545.8702726     
   4449152482.0258112     
   4239019390.3755221     
   4037574384.8446188     
   4552183583.7780170     
   4351667744.9872398     
   4158150784.3570604     
   3972123395.7688961     
   3794355091.7820415     
   4239306742.6731963     
   4063474097.7014775     
   3894097084.8003378     
   3731781491.1232409     
   3577347076.6128988     
   3955473822.6422272     
   3804361496.1387601     
   3659304397.0070944     
   3520977035.7619319     
   3390225070.2431021     
   3701779305.4662356     
   3576019469.7682352     
   3456126796.3715343     
   3342768515.6969995     
   3236765978.4255710     
   4037574384.8446188     
   3927957692.8569565     
   3820495995.0310926     
   3715347422.1626978     
   3612721059.5520997     
   3794355091.7820415     
   3696540038.1558495     
   3601307160.5684967     
   3508845178.7639141     
   3419390257.1331568     
   3577347076.6128988     
   3491330067.3134255     
   3408302471.0996218     
   3328473518.3714318     
   3252093894.2673187     
   3390225070.2431021     
   3316008788.8568220     
   3245142191.8395848     
   3177841513.4377537     
   3114356162.3554053     
   3236765978.4255710     
   3174304059.0509467     
   3115471440.0020814     
   3060475563.9322386     
   3009547313.2223797     
   3612721059.5520997     
   3458391216.7909327     
   3307257235.5745311     
   3159712405.8596711     
   3016276980.9640164     
   3419390257.1331568     
   3279791011.9185262     
   3144225690.1915174     
   3013186268.8451629     
   2887299530.3505087     
   3252093894.2673187     
   3128115796.7045093     
   3009087775.1221371     
   2895582711.1134906     
   2788304718.4208856     
   3114356162.3554053     
   3006789326.9267001     
   2905110275.1437569     
   2809937512.0972056     
   2722003853.6712303     
   3009547313.2223797     
   2918930883.4220753     
   2835084643.7789998     
   2758623799.1935701     
   2690250135.3834205     
   3016276980.9640164     
   2887740664.2218308     
   2761296285.5001535     
   2637233858.8542614     
   2515925048.6824265     
   2887299530.3505087     
   2770484699.7729030     
   2656918151.1355820     
   2547011928.7418838     
   2441274258.9698405     
   2788304718.4208856     
   2684838811.1548796     
   2585891723.5854635     
   2491970528.9378419     
   2403676699.5946569     
   2722003853.6712303     
   2633058764.2150769     
   2549903097.0777893     
   2473083733.4478188     
   2403222647.4224014     
   2690250135.3834205     
   2616327224.1464486     
   2549346466.0688915     
   2489827687.7375488     
   2438336602.1446977     
   2515925048.6824265     
   2375213292.0367718     
   2238352902.5615458     
   2105866315.9603157     
   1978437199.0419493     
   2441274258.9698405     
   2315073843.8494654     
   2194045899.2119298     
   2078911551.5853179     
   1970562564.8826125     
   2403676699.5946569     
   2294057507.5668783     
   2190979187.9471946     
   2095277856.4478498     
   2007928122.7614198     
   2403222647.4224014     
   2311554147.7924881     
   2227637029.5018597     
   2152306031.9243746     
   2086475948.6984193     
   2438336602.1446977     
   2365103942.6484346     
   2300529327.6727571     
   2245346868.7932692     
   2200313948.3849101     
   1978437199.0419493     
   1847829426.6287010     
   1717253742.2864037     
   1587066228.3774636     
   1457786747.1039934     
   1970562564.8826125     
   1854729934.4973190     
   1743255065.6002409     
   1637058105.5865700     
   1537268795.1397567     
   2007928122.7614198     
   1911926773.0518839     
   1824661936.1188531     
   1747322627.0579987     
   1681188100.1807003     
   2086475948.6984193     
   2011805795.1234560     
   1949418281.3649161     
   1900375123.1957023     
   1865689017.3558791     
   2200313948.3849101     
   2145467853.6333594     
   2105443456.2142293     
   2080988688.1814473     
   2072766950.0704827     
   1457786747.1039934     
   1348776366.9998665     
   1274762228.8417263     
   1243863595.9811997     
   1263118082.6684394     
   1537268795.1397567     
   1476339873.0766442     
   1448114900.4140887     
   1456560923.5684090     
   1504976460.7285976     
   1681188100.1807003     
   1652580865.7617037     
   1651714138.0898271     
   1680960339.5004811     
   1742931361.0050530     
   1865689017.3558791     
   1855044247.0202367     
   1867404535.4462438     
   1904981915.9189508     
   1970806790.3789773     
   2072766950.0704827     
   2069126734.5396776     
   2084773559.0152440     
   2122339934.1746161     
   2185631055.8779316     
   1263118082.6684394     
   1446808828.9232090     
   1715741375.8216128     
   2110475976.8771679     
   2663417302.2888494     
   1504976460.7285976     
   1613338653.8285789     
   1788907583.7939665     
   2066417144.3599658     
   2476051192.8338032     
   1742931361.0050530     
   1787738787.7028091     
   1884688480.0506315     
   2060681339.0282035     
   2340938343.8656664     
   1970806790.3789773     
   1968964778.3487589     
   2003649387.4891481     
   2093536044.5376594     
   2257289534.0194364     
   2185631055.8779316     
   2156299247.5076656     
   2146531123.3748503     
   2166860250.8664017     
   2228373778.0135689     
   3701779305.4662356     
   3576019469.7682352     
   3456126796.3715343     
   3342768515.6969995     
   3236765978.4255710     
   3491934283.1897054     
   3378993283.7864537     
   3274224484.4975491     
   3178374385.5687637     
   3092353598.7234945     
   3306734021.5894380     
   3207147148.4244542     
   3118327880.8171268     
   3041006900.2271576     
   2976070360.0304418     
   3158150152.1872454     
   3070823734.1065598     
   2997123635.2686548     
   2937650667.6844158     
   2893136403.2150583     
   3059843286.1455283     
   2981511545.9233894     
   2919891405.2813873     
   2875357424.5986581     
   2848381464.3651991     
   3236765978.4255710     
   3174304059.0509467     
   3115471440.0020814     
   3060475563.9322386     
   3009547313.2223797     
   3092353598.7234945     
   3037376765.8161011     
   2986851280.4747467     
   2940990184.3171158     
   2900029892.6742115     
   2976070360.0304418     
   2928542421.4155293     
   2886370624.2148843     
   2849754181.4919233     
   2818913399.4257669     
   2893136403.2150583     
   2852471901.6824098     
   2818126054.2586088     
   2790264193.4764590     
   2769068960.2310371     
   2848381464.3651991     
   2813341649.5163312     
   2785615530.8553410     
   2765319542.2314849     
   2752583208.0344081     
   3009547313.2223797     
   2918930883.4220753     
   2835084643.7789998     
   2758623799.1935701     
   2690250135.3834205     
   2900029892.6742115     
   2824327707.2842450     
   2756415158.9376111     
   2696866492.5044198     
   2646316316.5993071     
   2818913399.4257669     
   2757667031.6843843     
   2705118556.0050368     
   2661756218.3085322     
   2628102355.9056997     
   2769068960.2310371     
   2721111063.2955189     
   2682618542.1599545     
   2653963177.9580917     
   2635530613.0952196     
   2752583208.0344081     
   2715992442.7669830     
   2689499052.1897755     
   2673349555.1748223     
   2667792971.9683661     
   2690250135.3834205     
   2616327224.1464486     
   2549346466.0688915     
   2489827687.7375488     
   2438336602.1446977     
   2646316316.5993071     
   2586185240.4002280     
   2533556898.4373116     
   2488877341.5270400     
   2452615267.2148285     
   2628102355.9056997     
   2581011142.3241768     
   2541835604.3589382     
   2510927402.2739196     
   2488643786.1001453     
   2635530613.0952196     
   2600266538.0096269     
   2573195150.7418852     
   2554569418.7773199     
   2544638643.4624310     
   2667792971.9683661     
   2642750882.8751354     
   2626079097.2085314     
   2617941489.5796123     
   2618495644.5053830     
   2438336602.1446977     
   2365103942.6484346     
   2300529327.6727571     
   2245346868.7932692     
   2200313948.3849101     
   2452615267.2148285     
   2395184034.8464117     
   2347346184.0123358     
   2309692290.7381258     
   2282797312.4198127     
   2488643786.1001453     
   2445815972.7905178     
   2413248562.3191414     
   2391369303.5660400     
   2380571620.7287898     
   2544638643.4624310     
   2514611709.2408762     
   2495319011.1345549     
   2487037637.3804693     
   2490009031.5755320     
   2618495644.5053830     
   2599041206.5335479     
   2590702240.9190021     
   2593634830.6837049     
   2607968576.4998088     
   2200313948.3849101     
   2145467853.6333594     
   2105443456.2142293     
   2080988688.1814473     
   2072766950.0704827     
   2282797312.4198127     
   2242412938.6123610     
   2215862335.4899411     
   2203586524.6961017     
   2205967722.4111800     
   2380571620.7287898     
   2351770170.7259932     
   2335796601.8421783     
   2332898386.8891797     
   2343295467.1653814     
   2490009031.5755320     
   2470198188.5891476     
   2462304989.2116981     
   2466466001.6324320     
   2482816151.9455628     
   2607968576.4998088     
   2594913485.7535200     
   2593021100.5380745     
   2602371861.8765397     
   2623062337.8777609     
   2072766950.0704827     
   2069126734.5396776     
   2084773559.0152440     
   2122339934.1746161     
   2185631055.8779316     
   2205967722.4111800     
   2191580407.3900390     
   2192221214.7335186     
   2209859677.0017338     
   2247411309.1676526     
   2343295467.1653814     
   2318949026.2972550     
   2306157718.5851860     
   2306327336.1494093     
   2321544220.6606131     
   2482816151.9455628     
   2450255352.0723801     
   2426263652.0242715     
   2411786886.5488214     
   2408201516.1350908     
   2623062337.8777609     
   2584715943.5827065     
   2552254487.3395882     
   2526260082.4331260     
   2507542181.9124718     
   2185631055.8779316     
   2156299247.5076656     
   2146531123.3748503     
   2166860250.8664017     
   2228373778.0135689     
   2247411309.1676526     
   2182684394.2610912     
   2134376296.1244354     
   2112159013.0679681     
   2126976054.0693185     
   2321544220.6606131     
   2224771428.3770952     
   2141322860.7485108     
   2079564664.6422977     
   2049670633.1990430     
   2408201516.1350908     
   2282854443.2721424     
   2168017514.7468934     
   2070428221.8460546     
   1998850831.6321177     
   2507542181.9124718     
   2357143246.4121079     
   2214930754.4846544     
   2085880652.9032078     
   1976860817.5512941     
   3059843286.1455283     
   2981511545.9233894     
   2919891405.2813873     
   2875357424.5986581     
   2848381464.3651991     
   2817561832.9857054     
   2772876266.1550827     
   2742010559.7995014     
   2725148684.9833698     
   2722505718.4837284     
   2632531216.2484441     
   2617145503.6851964     
   2612116814.2436390     
   2617506895.4928989     
   2633382930.3700542     
   2501639133.0818062     
   2511773403.0622292     
   2528380932.8611526     
   2551470916.8585138     
   2581052696.0086112     
   2418812628.4413462     
   2451569926.8144011     
   2486705059.0450110     
   2524218025.1331739     
   2564108825.0788836     
   2848381464.3651991     
   2813341649.5163312     
   2785615530.8553410     
   2765319542.2314849     
   2752583208.0344081     
   2722505718.4837284     
   2700680411.5019464     
   2685532778.3196731     
   2677126565.7215762     
   2675530303.7388024     
   2633382930.3700542     
   2622880142.9227314     
   2618266888.0684996     
   2619569062.7242508     
   2626813664.4370604     
   2581052696.0086112     
   2579920533.3579025     
   2583776170.6555948     
   2592625124.7339668     
   2606472996.3212285     
   2564108825.0788836     
   2570463931.6867366     
   2580840766.0345201     
   2595239328.1222358     
   2613659617.9498892     
   2752583208.0344081     
   2715992442.7669830     
   2689499052.1897755     
   2673349555.1748223     
   2667792971.9683661     
   2675530303.7388024     
   2651311783.2565856     
   2636893598.5612216     
   2632413564.5849614     
   2638007109.1712904     
   2626813664.4370604     
   2612456093.4164462     
   2607526216.4258561     
   2612083200.9128695     
   2626183853.6983719     
   2606472996.3212285     
   2599252777.6432743     
   2601060618.0800791     
   2611910463.3479409     
   2631815467.0572782     
   2613659617.9498892     
   2610794833.0655384     
   2616574027.0894251     
   2630997200.0215535     
   2654064351.8619266     
   2667792971.9683661     
   2642750882.8751354     
   2626079097.2085314     
   2617941489.5796123     
   2618495644.5053830     
   2638007109.1712904     
   2622066629.2100630     
   2614555977.1537232     
   2615568794.7437539     
   2625192904.4095745     
   2626183853.6983719     
   2617444470.6287894     
   2617181672.9962759     
   2625437142.1004553     
   2642249138.0562301     
   2631815467.0572782     
   2628183233.2450919     
   2633099819.8978496     
   2646575573.9754825     
   2668619832.5609179     
   2654064351.8619266     
   2653337142.3655515     
   2661287911.3203435     
   2677916658.7263064     
   2703223384.5834422     
   2618495644.5053830     
   2599041206.5335479     
   2590702240.9190021     
   2593634830.6837049     
   2607968576.4998088     
   2625192904.4095745     
   2614107109.5227447     
   2613557216.3050413     
   2623621511.1929841     
   2644362939.4943676     
   2642249138.0562301     
   2637681484.6721272     
   2643165205.8350005     
   2658731226.4482412     
   2684403679.1745429     
   2668619832.5609179     
   2668794157.1002355     
   2678654825.7395697     
   2698208722.6944828     
   2727461076.6465168     
   2703223384.5834422     
   2706473663.6249137     
   2719177761.3337674     
   2741335677.7099924     
   2772947412.7535872     
   2607968576.4998088     
   2594913485.7535200     
   2593021100.5380745     
   2602371861.8765397     
   2623062337.8777609     
   2644362939.4943676     
   2633276706.4257913     
   2632449289.9912100     
   2641920006.5624356     
   2661738942.0652022     
   2684403679.1745429     
   2674960134.8491850     
   2675051263.0755444     
   2684692156.1037307     
   2703903292.8884311     
   2727461076.6465168     
   2719503516.8965259     
   2720514779.1455355     
   2730498090.3366632     
   2749458141.1692648     
   2772947412.7535872     
   2766473116.6979718     
   2768541022.0222821     
   2779151128.7265038     
   2798303436.8106475     
   2623062337.8777609     
   2584715943.5827065     
   2552254487.3395882     
   2526260082.4331260     
   2507542181.9124718     
   2661738942.0652022     
   2616450831.6428905     
   2576826775.0032263     
   2543198059.0595627     
   2516027700.0976830     
   2703903292.8884311     
   2653768198.0113673     
   2609218941.7467508     
   2570403125.2302265     
   2537527595.4335742     
   2749458141.1692648     
   2696575599.9560003     
   2649343123.1078348     
   2607797375.2563024     
   2571989748.7267833     
   2798303436.8106475     
   2744771897.2259536     
   2697096936.5409317     
   2655278554.7555828     
   2619316751.8699260     
   2507542181.9124718     
   2357143246.4121079     
   2214930754.4846544     
   2085880652.9032078     
   1976860817.5512941     
   2516027700.0976830     
   2348143607.9309859     
   2183823966.6718340     
   2026166076.0059474     
   1879729585.8359547     
   2537527595.4335742     
   2357242586.7738681     
   2176694467.1474967     
   1997353582.7607064     
   1821495466.7405398     
   2571989748.7267833     
   2384543096.7316327     
   2194008632.4167953     
   2000764308.2916143     
   1805413444.2964616     
   2619316751.8699260     
   2430013305.5598316     
   2235908706.8301454     
   2037002955.6808772     
   1833296052.1119881     
   2418812628.4413462     
   2451569926.8144011     
   2486705059.0450110     
   2524218025.1331739     
   2564108825.0788836     
   2501639122.7116313     
   2511773394.8589640     
   2528380926.5966468     
   2551470912.3062048     
   2581052692.9381752     
   2632531194.0060081     
   2617145486.2360697     
   2612116801.1430345     
   2617506886.3213577     
   2633382924.7170215     
   2817561797.0299768     
   2772876238.1558514     
   2742010539.1120625     
   2725148671.0329695     
   2722505710.7333493     
   3059843234.4288473     
   2981511505.8990469     
   2919891376.1237326     
   2875357405.6174140     
   2848381454.9542570     
   2564108825.0788836     
   2570463931.6867366     
   2580840766.0345201     
   2595239328.1222358     
   2613659617.9498892     
   2581052692.9381752     
   2579920531.0370693     
   2583776169.0728807     
   2592625123.8749809     
   2606472996.1678414     
   2633382924.7170215     
   2622880138.6758971     
   2618266885.1916451     
   2619569061.1776633     
   2626813664.1758051     
   2722505710.7333493     
   2700680405.7253642     
   2685532774.4453583     
   2677126563.6756668     
   2675530303.4426122     
   2848381454.9542570     
   2813341642.5726571     
   2785615526.2638454     
   2765319539.8769727     
   2752583207.7984195     
   2613659617.9498892     
   2610794833.0655384     
   2616574027.0894251     
   2630997200.0215535     
   2654064351.8619266     
   2606472996.1678414     
   2599252777.7175136     
   2601060618.4067588     
   2611910463.9502130     
   2631815467.9565253     
   2626813664.1758051     
   2612456093.5829930     
   2607526217.0703473     
   2612083202.0825605     
   2626183855.4373946     
   2675530303.4426122     
   2651311783.5451155     
   2636893599.5112696     
   2632413566.2702332     
   2638007111.6617937     
   2752583207.7984195     
   2715992443.2169466     
   2689499053.4304476     
   2673349557.3090601     
   2667792975.0961003     
   2654064351.8619266     
   2653337142.3655515     
   2661287911.3203435     
   2677916658.7263064     
   2703223384.5834422     
   2631815467.9565253     
   2628183233.8697410     
   2633099820.2444501     
   2646575574.0425029     
   2668619832.3489723     
   2626183855.4373946     
   2617444471.8408017     
   2617181673.6741338     
   2625437142.2405629     
   2642249137.6591406     
   2638007111.6617937     
   2622066630.9484968     
   2614555978.1283379     
   2615568794.9476981     
   2625192903.8418531     
   2667792975.0961003     
   2642750885.0565372     
   2626079098.4261971     
   2617941489.8219376     
   2618495643.7679796     
   2703223384.5834422     
   2706473663.6249137     
   2719177761.3337674     
   2741335677.7099924     
   2772947412.7535872     
   2668619832.3489723     
   2668794156.9529424     
   2678654825.6453996     
   2698208722.6416321     
   2727461076.6228623     
   2642249137.6591406     
   2637681484.4079137     
   2643165205.6799364     
   2658731226.3780079     
   2684403679.1641102     
   2625192903.8418531     
   2614107109.1643591     
   2613557216.1191101     
   2623621511.1414762     
   2644362939.5379691     
   2618495643.7679796     
   2599041206.0949788     
   2590702240.7280984     
   2593634830.6871414     
   2607968576.6420221     
   2772947412.7535872     
   2766473116.6979718     
   2768541022.0222821     
   2779151128.7265038     
   2798303436.8106475     
   2727461076.6228623     
   2719503516.9070296     
   2720514779.1920595     
   2730498090.4206986     
   2749458141.2921815     
   2684403679.1641102     
   2674960134.8974710     
   2675051263.1860542     
   2684692156.2793450     
   2703903293.1318040     
   2644362939.5379691     
   2633276706.5423288     
   2632449290.1857104     
   2641920006.8391061     
   2661738942.4279623     
   2607968576.6420221     
   2594913485.9719787     
   2593021100.8391452     
   2602371862.2658038     
   2623062338.3603644     
   2798303436.8106475     
   2744771897.2259536     
   2697096936.5409317     
   2655278554.7555828     
   2619316751.8699260     
   2749458141.2921815     
   2696575600.0579910     
   2649343123.1913290     
   2607797375.3235402     
   2571989748.7797599     
   2703903293.1318040     
   2653768198.2134686     
   2609218941.9125180     
   2570403125.3642297     
   2537527595.5398717     
   2661738942.4279623     
   2616450831.9442620     
   2576826775.2507305     
   2543198059.2602253     
   2516027700.2578440     
   2623062338.3603644     
   2584715943.9835920     
   2552254487.6690283     
   2526260082.7007875     
   2507542182.1271992     
   2619316751.8699260     
   2430013305.5598316     
   2235908706.8301454     
   2037002955.6808772     
   1833296052.1119881     
   2571989748.7797599     
   2384543096.7674007     
   2194008632.4331837     
   2000764308.2846911     
   1805413444.2596312     
   2537527595.5398717     
   2357242586.8475237     
   2176694467.1845379     
   1997353582.7542310     
   1821495466.6792073     
   2516027700.2578440     
   2348143608.0448670     
   2183823966.7342081     
   2026166076.0079992     
   1879729585.7643170     
   2507542182.1271992     
   2357143246.5687566     
   2214930754.5772276     
   2085880652.9223146     
   1976860817.4837835     
   3059843234.4288473     
   2981511505.8990469     
   2919891376.1237326     
   2875357405.6174140     
   2848381454.9542570     
   3158150095.6367068     
   3070823690.1985917     
   2997123603.4882765     
   2937650647.6581721     
   2893136394.6657872     
   3306733965.6733918     
   3207147105.2109094     
   3118327849.9407091     
   3041006881.4379787     
   2976070353.1681480     
   3491934232.2820287     
   3378993245.0469432     
   3274224457.5335660     
   3178374370.0446644     
   3092353594.3606906     
   3701779262.7371802     
   3576019438.3569655     
   3456126775.6832051     
   3342768505.1083136     
   3236765977.3110828     
   2848381454.9542570     
   2813341642.5726571     
   2785615526.2638454     
   2765319539.8769727     
   2752583207.7984195     
   2893136394.6657872     
   2852471895.4238968     
   2818126050.2668252     
   2790264191.7294340     
   2769068960.7066731     
   2976070353.1681480     
   2928542416.5472784     
   2886370621.3776302     
   2849754180.7289934     
   2818913400.7859693     
   3092353594.3606906     
   3037376763.0339355     
   2986851279.3394737     
   2940990184.9069815     
   2900029895.0800595     
   3236765977.3110828     
   3174304058.9982629     
   3115471441.0757184     
   3060475566.2147269     
   3009547316.8163610     
   2752583207.7984195     
   2715992443.2169466     
   2689499053.4304476     
   2673349557.3090601     
   2667792975.0961003     
   2769068960.7066731     
   2721111064.4232450     
   2682618544.0574193     
   2653963180.7450767     
   2635530616.8925910     
   2818913400.7859693     
   2757667033.5500174     
   2705118558.4982057     
   2661756221.5586667     
   2628102360.0491991     
   2900029895.0800595     
   2824327709.9526310     
   2756415161.9839282     
   2696866496.0565953     
   2646316320.7989683     
   3009547316.8163610     
   2918930886.9601979     
   2835084647.3576050     
   2758623802.9255247     
   2690250139.4013410     
   2667792975.0961003     
   2642750885.0565372     
   2626079098.4261971     
   2617941489.8219376     
   2618495643.7679796     
   2635530616.8925910     
   2600266540.6646266     
   2573195152.2361765     
   2554569419.0961924     
   2544638642.5962977     
   2628102360.0491991     
   2581011145.2418900     
   2541835606.0378051     
   2510927402.7010312     
   2488643785.2641034     
   2646316320.7989683     
   2586185243.3884139     
   2533556900.2148085     
   2488877342.0904536     
   2452615266.5574737     
   2690250139.4013410     
   2616327227.0437040     
   2549346467.8703032     
   2489827688.4594789     
   2438336601.7951083     
   2618495643.7679796     
   2599041206.0949788     
   2590702240.7280984     
   2593634830.6871414     
   2607968576.6420221     
   2544638642.5962977     
   2514611708.6916566     
   2495319010.8557625     
   2487037637.3237939     
   2490009031.6906266     
   2488643785.2641034     
   2445815972.2718887     
   2413248562.0720725     
   2391369303.5431457     
   2380571620.8810515     
   2452615266.5574737     
   2395184034.4927645     
   2347346183.9130254     
   2309692290.8423805     
   2282797312.6757541     
   2438336601.7951083     
   2365103942.5793524     
   2300529327.8273396     
   2245346869.1130791     
   2200313948.8107009     
   2607968576.6420221     
   2594913485.9719787     
   2593021100.8391452     
   2602371862.2658038     
   2623062338.3603644     
   2490009031.6906266     
   2470198188.7837048     
   2462304989.4951892     
   2466466002.0138421     
   2482816152.4334230     
   2380571620.8810515     
   2351770170.9439530     
   2335796602.1378841     
   2332898387.2749286     
   2343295467.6532969     
   2282797312.6757541     
   2242412938.9033508     
   2215862335.8296952     
   2203586525.0997801     
   2205967722.8946409     
   2200313948.8107009     
   2145467854.0480237     
   2105443456.6313465     
   2080988688.6180241     
   2072766950.5458081     
   2623062338.3603644     
   2584715943.9835920     
   2552254487.6690283     
   2526260082.7007875     
   2507542182.1271992     
   2482816152.4334230     
   2450255352.4777188     
   2426263652.3564858     
   2411786886.8165870     
   2408201516.3462119     
   2343295467.6532969     
   2318949026.7031379     
   2306157718.9178948     
   2306327336.4168983     
   2321544220.8699684     
   2205967722.8946409     
   2191580407.7929263     
   2192221215.0645328     
   2209859677.2685204     
   2247411309.3771162     
   2072766950.5458081     
   2069126734.9363942     
   2084773559.3425303     
   2122339934.4402835     
   2185631056.0892549     
   2507542182.1271992     
   2357143246.5687566     
   2214930754.5772276     
   2085880652.9223146     
   1976860817.4837835     
   2408201516.3462119     
   2282854443.4212599     
   2168017514.8281026     
   2070428221.8510692     
   1998850831.5508287     
   2321544220.8699684     
   2224771428.5234480     
   2141322860.8266633     
   2079564664.6460254     
   2049670633.1226127     
   2247411309.3771162     
   2182684394.4094319     
   2134376296.2076545     
   2112159013.0826280     
   2126976054.0143075     
   2185631056.0892549     
   2156299247.6625981     
   2146531123.4709301     
   2166860250.9031434     
   2228373777.9943085     
   3701779262.7371802     
   3576019438.3569655     
   3456126775.6832051     
   3342768505.1083136     
   3236765977.3110828     
   3955473787.2648797     
   3804361471.1123233     
   3659304381.3838034     
   3520977028.6320338     
   3390225070.7347331     
   4239306713.7078314     
   4063474078.2607670     
   3894097073.5961566     
   3731781486.9634166     
   3577347078.3717055     
   4552183560.0799828     
   4351667730.1329765     
   4158150776.7323241     
   3972123393.9069614     
   3794355094.3024597     
   4892989402.8729448     
   4667259534.4758663     
   4449152477.0197239     
   4239019390.0230036     
   4037574387.5094876     
   3236765977.3110828     
   3174304058.9982629     
   3115471441.0757184     
   3060475566.2147269     
   3009547316.8163610     
   3390225070.7347331     
   3316008790.2007298     
   3245142194.0324059     
   3177841516.4944630     
   3114356166.3118134     
   3577347078.3717055     
   3491330069.7363791     
   3408302474.1216145     
   3328473521.9449468     
   3252093898.3650274     
   3794355094.3024597     
   3696540041.1996193     
   3601307164.0168405     
   3508845182.5142221     
   3419390261.1013050     
   4037574387.5094876     
   3927957695.9707203     
   3820495998.4303570     
   3715347425.6984992     
   3612721063.0917244     
   3009547316.8163610     
   2918930886.9601979     
   2835084647.3576050     
   2758623802.9255247     
   2690250139.4013410     
   3114356166.3118134     
   3006789330.6572247     
   2905110278.7016816     
   2809937515.5507498     
   2722003857.1066713     
   3252093898.3650274     
   3128115800.4646306     
   3009087778.5625224     
   2895582714.2640572     
   2788304721.3260798     
   3419390261.1013050     
   3279791015.5068951     
   3144225693.3915734     
   3013186271.6572337     
   2887299532.7850814     
   3612721063.0917244     
   3458391219.9840879     
   3307257238.3957953     
   3159712408.2897019     
   3016276982.9895687     
   2690250139.4013410     
   2616327227.0437040     
   2549346467.8703032     
   2489827688.4594789     
   2438336601.7951083     
   2722003857.1066713     
   2633058766.7117167     
   2549903098.6572242     
   2473083734.1227503     
   2403222647.1959701     
   2788304721.3260798     
   2684838813.2825150     
   2585891724.9559517     
   2491970529.5627642     
   2403676699.4754138     
   2887299532.7850814     
   2770484701.5729342     
   2656918152.3215017     
   2547011929.3259954     
   2441274258.9544368     
   3016276982.9895687     
   2887740665.7415466     
   2761296286.5349536     
   2637233859.4181619     
   2515925048.7803802     
   2438336601.7951083     
   2365103942.5793524     
   2300529327.8273396     
   2245346869.1130791     
   2200313948.8107009     
   2403222647.1959701     
   2311554147.7954788     
   2227637029.6888909     
   2152306032.2485003     
   2086475949.1115868     
   2403676699.4754138     
   2294057507.6269159     
   2190979188.1522236     
   2095277856.7625008     
   2007928123.1494491     
   2441274258.9544368     
   2315073843.9580946     
   2194045899.4203157     
   2078911551.8689175     
   1970562565.2167735     
   2515925048.7803802     
   2375213292.1930666     
   2238352902.7599120     
   2105866316.1850562     
   1978437199.2782500     
   2200313948.8107009     
   2145467854.0480237     
   2105443456.6313465     
   2080988688.6180241     
   2072766950.5458081     
   2086475949.1115868     
   2011805795.5146213     
   1949418281.7407587     
   1900375123.5664098     
   1865689017.7346728     
   2007928123.1494491     
   1911926773.4120986     
   1824661936.4508753     
   1747322627.3643744     
   1681188100.4671543     
   1970562565.2167735     
   1854729934.8056278     
   1743255065.8757093     
   1637058105.8237858     
   1537268795.3356390     
   1978437199.2782500     
   1847829426.8500102     
   1717253742.4805005     
   1587066228.5321906     
   1457786747.2081342     
   2072766950.5458081     
   2069126734.9363942     
   2084773559.3425303     
   2122339934.4402835     
   2185631056.0892549     
   1865689017.7346728     
   1855044247.3360338     
   1867404535.7062478     
   1904981916.1294625     
   1970806790.5461013     
   1681188100.4671543     
   1652580866.0000229     
   1651714138.2856548     
   1680960339.6588929     
   1742931361.1312053     
   1537268795.3356390     
   1476339873.2389600     
   1448114900.5474620     
   1456560923.6770442     
   1504976460.8167574     
   1457786747.2081342     
   1348776367.0845351     
   1274762228.9115894     
   1243863596.0404816     
   1263118082.7207446     
   2185631056.0892549     
   2156299247.6625981     
   2146531123.4709301     
   2166860250.9031434     
   2228373777.9943085     
   1970806790.5461013     
   1968964778.4709201     
   2003649387.5627291     
   2093536044.5614986     
   2257289533.9974346     
   1742931361.1312053     
   1787738787.7951872     
   1884688480.1053674     
   2060681339.0442827     
   2340938343.8477092     
   1504976460.8167574     
   1613338653.8938191     
   1788907583.8329489     
   2066417144.3723230     
   2476051192.8243613     
   1263118082.7207446     
   1446808828.9633043     
   1715741375.8472962     
   2110475976.8887107     
   2663417302.2904797     
   4892989402.8729448     
   4667259534.4758663     
   4449152477.0197239     
   4239019390.0230036     
   4037574387.5094876     
   5156687034.3023291     
   4933911641.3686657     
   4712106885.0631695     
   4491555659.5297470     
   4272666176.8912554     
   5427135210.9361954     
   5208035753.1210089     
   4986359971.5958195     
   4761117303.2538462     
   4531586973.3412695     
   5686239615.8629522     
   5475460663.4275150     
   5261017786.8473682     
   5039771613.0038939     
   4809423404.7602682     
   5921588761.1849756     
   5726176769.6186771     
   5528082922.5878553     
   5321399703.2617340     
   5102099705.9876595     
   4037574387.5094876     
   3927957695.9707203     
   3820495998.4303570     
   3715347425.6984992     
   3612721063.0917244     
   4272666176.8912554     
   4153723451.1471653     
   4036169969.8957076     
   3920118641.2630334     
   3805723072.1964478     
   4531586973.3412695     
   4404256922.2023745     
   4277718682.0002985     
   4152045090.6067762     
   4027339230.6612735     
   4809423404.7602682     
   4674682994.4762030     
   4540291502.7063122     
   4406289960.5397291     
   4272740385.6176329     
   5102099705.9876595     
   4960919990.1492348     
   4819781587.5809307     
   4678702637.3323774     
   4537714835.1499300     
   3612721063.0917244     
   3458391219.9840879     
   3307257238.3957953     
   3159712408.2897019     
   3016276982.9895687     
   3805723072.1964478     
   3638006763.3794093     
   3472294941.4368916     
   3308862052.4295120     
   3148093747.5715685     
   4027339230.6612735     
   3847150537.4398203     
   3667918516.5394640     
   3489795597.5597401     
   3313022821.7299981     
   4272740385.6176329     
   4081048181.2936549     
   3889432448.7592487     
   3697935320.4022098     
   3506664194.5070429     
   4537714835.1499300     
   4335474592.3943014     
   4132600680.0504208     
   3929044522.4226298     
   3724802926.7554083     
   3016276982.9895687     
   2887740665.7415466     
   2761296286.5349536     
   2637233859.4181619     
   2515925048.7803802     
   3148093747.5715685     
   3009226539.2282820     
   2872189732.9672604     
   2737184063.4890633     
   2604482039.1076155     
   3313022821.7299981     
   3164310599.6043916     
   3017193589.6320658     
   2871792945.2300763     
   2728297231.4419608     
   3506664194.5070429     
   3348155731.8018413     
   3191024629.8800473     
   3035326463.7840137     
   2881186611.6587615     
   3724802926.7554083     
   3556149554.3990397     
   3388660760.1024547     
   3222341519.7522259     
   3057275702.3251123     
   2515925048.7803802     
   2375213292.1930666     
   2238352902.7599120     
   2105866316.1850562     
   1978437199.2782500     
   2604482039.1076155     
   2454293384.6755018     
   2306181384.4412851     
   2160478151.4149199     
   2017632827.2919550     
   2728297231.4419608     
   2570753578.1440163     
   2413834693.9100485     
   2257685645.8237085     
   2102515628.3813028     
   2881186611.6587615     
   2718704786.1264133     
   2555793241.1559620     
   2392466667.8912487     
   2228769478.4198623     
   3057275702.3251123     
   2892312617.4588532     
   2726251864.7532697     
   2559051897.5297818     
   2390696692.3339686     
   1978437199.2782500     
   1847829426.8500102     
   1717253742.4805005     
   1587066228.5321906     
   1457786747.2081342     
   2017632827.2919550     
   1880808993.1357191     
   1744324662.9476538     
   1608306423.7811372     
   1472928293.0133440     
   2102515628.3813028     
   1962217867.2948589     
   1822945526.6511405     
   1684722311.0782831     
   1547602245.1503847     
   2228769478.4198623     
   2085956562.1517482     
   1944932095.7123625     
   1805687081.6715412     
   1668299840.2258549     
   2390696692.3339686     
   2244638573.3897581     
   2100980758.7763205     
   1959712894.5650034     
   1821015698.5139976     
   1457786747.2081342     
   1348776367.0845351     
   1274762228.9115894     
   1243863596.0404816     
   1263118082.7207446     
   1472928293.0133440     
   1328713593.2447290     
   1198974392.2305870     
   1088196659.5313208     
   1002287860.6055892     
   1547602245.1503847     
   1397754894.1503997     
   1244325704.0414147     
   1085046523.2242832     
   917886828.49627542     
   1668299840.2258549     
   1552923614.3592601     
   1428363831.0522125     
   1294988534.5518208     
   1158934113.1276023     
   1821015698.5139976     
   1780419328.5453396     
   1736176978.4040310     
   1696969146.0787749     
   1681357141.2782996     
   1263118082.7207446     
   1446808828.9633043     
   1715741375.8472962     
   2110475976.8887107     
   2663417302.2904797     
   1002287860.6055892     
   1164845806.4804800     
   1425441303.5472190     
   1808676227.6696520     
   2334644129.4470820     
   917886828.49627542     
   963199622.02404189     
   1144912297.6596074     
   1476412938.5717919     
   1957429422.2084608     
   1158934113.1276023     
   1008416537.8299816     
   985177917.66724253     
   1161491299.2038016     
   1544300357.1541348     
   1681357141.2782996     
   1383725048.8401134     
   1129434083.0989687     
   1010257534.9761388     
   1153544700.0090525     
 </DataArray>
 <DataArray  type="Float64" Name="strain" NumberOfComponents="3" format="ascii">
  0.10065450841647428       -1.8306728408528206E-002   6.5306364483852519E-004
   9.6794261384454572E-002  -2.1682203412644041E-002   8.3660163040166768E-004
   9.2934014352434646E-002  -2.3878721862537811E-002   7.6633121695146578E-004
   8.9073767320414887E-002  -2.4896283758210097E-002   4.4225240448875214E-004
   8.5213520288395128E-002  -2.4734889099660484E-002  -1.3563480698686181E-004
   9.6269269713945338E-002  -2.0011635782980597E-002   5.6108952267102108E-003
   9.2231596202225041E-002  -2.2121802504459442E-002   6.1611512647234412E-003
   8.8193922690504745E-002  -2.3414923594035270E-002   6.6103627423483857E-003
   8.4156249178784365E-002  -2.3890999051708071E-002   6.9585296595850998E-003
   8.0118575667064040E-002  -2.3550028877477147E-002   7.2056520164336946E-003
   9.1176366051492042E-002  -2.1716543157432933E-002   1.2014990552377536E-002
   8.7114029898695711E-002  -2.2561401596275232E-002   1.2570053720522972E-002
   8.3051693745899352E-002  -2.2951125325533006E-002   1.3176836166904127E-002
   7.8989357593103049E-002  -2.2885714345205824E-002   1.3835337891522165E-002
   7.4927021440306690E-002  -2.2365168655293977E-002   1.4545558894375893E-002
   8.5375797429114525E-002  -2.3421450531885324E-002   1.9865349621840972E-002
   8.1441562473866649E-002  -2.3001000688091078E-002   2.0063308997799602E-002
   7.7507327518618802E-002  -2.2487327057030604E-002   2.0465751490619327E-002
   7.3573092563370870E-002  -2.1880429638703798E-002   2.1072677100299322E-002
   6.9638857608123064E-002  -2.1180308433110723E-002   2.1884085826840240E-002
   7.8867563846812705E-002  -2.5126357906337660E-002   2.9161972435100159E-002
   7.5214193927737760E-002  -2.3440599779906812E-002   2.8640917096553919E-002
   7.1560824008662871E-002  -2.2023528788528188E-002   2.8477108713492877E-002
   6.7907454089587954E-002  -2.0875144932201755E-002   2.8670547285916934E-002
   6.4254084170513037E-002  -1.9995448210927469E-002   2.9221232813826437E-002
   8.5213520288395128E-002  -2.4734889099660484E-002  -1.3563480698686181E-004
   8.2870241146717427E-002  -2.3985407044506579E-002  -6.9245845888188384E-005
   8.0526962005039782E-002  -2.3238706750364629E-002   1.0050848380049882E-004
   7.8183682863362081E-002  -2.2494788217235238E-002   3.7362818207900550E-004
   7.5840403721684435E-002  -2.1753651445118316E-002   7.5011324894835862E-004
   8.0118575667064040E-002  -2.3550028877477147E-002   7.2056520164336946E-003
   7.7886557206784252E-002  -2.2801664857799386E-002   7.1808068339029307E-003
   7.5654538746504463E-002  -2.2055558779130346E-002   7.2751176455778666E-003
   7.3422520286224702E-002  -2.1311710641470222E-002   7.4885844514582661E-003
   7.1190501825944830E-002  -2.0570120444818873E-002   7.8212072515445596E-003
   7.4927021440306690E-002  -2.2365168655293977E-002   1.4545558894375893E-002
   7.2822054287040236E-002  -2.1617922671092471E-002   1.4430003388219703E-002
   7.0717087133773698E-002  -2.0872410807895966E-002   1.4449394501884191E-002
   6.8612119980507230E-002  -2.0128633065704987E-002   1.4603732235369968E-002
   6.6507152827240734E-002  -1.9386589444519264E-002   1.4893016588676533E-002
   6.9638857608123064E-002  -2.1180308433110723E-002   2.1884085826840240E-002
   6.7676732387485256E-002  -2.0434180484385417E-002   2.1678343817061851E-002
   6.5714607166847544E-002  -1.9689262836661801E-002   2.1623339052719768E-002
   6.3752481946209763E-002  -1.8945555489939862E-002   2.1719071533814110E-002
   6.1790356725572017E-002  -1.8203058444219739E-002   2.1965541260345056E-002
   6.4254084170513037E-002  -1.9995448210927469E-002   2.9221232813826437E-002
   6.2450591508119463E-002  -1.9250438297678418E-002   2.8925828120429320E-002
   6.0647098845725889E-002  -1.8506114865427470E-002   2.8796951298084128E-002
   5.8843606183332328E-002  -1.7762477914174776E-002   2.8834602346791000E-002
   5.7040113520938740E-002  -1.7019527443920324E-002   2.9038781266549518E-002
   7.5840403721684435E-002  -2.1753651445118316E-002   7.5011324894835862E-004
   7.2416485857592194E-002  -2.0985619348524387E-002   3.9846778815799677E-004
   6.8992567993499843E-002  -2.0161014841963865E-002   2.3896656770650004E-004
   6.5568650129407574E-002  -1.9279837925436777E-002   2.7160958759292475E-004
   6.2144732265315250E-002  -1.8342088598944151E-002   4.9639684781888072E-004
   7.1190501825944830E-002  -2.0570120444818873E-002   7.8212072515445596E-003
   6.7959366133328480E-002  -1.9809161457204350E-002   7.4855365853775391E-003
   6.4728230440712048E-002  -1.9007206946654892E-002   7.3432860218240747E-003
   6.1497094748095629E-002  -1.8164256913170300E-002   7.3944555608834450E-003
   5.8265959055479211E-002  -1.7280311356750344E-002   7.6390452025570932E-003
   6.6507152827240734E-002  -1.9386589444519264E-002   1.4893016588676533E-002
   6.3470075168374857E-002  -1.8632703565884368E-002   1.4557743830102221E-002
   6.0432997509508993E-002  -1.7853399051345586E-002   1.4417167036415560E-002
   5.7395919850643150E-002  -1.7048675900903046E-002   1.4471286207616882E-002
   5.4358842191777224E-002  -1.6218534114556815E-002   1.4720101343706132E-002
   6.1790356725572017E-002  -1.8203058444219739E-002   2.1965541260345056E-002
   5.8948612962731482E-002  -1.7456245674564247E-002   2.1615089522331397E-002
   5.6106869199890733E-002  -1.6699591156036336E-002   2.1460609611480268E-002
   5.3265125437050073E-002  -1.5933094888635958E-002   2.1502101527791757E-002
   5.0423381674209462E-002  -1.5156756872363369E-002   2.1739565271266088E-002
   5.7040113520938740E-002  -1.7019527443920324E-002   2.9038781266549518E-002
   5.4394979516397990E-002  -1.6279787783244404E-002   2.8657573662065450E-002
   5.1749845511857323E-002  -1.5545783260727197E-002   2.8473613747018678E-002
   4.9104711507316615E-002  -1.4817513876369148E-002   2.8486901521409022E-002
   4.6459577502775906E-002  -1.4094979630169813E-002   2.8697436985236746E-002
   6.2144732265315250E-002  -1.8342088598944151E-002   4.9639684781888072E-004
   5.9352406676186797E-002  -1.7419987636629775E-002   3.2378400835952892E-004
   5.6560081087058234E-002  -1.6585755812639741E-002   3.3526067596317821E-004
   5.3767755497929753E-002  -1.5839393126974154E-002   5.3082685063049473E-004
   5.0975429908801217E-002  -1.5180899579633422E-002   9.1048253236092336E-004
   5.8265959055479211E-002  -1.7280311356750344E-002   7.6390452025570932E-003
   5.5649885049371794E-002  -1.6405653901192474E-002   7.3565303536983206E-003
   5.3033811043264489E-002  -1.5590568170293195E-002   7.2424291638186200E-003
   5.0417737037157073E-002  -1.4835054164052550E-002   7.2967416329185464E-003
   4.7801663031049768E-002  -1.4139111882470523E-002   7.5194677609971006E-003
   5.4358842191777224E-002  -1.6218534114556815E-002   1.4720101343706132E-002
   5.1903343920607026E-002  -1.5391320165755229E-002   1.4355981899113579E-002
   4.9447845649436786E-002  -1.4595380527946886E-002   1.4144600265416210E-002
   4.6992347378266595E-002  -1.3830715201131171E-002   1.4085956442613894E-002
   4.4536849107096377E-002  -1.3097324185308512E-002   1.4180050430706748E-002
   5.0423381674209462E-002  -1.5156756872363369E-002   2.1739565271266088E-002
   4.8112783289892228E-002  -1.4376986430317956E-002   2.1322138644605734E-002
   4.5802184905575083E-002  -1.3600192885600125E-002   2.1041773980756153E-002
   4.3491586521257918E-002  -1.2826376238209458E-002   2.0898471279717695E-002
   4.1180988136940704E-002  -1.2055536488146057E-002   2.0892230541490392E-002
   4.6459577502775906E-002  -1.4094979630169813E-002   2.8697436985236746E-002
   4.4278203157227691E-002  -1.3362652694880905E-002   2.8255000590173940E-002
   4.2096828811679449E-002  -1.2605005243253725E-002   2.7933950309838196E-002
   3.9915454466131248E-002  -1.1822037275287890E-002   2.7734286144229181E-002
   3.7734080120583047E-002  -1.1013748790983713E-002   2.7656008093347562E-002
   5.0975429908801217E-002  -1.5180899579633422E-002   9.1048253236092336E-004
   4.8189231816823108E-002  -1.4522043109999050E-002   5.8820368233147846E-004
   4.5403033724844943E-002  -1.3774591657454316E-002   3.1540644655525529E-004
   4.2616835632866806E-002  -1.2938545222000108E-002   9.2090825033364077E-005
   3.9830637540888669E-002  -1.2013903803635317E-002  -8.1743182235527456E-005
   4.7801663031049768E-002  -1.4139111882470523E-002   7.5194677609971006E-003
   4.5075064808231202E-002  -1.3444285353347518E-002   7.1892277209978372E-003
   4.2348466585412498E-002  -1.2692118604482383E-002   6.9287058050638284E-003
   3.9621868362593946E-002  -1.1882611635875118E-002   6.7379020131946854E-003
   3.6895270139775282E-002  -1.1015764447525278E-002   6.6168163453917961E-003
   4.4536849107096377E-002  -1.3097324185308512E-002   1.4180050430706748E-002
   4.1890087263249109E-002  -1.2366527596695542E-002   1.3810594437569240E-002
   3.9243325419401884E-002  -1.1609645551508896E-002   1.3531093078308298E-002
   3.6596563575554610E-002  -1.0826678049749017E-002   1.3341546352925074E-002
   3.3949801731707391E-002  -1.0017625091415572E-002   1.3241954261419109E-002
   4.1180988136940704E-002  -1.2055536488146057E-002   2.0892230541490392E-002
   3.8634299181876761E-002  -1.1288769840043567E-002   2.0452303832045618E-002
   3.6087610226812783E-002  -1.0527172498536519E-002   2.0122568266290018E-002
   3.3540921271748840E-002  -9.7707444636233598E-003   1.9903023844223759E-002
   3.0994232316684793E-002  -9.0194857353056990E-003   1.9793670565846966E-002
   3.7734080120583047E-002  -1.1013748790983713E-002   2.7656008093347562E-002
   3.5307700564114142E-002  -1.0211012083392035E-002   2.7114355904427512E-002
   3.2881321007645403E-002  -9.4446994455633648E-003   2.6703131369008815E-002
   3.0454941451176526E-002  -8.7148108774978972E-003   2.6422334487091248E-002
   2.8028561894707704E-002  -8.0213463791956041E-003   2.6271965258674368E-002
   3.9830637540888669E-002  -1.2013903803635317E-002  -8.1743182235527456E-005
   3.7430467896597985E-002  -1.1135528184699095E-002  -3.2925999931587846E-004
   3.5030298252307412E-002  -1.0438279147530927E-002  -4.9386277284069191E-004
   3.2630128608016812E-002  -9.9221566921306736E-003  -5.7555150280808043E-004
   3.0229958963726156E-002  -9.5871608184980861E-003  -5.7432618921882117E-004
   3.6895270139775282E-002  -1.1015764447525278E-002   6.6168163453917961E-003
   3.4561253480143772E-002  -1.0180278229802830E-002   6.1918430910770095E-003
   3.2227236820512289E-002  -9.4648541730764091E-003   5.8162617625241442E-003
   2.9893220160880737E-002  -8.8694922773456808E-003   5.4900723597324508E-003
   2.7559203501249296E-002  -8.3941925426109787E-003   5.2132748827022901E-003
   3.3949801731707391E-002  -1.0017625091415572E-002   1.3241954261419109E-002
   3.1648415938939911E-002  -9.2250282749069545E-003   1.2700588990642747E-002
   2.9347030146172445E-002  -8.4914291986223911E-003   1.2175093527832970E-002
   2.7045644353405028E-002  -7.8168278625611459E-003   1.1665467872989180E-002
   2.4744258560637528E-002  -7.2012242667237603E-003   1.1171712026112945E-002
   3.0994232316684793E-002  -9.0194857353056990E-003   1.9793670565846966E-002
   2.8691955272986486E-002  -8.2697783200108843E-003   1.9196977699380294E-002
   2.6389678229288126E-002  -7.5180042241679013E-003   1.8582632523085715E-002
   2.4087401185589739E-002  -6.7641634477763821E-003   1.7950635036962710E-002
   2.1785124141891404E-002  -6.0082559908362643E-003   1.7300985241011133E-002
   2.8028561894707704E-002  -8.0213463791956041E-003   2.6271965258674368E-002
   2.5691871482283468E-002  -7.3145283651148141E-003   2.5681009217290662E-002
   2.3355181069859177E-002  -6.5445792497136612E-003   2.5038878748283477E-002
   2.1018490657434941E-002  -5.7114990329913476E-003   2.4345573851652785E-002
   1.8681800245010649E-002  -4.8152877149492124E-003   2.3601094527398558E-002
   3.0229958963726156E-002  -9.5871608184980861E-003  -5.7432618921882117E-004
   2.9616779515930669E-002  -9.1353980824339098E-003  -3.4580765760194865E-004
   2.9003600068135182E-002  -8.2689750397382800E-003  -1.7952973039596642E-003
   2.8390420620339640E-002  -6.9878916904113214E-003  -4.9227951282926896E-003
   2.7777241172544209E-002  -5.2921480344529925E-003  -9.7283011305995259E-003
   2.7559203501249296E-002  -8.3941925426109787E-003   5.2132748827022901E-003
   2.5536813926784585E-002  -7.8711658575059129E-003   5.8814901716741641E-003
   2.3514424352319985E-002  -7.1326231106668692E-003   5.4092933852821212E-003
   2.1492034777855329E-002  -6.1785643020929315E-003   3.7966845235267166E-003
   1.9469645203390673E-002  -5.0089894317837391E-003   1.0436635864079502E-003
   2.4744258560637528E-002  -7.2012242667237603E-003   1.1171712026112945E-002
   2.1850254962115373E-002  -6.6069336325787487E-003   1.2080479827542012E-002
   1.8956251363593163E-002  -5.9962711815956526E-003   1.2386431656219360E-002
   1.6062247765070967E-002  -5.3692369137740906E-003   1.2089567512144656E-002
   1.3168244166548798E-002  -4.7258308291140416E-003   1.1189887395318010E-002
   2.1785124141891404E-002  -6.0082559908362643E-003   1.7300985241011133E-002
   1.8557102621923109E-002  -5.3427014076513901E-003   1.8251161310002040E-002
   1.5329081101954724E-002  -4.8599192525243390E-003   1.9136117508851962E-002
   1.2101059581986432E-002  -4.5599095254554751E-003   1.9955853837562019E-002
   8.8730380620180363E-003  -4.4426722264443441E-003   2.0710370296131014E-002
   1.8681800245010649E-002  -4.8152877149492124E-003   2.3601094527398558E-002
   1.5657356906207731E-002  -4.0784691827238095E-003   2.4393534619053803E-002
   1.2632913567404730E-002  -3.7235673234527200E-003   2.5658350943180197E-002
   9.6084702286017565E-003  -3.7505821371367834E-003   2.7395543499777825E-002
   6.5840268897988108E-003  -4.1595136237749797E-003   2.9605112288846436E-002
   2.7777241172544209E-002  -5.2921480344529925E-003  -9.7283011305995259E-003
   2.3352220681233216E-002  -4.2046063232235031E-003  -4.1925447470265720E-003
   1.8927200189922277E-002  -4.7481288080810646E-003   2.6055092082950537E-003
   1.4502179698611312E-002  -6.9227154890276199E-003   1.0665860735364241E-002
   1.0077159207300346E-002  -1.0728366366062225E-002   1.9988509834181656E-002
   1.9469645203390673E-002  -5.0089894317837391E-003   1.0436635864079502E-003
   1.6234905389031717E-002  -4.6893242068088981E-003   6.7403982332508994E-003
   1.3000165574672762E-002  -6.2849943342389580E-003   1.3555396662250363E-002
   9.7654257603137229E-003  -9.7959998140740995E-003   2.1488658873404898E-002
   6.5306859459546285E-003  -1.5222340646313004E-002   3.0540184866716391E-002
   1.3168244166548798E-002  -4.7258308291140416E-003   1.1189887395318010E-002
   1.0979751239550112E-002  -5.1740420903955142E-003   1.6763329149114048E-002
   8.7912583125514948E-003  -7.8218598603970735E-003   2.3311000895473999E-002
   6.6027653855527044E-003  -1.2669284139120579E-002   3.0832902634399362E-002
   4.4142724585541360E-003  -1.9716314926564671E-002   3.9329034365888749E-002
   8.8730380620180363E-003  -4.4426722264443441E-003   2.0710370296131014E-002
   7.5867582327882530E-003  -5.6587599739812977E-003   2.5876248000563110E-002
   6.3004784035582441E-003  -9.3587253865555220E-003   3.1872321907968959E-002
   5.0141985743283862E-003  -1.5542568464166837E-002   3.8698592018346814E-002
   3.7279187450985768E-003  -2.4210289206815450E-002   4.6355058331698229E-002
   6.5840268897988108E-003  -4.1595136237749797E-003   2.9605112288846436E-002
   6.0559263687460230E-003  -6.1434778575669702E-003   3.4079154787598709E-002
   5.5278258476933184E-003  -1.0895590912713610E-002   3.9239359699732301E-002
   4.9997253266404751E-003  -1.8415852789212893E-002   4.5085727025247796E-002
   4.4716248055878260E-003  -2.8704263487066672E-002   5.1618256764143666E-002
   7.8867563846812705E-002  -2.5126357906337660E-002   2.9161972435100159E-002
   7.5214193927737760E-002  -2.3440599779906812E-002   2.8640917096553919E-002
   7.1560824008662871E-002  -2.2023528788528188E-002   2.8477108713492877E-002
   6.7907454089587954E-002  -2.0875144932201755E-002   2.8670547285916934E-002
   6.4254084170513037E-002  -1.9995448210927469E-002   2.9221232813826437E-002
   7.2098074718431243E-002  -2.2501179210491162E-002   3.4549384758681523E-002
   6.8786338516536205E-002  -2.1173957870886800E-002   3.3972097438814380E-002
   6.5474602314641125E-002  -2.0029594617791580E-002   3.3720830597821716E-002
   6.2162866112746080E-002  -1.9068089451205500E-002   3.3795584235703502E-002
   5.8851129910851008E-002  -1.8289442371128506E-002   3.4196358352459877E-002
   6.5513739457815190E-002  -1.9876000514644721E-002   3.9535345771164701E-002
   6.2512410496489174E-002  -1.8907315961866872E-002   3.8987655518519848E-002
   5.9511081535163199E-002  -1.8035660447055006E-002   3.8734759268138790E-002
   5.6509752573837176E-002  -1.7261033970209221E-002   3.8776657020021296E-002
   5.3508423612511180E-002  -1.6583436531329543E-002   3.9113348774167667E-002
   5.9114558064964386E-002  -1.7250821818798237E-002   4.4119855472549777E-002
   5.6392409867596693E-002  -1.6640674052846902E-002   4.3687591335670600E-002
   5.3670261670228925E-002  -1.6041726276318443E-002   4.3518894724443771E-002
   5.0948113472861212E-002  -1.5453978489213063E-002   4.3613765638870303E-002
   4.8225965275493485E-002  -1.4877430691530524E-002   4.3972204078949598E-002
   5.2900530539878921E-002  -1.4625643122951781E-002   4.8302913862837082E-002
   5.0426336629858681E-002  -1.4374032143826931E-002   4.8071904890265915E-002
   4.7952142719838470E-002  -1.4047792105581866E-002   4.8073236966737237E-002
   4.5477948809818258E-002  -1.3646923008216721E-002   4.8306910092250535E-002
   4.3003754899798019E-002  -1.3171424851731617E-002   4.8772924266805961E-002
   6.4254084170513037E-002  -1.9995448210927469E-002   2.9221232813826437E-002
   6.2450591508119463E-002  -1.9250438297678418E-002   2.8925828120429320E-002
   6.0647098845725889E-002  -1.8506114865427470E-002   2.8796951298084128E-002
   5.8843606183332328E-002  -1.7762477914174776E-002   2.8834602346791000E-002
   5.7040113520938740E-002  -1.7019527443920324E-002   2.9038781266549518E-002
   5.8851129910851008E-002  -1.8289442371128506E-002   3.4196358352459877E-002
   5.7208156576637609E-002  -1.7603115251703022E-002   3.3953958919617333E-002
   5.5565183242424265E-002  -1.6918569967071320E-002   3.3866070272083340E-002
   5.3922209908210894E-002  -1.6235806517233390E-002   3.3932692409857884E-002
   5.2279236573997523E-002  -1.5554824902189401E-002   3.4153825332940979E-002
   5.3508423612511180E-002  -1.6583436531329543E-002   3.9113348774167667E-002
   5.2013952520734610E-002  -1.5955792205727543E-002   3.8922859248083988E-002
   5.0519481428958075E-002  -1.5331025068715004E-002   3.8874863421565514E-002
   4.9025010337181540E-002  -1.4709135120292004E-002   3.8969361294612231E-002
   4.7530539245404957E-002  -1.4090122360458424E-002   3.9206352867224042E-002
   4.8225965275493485E-002  -1.4877430691530524E-002   4.3972204078949598E-002
   4.6867979340410412E-002  -1.4308469159752077E-002   4.3832529105829202E-002
   4.5509993405327381E-002  -1.3743480170358882E-002   4.3823330746530616E-002
   4.4152007470244323E-002  -1.3182463723350562E-002   4.3944609001053875E-002
   4.2794021535161278E-002  -1.2625419818727474E-002   4.4196363869398750E-002
   4.3003754899798019E-002  -1.3171424851731617E-002   4.8772924266805961E-002
   4.1770237035665056E-002  -1.2661146113776722E-002   4.8682968492853196E-002
   4.0536719171532121E-002  -1.2155935272002538E-002   4.8711472246978638E-002
   3.9303201307399185E-002  -1.1655792326409176E-002   4.8858435529182800E-002
   3.8069683443266222E-002  -1.1160717276996579E-002   4.9123858339465143E-002
   5.7040113520938740E-002  -1.7019527443920324E-002   2.9038781266549518E-002
   5.4394979516397990E-002  -1.6279787783244404E-002   2.8657573662065450E-002
   5.1749845511857323E-002  -1.5545783260727197E-002   2.8473613747018678E-002
   4.9104711507316615E-002  -1.4817513876369148E-002   2.8486901521409022E-002
   4.6459577502775906E-002  -1.4094979630169813E-002   2.8697436985236746E-002
   5.2279236573997523E-002  -1.5554824902189401E-002   3.4153825332940979E-002
   4.9831902462936589E-002  -1.4874196537570994E-002   3.3783019648739893E-002
   4.7384568351875711E-002  -1.4192492839010085E-002   3.3610566062061337E-002
   4.4937234240814791E-002  -1.3509713806506743E-002   3.3636464572904784E-002
   4.2489900129753899E-002  -1.2825859440060761E-002   3.3860715181270817E-002
   4.7530539245404957E-002  -1.4090122360458424E-002   3.9206352867224042E-002
   4.5282109435909004E-002  -1.3468605291897612E-002   3.8852759575407375E-002
   4.3033679626413003E-002  -1.2839202417292916E-002   3.8698622789198306E-002
   4.0785249816917030E-002  -1.2201913736644171E-002   3.8743942508596613E-002
   3.8536820007421049E-002  -1.1556739249951653E-002   3.8988718733602323E-002
   4.2794021535161278E-002  -1.2625419818727474E-002   4.4196363869398750E-002
   4.0745600435315249E-002  -1.2063014046224271E-002   4.3866793442068217E-002
   3.8697179335469255E-002  -1.1485911995575832E-002   4.3737783928430071E-002
   3.6648758235623233E-002  -1.0894113666781821E-002   4.3809335328484487E-002
   3.4600337135777232E-002  -1.0287619059842573E-002   4.4081447642231437E-002
   3.8069683443266222E-002  -1.1160717276996579E-002   4.9123858339465143E-002
   3.6222375461155282E-002  -1.0657422800550875E-002   4.8825121248721792E-002
   3.4375067479044369E-002  -1.0132621573858636E-002   4.8728049479756175E-002
   3.2527759496933442E-002  -9.5863135969192492E-003   4.8832643032568068E-002
   3.0680451514822515E-002  -9.0184988697334378E-003   4.9138901907157695E-002
   4.6459577502775906E-002  -1.4094979630169813E-002   2.8697436985236746E-002
   4.4278203157227691E-002  -1.3362652694880905E-002   2.8255000590173940E-002
   4.2096828811679449E-002  -1.2605005243253725E-002   2.7933950309838196E-002
   3.9915454466131248E-002  -1.1822037275287890E-002   2.7734286144229181E-002
   3.7734080120583047E-002  -1.1013748790983713E-002   2.7656008093347562E-002
   4.2489900129753899E-002  -1.2825859440060761E-002   3.3860715181270817E-002
   4.0436680551529519E-002  -1.2131924543552747E-002   3.3463847810754233E-002
   3.8383460973305139E-002  -1.1418903920863310E-002   3.3201903860158033E-002
   3.6330241395080731E-002  -1.0686797571991702E-002   3.3074883329482926E-002
   3.4277021816856379E-002  -9.9356054969388374E-003   3.3082786218728288E-002
   3.8536820007421049E-002  -1.1556739249951653E-002   3.8988718733602323E-002
   3.6625292501714243E-002  -1.0901196392224644E-002   3.8631185597474887E-002
   3.4713764996007472E-002  -1.0232802598472659E-002   3.8422113186462034E-002
   3.2802237490300673E-002  -9.5515578686956211E-003   3.8361501500563618E-002
   3.0890709984593895E-002  -8.8574622028937955E-003   3.8449350539779770E-002
   3.4600337135777232E-002  -1.0287619059842573E-002   4.4081447642231437E-002
   3.2844039007781822E-002  -9.6704682408965681E-003   4.3757013950336349E-002
   3.1087740879786406E-002  -9.0467012760820711E-003   4.3594578288749949E-002
   2.9331442751790969E-002  -8.4163181653997641E-003   4.3594140657471525E-002
   2.7575144623795629E-002  -7.7793189088489478E-003   4.3755701056501284E-002
   3.0680451514822515E-002  -9.0184988697334378E-003   4.9138901907157695E-002
   2.9092920069732242E-002  -8.4397400895684926E-003   4.8841332869338672E-002
   2.7505388624641969E-002  -7.8605999536916632E-003   4.8719299167021751E-002
   2.5917857179551695E-002  -7.2810784621035358E-003   4.8772800800206614E-002
   2.4330325734461450E-002  -6.7011756148038781E-003   4.9001837768893886E-002
   3.7734080120583047E-002  -1.1013748790983713E-002   2.7656008093347562E-002
   3.5307700564114142E-002  -1.0211012083392035E-002   2.7114355904427512E-002
   3.2881321007645403E-002  -9.4446994455633648E-003   2.6703131369008815E-002
   3.0454941451176526E-002  -8.7148108774978972E-003   2.6422334487091248E-002
   2.8028561894707704E-002  -8.0213463791956041E-003   2.6271965258674368E-002
   3.4277021816856379E-002  -9.9356054969388374E-003   3.3082786218728288E-002
   3.1986033664217567E-002  -9.1868727176131482E-003   3.2586630057901578E-002
   2.9695045511578810E-002  -8.4621442559235371E-003   3.2230829051234283E-002
   2.7404057358940012E-002  -7.7614201118703999E-003   3.2015383198725683E-002
   2.5113069206301186E-002  -7.0847002854533825E-003   3.1940292500376277E-002
   3.0890709984593895E-002  -8.8574622028937955E-003   3.8449350539779770E-002
   2.8745040736443073E-002  -8.1627333518341505E-003   3.8011110159173300E-002
   2.6599371488292195E-002  -7.4795890662839315E-003   3.7723152433384130E-002
   2.4453702240141338E-002  -6.8080293462427915E-003   3.7585477362411870E-002
   2.2308032991990495E-002  -6.1480541917110498E-003   3.7598084946256133E-002
   2.7575144623795629E-002  -7.7793189088489478E-003   4.3755701056501284E-002
   2.5584721780790576E-002  -7.1385939860552083E-003   4.3387796208242325E-002
   2.3594298937785554E-002  -6.4970338766439928E-003   4.3180101515458320E-002
   2.1603876094780511E-002  -5.8546385806150167E-003   4.3132616978148970E-002
   1.9613453251775471E-002  -5.2114080979687172E-003   4.3245342596314233E-002
   2.4330325734461450E-002  -6.7011756148038781E-003   4.9001837768893886E-002
   2.2505076797260160E-002  -6.1144546202763217E-003   4.8716688205109104E-002
   2.0679827860058883E-002  -5.5144786870044704E-003   4.8601676297456764E-002
   1.8854578922857614E-002  -4.9012478149875680E-003   4.8656802045937364E-002
   1.7029329985656344E-002  -4.2747620042263845E-003   4.8882065450550627E-002
   2.8028561894707704E-002  -8.0213463791956041E-003   2.6271965258674368E-002
   2.5691871482283468E-002  -7.3145283651148141E-003   2.5681009217290662E-002
   2.3355181069859177E-002  -6.5445792497136612E-003   2.5038878748283477E-002
   2.1018490657434941E-002  -5.7114990329913476E-003   2.4345573851652785E-002
   1.8681800245010649E-002  -4.8152877149492124E-003   2.3601094527398558E-002
   2.5113069206301186E-002  -7.0847002854533825E-003   3.1940292500376277E-002
   2.2763212952658179E-002  -6.4113706398506998E-003   3.1537979048157028E-002
   2.0413356699015173E-002  -5.7208170382397616E-003   3.1160508341123827E-002
   1.8063500445372152E-002  -5.0130394806207276E-003   3.0807880379276481E-002
   1.5713644191729159E-002  -4.2880379669936186E-003   3.0480095162615295E-002
   2.2308032991990495E-002  -6.1480541917110498E-003   3.7598084946256133E-002
   2.0021028069938010E-002  -5.5082129145862524E-003   3.7338506937889315E-002
   1.7734023147885566E-002  -4.8970548267657371E-003   3.7179788847517839E-002
   1.5447018225833109E-002  -4.3145799282498822E-003   3.7121930675141294E-002
   1.3160013303780638E-002  -3.7607882190381359E-003   3.7164932420760272E-002
   1.9613453251775471E-002  -5.2114080979687172E-003   4.3245342596314233E-002
   1.7465316834122908E-002  -4.6050551893218050E-003   4.3082592886487352E-002
   1.5317180416470368E-002  -4.0732926152918306E-003   4.3096720267464986E-002
   1.3169043998817846E-002  -3.6161203758790384E-003   4.3287724739247233E-002
   1.1020907581165265E-002  -3.2335384710825421E-003   4.3655606301833620E-002
   1.7029329985656344E-002  -4.2747620042263845E-003   4.8882065450550627E-002
   1.5096079245213001E-002  -3.7018974640576352E-003   4.8770236893951102E-002
   1.3162828504769616E-002  -3.2495304038180628E-003   4.8911302600965489E-002
   1.1229577764326239E-002  -2.9176608235080906E-003   4.9305262571593539E-002
   9.2963270238828888E-003  -2.7062887231270594E-003   4.9952116805835334E-002
   1.8681800245010649E-002  -4.8152877149492124E-003   2.3601094527398558E-002
   1.5657356906207731E-002  -4.0784691827238095E-003   2.4393534619053803E-002
   1.2632913567404730E-002  -3.7235673234527200E-003   2.5658350943180197E-002
   9.6084702286017565E-003  -3.7505821371367834E-003   2.7395543499777825E-002
   6.5840268897988108E-003  -4.1595136237749797E-003   2.9605112288846436E-002
   1.5713644191729159E-002  -4.2880379669936186E-003   3.0480095162615295E-002
   1.3143520332701913E-002  -3.7733111318544732E-003   3.1259158673938969E-002
   1.0573396473674640E-002  -3.6963576096999962E-003   3.2474484912342838E-002
   8.0032726146474636E-003  -4.0571774005286332E-003   3.4126073877827567E-002
   5.4331487556201763E-003  -4.8557705043416055E-003   3.6213925570392158E-002
   1.3160013303780638E-002  -3.7607882190381359E-003   3.7164932420760272E-002
   1.1008095419138358E-002  -3.4681530809854699E-003   3.7874762711723048E-002
   8.8561775344961138E-003  -3.6691478959461482E-003   3.8984742224375132E-002
   6.7042596498538345E-003  -4.3637726639204795E-003   4.0494870958716879E-002
   4.5523417652115344E-003  -5.5520273849082868E-003   4.2405148914748197E-002
   1.1020907581165265E-002  -3.2335384710825421E-003   4.3655606301833620E-002
   9.2510821655171702E-003  -3.1629950301161891E-003   4.4240346732405747E-002
   7.4812567498690717E-003  -3.6419381821926403E-003   4.5189122879276719E-002
   5.7114313342209993E-003  -4.6703679273123275E-003   4.6501934742446356E-002
   3.9416059185728748E-003  -6.2482842654747184E-003   4.8178782321914949E-002
   9.2963270238828888E-003  -2.7062887231270594E-003   4.9952116805835334E-002
   7.8724805718382307E-003  -2.8578369792471858E-003   5.0355910735987663E-002
   6.4486341197935448E-003  -3.6147284684395209E-003   5.1087626877047487E-002
   5.0247876677488590E-003  -4.9769631907041062E-003   5.2147265229015860E-002
   3.6009412157042009E-003  -6.9445411460415940E-003   5.3534825791892171E-002
   6.5840268897988108E-003  -4.1595136237749797E-003   2.9605112288846436E-002
   6.0559263687460230E-003  -6.1434778575669702E-003   3.4079154787598709E-002
   5.5278258476933184E-003  -1.0895590912713610E-002   3.9239359699732301E-002
   4.9997253266404751E-003  -1.8415852789212893E-002   4.5085727025247796E-002
   4.4716248055878260E-003  -2.8704263487066672E-002   5.1618256764143666E-002
   5.4331487556201763E-003  -4.8557705043416055E-003   3.6213925570392158E-002
   5.4871902120246785E-003  -6.9909459671746998E-003   3.8352248663785449E-002
   5.5412316684292640E-003  -1.1361512835063647E-002   4.0968693298711722E-002
   5.5952731248336551E-003  -1.7967471108008712E-002   4.4063259475171423E-002
   5.6493145812384071E-003  -2.6808820786009768E-002   4.7635947193164219E-002
   4.5523417652115344E-003  -5.5520273849082868E-003   4.2405148914748197E-002
   4.9804843272251709E-003  -7.8384140767817079E-003   4.2740510019080247E-002
   5.4086268892388281E-003  -1.1827434757413921E-002   4.3345951793097262E-002
   5.8367694512523535E-003  -1.7519089426804146E-002   4.4221474236799681E-002
   6.2649120132660663E-003  -2.4913378084952864E-002   4.5367077350186413E-002
   3.9416059185728748E-003  -6.2482842654747184E-003   4.8178782321914949E-002
   4.5358087143474550E-003  -8.6858821863888547E-003   4.7243938853483367E-002
   5.1300115101220074E-003  -1.2293356679763966E-002   4.6371135182888448E-002
   5.7242143058965963E-003  -1.7070707745599552E-002   4.5560371310130417E-002
   6.3184171016712476E-003  -2.3017935383895849E-002   4.4811647235209418E-002
   3.6009412157042009E-003  -6.9445411460415940E-003   5.3534825791892171E-002
   4.1531633733915274E-003  -9.5333502959962235E-003   5.1862535166994572E-002
   4.7053855310788539E-003  -1.2759278602114121E-002   5.0044243468085670E-002
   5.2576076887661249E-003  -1.6622326064395204E-002   4.8079950695166074E-002
   5.8098298464535070E-003  -2.1122492682839056E-002   4.5969656848233953E-002
   5.2900530539878921E-002  -1.4625643122951781E-002   4.8302913862837082E-002
   5.0426336629858681E-002  -1.4374032143826931E-002   4.8071904890265915E-002
   4.7952142719838470E-002  -1.4047792105581866E-002   4.8073236966737237E-002
   4.5477948809818258E-002  -1.3646923008216721E-002   4.8306910092250535E-002
   4.3003754899798019E-002  -1.3171424851731617E-002   4.8772924266805961E-002
   4.6598780605963092E-002  -1.2804792509087171E-002   5.2825739896572133E-002
   4.4386964243872729E-002  -1.2571393809029358E-002   5.2331575065295927E-002
   4.2175147881782324E-002  -1.2277811512425796E-002   5.2129824280837317E-002
   3.9963331519691968E-002  -1.1924045619276541E-002   5.2220487543196331E-002
   3.7751515157601598E-002  -1.1510096129581426E-002   5.2603564852373053E-002
   3.9936431986621349E-002  -1.0983941895222560E-002   5.7337576382527497E-002
   3.8047066170236316E-002  -1.0768755474231784E-002   5.6565810229971758E-002
   3.6157700353851234E-002  -1.0507830919269677E-002   5.6146531122008909E-002
   3.4268334537466180E-002  -1.0201168230336196E-002   5.6079739058639194E-002
   3.2378968721081119E-002  -9.8487674074313469E-003   5.6365434039862494E-002
   3.2913484681853733E-002  -9.1630912813579629E-003   6.1838423320702995E-002
   3.1406642408949449E-002  -8.9661171394341821E-003   6.0774610384293215E-002
   2.9899800136045152E-002  -8.7378503261134714E-003   6.0123357490251932E-002
   2.8392957863140843E-002  -8.4782908413958517E-003   5.9884664638579076E-002
   2.6886115590236532E-002  -8.1874386852811842E-003   6.0058531829274786E-002
   2.5529938691660231E-002  -7.3422406674933383E-003   6.6328280711098697E-002
   2.4465692960012136E-002  -7.1634788046366360E-003   6.4957975528260437E-002
   2.3401447228364070E-002  -6.9678697329574463E-003   6.4060303385566314E-002
   2.2337201496716003E-002  -6.7554134524556060E-003   6.3635264283015899E-002
   2.1272955765067908E-002  -6.5261099631311326E-003   6.3682858220609651E-002
   4.3003754899798019E-002  -1.3171424851731617E-002   4.8772924266805961E-002
   4.1770237035665056E-002  -1.2661146113776722E-002   4.8682968492853196E-002
   4.0536719171532121E-002  -1.2155935272002538E-002   4.8711472246978638E-002
   3.9303201307399185E-002  -1.1655792326409176E-002   4.8858435529182800E-002
   3.8069683443266222E-002  -1.1160717276996579E-002   4.9123858339465143E-002
   3.7751515157601598E-002  -1.1510096129581426E-002   5.2603564852373053E-002
   3.6646504490882748E-002  -1.1066733861263764E-002   5.2400137085691120E-002
   3.5541493824163890E-002  -1.0624729632246865E-002   5.2335264185758928E-002
   3.4436483157445033E-002  -1.0184083442530287E-002   5.2408946152576436E-002
   3.3331472490726183E-002  -9.7447952921143610E-003   5.2621182986143877E-002
   3.2378968721081119E-002  -9.8487674074313469E-003   5.6365434039862494E-002
   3.1422560590447693E-002  -9.4723216087510276E-003   5.6052244137331758E-002
   3.0466152459814252E-002  -9.0935239924910261E-003   5.5897704440222046E-002
   2.9509744329180809E-002  -8.7123745586513979E-003   5.5901814948533371E-002
   2.8553336198547413E-002  -8.3288733072321153E-003   5.6064575662265942E-002
   2.6886115590236532E-002  -8.1874386852811842E-003   6.0058531829274786E-002
   2.6098405334359864E-002  -7.8779093562381525E-003   5.9639289647775373E-002
   2.5310695078483179E-002  -7.5623183527352422E-003   5.9398793010368225E-002
   2.4522984822606498E-002  -7.2406656747724257E-003   5.9337041917053704E-002
   2.3735274566729799E-002  -6.9129513223498834E-003   5.9454036367831434E-002
   2.1272955765067908E-002  -6.5261099631311326E-003   6.3682858220609651E-002
   2.0674038722619303E-002  -6.2834971037253884E-003   6.3161273617021674E-002
   2.0075121680170706E-002  -6.0311127129794723E-003   6.2838529896197481E-002
   1.9476204637722112E-002  -5.7689567908936375E-003   6.2714627058137087E-002
   1.8877287595273504E-002  -5.4970293374676515E-003   6.2789565102840394E-002
   3.8069683443266222E-002  -1.1160717276996579E-002   4.9123858339465143E-002
   3.6222375461155282E-002  -1.0657422800550875E-002   4.8825121248721792E-002
   3.4375067479044369E-002  -1.0132621573858636E-002   4.8728049479756175E-002
   3.2527759496933442E-002  -9.5863135969192492E-003   4.8832643032568068E-002
   3.0680451514822515E-002  -9.0184988697334378E-003   4.9138901907157695E-002
   3.3331472490726183E-002  -9.7447952921143610E-003   5.2621182986143877E-002
   3.1692229738946379E-002  -9.2975211387399392E-003   5.2308338862047499E-002
   3.0052986987166574E-002  -8.8329169401479279E-003   5.2209959876835549E-002
   2.8413744235386756E-002  -8.3509826963384798E-003   5.2326046030508208E-002
   2.6774501483606938E-002  -7.8517184073113588E-003   5.2656597323065657E-002
   2.8553336198547413E-002  -8.3288733072321153E-003   5.6064575662265942E-002
   2.7134958494205677E-002  -7.9376194769287534E-003   5.5733447799787089E-002
   2.5716580789863962E-002  -7.5332123064373313E-003   5.5629584893299999E-002
   2.4298203085522222E-002  -7.1156517957573773E-003   5.5752986942804381E-002
   2.2879825381180538E-002  -6.6849379448893076E-003   5.6103653948300372E-002
   2.3735274566729799E-002  -6.9129513223498834E-003   5.9454036367831434E-002
   2.2550561726933215E-002  -6.5777178151177479E-003   5.9100448061940980E-002
   2.1365848887136586E-002  -6.2335076727266792E-003   5.8986924529149221E-002
   2.0181136047339975E-002  -5.8803208951765523E-003   5.9113465769456003E-002
   1.8996423207543380E-002  -5.5181574824672425E-003   5.9480071782861382E-002
   1.8877287595273504E-002  -5.4970293374676515E-003   6.2789565102840394E-002
   1.7939039437128948E-002  -5.2178161533066592E-003   6.2409339648509143E-002
   1.7000791278984427E-002  -4.9338030390160270E-003   6.2281978784383518E-002
   1.6062543120839889E-002  -4.6449899945954221E-003   6.2407482510463463E-002
   1.5124294962695350E-002  -4.3513770200451773E-003   6.2785850826749035E-002
   3.0680451514822515E-002  -9.0184988697334378E-003   4.9138901907157695E-002
   2.9092920069732242E-002  -8.4397400895684926E-003   4.8841332869338672E-002
   2.7505388624641969E-002  -7.8605999536916632E-003   4.8719299167021751E-002
   2.5917857179551695E-002  -7.2810784621035358E-003   4.8772800800206614E-002
   2.4330325734461450E-002  -6.7011756148038781E-003   4.9001837768893886E-002
   2.6774501483606938E-002  -7.8517184073113588E-003   5.2656597323065657E-002
   2.5365633474743007E-002  -7.3423368853555160E-003   5.2375073202936162E-002
   2.3956765465879062E-002  -6.8300509427592360E-003   5.2275340619757249E-002
   2.2547897457015097E-002  -6.3148605795226298E-003   5.2357399573528710E-002
   2.1139029448151159E-002  -5.7967657956459195E-003   5.2621250064251113E-002
   2.2879825381180538E-002  -6.6849379448893076E-003   5.6103653948300372E-002
   2.1655877009991553E-002  -6.2449336811425948E-003   5.5840697810788986E-002
   2.0431928638802561E-002  -5.7995019318266908E-003   5.5765789411676724E-002
   1.9207980267613559E-002  -5.3486426969418886E-003   5.5878928750963786E-002
   1.7984031896424578E-002  -4.8923559764879609E-003   5.6180115828649874E-002
   1.8996423207543380E-002  -5.5181574824672425E-003   5.9480071782861382E-002
   1.7963650675477932E-002  -5.1475304769295904E-003   5.9238206692896866E-002
   1.6930878143412487E-002  -4.7689529208941490E-003   5.9190645542780022E-002
   1.5898105611347035E-002  -4.3824248143609539E-003   5.9337388332511266E-002
   1.4865333079281588E-002  -3.9879461573300024E-003   5.9678435062090314E-002
   1.5124294962695350E-002  -4.3513770200451773E-003   6.2785850826749035E-002
   1.4288954471202084E-002  -4.0501272727165860E-003   6.2567599849260080E-002
   1.3453613979708817E-002  -3.7384039099618294E-003   6.2549909013067673E-002
   1.2618273488215558E-002  -3.4162069317801580E-003   6.2732778318171561E-002
   1.1782932996722284E-002  -3.0835363381720438E-003   6.3116207764572163E-002
   2.4330325734461450E-002  -6.7011756148038781E-003   4.9001837768893886E-002
   2.2505076797260160E-002  -6.1144546202763217E-003   4.8716688205109104E-002
   2.0679827860058883E-002  -5.5144786870044704E-003   4.8601676297456764E-002
   1.8854578922857614E-002  -4.9012478149875680E-003   4.8656802045937364E-002
   1.7029329985656344E-002  -4.2747620042263845E-003   4.8882065450550627E-002
   2.1139029448151159E-002  -5.7967657956459195E-003   5.2621250064251113E-002
   1.9494273856400374E-002  -5.2746064633599210E-003   5.2391994731829150E-002
   1.7849518264649547E-002  -4.7472224548955333E-003   5.2353588434175341E-002
   1.6204762672898741E-002  -4.2146137702532213E-003   5.2506031171289644E-002
   1.4560007081147935E-002  -3.6767804094325340E-003   5.2849322943172294E-002
   1.7984031896424578E-002  -4.8923559764879609E-003   5.6180115828649874E-002
   1.6540481028759754E-002  -4.4347583064434926E-003   5.5998724465024435E-002
   1.5096930161094892E-002  -3.9799662227872762E-003   5.6028893514802627E-002
   1.3653379293430039E-002  -3.5279797255189337E-003   5.6270622977984498E-002
   1.2209828425765214E-002  -3.0787988146387391E-003   5.6723912854570485E-002
   1.4865333079281588E-002  -3.9879461573300024E-003   5.9678435062090314E-002
   1.3643698314338260E-002  -3.5949101495273555E-003   5.9536877404695022E-002
   1.2422063549394902E-002  -3.2127099906787346E-003   5.9627591539339081E-002
   1.1200428784451556E-002  -2.8413456807844500E-003   5.9950577466022226E-002
   9.9787940195082154E-003  -2.4808172198446943E-003   6.0505835184744693E-002
   1.1782932996722284E-002  -3.0835363381720438E-003   6.3116207764572163E-002
   1.0803925713135959E-002  -2.7550619926107744E-003   6.3006453550840891E-002
   9.8249184295496200E-003  -2.4454537585701930E-003   6.3149682507784188E-002
   8.8459111459632811E-003  -2.1547116360503826E-003   6.3545894635402667E-002
   7.8669038623769560E-003  -1.8828356250510936E-003   6.4195089933695604E-002
   1.7029329985656344E-002  -4.2747620042263845E-003   4.8882065450550627E-002
   1.5096079245213001E-002  -3.7018974640576352E-003   4.8770236893951102E-002
   1.3162828504769616E-002  -3.2495304038180628E-003   4.8911302600965489E-002
   1.1229577764326239E-002  -2.9176608235080906E-003   4.9305262571593539E-002
   9.2963270238828888E-003  -2.7062887231270594E-003   4.9952116805835334E-002
   1.4560007081147935E-002  -3.6767804094325340E-003   5.2849322943172294E-002
   1.2879289942710370E-002  -3.1951876504862642E-003   5.2737176294162136E-002
   1.1198572804272777E-002  -2.8313007714671212E-003   5.2877202585549427E-002
   9.5178556658352051E-003  -2.5851197723753341E-003   5.3269401817334708E-002
   7.8371385273976468E-003  -2.4566446532104935E-003   5.3913773989517966E-002
   1.2209828425765214E-002  -3.0787988146387391E-003   5.6723912854570485E-002
   1.0780923566117283E-002  -2.6884778369148099E-003   5.6614239713151576E-002
   9.3520187064693762E-003  -2.4130711391161658E-003   5.6756018188914667E-002
   7.9231138468214436E-003  -2.2525787212425742E-003   5.7149248281859071E-002
   6.4942089871735387E-003  -2.2070005832940387E-003   5.7793929991985127E-002
   9.9787940195082154E-003  -2.4808172198446943E-003   6.0505835184744693E-002
   8.8009801154338083E-003  -2.1817680233435083E-003   6.0401427150919833E-002
   7.6231662113594107E-003  -1.9948415067654393E-003   6.0547749411060392E-002
   6.4453523072849888E-003  -1.9200376701098160E-003   6.0944801965166231E-002
   5.2675384032106060E-003  -1.9573565133774173E-003   6.1592584813237469E-002
   7.8669038623769560E-003  -1.8828356250510936E-003   6.4195089933695604E-002
   6.9394595906599049E-003  -1.6750582097719291E-003   6.4098738607466399E-002
   6.0120153189428677E-003  -1.5766118744144353E-003   6.4252396251986421E-002
   5.0845710472258304E-003  -1.5874966189770995E-003   6.4656062867255698E-002
   4.1571267755087793E-003  -1.7077124434610180E-003   6.5309738453274369E-002
   9.2963270238828888E-003  -2.7062887231270594E-003   4.9952116805835334E-002
   7.8724805718382307E-003  -2.8578369792471858E-003   5.0355910735987663E-002
   6.4486341197935448E-003  -3.6147284684395209E-003   5.1087626877047487E-002
   5.0247876677488590E-003  -4.9769631907041062E-003   5.2147265229015860E-002
   3.6009412157042009E-003  -6.9445411460415940E-003   5.3534825791892171E-002
   7.8371385273976468E-003  -2.4566446532104935E-003   5.3913773989517966E-002
   6.7150663928602916E-003  -2.6431738110155867E-003   5.3848856028987535E-002
   5.5929942583229503E-003  -3.3420056428334899E-003   5.4059564492564466E-002
   4.4709221237855881E-003  -4.5531401486642586E-003   5.4545899380247689E-002
   3.3488499892482537E-003  -6.2765773285076154E-003   5.5307860692037192E-002
   6.4942089871735387E-003  -2.2070005832940387E-003   5.7793929991985127E-002
   5.6216153833421045E-003  -2.4285106427846259E-003   5.7353340699832667E-002
   4.7490217795106843E-003  -3.0692828172280417E-003   5.7136082044985353E-002
   3.8764281756792501E-003  -4.1293171066245291E-003   5.7142154027443132E-002
   3.0038345718478299E-003  -5.6086135109740809E-003   5.7371556647206612E-002
   5.2675384032106060E-003  -1.9573565133774173E-003   6.1592584813237469E-002
   4.5921275432836747E-003  -2.2138474745531794E-003   6.0869364748522142E-002
   3.9167166833567607E-003  -2.7965599916223022E-003   6.0317179534310573E-002
   3.2413058234298381E-003  -3.7054940645847405E-003   5.9936029170602992E-002
   2.5658949635029155E-003  -4.9406496934405464E-003   5.9725913657398877E-002
   4.1571267755087793E-003  -1.7077124434610180E-003   6.5309738453274369E-002
   3.6266028726849864E-003  -1.9991843063221215E-003   6.4396928175056156E-002
   3.0960789698611657E-003  -2.5238371660168402E-003   6.3602856960540188E-002
   2.5655550670373589E-003  -3.2816710225451323E-003   6.2927524809726687E-002
   2.0350311642135521E-003  -4.2726858759067898E-003   6.2370931722615541E-002
   3.6009412157042009E-003  -6.9445411460415940E-003   5.3534825791892171E-002
   4.1531633733915274E-003  -9.5333502959962235E-003   5.1862535166994572E-002
   4.7053855310788539E-003  -1.2759278602114121E-002   5.0044243468085670E-002
   5.2576076887661249E-003  -1.6622326064395204E-002   4.8079950695166074E-002
   5.8098298464535070E-003  -2.1122492682839056E-002   4.5969656848233953E-002
   3.3488499892482537E-003  -6.2765773285076154E-003   5.5307860692037192E-002
   3.7726966873619650E-003  -8.5440837376517531E-003   5.2953794020257294E-002
   4.1965433854756623E-003  -1.1387425931383616E-002   5.0488977503341692E-002
   4.6203900835893874E-003  -1.4806603909704140E-002   4.7913411141289747E-002
   5.0442367817030709E-003  -1.8801617672612680E-002   4.5227094934102707E-002
   3.0038345718478299E-003  -5.6086135109740809E-003   5.7371556647206612E-002
   3.3345570392633445E-003  -7.5548171793068386E-003   5.4396997300119126E-002
   3.6652795066788590E-003  -1.0015573260653221E-002   5.1346939336771036E-002
   3.9960019740943806E-003  -1.2990881755013187E-002   4.8221382757162701E-002
   4.3267244415098882E-003  -1.6480742662386305E-002   4.5020327561293594E-002
   2.5658949635029155E-003  -4.9406496934405464E-003   5.9725913657398877E-002
   2.8387444290956694E-003  -6.5655506209620351E-003   5.6192145006578854E-002
   3.1115938946883678E-003  -8.6437205899226599E-003   5.2618128968373631E-002
   3.3844433602811339E-003  -1.1175159600321956E-002   4.9003865542783333E-002
   3.6572928258738202E-003  -1.4159867652159930E-002   4.5349354729807889E-002
   2.0350311642135521E-003  -4.2726858759067898E-003   6.2370931722615541E-002
   2.2852588568589016E-003  -5.5762840626171206E-003   5.8339237139636957E-002
   2.5354865495042511E-003  -7.2718679191920987E-003   5.4302546398149021E-002
   2.7857142421495867E-003  -9.3594374456312801E-003   5.0260859498151456E-002
   3.0359419347949501E-003  -1.1838992641933554E-002   4.6214176439643762E-002
   2.5529938691660231E-002  -7.3422406674933383E-003   6.6328280711098697E-002
   2.4465692960012136E-002  -7.1634788046366360E-003   6.4957975528260437E-002
   2.3401447228364070E-002  -6.9678697329574463E-003   6.4060303385566314E-002
   2.2337201496716003E-002  -6.7554134524556060E-003   6.3635264283015899E-002
   2.1272955765067908E-002  -6.5261099631311326E-003   6.3682858220609651E-002
   1.8261433502648874E-002  -5.5066803739859393E-003   6.4938860428430278E-002
   1.7618177914139527E-002  -5.3726090123204784E-003   6.4122333947440963E-002
   1.6974922325630193E-002  -5.2259022373495612E-003   6.3675154712585502E-002
   1.6331666737120845E-002  -5.0665600490728477E-003   6.3597322723863509E-002
   1.5688411148611504E-002  -4.8945824474905253E-003   6.3888837981274871E-002
   1.1583608601427701E-002  -3.6711200804785127E-003   6.3506855542328836E-002
   1.1258057362046672E-002  -3.5817392200043763E-003   6.3239895967671961E-002
   1.0932506122665664E-002  -3.4839347417415581E-003   6.3238997845138117E-002
   1.0606954883284649E-002  -3.3777066456900599E-003   6.3504161174727389E-002
   1.0281403643903630E-002  -3.2630549318498903E-003   6.4035385956439914E-002
   5.4964639879966741E-003  -1.8355597869710721E-003   6.2032266052794910E-002
   5.3853313037335940E-003  -1.7908694276881632E-003   6.2310661588953077E-002
   5.2741986194704948E-003  -1.7419672461335863E-003   6.2751832783223951E-002
   5.1630659352073982E-003  -1.6888532423072590E-003   6.3355779635607679E-002
   5.0519332509443076E-003  -1.6315274162092691E-003   6.4122502146103946E-002
  -3.3764414875125937E-010   5.0653631289421241E-010   6.0515091959828016E-002
  -2.6079973597381567E-010   3.6462791119795668E-010   6.1334630811284374E-002
  -1.8395531625747807E-010   2.4947428844956931E-010   6.2213659526843129E-002
  -1.0711090174531090E-010   1.6107543424070947E-010   6.3152178106504211E-002
  -3.0266483763696783E-011   9.9431296529672863E-011   6.4150186550267496E-002
   2.1272955765067908E-002  -6.5261099631311326E-003   6.3682858220609651E-002
   2.0674038722619303E-002  -6.2834971037253884E-003   6.3161273617021674E-002
   2.0075121680170706E-002  -6.0311127129794723E-003   6.2838529896197481E-002
   1.9476204637722112E-002  -5.7689567908936375E-003   6.2714627058137087E-002
   1.8877287595273504E-002  -5.4970293374676515E-003   6.2789565102840394E-002
   1.5688411148611504E-002  -4.8945824474905253E-003   6.3888837981274871E-002
   1.5276057083877984E-002  -4.7126228135710990E-003   6.3541062675741361E-002
   1.4863703019144466E-002  -4.5233345282831294E-003   6.3367572442874082E-002
   1.4451348954410947E-002  -4.3267175916264639E-003   6.3368367282673116E-002
   1.4038994889677435E-002  -4.1227720036012272E-003   6.3543447195138797E-002
   1.0281403643903630E-002  -3.2630549318498903E-003   6.4035385956439914E-002
   1.0031056746787885E-002  -3.1417485234168374E-003   6.3858977068988923E-002
   9.7807098496721489E-003  -3.0155563435866686E-003   6.3832297444107011E-002
   9.5303629525564093E-003  -2.8844783923593440E-003   6.3955347081794178E-002
   9.2800160554406645E-003  -2.7485146697349139E-003   6.4228125982050632E-002
   5.0519332509443076E-003  -1.6315274162092691E-003   6.4122502146103946E-002
   4.9390377113490277E-003  -1.5708742332625342E-003   6.4115016796764304E-002
   4.8261421717537556E-003  -1.5077781588902668E-003   6.4232704899896381E-002
   4.7132466321584878E-003  -1.4422391930922528E-003   6.4475566455500316E-002
   4.6003510925632035E-003  -1.3742573358686283E-003   6.4843601463576206E-002
  -3.0266483763696783E-011   9.9431296529672863E-011   6.4150186550267496E-002
  -2.2438599589502672E-011   5.6891713562379209E-011   6.4309181859067643E-002
  -1.4610718884755514E-011   2.5806079495538370E-011   6.4568794810242247E-002
  -6.7828381800083548E-012   6.1749355628748503E-012   6.4929025403791307E-002
   1.0450459941857559E-012  -2.0022317137602386E-012   6.5389873639714990E-002
   1.8877287595273504E-002  -5.4970293374676515E-003   6.2789565102840394E-002
   1.7939039437128948E-002  -5.2178161533066592E-003   6.2409339648509143E-002
   1.7000791278984427E-002  -4.9338030390160270E-003   6.2281978784383518E-002
   1.6062543120839889E-002  -4.6449899945954221E-003   6.2407482510463463E-002
   1.5124294962695350E-002  -4.3513770200451773E-003   6.2785850826749035E-002
   1.4038994889677435E-002  -4.1227720036012272E-003   6.3543447195138797E-002
   1.3349035683856127E-002  -3.9133621157106668E-003   6.3242159913530382E-002
   1.2659076478034822E-002  -3.7003522794581689E-003   6.3184585946363045E-002
   1.1969117272213522E-002  -3.4837424948436432E-003   6.3370725293636437E-002
   1.1279158066392209E-002  -3.2635327618673049E-003   6.3800577955350657E-002
   9.2800160554406645E-003  -2.7485146697349139E-003   6.4228125982050632E-002
   8.8291945261779053E-003  -2.6089080781148272E-003   6.4004576891397408E-002
   8.3783729969151548E-003  -2.4669015199005329E-003   6.4015589839420323E-002
   7.9275514676524043E-003  -2.3224949950920309E-003   6.4261164826119571E-002
   7.4767299383896382E-003  -2.1756885036893214E-003   6.4741301851494903E-002
   4.6003510925632035E-003  -1.3742573358686283E-003   6.4843601463576206E-002
   4.3795159640943144E-003  -1.3044540405189389E-003   6.4696590582110025E-002
   4.1586808356254175E-003  -1.2334507603428690E-003   6.4774990463555560E-002
   3.9378457071565153E-003  -1.1612474953402799E-003   6.5078801107912559E-002
   3.7170105786876236E-003  -1.0878442455114490E-003   6.5608022515181025E-002
   1.0450459941857559E-012  -2.0022317137602386E-012   6.5389873639714990E-002
  -2.3946747362835197E-012  -2.9229396680818809E-012   6.5318200985668484E-002
  -5.8343954667527953E-012  -7.8505257850025600E-013   6.5462787818768714E-002
  -9.2741161972220709E-012   4.4114399633254919E-012   6.5823634139015805E-002
  -1.2713836927691347E-011   1.2666534487948411E-011   6.6400739946409826E-002
   1.5124294962695350E-002  -4.3513770200451773E-003   6.2785850826749035E-002
   1.4288954471202084E-002  -4.0501272727165860E-003   6.2567599849260080E-002
   1.3453613979708817E-002  -3.7384039099618294E-003   6.2549909013067673E-002
   1.2618273488215558E-002  -3.4162069317801580E-003   6.2732778318171561E-002
   1.1782932996722284E-002  -3.0835363381720438E-003   6.3116207764572163E-002
   1.1279158066392209E-002  -3.2635327618673049E-003   6.3800577955350657E-002
   1.0646446461671892E-002  -3.0375954494085144E-003   6.3636268904653348E-002
   1.0013734856951576E-002  -2.8038029263476039E-003   6.3676657486205268E-002
   9.3810232522312589E-003  -2.5621551926839278E-003   6.3921743700006611E-002
   8.7483116475109146E-003  -2.3126522484180345E-003   6.4371527546057239E-002
   7.4767299383896382E-003  -2.1756885036893214E-003   6.4741301851494903E-002
   7.0507847113951833E-003  -2.0250636261002763E-003   6.4628316322764806E-002
   6.6248394844007318E-003  -1.8692019427332673E-003   6.4724165917236925E-002
   6.1988942574062785E-003  -1.7081034535878087E-003   6.5028850634911498E-002
   5.7729490304118253E-003  -1.5417681586641363E-003   6.5542370475788259E-002
   3.7170105786876236E-003  -1.0878442455114490E-003   6.5608022515181025E-002
   3.5019692203719557E-003  -1.0125318027922325E-003   6.5543742103594177E-002
   3.2869278620563025E-003  -9.3460095911909735E-004   6.5692434306162548E-002
   3.0718865037406419E-003  -8.5405171449163403E-004   6.6054099122886262E-002
   2.8568451454249744E-003  -7.7088406891018257E-004   6.6628736553765056E-002
  -1.2713836927691347E-011   1.2666534487948411E-011   6.6400739946409826E-002
  -1.1397778554300686E-011   2.0516033316653193E-011   6.6382546247141960E-002
  -1.0081716711463073E-011   2.4495183659212216E-011   6.6581462652982204E-002
  -8.7656566033489369E-012   2.4604512871562179E-011   6.6997489163930696E-002
  -7.4495964952348004E-012   2.0843771153522539E-011   6.7630625779987463E-002
   1.1782932996722284E-002  -3.0835363381720438E-003   6.3116207764572163E-002
   1.0803925713135959E-002  -2.7550619926107744E-003   6.3006453550840891E-002
   9.8249184295496200E-003  -2.4454537585701930E-003   6.3149682507784188E-002
   8.8459111459632811E-003  -2.1547116360503826E-003   6.3545894635402667E-002
   7.8669038623769560E-003  -1.8828356250510936E-003   6.4195089933695604E-002
   8.7483116475109146E-003  -2.3126522484180345E-003   6.4371527546057239E-002
   8.0202296973409457E-003  -2.0662964905793779E-003   6.4302466379691336E-002
   7.2921477471709628E-003  -1.8340903161973288E-003   6.4482272709483396E-002
   6.5640657970009730E-003  -1.6160337252717552E-003   6.4910946535433195E-002
   5.8359838468310110E-003  -1.4121267178028862E-003   6.5588487857541067E-002
   5.7729490304118253E-003  -1.5417681586641363E-003   6.5542370475788259E-002
   5.2916767391413544E-003  -1.3775309885477038E-003   6.5518718884851418E-002
   4.8104044478709043E-003  -1.2227268738239094E-003   6.5739819115555709E-002
   4.3291321566004369E-003  -1.0773558144929057E-003   6.6205671167901103E-002
   3.8478598653299834E-003  -9.4141781055467888E-004   6.6916275041887685E-002
   2.8568451454249744E-003  -7.7088406891018257E-004   6.6628736553765056E-002
   2.6182668385372112E-003  -6.8876548651605751E-004   6.6655211066321357E-002
   2.3796885316494376E-003  -6.1136343145082317E-004   6.6922321726001835E-002
   2.1411102247616554E-003  -5.3867790371416729E-004   6.7430068532806531E-002
   1.9025319178738870E-003  -4.7070890330624948E-004   6.8178451486735583E-002
  -7.4495964952348004E-012   2.0843771153522539E-011   6.7630625779987463E-002
  -4.4715203761924727E-012   1.5515588813741488E-011   6.7711942924100654E-002
  -1.4934442571501449E-012   1.0922485138564753E-011   6.8029780540821427E-002
   1.4846335966156587E-012   7.0645989058704117E-012   6.8584138630149533E-002
   4.4627079809345105E-012   3.9416248043266933E-012   6.9375017192084942E-002
   7.8669038623769560E-003  -1.8828356250510936E-003   6.4195089933695604E-002
   6.9394595906599049E-003  -1.6750582097719291E-003   6.4098738607466399E-002
   6.0120153189428677E-003  -1.5766118744144353E-003   6.4252396251986421E-002
   5.0845710472258304E-003  -1.5874966189770995E-003   6.4656062867255698E-002
   4.1571267755087793E-003  -1.7077124434610180E-003   6.5309738453274369E-002
   5.8359838468310110E-003  -1.4121267178028862E-003   6.5588487857541067E-002
   5.1540115701280073E-003  -1.2562936569422423E-003   6.5434730894780802E-002
   4.4720392934250106E-003  -1.1824589058422319E-003   6.5521908951299307E-002
   3.7900670167220207E-003  -1.1906224645022723E-003   6.5850022027097180E-002
   3.1080947400190101E-003  -1.2807843329227797E-003   6.6419070122173129E-002
   3.8478598653299834E-003  -9.4141781055467888E-004   6.6916275041887685E-002
   3.4022856321705396E-003  -8.3752910411258319E-004   6.6732445212757119E-002
   2.9567113990110958E-003  -7.8830593727016729E-004   6.6780476451435061E-002
   2.5111371658516589E-003  -7.9374831002722995E-004   6.7060368757921290E-002
   2.0655629326922220E-003  -8.5385622238431935E-004   6.7572122132215584E-002
   1.9025319178738870E-003  -4.7070890330624948E-004   6.8178451486735583E-002
   1.6842817767875017E-003  -4.1876455128257717E-004   6.7991881561395434E-002
   1.4660316357011111E-003  -3.9415296869808880E-004   6.8028098752393185E-002
   1.2477814946147206E-003  -3.9687415555240621E-004   6.8287103059728668E-002
   1.0295313535283353E-003  -4.2692811184597002E-004   6.8768894483401885E-002
   4.4627079809345105E-012   3.9416248043266933E-012   6.9375017192084942E-002
   3.9788866645906751E-012   1.5470402736639244E-012   6.9213039940695609E-002
   3.4950618787998877E-012  -1.2589929099249275E-013   6.9264775854173732E-002
   3.0112336235621484E-012  -1.0775269565499457E-012   6.9530224932518980E-002
   2.5274157766652650E-012  -1.3076206784035094E-012   7.0009387175731574E-002
   4.1571267755087793E-003  -1.7077124434610180E-003   6.5309738453274369E-002
   3.6266028726849864E-003  -1.9991843063221215E-003   6.4396928175056156E-002
   3.0960789698611657E-003  -2.5238371660168402E-003   6.3602856960540188E-002
   2.5655550670373589E-003  -3.2816710225451323E-003   6.2927524809726687E-002
   2.0350311642135521E-003  -4.2726858759067898E-003   6.2370931722615541E-002
   3.1080947400190101E-003  -1.2807843329227797E-003   6.6419070122173129E-002
   2.6997828788745543E-003  -1.4993882300490813E-003   6.5312199677851956E-002
   2.2914710177300707E-003  -1.8928778748273922E-003   6.4331014253187130E-002
   1.8831591565855836E-003  -2.4612532672574072E-003   6.3475513848178497E-002
   1.4748472954411312E-003  -3.2045144073393761E-003   6.2745698462826183E-002
   2.0655629326922220E-003  -8.5385622238431935E-004   6.7572122132215584E-002
   1.7864090691809310E-003  -9.9959215377612431E-004   6.6329486770973556E-002
   1.5072552056696401E-003  -1.2619185836379165E-003   6.5219482385341254E-002
   1.2281013421583491E-003  -1.6408355119700083E-003   6.4242108975319193E-002
   9.4894747864705808E-004  -2.1363429387718513E-003   6.3397366540907441E-002
   1.0295313535283353E-003  -4.2692811184597002E-004   6.8768894483401885E-002
   8.8648144360410630E-004  -4.9979607750329225E-004   6.7448789454420566E-002
   7.4343153367986518E-004  -6.3095929244845472E-004   6.6268261357002728E-002
   6.0038162375562320E-004  -8.2041775668233521E-004   6.5227310191149246E-002
   4.5733171383139509E-004  -1.0681714702043821E-003   6.4325935956859537E-002
   2.5274157766652650E-012  -1.3076206784035094E-012   7.0009387175731574E-002
   2.1440835218378140E-012  -1.2301826224359047E-012   6.8670107728192709E-002
   1.7607512670103631E-012  -1.2590206655005431E-012   6.7477351168171606E-002
   1.3774138080124843E-012  -1.3948911470329506E-012   6.6431117495668296E-002
   9.9408675735546126E-013  -1.6368018052048683E-012   6.5531406710683249E-002
   2.0350311642135521E-003  -4.2726858759067898E-003   6.2370931722615541E-002
   2.2852588568589016E-003  -5.5762840626171206E-003   5.8339237139636957E-002
   2.5354865495042511E-003  -7.2718679191920987E-003   5.4302546398149021E-002
   2.7857142421495867E-003  -9.3594374456312801E-003   5.0260859498151456E-002
   3.0359419347949501E-003  -1.1838992641933554E-002   4.6214176439643762E-002
   1.4748472954411312E-003  -3.2045144073393761E-003   6.2745698462826183E-002
   1.7056886384136799E-003  -4.1822130474628016E-003   5.8390910279515318E-002
   1.9365299813862286E-003  -5.4539009400175198E-003   5.4002345555368425E-002
   2.1673713243587946E-003  -7.0195780850035028E-003   4.9580004290386476E-002
   2.3982126673313398E-003  -8.8792444824208339E-003   4.5123886484567111E-002
   9.4894747864705808E-004  -2.1363429387718513E-003   6.3397366540907441E-002
   1.1316220896205667E-003  -2.7881420323079831E-003   5.8817481174696928E-002
   1.3142967005940823E-003  -3.6359339608426078E-003   5.4175038885324545E-002
   1.4969713115675874E-003  -4.6797187243759475E-003   4.9470039672789581E-002
   1.6796459225411065E-003  -5.9194963229076691E-003   4.4702483537092941E-002
   4.5733171383139509E-004  -1.0681714702043821E-003   6.4325935956859537E-002
   5.6305921047960540E-004  -1.3940710171531923E-003   5.9618949825182371E-002
   6.6878670712781571E-004  -1.8179669816680843E-003   5.4820626388016588E-002
   7.7451420377603209E-004  -2.3398593637487253E-003   4.9930965645362535E-002
   8.8024170042425021E-004  -2.9597481633946154E-003   4.4949967597219836E-002
   9.9408675735546126E-013  -1.6368018052048683E-012   6.5531406710683249E-002
   9.9075608828158579E-013  -1.9985124666277443E-012   6.0795316230971452E-002
   9.8742194976075837E-013  -2.4929780462201734E-012   5.5939108063445209E-002
   9.8409475013383485E-013  -3.1208577389030268E-012   5.0962782208104768E-002
   9.8075714216605547E-013  -3.8817837832993973E-012   4.5866338664949158E-002
  -3.3764414875125937E-010   5.0653631289421241E-010   6.0515091959828016E-002
  -2.6079973597381567E-010   3.6462791119795668E-010   6.1334630811284374E-002
  -1.8395531625747807E-010   2.4947428844956931E-010   6.2213659526843129E-002
  -1.0711090174531090E-010   1.6107543424070947E-010   6.3152178106504211E-002
  -3.0266483763696783E-011   9.9431296529672863E-011   6.4150186550267496E-002
  -5.4964646394337277E-003   1.8355607934220641E-003   6.2032265619157062E-002
  -5.3853318069102055E-003   1.7908701265982596E-003   6.2310661256512245E-002
  -5.2741989743866676E-003   1.7419677018392227E-003   6.2751832541123584E-002
  -5.1630661418631228E-003   1.6888535191451233E-003   6.3355779472990731E-002
  -5.0519333093395936E-003   1.6315275785157568E-003   6.4122502052113894E-002
  -1.1583609181311056E-002   3.6711210803077599E-003   6.3506854645915559E-002
  -1.1258057809954754E-002   3.5817398885685942E-003   6.3239895284479861E-002
  -1.0932506438598475E-002   3.4839351542042887E-003   6.3238997353453646E-002
  -1.0606955067242177E-002   3.3777068772148661E-003   6.3504160852837041E-002
  -1.0281403695885885E-002   3.2630550576002448E-003   6.4035385782629961E-002
  -1.8261433963276081E-002   5.5066813671934695E-003   6.4938859040103852E-002
  -1.7618178269933407E-002   5.3726096505389218E-003   6.4122332895187054E-002
  -1.6974922576590726E-002   5.2259026065693721E-003   6.3675153963833470E-002
  -1.6331666883248025E-002   5.0665602352845821E-003   6.3597322246043086E-002
  -1.5688411189905348E-002   4.8945825366847745E-003   6.3888837741816015E-002
  -2.5529938985328814E-002   7.3422416540792068E-003   6.6328278801721652E-002
  -2.4465693186846112E-002   7.1634794125092771E-003   6.4957974088633796E-002
  -2.3401447388363413E-002   6.9678700589342613E-003   6.4060302372262956E-002
  -2.2337201589880701E-002   6.7554135933542911E-003   6.3635263652608853E-002
  -2.1272955791397999E-002   6.5261100157691931E-003   6.3682857929671710E-002
  -3.0266483763696783E-011   9.9431296529672863E-011   6.4150186550267496E-002
  -2.2438599589502672E-011   5.6891713562379209E-011   6.4309181859067643E-002
  -1.4610718884755514E-011   2.5806079495538370E-011   6.4568794810242247E-002
  -6.7828381800083548E-012   6.1749355628748503E-012   6.4929025403791307E-002
   1.0450459941857559E-012  -2.0022317137602386E-012   6.5389873639714990E-002
  -5.0519333093395936E-003   1.6315275785157568E-003   6.4122502052113894E-002
  -4.9390377547993622E-003   1.5708743229958938E-003   6.4115016727582894E-002
  -4.8261422002591325E-003   1.5077781956302633E-003   6.4232704854102068E-002
  -4.7132466457188976E-003   1.4422391964190213E-003   6.4475566431671336E-002
  -4.6003510911786713E-003   1.3742573253617274E-003   6.4843601460290889E-002
  -1.0281403695885885E-002   3.2630550576002448E-003   6.4035385782629961E-002
  -1.0031056785957601E-002   3.1417485891002128E-003   6.3858976941467901E-002
  -9.7807098760293275E-003   3.0155563654544471E-003   6.3832297360031653E-002
  -9.5303629661010504E-003   2.8844783866629406E-003   6.3955347038321397E-002
  -9.2800160561727647E-003   2.7485146527257143E-003   6.4228125976336883E-002
  -1.5688411189905348E-002   4.8945825366847745E-003   6.3888837741816015E-002
  -1.5276057115913337E-002   4.7126228552045180E-003   6.3541062500722820E-002
  -1.4863703041921316E-002   4.5233345352786863E-003   6.3367572328031224E-002
  -1.4451348967929298E-002   4.3267175769069431E-003   6.3368367223741104E-002
  -1.4038994893937286E-002   4.1227719800896873E-003   6.3543447187852722E-002
  -2.1272955791397999E-002   6.5261100157691931E-003   6.3682857929671710E-002
  -2.0674038744666553E-002   6.2834971213087398E-003   6.3161273405347468E-002
  -2.0075121697935093E-002   6.0311127051027869E-003   6.2838529758100559E-002
  -1.9476204651203647E-002   5.7689567671509109E-003   6.2714626987930983E-002
  -1.8877287604472187E-002   5.4970293074536603E-003   6.2789565094838629E-002
   1.0450459941857559E-012  -2.0022317137602386E-012   6.5389873639714990E-002
  -2.3946747362835197E-012  -2.9229396680818809E-012   6.5318200985668484E-002
  -5.8343954667527953E-012  -7.8505257850025600E-013   6.5462787818768714E-002
  -9.2741161972220709E-012   4.4114399633254919E-012   6.5823634139015805E-002
  -1.2713836927691347E-011   1.2666534487948411E-011   6.6400739946409826E-002
  -4.6003510911786713E-003   1.3742573253617274E-003   6.4843601460290889E-002
  -4.3795159693252629E-003   1.3044540288511541E-003   6.4696590583619040E-002
  -4.1586808474718580E-003   1.2334507532793110E-003   6.4774990470386484E-002
  -3.9378457256184470E-003   1.1612474986462985E-003   6.5078801120593430E-002
  -3.7170106037650447E-003   1.0878442649522313E-003   6.5608022534239807E-002
  -9.2800160561727647E-003   2.7485146527257143E-003   6.4228125976336883E-002
  -8.8291945327336543E-003   2.6089080606250536E-003   6.4004576894919771E-002
  -8.3783730092945423E-003   2.4669015073436260E-003   6.4015589853234772E-002
  -7.9275514858554337E-003   2.3224949928811033E-003   6.4261164851281666E-002
  -7.4767299624163147E-003   2.1756885172377061E-003   6.4741301889060576E-002
  -1.4038994893937286E-002   4.1227719800896873E-003   6.3543447187852722E-002
  -1.3349035692619866E-002   3.9133620923990503E-003   6.3242159919570759E-002
  -1.2659076491302457E-002   3.7003522614080207E-003   6.3184585967313356E-002
  -1.1969117289985055E-002   3.4837424871159350E-003   6.3370725331080485E-002
  -1.1279158088667642E-002   3.2635327695234584E-003   6.3800578010872189E-002
  -1.8877287604472187E-002   5.4970293074536603E-003   6.2789565094838629E-002
  -1.7939039448983899E-002   5.2178161241731025E-003   6.2409339657571894E-002
  -1.7000791293495611E-002   4.9338030154723322E-003   6.2281978812622402E-002
  -1.6062543138007309E-002   4.6449899813507736E-003   6.2407482559990068E-002
  -1.5124294982519028E-002   4.3513770218088776E-003   6.2785850899674922E-002
  -1.2713836927691347E-011   1.2666534487948411E-011   6.6400739946409826E-002
  -1.1397778554300686E-011   2.0516033316653193E-011   6.6382546247141960E-002
  -1.0081716711463073E-011   2.4495183659212216E-011   6.6581462652982204E-002
  -8.7656566033489369E-012   2.4604512871562179E-011   6.6997489163930696E-002
  -7.4495964952348004E-012   2.0843771153522539E-011   6.7630625779987463E-002
  -3.7170106037650447E-003   1.0878442649522313E-003   6.5608022534239807E-002
  -3.5019692427535384E-003   1.0125318375791836E-003   6.5543742115875964E-002
  -3.2869278817420234E-003   9.3460100190970175E-004   6.5692434311794556E-002
  -3.0718865207305128E-003   8.5405175794409788E-004   6.6054099121996140E-002
  -2.8568451597189883E-003   7.7088410568160182E-004   6.6628736546480327E-002
  -7.4767299624163147E-003   2.1756885172377061E-003   6.4741301889060576E-002
  -7.0507847325348193E-003   2.0250636546426115E-003   6.4628316347174197E-002
  -6.6248395026533282E-003   1.8692019793243309E-003   6.4724165928745150E-002
  -6.1988942727718311E-003   1.7081034912833498E-003   6.5028850633773158E-002
  -5.7729490428903418E-003   1.5417681905194325E-003   6.5542370462258692E-002
  -1.1279158088667642E-002   3.2635327695234584E-003   6.3800578010872189E-002
  -1.0646446480741634E-002   3.0375954717058451E-003   6.3636268941036939E-002
  -1.0013734872815618E-002   2.8038029567388489E-003   6.3676657503833570E-002
  -9.3810232648896073E-003   2.5621552246228793E-003   6.3921743699261985E-002
  -8.7483116569635963E-003   2.3126522753573187E-003   6.4371527527322003E-002
  -1.5124294982519028E-002   4.3513770218088776E-003   6.2785850899674922E-002
  -1.4288954487373957E-002   4.0501272887693007E-003   6.2567599897464410E-002
  -1.3453613992228906E-002   3.7384039341535058E-003   6.2549909037060147E-002
  -1.2618273497083839E-002   3.4162069579622492E-003   6.2732778318462246E-002
  -1.1782933001938785E-002   3.0835363601950938E-003   6.3116207741670594E-002
  -7.4495964952348004E-012   2.0843771153522539E-011   6.7630625779987463E-002
  -4.4715203761924727E-012   1.5515588813741488E-011   6.7711942924100654E-002
  -1.4934442571501449E-012   1.0922485138564753E-011   6.8029780540821427E-002
   1.4846335966156587E-012   7.0645989058704117E-012   6.8584138630149533E-002
   4.4627079809345105E-012   3.9416248043266933E-012   6.9375017192084942E-002
  -2.8568451597189883E-003   7.7088410568160182E-004   6.6628736546480327E-002
  -2.6182668470945483E-003   6.8876551364999150E-004   6.6655211061477426E-002
  -2.3796885344700858E-003   6.1136345037712814E-004   6.6922321723159844E-002
  -2.1411102218456277E-003   5.3867791586236641E-004   6.7430068531527471E-002
  -1.9025319092211695E-003   4.7070891010603244E-004   6.8178451486580860E-002
  -5.7729490428903418E-003   1.5417681905194325E-003   6.5542370462258692E-002
  -5.2916767465415876E-003   1.3775310117848383E-003   6.5518718876162646E-002
  -4.8104044501928352E-003   1.2227268898317711E-003   6.5739819110829822E-002
  -4.3291321538440862E-003   1.0773558246604115E-003   6.6205671166260263E-002
  -3.8478598574953286E-003   9.4141781627049559E-004   6.6916275042454010E-002
  -8.7483116569635963E-003   2.3126522753573187E-003   6.4371527527322003E-002
  -8.0202297028126486E-003   2.0662965099193520E-003   6.4302466368156175E-002
  -7.2921477486617087E-003   1.8340903292865807E-003   6.4482272703831542E-002
  -6.5640657945107653E-003   1.6160337334583733E-003   6.4910946534347896E-002
  -5.8359838403598211E-003   1.4121267224346534E-003   6.5588487859705613E-002
  -1.1782933001938785E-002   3.0835363601950938E-003   6.3116207741670594E-002
  -1.0803925715907756E-002   2.7550620080542543E-003   6.3006453537458262E-002
  -9.8249184298766952E-003   2.4454537687409739E-003   6.3149682502164739E-002
  -8.8459111438456504E-003   2.1547116422563142E-003   6.3545894635790329E-002
  -7.8669038578145986E-003   1.8828356285992554E-003   6.4195089938335115E-002
   4.4627079809345105E-012   3.9416248043266933E-012   6.9375017192084942E-002
   3.9788866645906751E-012   1.5470402736639244E-012   6.9213039940695609E-002
   3.4950618787998877E-012  -1.2589929099249275E-013   6.9264775854173732E-002
   3.0112336235621484E-012  -1.0775269565499457E-012   6.9530224932518980E-002
   2.5274157766652650E-012  -1.3076206784035094E-012   7.0009387175731574E-002
  -1.9025319092211695E-003   4.7070891010603244E-004   6.8178451486580860E-002
  -1.6842817690834282E-003   4.1876455404815660E-004   6.7991881562035172E-002
  -1.4660316289456903E-003   3.9415296862849170E-004   6.8028098753865479E-002
  -1.2477814888079489E-003   3.9687415384741243E-004   6.8287103062071600E-002
  -1.0295313486702110E-003   4.2692810970434980E-004   6.8768894486653520E-002
  -3.8478598574953286E-003   9.4141781627049559E-004   6.6916275042454010E-002
  -3.4022856252275474E-003   8.3752910654891211E-004   6.6732445214669367E-002
  -2.9567113929597662E-003   7.8830593738277166E-004   6.6780476454769006E-002
  -2.5111371606919919E-003   7.9374830877201874E-004   6.7060368762752981E-002
  -2.0655629284242177E-003   8.5385622071643130E-004   6.7572122138621266E-002
  -5.8359838403598211E-003   1.4121267224346534E-003   6.5588487859705613E-002
  -5.1540115644535004E-003   1.2562936590495705E-003   6.5434730898598623E-002
  -4.4720392885471806E-003   1.1824589061369961E-003   6.5521908956884603E-002
  -3.7900670126408600E-003   1.1906224636965695E-003   6.5850022034563291E-002
  -3.1080947367345397E-003   1.2807843317284018E-003   6.6419070131634644E-002
  -7.8669038578145986E-003   1.8828356285992554E-003   6.4195089938335115E-002
  -6.9394595867612596E-003   1.6750582115507284E-003   6.4098738613822981E-002
  -6.0120153157079172E-003   1.5766118748914149E-003   6.4252396260211897E-002
  -5.0845710446545782E-003   1.5874966186213355E-003   6.4656062877502307E-002
  -4.1571267736012357E-003   1.7077124427404833E-003   6.5309738465693878E-002
   2.5274157766652650E-012  -1.3076206784035094E-012   7.0009387175731574E-002
   2.1440835218378140E-012  -1.2301826224359047E-012   6.8670107728192709E-002
   1.7607512670103631E-012  -1.2590206655005431E-012   6.7477351168171606E-002
   1.3774138080124843E-012  -1.3948911470329506E-012   6.6431117495668296E-002
   9.9408675735546126E-013  -1.6368018052048683E-012   6.5531406710683249E-002
  -1.0295313486702110E-003   4.2692810970434980E-004   6.8768894486653520E-002
  -8.8648143947628322E-004   4.9979607542988136E-004   6.7448789457113800E-002
  -7.4343153028236242E-004   6.3095929025422381E-004   6.6268261359210406E-002
  -6.0038162108843121E-004   8.2041775417717594E-004   6.5227310192943880E-002
  -4.5733171189451388E-004   1.0681714671981757E-003   6.4325935958314262E-002
  -2.0655629284242177E-003   8.5385622071643130E-004   6.7572122138621266E-002
  -1.7864090655341763E-003   9.9959215209041719E-004   6.6329486776285418E-002
  -1.5072552026441366E-003   1.2619185817677042E-003   6.5219482389705138E-002
  -1.2281013397541034E-003   1.6408355097488024E-003   6.4242108978880386E-002
  -9.4894747686406940E-004   2.1363429360333197E-003   6.3397366543811146E-002
  -3.1080947367345397E-003   1.2807843317284018E-003   6.6419070131634644E-002
  -2.6997828760295553E-003   1.4993882287507726E-003   6.5312199685707922E-002
  -2.2914710153245713E-003   1.8928778732813997E-003   6.4331014259655678E-002
  -1.8831591546195838E-003   2.4612532653206492E-003   6.3475513853477578E-002
  -1.4748472939146028E-003   3.2045144048683805E-003   6.2745698467174094E-002
  -4.1571267736012357E-003   1.7077124427404833E-003   6.5309738465693878E-002
  -3.6266028709624476E-003   1.9991843054109615E-003   6.4396928185381230E-002
  -3.0960789683236664E-003   2.5238371647946511E-003   6.3602856969061872E-002
  -2.5655550656848835E-003   3.2816710208924404E-003   6.2927524816735692E-002
  -2.0350311630460971E-003   4.2726858737034412E-003   6.2370931728402690E-002
   9.9408675735546126E-013  -1.6368018052048683E-012   6.5531406710683249E-002
   9.9075608828158579E-013  -1.9985124666277443E-012   6.0795316230971452E-002
   9.8742194976075837E-013  -2.4929780462201734E-012   5.5939108063445209E-002
   9.8409475013383485E-013  -3.1208577389030268E-012   5.0962782208104768E-002
   9.8075714216605547E-013  -3.8817837832993973E-012   4.5866338664949158E-002
  -4.5733171189451388E-004   1.0681714671981757E-003   6.4325935958314262E-002
  -5.6305920854398533E-004   1.3940710134366929E-003   5.9618949826291900E-002
  -6.6878670519346026E-004   1.8179669770109208E-003   5.4820626388791760E-002
  -7.7451420184292304E-004   2.3398593579205956E-003   4.9930965645813369E-002
  -8.8024169849242051E-004   2.9597481561662864E-003   4.4949967597358143E-002
  -9.4894747686406940E-004   2.1363429360333197E-003   6.3397366543811146E-002
  -1.1316220878226316E-003   2.7881420288719538E-003   5.8817481176946462E-002
  -1.3142966987811930E-003   3.6359339565146948E-003   5.4175038886941126E-002
  -1.4969713097397700E-003   4.6797187189623231E-003   4.9470039673795312E-002
  -1.6796459206983028E-003   5.9194963162141345E-003   4.4702483537508719E-002
  -1.4748472939146028E-003   3.2045144048683805E-003   6.2745698467174094E-002
  -1.7056886368452024E-003   4.1822130443069649E-003   5.8390910282935624E-002
  -1.9365299797758017E-003   5.4539009360187532E-003   5.4002345557893738E-002
  -2.1673713227063911E-003   7.0195780800036914E-003   4.9580004292048209E-002
  -2.3982126656370145E-003   8.8792444762622047E-003   4.5123886485399001E-002
  -2.0350311630460971E-003   4.2726858737034412E-003   6.2370931728402690E-002
  -2.2852588556116771E-003   5.5762840597424201E-003   5.8339237144259593E-002
  -2.5354865481772640E-003   7.2718679155225341E-003   5.4302546401649776E-002
  -2.7857142407428145E-003   9.3594374410456566E-003   5.0260859500573796E-002
  -3.0359419333084309E-003   1.1838992636310053E-002   4.6214176441030652E-002
  -2.5529938985328814E-002   7.3422416540792068E-003   6.6328278801721652E-002
  -2.4465693186846112E-002   7.1634794125092771E-003   6.4957974088633796E-002
  -2.3401447388363413E-002   6.9678700589342613E-003   6.4060302372262956E-002
  -2.2337201589880701E-002   6.7554135933542911E-003   6.3635263652608853E-002
  -2.1272955791397999E-002   6.5261100157691931E-003   6.3682857929671710E-002
  -3.2913484808209818E-002   9.1630917765569975E-003   6.1838421252910947E-002
  -3.1406642507735422E-002   8.9661174314359660E-003   6.0774608818042503E-002
  -2.9899800207261001E-002   8.7378504673465418E-003   6.0123356390440641E-002
  -2.8392957906786594E-002   8.4782908842888846E-003   5.9884663970105487E-002
  -2.6886115606312183E-002   8.1874386822630429E-003   6.0058531557036748E-002
  -3.9936431992659831E-002   1.0983941899034871E-002   5.7337574354030668E-002
  -3.8047066179643915E-002   1.0768755450362627E-002   5.6565808690418412E-002
  -3.6157700366627993E-002   1.0507830875758836E-002   5.6146530044622334E-002
  -3.4268334553612084E-002   1.0201168175223537E-002   5.6079738416642717E-002
  -3.2378968740596176E-002   9.8487673487567262E-003   5.6365433806479515E-002
  -4.6598780538678677E-002   1.2804792021512690E-002   5.2825738105080906E-002
  -4.4386964202571537E-002   1.2571393469289247E-002   5.2331573705761365E-002
  -4.2175147866464355E-002   1.2277811284171040E-002   5.2129823334808048E-002
  -3.9963331530357228E-002   1.1924045466158077E-002   5.2220486992220795E-002
  -3.7751515194250074E-002   1.1510096015250437E-002   5.2603564677999599E-002
  -5.2900530446266469E-002   1.4625642143990536E-002   4.8302912506061502E-002
  -5.0426336576518294E-002   1.4374031488215977E-002   4.8071903864071674E-002
  -4.7952142706770132E-002   1.4047791692583370E-002   4.8073236260997659E-002
  -4.5477948837021977E-002   1.3646922757092787E-002   4.8306909696839553E-002
  -4.3003754967273808E-002   1.3171424681744204E-002   4.8772924171597398E-002
  -2.1272955791397999E-002   6.5261100157691931E-003   6.3682857929671710E-002
  -2.0674038744666553E-002   6.2834971213087398E-003   6.3161273405347468E-002
  -2.0075121697935093E-002   6.0311127051027869E-003   6.2838529758100559E-002
  -1.9476204651203647E-002   5.7689567671509109E-003   6.2714626987930983E-002
  -1.8877287604472187E-002   5.4970293074536603E-003   6.2789565094838629E-002
  -2.6886115606312183E-002   8.1874386822630429E-003   6.0058531557036748E-002
  -2.6098405350478113E-002   7.8779093362035119E-003   5.9639289449945745E-002
  -2.5310695094644085E-002   7.5623183210451542E-003   5.9398792883982685E-002
  -2.4522984838810030E-002   7.2406656367879092E-003   5.9337041859147489E-002
  -2.3735274582975988E-002   6.9129512834318341E-003   5.9454036375440111E-002
  -3.2378968740596176E-002   9.8487673487567262E-003   5.6365433806479515E-002
  -3.1422560611608918E-002   9.4723215510981867E-003   5.6052243969268424E-002
  -3.0466152482621682E-002   9.0935239369874660E-003   5.5897704337235912E-002
  -2.9509744353634425E-002   8.7123745064247408E-003   5.5901814910381882E-002
  -2.8553336224647192E-002   8.3288732594098969E-003   5.6064575688706458E-002
  -3.7751515194250074E-002   1.1510096015250437E-002   5.2603564677999599E-002
  -3.6646504528058989E-002   1.1066733765992855E-002   5.2400136963315427E-002
  -3.5541493861867918E-002   1.0624729552929833E-002   5.2335264117860270E-002
  -3.4436483195676826E-002   1.0184083376061684E-002   5.2408946141634292E-002
  -3.3331472529485734E-002   9.7447952353880429E-003   5.2621183034637455E-002
  -4.3003754967273808E-002   1.3171424681744204E-002   4.8772924171597398E-002
  -4.1770237099828272E-002   1.2661145980887606E-002   4.8682968432086637E-002
  -4.0536719232382758E-002   1.2155935168872145E-002   4.8711472225855673E-002
  -3.9303201364937257E-002   1.1655792245698543E-002   4.8858435552904478E-002
  -3.8069683497491708E-002   1.1160717211366189E-002   4.9123858413233024E-002
  -1.8877287604472187E-002   5.4970293074536603E-003   6.2789565094838629E-002
  -1.7939039448983899E-002   5.2178161241731025E-003   6.2409339657571894E-002
  -1.7000791293495611E-002   4.9338030154723322E-003   6.2281978812622402E-002
  -1.6062543138007309E-002   4.6449899813507736E-003   6.2407482559990068E-002
  -1.5124294982519028E-002   4.3513770218088776E-003   6.2785850899674922E-002
  -2.3735274582975988E-002   6.9129512834318341E-003   5.9454036375440111E-002
  -2.2550561743513494E-002   6.5777177792278874E-003   5.9100448087654606E-002
  -2.1365848904050987E-002   6.2335076424273883E-003   5.8986924575500310E-002
  -2.0181136064588514E-002   5.8803208730302051E-003   5.9113465838977294E-002
  -1.8996423225126017E-002   5.5181574710366776E-003   5.9480071878085461E-002
  -2.8553336224647192E-002   8.3288732594098969E-003   5.6064575688706458E-002
  -2.7134958517896404E-002   7.9376194342826445E-003   5.5733447843225870E-002
  -2.5716580811145633E-002   7.5332122693826525E-003   5.5629584956690514E-002
  -2.4298203104394851E-002   7.1156517647097441E-003   5.5752987029100400E-002
  -2.2879825397644073E-002   6.6849379202642556E-003   5.6103654060455754E-002
  -3.3331472529485734E-002   9.7447952353880429E-003   5.2621183034637455E-002
  -3.1692229772132631E-002   9.2975210893373600E-003   5.2308338924285623E-002
  -3.0052987014779532E-002   8.8329168963379237E-003   5.2209959956193180E-002
  -2.8413744257426442E-002   8.3509826563893403E-003   5.2326046130360036E-002
  -2.6774501500073336E-002   7.8517183694918335E-003   5.2656597446786350E-002
  -3.8069683497491708E-002   1.1160717211366189E-002   4.9123858413233024E-002
  -3.6222375506222204E-002   1.0657422744392187E-002   4.8825121330833832E-002
  -3.4375067514952673E-002   1.0132621523293014E-002   4.8728049574008059E-002
  -3.2527759523683149E-002   9.5863135480687527E-003   4.8832643142755719E-002
  -3.0680451532413638E-002   9.0184988187195225E-003   4.9138902037076826E-002
  -1.5124294982519028E-002   4.3513770218088776E-003   6.2785850899674922E-002
  -1.4288954487373957E-002   4.0501272887693007E-003   6.2567599897464410E-002
  -1.3453613992228906E-002   3.7384039341535058E-003   6.2549909037060147E-002
  -1.2618273497083839E-002   3.4162069579622492E-003   6.2732778318462246E-002
  -1.1782933001938785E-002   3.0835363601950938E-003   6.3116207741670594E-002
  -1.8996423225126017E-002   5.5181574710366776E-003   5.9480071878085461E-002
  -1.7963650688902825E-002   5.1475304757326590E-003   5.9238206757435713E-002
  -1.6930878152679692E-002   4.7689529264049735E-003   5.9190645577135909E-002
  -1.5898105616456534E-002   4.3824248230534477E-003   5.9337388337186076E-002
  -1.4865333080233370E-002   3.9879461656778803E-003   5.9678435037586020E-002
  -2.2879825397644073E-002   6.6849379202642556E-003   5.6103654060455754E-002
  -2.1655877021799264E-002   6.2449336626962393E-003   5.5840697888918933E-002
  -2.0431928645954431E-002   5.7995019186564273E-003   5.5765789456275472E-002
  -1.9207980270109608E-002   5.3486426881445316E-003   5.5878928762525683E-002
  -1.7984031894264785E-002   4.8923559711606668E-003   5.6180115807669073E-002
  -2.6774501500073336E-002   7.8517183694918335E-003   5.2656597446786350E-002
  -2.5365633486063240E-002   7.3423368496598751E-003   5.2375073291914119E-002
  -2.3956765472053190E-002   6.8300509109078325E-003   5.2275340674478851E-002
  -2.2547897458043118E-002   6.3148605532358393E-003   5.2357399594480693E-002
  -2.1139029444033043E-002   5.7967657766435643E-003   5.2621250051919470E-002
  -3.0680451532413638E-002   9.0184988187195225E-003   4.9138902037076826E-002
  -2.9092920081694756E-002   8.4397400366232889E-003   4.8841332966421125E-002
  -2.7505388630975902E-002   7.8605999031592100E-003   4.8719299231746060E-002
  -2.5917857180257027E-002   7.2810784183267793E-003   4.8772800833051660E-002
  -2.4330325729538166E-002   6.7011755821262398E-003   4.9001837770337731E-002
  -1.1782933001938785E-002   3.0835363601950938E-003   6.3116207741670594E-002
  -1.0803925715907756E-002   2.7550620080542543E-003   6.3006453537458262E-002
  -9.8249184298766952E-003   2.4454537687409739E-003   6.3149682502164739E-002
  -8.8459111438456504E-003   2.1547116422563142E-003   6.3545894635790329E-002
  -7.8669038578145986E-003   1.8828356285992554E-003   6.4195089938335115E-002
  -1.4865333080233370E-002   3.9879461656778803E-003   5.9678435037586020E-002
  -1.3643698314482554E-002   3.5949101559328844E-003   5.9536877389493925E-002
  -1.2422063548731727E-002   3.2127099954729066E-003   5.9627591531922236E-002
  -1.1200428782980908E-002   2.8413456842979329E-003   5.9950577464871049E-002
  -9.9787940172300603E-003   2.4808172224076719E-003   6.0505835188340462E-002
  -1.7984031894264785E-002   4.8923559711606668E-003   5.6180115807669073E-002
  -1.6540481027192751E-002   4.4347583038119864E-003   5.5998724452154147E-002
  -1.5096930160120748E-002   3.9799662222048254E-003   5.6028893508761099E-002
  -1.3653379293048714E-002   3.5279797263397146E-003   5.6270622977489991E-002
  -1.2209828425976739E-002   3.0787988162163660E-003   5.6723912858340803E-002
  -2.1139029444033043E-002   5.7967657766435643E-003   5.2621250051919470E-002
  -1.9494273854038378E-002   5.2746064516907970E-003   5.2391994725438748E-002
  -1.7849518264043726E-002   4.7472224489366957E-003   5.2353588432681522E-002
  -1.6204762674049078E-002   4.2146137683814703E-003   5.2506031173647348E-002
  -1.4560007084054402E-002   3.6767804100248103E-003   5.2849322948336865E-002
  -2.4330325729538166E-002   6.7011755821262398E-003   4.9001837770337731E-002
  -2.2505076795019452E-002   6.1144545995698296E-003   4.8716688209348047E-002
  -2.0679827860500710E-002   5.5144786756685660E-003   4.8601676303683117E-002
  -1.8854578925981962E-002   4.9012478104231982E-003   4.8656802053343051E-002
  -1.7029329991463255E-002   4.2747620038335876E-003   4.8882065458327739E-002
  -7.8669038578145986E-003   1.8828356285992554E-003   6.4195089938335115E-002
  -6.9394595867612596E-003   1.6750582115507284E-003   6.4098738613822981E-002
  -6.0120153157079172E-003   1.5766118748914149E-003   6.4252396260211897E-002
  -5.0845710446545782E-003   1.5874966186213355E-003   6.4656062877502307E-002
  -4.1571267736012357E-003   1.7077124427404833E-003   6.5309738465693878E-002
  -9.9787940172300603E-003   2.4808172224076719E-003   6.0505835188340462E-002
  -8.8009801136255082E-003   2.1817680251729477E-003   6.0401427156354603E-002
  -7.6231662100209267E-003   1.9948415079638904E-003   6.0547749418569913E-002
  -6.4453523064163356E-003   1.9200376707812980E-003   6.0944801974986487E-002
  -5.2675384028117653E-003   1.9573565136241644E-003   6.1592584825604535E-002
  -1.2209828425976739E-002   3.0787988162163660E-003   5.6723912858340803E-002
  -1.0780923566520908E-002   2.6884778387951946E-003   5.6614239718518061E-002
  -9.3520187070651357E-003   2.4130711410367128E-003   5.6756018196196648E-002
  -7.9231138476093498E-003   2.2525787229408199E-003   5.7149248291376527E-002
  -6.4942089881535343E-003   2.2070005845077345E-003   5.7793930004057414E-002
  -1.4560007084054402E-002   3.6767804100248103E-003   5.2849322948336865E-002
  -1.2879289945447459E-002   3.1951876524173722E-003   5.2737176300313708E-002
  -1.1198572806840555E-002   2.8313007741095284E-003   5.2877202593092323E-002
  -9.5178556682335887E-003   2.5851197751006732E-003   5.3269401826671767E-002
  -7.8371385296267040E-003   2.4566446553913046E-003   5.3913774001052253E-002
  -1.7029329991463255E-002   4.2747620038335876E-003   4.8882065458327739E-002
  -1.5096079250405223E-002   3.7018974660396609E-003   4.8770236901741537E-002
  -1.3162828509347163E-002   3.2495304071821218E-003   4.8911302609256579E-002
  -1.1229577768289110E-002   2.9176608272603322E-003   4.9305262580872478E-002
  -9.2963270272310716E-003   2.7062887262749857E-003   4.9952116816589620E-002
  -4.1571267736012357E-003   1.7077124427404833E-003   6.5309738465693878E-002
  -3.6266028709624476E-003   1.9991843054109615E-003   6.4396928185381230E-002
  -3.0960789683236664E-003   2.5238371647946511E-003   6.3602856969061872E-002
  -2.5655550656848835E-003   3.2816710208924404E-003   6.2927524816735692E-002
  -2.0350311630460971E-003   4.2726858737034412E-003   6.2370931728402690E-002
  -5.2675384028117653E-003   1.9573565136241644E-003   6.1592584825604535E-002
  -4.5921275427926803E-003   2.2138474743976788E-003   6.0869364758822486E-002
  -3.9167166827735918E-003   2.7965599910080852E-003   6.0317179542807658E-002
  -3.2413058227544894E-003   3.7054940634540096E-003   5.9936029177560537E-002
  -2.5658949627354183E-003   4.9406496917365761E-003   5.9725913663080554E-002
  -6.4942089881535343E-003   2.2070005845077345E-003   5.7793930004057414E-002
  -5.6216153839800213E-003   2.4285106433852011E-003   5.7353340709928480E-002
  -4.7490217798064763E-003   3.0692828172212971E-003   5.7136082053341114E-002
  -3.8764281756329482E-003   4.1293171060161338E-003   5.7142154034295317E-002
  -3.0038345714594166E-003   5.6086135097694889E-003   5.7371556652790923E-002
  -7.8371385296267040E-003   2.4566446553913046E-003   5.3913774001052253E-002
  -6.7150663945245333E-003   2.6431738123722653E-003   5.3848856038699114E-002
  -5.5929942594223729E-003   3.3420056434343981E-003   5.4059564500661544E-002
  -4.4709221243202082E-003   4.5531401485780915E-003   5.4545899386939919E-002
  -3.3488499892180413E-003   6.2765773278026238E-003   5.5307860697533753E-002
  -9.2963270272310716E-003   2.7062887262749857E-003   4.9952116816589620E-002
  -7.8724805744261467E-003   2.8578369813596627E-003   5.0355910745134902E-002
  -6.4486341216212356E-003   3.6147284696478599E-003   5.1087626884769699E-002
  -5.0247876688163315E-003   4.9769631911397508E-003   5.2147265235494650E-002
  -3.6009412160113996E-003   6.9445411458356476E-003   5.3534825797309282E-002
  -2.0350311630460971E-003   4.2726858737034412E-003   6.2370931728402690E-002
  -2.2852588556116771E-003   5.5762840597424201E-003   5.8339237144259593E-002
  -2.5354865481772640E-003   7.2718679155225341E-003   5.4302546401649776E-002
  -2.7857142407428145E-003   9.3594374410456566E-003   5.0260859500573796E-002
  -3.0359419333084309E-003   1.1838992636310053E-002   4.6214176441030652E-002
  -2.5658949627354183E-003   4.9406496917365761E-003   5.9725913663080554E-002
  -2.8387444282065508E-003   6.5655506186236834E-003   5.6192145011021377E-002
  -3.1115938936776780E-003   8.6437205868845624E-003   5.2618128971617606E-002
  -3.3844433591487958E-003   1.1175159596520157E-002   4.9003865544869851E-002
  -3.6572928246199135E-003   1.4159867647528745E-002   4.5349354730776614E-002
  -3.0038345714594166E-003   5.6086135097694889E-003   5.7371556652790923E-002
  -3.3345570387142281E-003   7.5548171775052797E-003   5.4396997304447969E-002
  -3.6652795059690544E-003   1.0015573258246840E-002   5.1346939339882547E-002
  -3.9960019732239050E-003   1.2990881751994442E-002   4.8221382759094059E-002
  -4.3267244404787165E-003   1.6480742658747882E-002   4.5020327562082962E-002
  -3.3488499892180413E-003   6.2765773278026238E-003   5.5307860697533753E-002
  -3.7726966871348038E-003   8.5440837363865985E-003   5.2953794024539078E-002
  -4.1965433850515094E-003   1.1387425929608994E-002   5.0488977506443510E-002
  -4.6203900829682003E-003   1.4806603907468834E-002   4.7913411143246959E-002
  -5.0442367808850039E-003   1.8801617669966686E-002   4.5227094934949030E-002
  -3.6009412160113996E-003   6.9445411458356476E-003   5.3534825797309282E-002
  -4.1531633734681883E-003   9.5333502952681393E-003   5.1862535171294466E-002
  -4.7053855309249493E-003   1.2759278600971063E-002   5.0044243471300820E-002
  -5.2576076883817380E-003   1.6622326062943539E-002   4.8079950697328094E-002
  -5.8098298458384989E-003   2.1122492681185712E-002   4.5969656849376150E-002
  -5.2900530446266469E-002   1.4625642143990536E-002   4.8302912506061502E-002
  -5.0426336576518294E-002   1.4374031488215977E-002   4.8071903864071674E-002
  -4.7952142706770132E-002   1.4047791692583370E-002   4.8073236260997659E-002
  -4.5477948837021977E-002   1.3646922757092787E-002   4.8306909696839553E-002
  -4.3003754967273808E-002   1.3171424681744204E-002   4.8772924171597398E-002
  -5.9114557971690213E-002   1.7250820755663920E-002   4.4119854430902883E-002
  -5.6392409822394365E-002   1.6640673348246982E-002   4.3687590535239462E-002
  -5.3670261673098518E-002   1.6041725840283030E-002   4.3518894159755461E-002
  -5.0948113523802685E-002   1.5453978231772279E-002   4.3613765304450866E-002
  -4.8225965374506838E-002   1.4877430522714674E-002   4.3972203969325802E-002
  -6.5513739371216989E-002   1.9875999367337305E-002   3.9535345084446463E-002
  -6.2512410461109807E-002   1.8907315208277958E-002   3.8987654974420416E-002
  -5.9511081551002765E-002   1.8035659987982768E-002   3.8734758865837417E-002
  -5.6509752640895639E-002   1.7261033706451878E-002   3.8776656758697570E-002
  -5.3508423730788526E-002   1.6583436363685228E-002   3.9113348653000618E-002
  -7.2098074644846716E-002   2.2501177979010675E-002   3.4549384466691979E-002
  -6.8786338492664828E-002   2.1173957068308949E-002   3.3972097181614591E-002
  -6.5474602340482857E-002   2.0029594135682453E-002   3.3720830379243720E-002
  -6.2162866188300900E-002   1.9068089181131426E-002   3.3795584059579539E-002
  -5.8851130036119005E-002   1.8289442204655712E-002   3.4196358222622042E-002
  -7.8867563792579476E-002   2.5126356590684074E-002   2.9161972577639694E-002
  -7.5214193917059108E-002   2.3440598928339995E-002   2.8640917156821988E-002
  -7.1560824041538795E-002   2.2023528283382179E-002   2.8477108699974357E-002
  -6.7907454166018483E-002   2.0875144655811004E-002   2.8670547207097039E-002
  -6.4254084290498115E-002   1.9995448045626252E-002   2.9221232678189879E-002
  -4.3003754967273808E-002   1.3171424681744204E-002   4.8772924171597398E-002
  -4.1770237099828272E-002   1.2661145980887606E-002   4.8682968432086637E-002
  -4.0536719232382758E-002   1.2155935168872145E-002   4.8711472225855673E-002
  -3.9303201364937257E-002   1.1655792245698543E-002   4.8858435552904478E-002
  -3.8069683497491708E-002   1.1160717211366189E-002   4.9123858413233024E-002
  -4.8225965374506838E-002   1.4877430522714674E-002   4.3972203969325802E-002
  -4.6867979431655639E-002   1.4308469030358067E-002   4.3832529034287415E-002
  -4.5509993488804405E-002   1.3743480071950170E-002   4.3823330716780726E-002
  -4.4152007545953220E-002   1.3182463647491295E-002   4.3944609016805546E-002
  -4.2794021603101980E-002   1.2625419756981060E-002   4.4196363934362104E-002
  -5.3508423730788526E-002   1.6583436363685228E-002   3.9113348653000618E-002
  -5.2013952628279791E-002   1.5955792079828765E-002   3.8922859167541929E-002
  -5.0519481525771036E-002   1.5331024975028362E-002   3.8874863383866809E-002
  -4.9025010423262273E-002   1.4709135049284158E-002   3.8969361301975196E-002
  -4.7530539320753552E-002   1.4090122302596014E-002   3.9206352921866985E-002
  -5.8851130036119005E-002   1.8289442204655712E-002   3.4196358222622042E-002
  -5.7208156689700820E-002   1.7603115129299456E-002   3.3953958831850435E-002
  -5.5565183343282656E-002   1.6918569878106471E-002   3.3866070227114055E-002
  -5.3922209996864492E-002   1.6235806451077049E-002   3.3932692408413047E-002
  -5.2279236650446294E-002   1.5554824848210871E-002   3.4153825375747390E-002
  -6.4254084290498115E-002   1.9995448045626252E-002   2.9221232678189879E-002
  -6.2450591615918649E-002   1.9250438178769952E-002   2.8925828027212552E-002
  -6.0647098941339225E-002   1.8506114781184607E-002   2.8796951246522290E-002
  -5.8843606266759794E-002   1.7762477852869753E-002   2.8834602336119383E-002
  -5.7040113592180336E-002   1.7019527393825784E-002   2.9038781296003624E-002
  -3.8069683497491708E-002   1.1160717211366189E-002   4.9123858413233024E-002
  -3.6222375506222204E-002   1.0657422744392187E-002   4.8825121330833832E-002
  -3.4375067514952673E-002   1.0132621523293014E-002   4.8728049574008059E-002
  -3.2527759523683149E-002   9.5863135480687527E-003   4.8832643142755719E-002
  -3.0680451532413638E-002   9.0184988187195225E-003   4.9138902037076826E-002
  -4.2794021603101980E-002   1.2625419756981060E-002   4.4196363934362104E-002
  -4.0745600491047577E-002   1.2063013992704735E-002   4.3866793517329944E-002
  -3.8697179378993155E-002   1.1485911946946925E-002   4.3737784016294079E-002
  -3.6648758266938745E-002   1.0894113619708184E-002   4.3809335431254676E-002
  -3.4600337154884322E-002   1.0287619010988069E-002   4.4081447762211456E-002
  -4.7530539320753552E-002   1.4090122302596014E-002   3.9206352921866985E-002
  -4.5282109497491341E-002   1.3468605241017173E-002   3.8852759642845652E-002
  -4.3033679674229108E-002   1.2839202370601009E-002   3.8698622870243692E-002
  -4.0785249850966925E-002   1.2201913691347618E-002   3.8743942604060971E-002
  -3.8536820027704664E-002   1.1556739203256672E-002   3.8988718844297360E-002
  -5.2279236650446294E-002   1.5554824848210871E-002   3.4153825375747390E-002
  -4.9831902525553404E-002   1.4874196489329750E-002   3.3783019707380887E-002
  -4.7384568400660479E-002   1.4192492794254951E-002   3.3610566135856564E-002
  -4.4937234275767596E-002   1.3509713762986996E-002   3.3636464661174398E-002
  -4.2489900150874664E-002   1.2825859395525246E-002   3.3860715283334196E-002
  -5.7040113592180336E-002   1.7019527393825784E-002   2.9038781296003624E-002
  -5.4394979575233843E-002   1.6279787737642104E-002   2.8657573710935802E-002
  -5.1749845558287322E-002   1.5545783217909032E-002   2.8473613813132986E-002
  -4.9104711541340815E-002   1.4817513834626379E-002   2.8486901602595205E-002
  -4.6459577524394308E-002   1.4094979587793877E-002   2.8697437079322430E-002
  -3.0680451532413638E-002   9.0184988187195225E-003   4.9138902037076826E-002
  -2.9092920081694756E-002   8.4397400366232889E-003   4.8841332966421125E-002
  -2.7505388630975902E-002   7.8605999031592100E-003   4.8719299231746060E-002
  -2.5917857180257027E-002   7.2810784183267793E-003   4.8772800833051660E-002
  -2.4330325729538166E-002   6.7011755821262398E-003   4.9001837770337731E-002
  -3.4600337154884322E-002   1.0287619010988069E-002   4.4081447762211456E-002
  -3.2844039020918508E-002   9.6704681905953049E-003   4.3757014041856501E-002
  -3.1087740886952674E-002   9.0467012283387271E-003   4.3594578352014773E-002
  -2.9331442752986849E-002   8.4163181242178642E-003   4.3594140692686550E-002
  -2.7575144619021011E-002   7.7793188782333544E-003   4.3755701063871610E-002
  -3.8536820027704664E-002   1.1556739203256672E-002   3.8988718844297360E-002
  -3.6625292515959147E-002   1.0901196344567154E-002   3.8631185683747071E-002
  -3.4713765004213609E-002   1.0232802553518147E-002   3.8422113248243114E-002
  -3.2802237492468050E-002   9.5515578301089525E-003   3.8361501537785080E-002
  -3.0890709980722499E-002   8.8574621743402471E-003   3.8449350552373224E-002
  -4.2489900150874664E-002   1.2825859395525246E-002   3.3860715283334196E-002
  -4.0436680566816617E-002   1.2131924498539143E-002   3.3463847892093154E-002
  -3.8383460982758633E-002   1.1418903878697394E-002   3.3201903920430959E-002
  -3.6330241398700620E-002   1.0686797536000039E-002   3.3074883368347525E-002
  -3.4277021814642657E-002   9.9356054704471397E-003   3.3082786235842945E-002
  -4.6459577524394308E-002   1.4094979587793877E-002   2.8697437079322430E-002
  -4.4278203173491071E-002   1.3362652652510909E-002   2.8255000666894625E-002
  -4.2096828822587848E-002   1.2605005203876821E-002   2.7933950368578292E-002
  -3.9915454471684590E-002   1.1822037241891115E-002   2.7734286184373722E-002
  -3.7734080120781388E-002   1.1013748766554143E-002   2.7656008114280595E-002
  -2.4330325729538166E-002   6.7011755821262398E-003   4.9001837770337731E-002
  -2.2505076795019452E-002   6.1144545995698296E-003   4.8716688209348047E-002
  -2.0679827860500710E-002   5.5144786756685660E-003   4.8601676303683117E-002
  -1.8854578925981962E-002   4.9012478104231982E-003   4.8656802053343051E-002
  -1.7029329991463255E-002   4.2747620038335876E-003   4.8882065458327739E-002
  -2.7575144619021011E-002   7.7793188782333544E-003   4.3755701063871610E-002
  -2.5584721779247324E-002   7.1385939667736320E-003   4.3387796215378249E-002
  -2.3594298939473672E-002   6.4970338662280469E-003   4.3180101522070136E-002
  -2.1603876099699992E-002   5.8546385765964673E-003   4.3132616983947020E-002
  -1.9613453259926278E-002   5.2114080978790112E-003   4.3245342601009096E-002
  -3.0890709980722499E-002   8.8574621743402471E-003   3.8449350552373224E-002
  -2.8745040735833532E-002   8.1627333339778230E-003   3.8011110168634676E-002
  -2.6599371490944563E-002   7.4795890567875278E-003   3.7723152439941565E-002
  -2.4453702246055566E-002   6.8080293427697364E-003   3.7585477366293973E-002
  -2.2308033001166641E-002   6.1480541919243792E-003   3.7598084947691790E-002
  -3.4277021814642657E-002   9.9356054704471397E-003   3.3082786235842945E-002
  -3.1986033664778014E-002   9.1868727011817086E-003   3.2586630069117425E-002
  -2.9695045514913452E-002   8.4621442473470643E-003   3.2230829057297856E-002
  -2.7404057365048879E-002   7.7614201089430609E-003   3.2015383200384058E-002
  -2.5113069215184303E-002   7.0847002859696084E-003   3.1940292498375933E-002
  -3.7734080120781388E-002   1.1013748766554143E-002   2.7656008114280595E-002
  -3.5307700566080846E-002   1.0211012068385927E-002   2.7114355916826538E-002
  -3.2881321011380304E-002   9.4446994379063787E-003   2.6703131374138600E-002
  -3.0454941456679749E-002   8.7148108751161912E-003   2.6422334486216670E-002
  -2.8028561901979249E-002   8.0213463800152818E-003   2.6271965253061302E-002
  -1.7029329991463255E-002   4.2747620038335876E-003   4.8882065458327739E-002
  -1.5096079250405223E-002   3.7018974660396609E-003   4.8770236901741537E-002
  -1.3162828509347163E-002   3.2495304071821218E-003   4.8911302609256579E-002
  -1.1229577768289110E-002   2.9176608272603322E-003   4.9305262580872478E-002
  -9.2963270272310716E-003   2.7062887262749857E-003   4.9952116816589620E-002
  -1.9613453259926278E-002   5.2114080978790112E-003   4.3245342601009096E-002
  -1.7465316841265482E-002   4.6050551914529336E-003   4.3082592891450000E-002
  -1.5317180422604625E-002   4.0732926186964613E-003   4.3096720272995603E-002
  -1.3169044003943833E-002   3.6161203796095318E-003   4.3287724745645600E-002
  -1.1020907585282971E-002   3.2335384741914996E-003   4.3655606309399797E-002
  -2.2308033001166641E-002   6.1480541919243792E-003   3.7598084947691790E-002
  -2.0021028077899662E-002   5.5082129168663174E-003   3.7338506939893101E-002
  -1.7734023154632631E-002   4.8970548302110228E-003   3.7179788850202400E-002
  -1.5447018231365668E-002   4.3145799319582873E-003   3.7121930678619533E-002
  -1.3160013308098677E-002   3.7607882221082356E-003   3.7164932425144431E-002
  -2.5113069215184303E-002   7.0847002859696084E-003   3.1940292498375933E-002
  -2.2763212960307706E-002   6.4113706422797567E-003   3.1537979047070862E-002
  -2.0413356705431138E-002   5.7208170417255289E-003   3.1160508340876983E-002
  -1.8063500450554569E-002   5.0130394843074313E-003   3.0807880379794532E-002
  -1.5713644195677973E-002   4.2880379700248050E-003   3.0480095163823169E-002
  -2.8028561901979249E-002   8.0213463800152818E-003   2.6271965253061302E-002
  -2.5691871488489726E-002   7.3145283676929740E-003   2.5681009212982886E-002
  -2.3355181075000161E-002   6.5445792532400071E-003   2.5038878745019477E-002
  -2.1018490661510632E-002   5.7114990366563187E-003   2.4345573849170521E-002
  -1.8681800248021074E-002   4.8152877179414855E-003   2.3601094525436350E-002
  -9.2963270272310716E-003   2.7062887262749857E-003   4.9952116816589620E-002
  -7.8724805744261467E-003   2.8578369813596627E-003   5.0355910745134902E-002
  -6.4486341216212356E-003   3.6147284696478599E-003   5.1087626884769699E-002
  -5.0247876688163315E-003   4.9769631911397508E-003   5.2147265235494650E-002
  -3.6009412160113996E-003   6.9445411458356476E-003   5.3534825797309282E-002
  -1.1020907585282971E-002   3.2335384741914996E-003   4.3655606309399797E-002
  -9.2510821687465800E-003   3.1629950322052403E-003   4.4240346739021275E-002
  -7.4812567522102164E-003   3.6419381834116304E-003   4.5189122885016031E-002
  -5.7114313356738770E-003   4.6703679278120025E-003   4.6501934747383733E-002
  -3.9416059191374614E-003   6.2482842654050241E-003   4.8178782326124270E-002
  -1.3160013308098677E-002   3.7607882221082356E-003   3.7164932425144431E-002
  -1.1008095422547610E-002   3.4681530830508178E-003   3.7874762715831706E-002
  -8.8561775369965130E-003   3.6691478971759423E-003   3.8984742228175537E-002
  -6.7042596514454138E-003   4.3637726644840287E-003   4.0494870962175460E-002
  -4.5523417658943494E-003   5.5520273849745672E-003   4.2405148917831897E-002
  -1.5713644195677973E-002   4.2880379700248050E-003   3.0480095163823169E-002
  -1.3143520335828969E-002   3.7733111338962844E-003   3.1259158675566043E-002
  -1.0573396475979966E-002   3.6963576109401500E-003   3.2474484914248231E-002
  -8.0032726161310477E-003   4.0571774011559456E-003   3.4126073879869982E-002
  -5.4331487562819629E-003   4.8557705045440269E-003   3.6213925572431437E-002
  -1.8681800248021074E-002   4.8152877179414855E-003   2.3601094525436350E-002
  -1.5657356908590936E-002   4.0784691847420285E-003   2.4393534618223911E-002
  -1.2632913569160770E-002   3.7235673247040801E-003   2.5658350943234154E-002
  -9.6084702297306729E-003   3.7505821378282650E-003   2.7395543500467356E-002
  -6.5840268903004651E-003   4.1595136241134867E-003   2.9605112289923019E-002
  -3.6009412160113996E-003   6.9445411458356476E-003   5.3534825797309282E-002
  -4.1531633734681883E-003   9.5333502952681393E-003   5.1862535171294466E-002
  -4.7053855309249493E-003   1.2759278600971063E-002   5.0044243471300820E-002
  -5.2576076883817380E-003   1.6622326062943539E-002   4.8079950697328094E-002
  -5.8098298458384989E-003   2.1122492681185712E-002   4.5969656849376150E-002
  -3.9416059191374614E-003   6.2482842654050241E-003   4.8178782326124270E-002
  -4.5358087146630394E-003   8.6858821858786239E-003   4.7243938856807999E-002
  -5.1300115101887214E-003   1.2293356678919121E-002   4.6371135185332757E-002
  -5.7242143057142578E-003   1.7070707744526945E-002   4.5560371311698850E-002
  -6.3184171012399259E-003   2.3017935382701360E-002   4.4811647235907026E-002
  -4.5523417658943494E-003   5.5520273849745672E-003   4.2405148917831897E-002
  -4.9804843276681568E-003   7.8384140764886645E-003   4.2740510021510414E-002
  -5.4086268894420197E-003   1.1827434756867386E-002   4.3345951794851081E-002
  -5.8367694512159035E-003   1.7519089426110291E-002   4.4221474237854046E-002
  -6.2649120129897456E-003   2.4913378084217452E-002   4.5367077350518703E-002
  -5.4331487562819629E-003   4.8557705045440269E-003   3.6213925572431437E-002
  -5.4871902124834608E-003   6.9909459670991492E-003   3.8352248665402641E-002
  -5.5412316686849275E-003   1.1361512834815325E-002   4.0968693299856446E-002
  -5.5952731248863664E-003   1.7967471107693665E-002   4.4063259475793148E-002
  -5.6493145810878366E-003   2.6808820785733212E-002   4.7635947193212402E-002
  -6.5840268903004651E-003   4.1595136241134867E-003   2.9605112289923019E-002
  -6.0559263691088994E-003   6.1434778577095228E-003   3.4079154788483890E-002
  -5.5278258479174169E-003   1.0895590912763653E-002   3.9239359700347864E-002
  -4.9997253267259345E-003   1.8415852789277085E-002   4.5085727025515554E-002
  -4.4716248055343133E-003   2.8704263487249193E-002   5.1618256763986015E-002
  -7.8867563792579476E-002   2.5126356590684074E-002   2.9161972577639694E-002
  -7.5214193917059108E-002   2.3440598928339995E-002   2.8640917156821988E-002
  -7.1560824041538795E-002   2.2023528283382179E-002   2.8477108699974357E-002
  -6.7907454166018483E-002   2.0875144655811004E-002   2.8670547207097039E-002
  -6.4254084290498115E-002   1.9995448045626252E-002   2.9221232678189879E-002
  -8.5375797387733710E-002   2.3421449567829822E-002   1.9865350100738421E-002
  -8.1441562467735915E-002   2.3001000057778914E-002   2.0063309313164829E-002
  -7.7507327547738064E-002   2.2487326677295402E-002   2.0465751650576347E-002
  -7.3573092627740214E-002   2.1880429426379810E-002   2.1072677112972449E-002
  -6.9638857707742391E-002   2.1180308305031675E-002   2.1884085700353412E-002
  -9.1176366003628079E-002   2.1716542544975487E-002   1.2014991220039697E-002
  -8.7114029878138155E-002   2.2561401187217750E-002   1.2570054177891699E-002
  -8.3051693752648176E-002   2.2951125071208785E-002   1.3176836421742978E-002
  -7.8989357627158252E-002   2.2885714196948473E-002   1.3835337951593907E-002
  -7.4927021501668328E-002   2.2365168564436988E-002   1.4545558767444081E-002
  -9.6269269640262251E-002   2.0011635522121277E-002   5.6108959355437478E-003
  -9.2231596148265718E-002   2.2121802316656683E-002   6.1611517510022258E-003
  -8.8193922656269061E-002   2.3414923465121949E-002   6.6103630134748664E-003
  -8.4156249164272487E-002   2.3890998967517042E-002   6.9585297229614569E-003
  -8.0118575672275913E-002   2.3550028823842439E-002   7.2056518794619620E-003
 -0.10065450829763667        1.8306728499266955E-002   6.5306424725031231E-004
  -9.6794261278118854E-002   2.1682203446095505E-002   8.3660203249652509E-004
  -9.2934014258600817E-002   2.3878721859035307E-002   7.6633142577145485E-004
  -8.9073767239083002E-002   2.4896283738085924E-002   4.4225242707483098E-004
  -8.5213520219565075E-002   2.4734889083247724E-002  -1.3563496359297877E-004
  -6.4254084290498115E-002   1.9995448045626252E-002   2.9221232678189879E-002
  -6.2450591615918649E-002   1.9250438178769952E-002   2.8925828027212552E-002
  -6.0647098941339225E-002   1.8506114781184607E-002   2.8796951246522290E-002
  -5.8843606266759794E-002   1.7762477852869753E-002   2.8834602336119383E-002
  -5.7040113592180336E-002   1.7019527393825784E-002   2.9038781296003624E-002
  -6.9638857707742391E-002   2.1180308305031675E-002   2.1884085700353412E-002
  -6.7676732478531454E-002   2.0434180394115542E-002   2.1678343737322331E-002
  -6.5714607249320531E-002   1.9689262774495946E-002   2.1623339013267087E-002
  -6.3752482020109552E-002   1.8945555446172782E-002   2.1719071528187549E-002
  -6.1790356790898615E-002   1.8203058409146156E-002   2.1965541282083945E-002
  -7.4927021501668328E-002   2.2365168564436988E-002   1.4545558767444081E-002
  -7.2822054349137272E-002   2.1617922609460952E-002   1.4430003314385119E-002
  -7.0717087196606188E-002   2.0872410767807228E-002   1.4449394468990420E-002
  -6.8612120044075131E-002   2.0128633039475697E-002   1.4603732231260325E-002
  -6.6507152891544047E-002   1.9386589424466444E-002   1.4893016601194603E-002
  -8.0118575672275913E-002   2.3550028823842439E-002   7.2056518794619620E-003
  -7.7886557227736089E-002   2.2801664824806202E-002   7.1808067584008557E-003
  -7.5654538783196279E-002   2.2055558761118206E-002   7.2751176136927782E-003
  -7.3422520338656469E-002   2.1311710632778612E-002   7.4885844453376985E-003
  -7.1190501894116659E-002   2.0570120439786829E-002   7.8212072533356235E-003
  -8.5213520219565075E-002   2.4734889083247724E-002  -1.3563496359297877E-004
  -8.2870241114327947E-002   2.3985407040151840E-002  -6.9245930630235097E-005
  -8.0526962009090763E-002   2.3238706754429905E-002   1.0050844737381770E-004
  -7.8183682903853607E-002   2.2494788226081516E-002   3.7362817041943289E-004
  -7.5840403798616451E-002   2.1753651455107215E-002   7.5011323850682210E-004
  -5.7040113592180336E-002   1.7019527393825784E-002   2.9038781296003624E-002
  -5.4394979575233843E-002   1.6279787737642104E-002   2.8657573710935802E-002
  -5.1749845558287322E-002   1.5545783217909032E-002   2.8473613813132986E-002
  -4.9104711541340815E-002   1.4817513834626379E-002   2.8486901602595205E-002
  -4.6459577524394308E-002   1.4094979587793877E-002   2.8697437079322430E-002
  -6.1790356790898615E-002   1.8203058409146156E-002   2.1965541282083945E-002
  -5.8948613017087551E-002   1.7456245642660656E-002   2.1615089557806527E-002
  -5.6106869243276569E-002   1.6699591125961227E-002   2.1460609659992996E-002
  -5.3265125469465532E-002   1.5933094859047515E-002   2.1502101588643532E-002
  -5.0423381695654537E-002   1.5156756841919861E-002   2.1739565343757927E-002
  -6.6507152891544047E-002   1.9386589424466444E-002   1.4893016601194603E-002
  -6.3470075221669559E-002   1.8632703547679180E-002   1.4557743851043053E-002
  -6.0432997551795153E-002   1.7853399034013354E-002   1.4417167066554437E-002
  -5.7395919881920741E-002   1.7048675883468759E-002   1.4471286247728719E-002
  -5.4358842212046309E-002   1.6218534096045706E-002   1.4720101394565768E-002
  -7.1190501894116659E-002   2.0570120439786829E-002   7.8212072533356235E-003
  -6.7959366188979908E-002   1.9809161452697663E-002   7.4855365906453530E-003
  -6.4728230483843158E-002   1.9007206942065570E-002   7.3432860328172637E-003
  -6.1497094778706421E-002   1.8164256907890280E-002   7.3944555798505143E-003
  -5.8265959073569656E-002   1.7280311350171676E-002   7.6390452317457967E-003
  -7.5840403798616451E-002   2.1753651455107215E-002   7.5011323850682210E-004
  -7.2416485919018447E-002   2.0985619357716145E-002   3.9846777661356469E-004
  -6.8992568039420499E-002   2.0161014850117565E-002   2.3896655878163919E-004
  -6.5568650159822550E-002   1.9279837932311222E-002   2.7160958500963006E-004
  -6.2144732280224546E-002   1.8342088604297646E-002   4.9639685529867528E-004
  -4.6459577524394308E-002   1.4094979587793877E-002   2.8697437079322430E-002
  -4.4278203173491071E-002   1.3362652652510909E-002   2.8255000666894625E-002
  -4.2096828822587848E-002   1.2605005203876821E-002   2.7933950368578292E-002
  -3.9915454471684590E-002   1.1822037241891115E-002   2.7734286184373722E-002
  -3.7734080120781388E-002   1.1013748766554143E-002   2.7656008114280595E-002
  -5.0423381695654537E-002   1.5156756841919861E-002   2.1739565343757927E-002
  -4.8112783306288362E-002   1.4376986399483788E-002   2.1322138703672860E-002
  -4.5802184916922208E-002   1.3600192856645127E-002   2.1041774026401866E-002
  -4.3491586527556109E-002   1.2826376213404038E-002   2.0898471311945235E-002
  -4.1180988138189878E-002   1.2055536469760209E-002   2.0892230560302816E-002
  -5.4358842212046309E-002   1.6218534096045706E-002   1.4720101394565768E-002
  -5.1903343935514636E-002   1.5391320146456555E-002   1.4355981939772222E-002
  -4.9447845658982914E-002   1.4595380509413648E-002   1.4144600296495620E-002
  -4.6992347382451269E-002   1.3830715184916959E-002   1.4085956464735736E-002
  -4.4536849105919568E-002   1.3097324172966551E-002   1.4180050444492748E-002
  -5.8265959073569656E-002   1.7280311350171676E-002   7.6390452317457967E-003
  -5.5649885061169781E-002   1.6405653893429323E-002   7.3565303751928386E-003
  -5.3033811048769919E-002   1.5590568162181729E-002   7.2424291788593057E-003
  -5.0417737036370085E-002   1.4835054156429769E-002   7.2967416427451070E-003
  -4.7801663023970188E-002   1.4139111876172755E-002   7.5194677668505572E-003
  -6.2144732280224546E-002   1.8342088604297646E-002   4.9639685529867528E-004
  -5.9352406683253922E-002   1.7419987640402423E-002   3.2378400993487988E-004
  -5.6560081086283243E-002   1.6585755814950393E-002   3.3526067349293198E-004
  -5.3767755489312619E-002   1.5839393127942726E-002   5.3082684597331731E-004
  -5.0975429892341939E-002   1.5180899579379181E-002   9.1048252737602198E-004
  -3.7734080120781388E-002   1.1013748766554143E-002   2.7656008114280595E-002
  -3.5307700566080846E-002   1.0211012068385927E-002   2.7114355916826538E-002
  -3.2881321011380304E-002   9.4446994379063787E-003   2.6703131374138600E-002
  -3.0454941456679749E-002   8.7148108751161912E-003   2.6422334486216670E-002
  -2.8028561901979249E-002   8.0213463800152818E-003   2.6271965253061302E-002
  -4.1180988138189878E-002   1.2055536469760209E-002   2.0892230560302816E-002
  -3.8634299183923082E-002   1.1288769828477652E-002   2.0452303843735087E-002
  -3.6087610229656300E-002   1.0527172492320352E-002   2.0122568271533581E-002
  -3.3540921275389518E-002   9.7707444612881375E-003   1.9903023843698839E-002
  -3.0994232321122722E-002   9.0194857353815827E-003   1.9793670560230403E-002
  -4.4536849105919568E-002   1.3097324172966551E-002   1.4180050444492748E-002
  -4.1890087262486088E-002   1.2366527588569654E-002   1.3810594446247298E-002
  -3.9243325419052608E-002   1.1609645546734437E-002   1.3531093081968773E-002
  -3.6596563575619100E-002   1.0826678047460361E-002   1.3341546351657005E-002
  -3.3949801732185640E-002   1.0017625090747606E-002   1.3241954255312244E-002
  -4.7801663023970188E-002   1.4139111876172755E-002   7.5194677668505572E-003
  -4.5075064801769697E-002   1.3444285348661794E-002   7.1892277243635130E-003
  -4.2348466579569213E-002   1.2692118601148356E-002   6.9287058054437120E-003
  -3.9621868357368716E-002   1.1882611633632446E-002   6.7379020100914178E-003
  -3.6895270135168232E-002   1.1015764446113546E-002   6.6168163383059503E-003
  -5.0975429892341939E-002   1.5180899579379181E-002   9.1048252737602198E-004
  -4.8189231801774035E-002   1.4522043108753380E-002   5.8820367808354312E-004
  -4.5403033711206131E-002   1.3774591655562551E-002   3.1540644195893197E-004
  -4.2616835620638255E-002   1.2938545219804434E-002   9.2090819001883206E-005
  -3.9830637530070323E-002   1.2013903801480152E-002  -8.1743190787686437E-005
  -2.8028561901979249E-002   8.0213463800152818E-003   2.6271965253061302E-002
  -2.5691871488489726E-002   7.3145283676929740E-003   2.5681009212982886E-002
  -2.3355181075000161E-002   6.5445792532400071E-003   2.5038878745019477E-002
  -2.1018490661510632E-002   5.7114990366563187E-003   2.4345573849170521E-002
  -1.8681800248021074E-002   4.8152877179414855E-003   2.3601094525436350E-002
  -3.0994232321122722E-002   9.0194857353815827E-003   1.9793670560230403E-002
  -2.8691955276770459E-002   8.2697783214654152E-003   1.9196977695343842E-002
  -2.6389678232418251E-002   7.5180042264063607E-003   1.8582632520067782E-002
  -2.4087401188065904E-002   6.7641634502045300E-003   1.7950635034402529E-002
  -2.1785124143713835E-002   6.0082559928593682E-003   1.7300985238347999E-002
  -3.3949801732185640E-002   1.0017625090747606E-002   1.3241954255312244E-002
  -3.1648415939474629E-002   9.2250282752376345E-003   1.2700588986604755E-002
  -2.9347030146763684E-002   8.4914291995732832E-003   1.2175093525004163E-002
  -2.7045644354052732E-002   7.8168278637527448E-003   1.1665467870510295E-002
  -2.4744258561341728E-002   7.2012242677774729E-003   1.1171712023123143E-002
  -3.6895270135168232E-002   1.1015764446113546E-002   6.6168163383059503E-003
  -3.4561253476602438E-002   1.0180278229010631E-002   6.1918430867657012E-003
  -3.2227236818036721E-002   9.4648541727391441E-003   5.8162617598282000E-003
  -2.9893220159470948E-002   8.8694922773011799E-003   5.4900723574939549E-003
  -2.7559203500905214E-002   8.3941925426955777E-003   5.2132748797619893E-003
  -3.9830637530070323E-002   1.2013903801480152E-002  -8.1743190787686437E-005
  -3.7430467888153740E-002   1.1135528182782739E-002  -3.2926000417304868E-004
  -3.5030298246237213E-002   1.0438279145906337E-002  -4.9386277545915291E-004
  -3.2630128604320602E-002   9.9221566908491154E-003  -5.7555150464677629E-004
  -3.0229958962404102E-002   9.5871608176136824E-003  -5.7432619173525268E-004
  -1.8681800248021074E-002   4.8152877179414855E-003   2.3601094525436350E-002
  -1.5657356908590936E-002   4.0784691847420285E-003   2.4393534618223911E-002
  -1.2632913569160770E-002   3.7235673247040801E-003   2.5658350943234154E-002
  -9.6084702297306729E-003   3.7505821378282650E-003   2.7395543500467356E-002
  -6.5840268903004651E-003   4.1595136241134867E-003   2.9605112289923019E-002
  -2.1785124143713835E-002   6.0082559928593682E-003   1.7300985238347999E-002
  -1.8557102623367211E-002   5.3427014090361991E-003   1.8251161308567687E-002
  -1.5329081103020725E-002   4.8599192533992364E-003   1.9136117508397193E-002
  -1.2101059582674233E-002   4.5599095259488409E-003   1.9955853837836726E-002
  -8.8730380623276150E-003   4.4426722266843743E-003   2.0710370296886049E-002
  -2.4744258561341728E-002   7.2012242677774729E-003   1.1171712023123143E-002
  -2.1850254962691773E-002   6.6069336333304529E-003   1.2080479825799850E-002
  -1.8956251364041790E-002   5.9962711820941428E-003   1.2386431655473401E-002
  -1.6062247765391880E-002   5.3692369140694099E-003   1.2089567512144253E-002
  -1.3168244166741852E-002   4.7258308292557061E-003   1.1189887395811893E-002
  -2.7559203500905214E-002   8.3941925426955777E-003   5.2132748797619893E-003
  -2.5536813926564608E-002   7.8711658576246651E-003   5.8814901699205530E-003
  -2.3514424352224055E-002   7.1326231107888410E-003   5.4092933844629085E-003
  -2.1492034777883407E-002   6.1785643021900934E-003   3.7966845233899232E-003
  -1.9469645203542899E-002   5.0089894318264827E-003   1.0436635867008409E-003
  -3.0229958962404102E-002   9.5871608176136824E-003  -5.7432619173525268E-004
  -2.9616779514985758E-002   9.1353980819185443E-003  -3.4580765907038513E-004
  -2.9003600067567359E-002   8.2689750394842609E-003  -1.7952973046340415E-003
  -2.8390420620149043E-002   6.9878916903107352E-003  -4.9227951284267560E-003
  -2.7777241172730616E-002   5.2921480343977034E-003  -9.7283011304477585E-003
  -6.5840268903004651E-003   4.1595136241134867E-003   2.9605112289923019E-002
  -6.0559263691088994E-003   6.1434778577095228E-003   3.4079154788483890E-002
  -5.5278258479174169E-003   1.0895590912763653E-002   3.9239359700347864E-002
  -4.9997253267259345E-003   1.8415852789277085E-002   4.5085727025515554E-002
  -4.4716248055343133E-003   2.8704263487249193E-002   5.1618256763986015E-002
  -8.8730380623276150E-003   4.4426722266843743E-003   2.0710370296886049E-002
  -7.5867582330198385E-003   5.6587599740734462E-003   2.5876248001162450E-002
  -6.3004784037119926E-003   9.3587253865817788E-003   3.1872321908367918E-002
  -5.0141985744040773E-003   1.5542568464209677E-002   3.8698592018502759E-002
  -3.7279187450962592E-003   2.4210289206957114E-002   4.6355058331567722E-002
  -1.3168244166741852E-002   4.7258308292557061E-003   1.1189887395811893E-002
  -1.0979751239691499E-002   5.1740420904377582E-003   1.6763329149464268E-002
  -8.7912583126411939E-003   7.8218598603995992E-003   2.3311000895672201E-002
  -6.6027653855907920E-003   1.2669284139142055E-002   3.0832902634435652E-002
  -4.4142724585405357E-003   1.9716314926664591E-002   3.9329034365754745E-002
  -1.9469645203542899E-002   5.0089894318264827E-003   1.0436635867008409E-003
  -1.6234905389123883E-002   4.6893242068016538E-003   6.7403982333898438E-003
  -1.3000165574705007E-002   6.2849943342176834E-003   1.3555396662260660E-002
  -9.7654257602860922E-003   9.7959998140748732E-003   2.1488658873313259E-002
  -6.5306859458671151E-003   1.5222340646372179E-002   3.0540184866546610E-002
  -2.7777241172730616E-002   5.2921480343977034E-003  -9.7283011304477585E-003
  -2.3352220681317037E-002   4.2046063231659936E-003  -4.1925447470610444E-003
  -1.8927200189903459E-002   4.7481288080353790E-003   2.6055092081328779E-003
  -1.4502179698489936E-002   6.9227154890072057E-003   1.0665860735135070E-002
  -1.0077159207076303E-002   1.0728366366079989E-002   1.9988509833944512E-002
 </DataArray>
 </PointData>
 </Piece>
 </UnstructuredGrid>
 </VTKFile>
